16

N -0.82744 -1.64795 0.01218
H -0.75969 -2.66048 0.02186
C 0.41048 -0.97136 -0.02949
O 1.44955 -1.62936 -0.04986
N 0.34873 0.40694 -0.03761
C -0.82157 1.02128 -0.01124
N -0.80714 2.38119 -0.07943
C -2.08371 0.3385 0.02876
H -3.02855 0.8681 0.03806
C -2.0316 -1.01952 0.0414
H -2.91305 -1.65252 0.0709
H 0.09432 2.82414 0.05295
H -1.61843 2.90322 0.22015
O 2.9760664615384615 0.6928271794871794 0.06272397435897435
H 2.9351564615384618 -0.2767528205128205 0.037373974358974354
H 2.0282064615384616 0.9027671794871794 3.974358974359257e-06
