
    -----------------------------------------------------------------------
          Psi4: An Open-Source Ab Initio Electronic Structure Package
                               Psi4 1.5 release

                         Git: Rev {HEAD} e9f4d6d 


    D. G. A. Smith, L. A. Burns, A. C. Simmonett, R. M. Parrish,
    M. C. Schieber, R. Galvelis, P. Kraus, H. Kruse, R. Di Remigio,
    A. Alenaizan, A. M. James, S. Lehtola, J. P. Misiewicz, M. Scheurer,
    R. A. Shaw, J. B. Schriber, Y. Xie, Z. L. Glick, D. A. Sirianni,
    J. S. O'Brien, J. M. Waldrop, A. Kumar, E. G. Hohenstein,
    B. P. Pritchard, B. R. Brooks, H. F. Schaefer III, A. Yu. Sokolov,
    K. Patkowski, A. E. DePrince III, U. Bozkaya, R. A. King,
    F. A. Evangelista, J. M. Turney, T. D. Crawford, C. D. Sherrill,
    J. Chem. Phys. 152(18) 184108 (2020). https://doi.org/10.1063/5.0006002

                            Additional Code Authors
    E. T. Seidl, C. L. Janssen, E. F. Valeev, M. L. Leininger,
    J. F. Gonthier, R. M. Richard, H. R. McAlexander, M. Saitow, X. Wang,
    P. Verma, M. H. Lechner, and A. Jiang

             Previous Authors, Complete List of Code Contributors,
                       and Citations for Specific Modules
    https://github.com/psi4/psi4/blob/master/codemeta.json
    https://github.com/psi4/psi4/graphs/contributors
    http://psicode.org/psi4manual/master/introduction.html#citing-psifour

    -----------------------------------------------------------------------


    Psi4 started on: Thursday, 15 February 2024 05:01PM

    Process ID: 748893
    Host:       node108.bme.utexas.edu
    PSIDATADIR: /opt/anaconda/envs/psi4v1.5/share/psi4
    Memory:     500.0 MiB
    Threads:    8
    
  ==> Input File <==

--------------------------------------------------------------------------
memory 30GB

molecule {
0 1
O 1.3213 -1.39006 -0.86453
H 1.97508 -0.65871 -0.80693
C 0.78631 -1.56141 0.43741
C -0.32765 -0.57601 0.74936
O 0.2397 0.75072 0.93041
C -0.52877 1.68398 0.14079
H 0.12886 2.52252 -0.10067
H -1.38601 2.04175 0.72222
C -1.35482 -0.45245 -0.37908
C -0.97227 0.86036 -1.05543
H -1.80403 1.30463 -1.61216
O -2.63736 -0.36434 0.25545
H 1.56344 -1.48247 1.21167
H 0.37298 -2.57498 0.48698
H -0.84385 -0.86207 1.67543
H -1.30815 -1.30993 -1.06117
H -0.12996 0.69197 -1.73154
H -3.30319 -0.29358 -0.45095
--
0 1
O 2.78093 0.89458 -0.14429
H 1.97056 0.97648 0.40716
H 3.51094 0.79035 0.48531
 units angstrom
 no_reorient
 symmetry c1}
set  {scf_type DF
 basis aug-cc-pvtz
 freeze_core True
 guess SAD}
energy('sapt2+(3)dmp2')
--------------------------------------------------------------------------

  Memory set to  27.940 GiB by Python driver.

Scratch directory: /tmp/
   => Loading Basis Set <=

    Name: AUG-CC-PVTZ
    Role: ORBITAL
    Keyword: BASIS
    atoms 1, 5, 12, 19             entry O          line   331 file /opt/anaconda/envs/psi4v1.5/share/psi4/basis/aug-cc-pvtz.gbs 
    atoms 2, 7-8, 11, 13-18, 20-21 entry H          line    40 file /opt/anaconda/envs/psi4v1.5/share/psi4/basis/aug-cc-pvtz.gbs 
    atoms 3-4, 6, 9-10             entry C          line   239 file /opt/anaconda/envs/psi4v1.5/share/psi4/basis/aug-cc-pvtz.gbs 

   => Loading Basis Set <=

    Name: AUG-CC-PVTZ
    Role: ORBITAL
    Keyword: BASIS
    atoms 1, 5, 12, 19             entry O          line   331 file /opt/anaconda/envs/psi4v1.5/share/psi4/basis/aug-cc-pvtz.gbs 
    atoms 2, 7-8, 11, 13-18, 20-21 entry H          line    40 file /opt/anaconda/envs/psi4v1.5/share/psi4/basis/aug-cc-pvtz.gbs 
    atoms 3-4, 6, 9-10             entry C          line   239 file /opt/anaconda/envs/psi4v1.5/share/psi4/basis/aug-cc-pvtz.gbs 


  //>>>>>>>>>>>>>>>>>>>>>>>>>>>>>>>>>>>//
  //              Dimer HF             //
  //<<<<<<<<<<<<<<<<<<<<<<<<<<<<<<<<<<<//


*** tstart() called on node108.bme.utexas.edu
*** at Thu Feb 15 17:01:05 2024

   => Loading Basis Set <=

    Name: AUG-CC-PVTZ
    Role: ORBITAL
    Keyword: BASIS
    atoms 1, 5, 12, 19             entry O          line   331 file /opt/anaconda/envs/psi4v1.5/share/psi4/basis/aug-cc-pvtz.gbs 
    atoms 2, 7-8, 11, 13-18, 20-21 entry H          line    40 file /opt/anaconda/envs/psi4v1.5/share/psi4/basis/aug-cc-pvtz.gbs 
    atoms 3-4, 6, 9-10             entry C          line   239 file /opt/anaconda/envs/psi4v1.5/share/psi4/basis/aug-cc-pvtz.gbs 


         ---------------------------------------------------------
                                   SCF
               by Justin Turney, Rob Parrish, Andy Simmonett
                          and Daniel G. A. Smith
                              RHF Reference
                        8 Threads,  28610 MiB Core
         ---------------------------------------------------------

  ==> Geometry <==

    Molecular point group: c1
    Full point group: C1

    Geometry (in Angstrom), charge = 0, multiplicity = 1:

       Center              X                  Y                   Z               Mass       
    ------------   -----------------  -----------------  -----------------  -----------------
         O            1.326807577492    -1.381708061383    -0.870171272481    15.994914619570
         H            1.980587577492    -0.650358061383    -0.812571272481     1.007825032230
         C            0.791817577492    -1.553058061383     0.431768727519    12.000000000000
         C           -0.322142422508    -0.567658061383     0.743718727519    12.000000000000
         O            0.245207577492     0.759071938617     0.924768727519    15.994914619570
         C           -0.523262422508     1.692331938617     0.135148727519    12.000000000000
         H            0.134367577492     2.530871938617    -0.106311272481     1.007825032230
         H           -1.380502422508     2.050101938617     0.716578727519     1.007825032230
         C           -1.349312422508    -0.444098061383    -0.384721272481    12.000000000000
         C           -0.966762422508     0.868711938617    -1.061071272481    12.000000000000
         H           -1.798522422508     1.312981938617    -1.617801272481     1.007825032230
         O           -2.631852422508    -0.355988061383     0.249808727519    15.994914619570
         H            1.568947577492    -1.474118061383     1.206028727519     1.007825032230
         H            0.378487577492    -2.566628061383     0.481338727519     1.007825032230
         H           -0.838342422508    -0.853718061383     1.669788727519     1.007825032230
         H           -1.302642422508    -1.301578061383    -1.066811272481     1.007825032230
         H           -0.124452422508     0.700321938617    -1.737181272481     1.007825032230
         H           -3.297682422508    -0.285228061383    -0.456591272481     1.007825032230
         O            2.786437577492     0.902931938617    -0.149931272481    15.994914619570
         H            1.976067577492     0.984831938617     0.401518727519     1.007825032230
         H            3.516447577492     0.798701938617     0.479668727519     1.007825032230

  Running in c1 symmetry.

  Rotational constants: A =      0.07517  B =      0.04059  C =      0.03300 [cm^-1]
  Rotational constants: A =   2253.64899  B =   1216.87010  C =    989.34117 [MHz]
  Nuclear repulsion =  529.027211788148520

  Charge       = 0
  Multiplicity = 1
  Electrons    = 74
  Nalpha       = 37
  Nbeta        = 37

  ==> Algorithm <==

  SCF Algorithm Type is DF.
  DIIS enabled.
  MOM disabled.
  Fractional occupation disabled.
  Guess Type is SAD.
  Energy threshold   = 1.00e-08
  Density threshold  = 1.00e-08
  Integral threshold = 1.00e-12

  ==> Primary Basis <==

  Basis Set: AUG-CC-PVTZ
    Blend: AUG-CC-PVTZ
    Number of shells: 234
    Number of basis functions: 690
    Number of Cartesian functions: 795
    Spherical Harmonics?: true
    Max angular momentum: 3

   => Loading Basis Set <=

    Name: (AUG-CC-PVTZ AUX)
    Role: JKFIT
    Keyword: DF_BASIS_SCF
    atoms 1, 5, 12, 19             entry O          line   286 file /opt/anaconda/envs/psi4v1.5/share/psi4/basis/aug-cc-pvtz-jkfit.gbs 
    atoms 2, 7-8, 11, 13-18, 20-21 entry H          line    70 file /opt/anaconda/envs/psi4v1.5/share/psi4/basis/aug-cc-pvtz-jkfit.gbs 
    atoms 3-4, 6, 9-10             entry C          line   162 file /opt/anaconda/envs/psi4v1.5/share/psi4/basis/aug-cc-pvtz-jkfit.gbs 

  ==> Integral Setup <==

  ==> DiskDFJK: Density-Fitted J/K Matrices <==

    J tasked:                  Yes
    K tasked:                  Yes
    wK tasked:                  No
    OpenMP threads:              8
    Integrals threads:           8
    Memory [MiB]:            21457
    Algorithm:                Core
    Integral Cache:           SAVE
    Schwarz Cutoff:          1E-12
    Fitting Condition:       1E-10

   => Auxiliary Basis Set <=

  Basis Set: (AUG-CC-PVTZ AUX)
    Blend: AUG-CC-PVTZ-JKFIT
    Number of shells: 438
    Number of basis functions: 1488
    Number of Cartesian functions: 1839
    Spherical Harmonics?: true
    Max angular momentum: 4

  Minimum eigenvalue in the overlap matrix is 1.8337377679E-06.
  Reciprocal condition number of the overlap matrix is 8.1643942421E-08.
    Using symmetric orthogonalization.

  ==> Pre-Iterations <==

  SCF Guess: Superposition of Atomic Densities via on-the-fly atomic UHF (no occupation information).

   -------------------------
    Irrep   Nso     Nmo    
   -------------------------
     A        690     690 
   -------------------------
    Total     690     690
   -------------------------

  ==> Iterations <==

                           Total Energy        Delta E     RMS |[F,P]|

   @DF-RHF iter SAD:  -495.08355797279137   -4.95084e+02   0.00000e+00 
   @DF-RHF iter   1:  -495.62115830042427   -5.37600e-01   1.18049e-03 DIIS
   @DF-RHF iter   2:  -495.87345377328330   -2.52295e-01   6.68632e-04 DIIS
   @DF-RHF iter   3:  -495.94709995789651   -7.36462e-02   1.02331e-04 DIIS
   @DF-RHF iter   4:  -495.95094455003368   -3.84459e-03   2.65238e-05 DIIS
   @DF-RHF iter   5:  -495.95117299841968   -2.28448e-04   8.51549e-06 DIIS
   @DF-RHF iter   6:  -495.95119868353578   -2.56851e-05   2.46719e-06 DIIS
   @DF-RHF iter   7:  -495.95120162970971   -2.94617e-06   8.08945e-07 DIIS
   @DF-RHF iter   8:  -495.95120188548333   -2.55774e-07   2.77202e-07 DIIS
   @DF-RHF iter   9:  -495.95120192015077   -3.46674e-08   7.20382e-08 DIIS
   @DF-RHF iter  10:  -495.95120192231133   -2.16056e-09   2.59403e-08 DIIS
   @DF-RHF iter  11:  -495.95120192256172   -2.50395e-10   6.70860e-09 DIIS
  Energy and wave function converged.


  ==> Post-Iterations <==

    Orbital Energies [Eh]
    ---------------------

    Doubly Occupied:                                                      

       1A    -20.569451     2A    -20.567760     3A    -20.563025  
       4A    -20.541788     5A    -11.287885     6A    -11.282284  
       7A    -11.281621     8A    -11.275086     9A    -11.229371  
      10A     -1.393258    11A     -1.361977    12A     -1.348185  
      13A     -1.338519    14A     -1.056835    15A     -1.030616  
      16A     -0.905073    17A     -0.831450    18A     -0.790411  
      19A     -0.728339    20A     -0.705238    21A     -0.689699  
      22A     -0.674794    23A     -0.663859    24A     -0.634428  
      25A     -0.590251    26A     -0.587845    27A     -0.580823  
      28A     -0.561106    29A     -0.553172    30A     -0.530181  
      31A     -0.517043    32A     -0.501010    33A     -0.489514  
      34A     -0.470916    35A     -0.453974    36A     -0.444676  
      37A     -0.421433  

    Virtual:                                                              

      38A      0.027135    39A      0.031225    40A      0.036395  
      41A      0.040376    42A      0.048513    43A      0.051205  
      44A      0.056703    45A      0.061492    46A      0.063235  
      47A      0.071473    48A      0.080749    49A      0.088619  
      50A      0.104576    51A      0.112857    52A      0.115133  
      53A      0.119033    54A      0.120463    55A      0.122861  
      56A      0.130456    57A      0.134204    58A      0.137132  
      59A      0.138607    60A      0.145592    61A      0.149870  
      62A      0.157255    63A      0.163187    64A      0.166120  
      65A      0.173261    66A      0.175821    67A      0.186738  
      68A      0.191585    69A      0.193281    70A      0.202390  
      71A      0.212069    72A      0.220426    73A      0.225039  
      74A      0.229801    75A      0.241084    76A      0.247015  
      77A      0.253678    78A      0.258855    79A      0.263981  
      80A      0.270332    81A      0.276714    82A      0.282558  
      83A      0.288466    84A      0.293712    85A      0.296722  
      86A      0.301722    87A      0.305154    88A      0.307576  
      89A      0.313561    90A      0.316882    91A      0.325346  
      92A      0.330851    93A      0.339318    94A      0.340968  
      95A      0.345958    96A      0.353334    97A      0.358397  
      98A      0.361753    99A      0.365326   100A      0.374020  
     101A      0.376422   102A      0.385775   103A      0.389987  
     104A      0.392907   105A      0.394467   106A      0.406061  
     107A      0.409355   108A      0.415473   109A      0.418770  
     110A      0.426353   111A      0.436451   112A      0.439737  
     113A      0.445586   114A      0.451004   115A      0.455437  
     116A      0.457955   117A      0.463426   118A      0.465091  
     119A      0.470701   120A      0.472429   121A      0.480222  
     122A      0.484824   123A      0.487747   124A      0.491966  
     125A      0.494756   126A      0.506151   127A      0.509672  
     128A      0.511500   129A      0.512565   130A      0.520472  
     131A      0.527648   132A      0.530701   133A      0.534122  
     134A      0.538170   135A      0.543923   136A      0.546192  
     137A      0.551804   138A      0.566731   139A      0.569327  
     140A      0.570055   141A      0.573015   142A      0.577481  
     143A      0.583291   144A      0.587623   145A      0.594109  
     146A      0.603052   147A      0.615290   148A      0.620233  
     149A      0.625463   150A      0.632896   151A      0.636750  
     152A      0.642639   153A      0.647949   154A      0.654081  
     155A      0.661399   156A      0.668183   157A      0.673237  
     158A      0.675016   159A      0.680862   160A      0.687828  
     161A      0.691004   162A      0.698414   163A      0.709271  
     164A      0.716715   165A      0.728771   166A      0.734896  
     167A      0.753899   168A      0.763784   169A      0.773321  
     170A      0.783298   171A      0.794634   172A      0.803125  
     173A      0.806217   174A      0.818238   175A      0.821300  
     176A      0.835006   177A      0.841069   178A      0.857210  
     179A      0.859618   180A      0.863363   181A      0.873762  
     182A      0.881446   183A      0.888171   184A      0.891194  
     185A      0.896056   186A      0.904884   187A      0.917128  
     188A      0.922072   189A      0.926435   190A      0.932446  
     191A      0.945800   192A      0.947608   193A      0.951019  
     194A      0.956921   195A      0.960048   196A      0.966591  
     197A      0.974590   198A      0.984963   199A      0.988174  
     200A      0.990805   201A      1.003756   202A      1.007857  
     203A      1.009533   204A      1.019484   205A      1.025937  
     206A      1.036097   207A      1.040976   208A      1.047820  
     209A      1.048471   210A      1.052638   211A      1.060549  
     212A      1.062776   213A      1.069776   214A      1.079765  
     215A      1.087337   216A      1.091064   217A      1.099558  
     218A      1.103431   219A      1.109244   220A      1.116903  
     221A      1.120703   222A      1.124897   223A      1.131057  
     224A      1.136884   225A      1.144349   226A      1.151333  
     227A      1.157423   228A      1.161746   229A      1.171504  
     230A      1.179423   231A      1.184273   232A      1.189075  
     233A      1.196763   234A      1.204136   235A      1.215010  
     236A      1.221468   237A      1.226961   238A      1.231082  
     239A      1.240049   240A      1.246332   241A      1.252168  
     242A      1.256667   243A      1.260553   244A      1.278250  
     245A      1.289859   246A      1.297102   247A      1.297180  
     248A      1.299389   249A      1.308239   250A      1.324148  
     251A      1.326962   252A      1.339108   253A      1.349941  
     254A      1.359773   255A      1.361419   256A      1.370317  
     257A      1.376305   258A      1.381126   259A      1.388058  
     260A      1.399653   261A      1.408903   262A      1.419543  
     263A      1.430772   264A      1.435721   265A      1.449708  
     266A      1.455595   267A      1.462967   268A      1.469020  
     269A      1.479512   270A      1.488530   271A      1.494184  
     272A      1.496922   273A      1.520216   274A      1.525368  
     275A      1.530471   276A      1.547945   277A      1.555104  
     278A      1.558012   279A      1.566518   280A      1.572525  
     281A      1.587322   282A      1.593306   283A      1.596281  
     284A      1.601768   285A      1.603696   286A      1.615699  
     287A      1.625191   288A      1.634442   289A      1.651666  
     290A      1.660480   291A      1.667654   292A      1.672818  
     293A      1.679478   294A      1.690138   295A      1.692683  
     296A      1.697450   297A      1.705626   298A      1.716834  
     299A      1.723010   300A      1.730184   301A      1.733850  
     302A      1.735843   303A      1.754111   304A      1.754675  
     305A      1.772475   306A      1.779003   307A      1.782755  
     308A      1.789838   309A      1.803754   310A      1.821234  
     311A      1.832924   312A      1.835217   313A      1.839736  
     314A      1.843034   315A      1.847288   316A      1.858308  
     317A      1.868977   318A      1.881646   319A      1.887040  
     320A      1.898995   321A      1.905898   322A      1.913586  
     323A      1.919826   324A      1.925360   325A      1.933751  
     326A      1.945561   327A      1.949160   328A      1.967515  
     329A      1.970482   330A      1.981950   331A      1.989554  
     332A      2.001723   333A      2.008538   334A      2.012051  
     335A      2.028939   336A      2.036172   337A      2.039318  
     338A      2.046656   339A      2.062995   340A      2.069484  
     341A      2.079710   342A      2.085844   343A      2.109013  
     344A      2.119197   345A      2.133918   346A      2.138381  
     347A      2.151543   348A      2.161686   349A      2.173456  
     350A      2.181451   351A      2.189417   352A      2.195992  
     353A      2.208360   354A      2.232243   355A      2.250521  
     356A      2.255469   357A      2.259385   358A      2.270757  
     359A      2.285295   360A      2.292024   361A      2.314557  
     362A      2.321456   363A      2.336843   364A      2.345104  
     365A      2.352175   366A      2.356776   367A      2.376107  
     368A      2.385015   369A      2.396428   370A      2.422189  
     371A      2.454004   372A      2.463592   373A      2.482371  
     374A      2.484325   375A      2.510399   376A      2.516668  
     377A      2.539402   378A      2.551199   379A      2.557353  
     380A      2.567411   381A      2.586020   382A      2.601003  
     383A      2.603346   384A      2.610086   385A      2.626445  
     386A      2.641405   387A      2.672936   388A      2.679749  
     389A      2.685861   390A      2.704556   391A      2.729626  
     392A      2.741443   393A      2.749780   394A      2.759384  
     395A      2.777921   396A      2.802034   397A      2.812523  
     398A      2.838602   399A      2.851809   400A      2.857693  
     401A      2.869542   402A      2.883311   403A      2.895964  
     404A      2.909911   405A      2.925290   406A      2.936279  
     407A      2.940995   408A      2.966330   409A      2.986885  
     410A      3.006651   411A      3.014518   412A      3.026500  
     413A      3.046831   414A      3.057613   415A      3.074611  
     416A      3.084308   417A      3.090507   418A      3.108320  
     419A      3.131384   420A      3.146102   421A      3.149217  
     422A      3.158922   423A      3.171760   424A      3.194602  
     425A      3.200633   426A      3.215796   427A      3.227503  
     428A      3.244683   429A      3.265075   430A      3.277051  
     431A      3.282733   432A      3.309267   433A      3.323592  
     434A      3.351464   435A      3.358015   436A      3.365726  
     437A      3.390423   438A      3.438157   439A      3.462663  
     440A      3.467376   441A      3.493472   442A      3.524873  
     443A      3.577397   444A      3.586613   445A      3.619658  
     446A      3.637152   447A      3.653324   448A      3.683939  
     449A      3.712650   450A      3.714781   451A      3.732994  
     452A      3.749750   453A      3.762653   454A      3.785152  
     455A      3.793474   456A      3.808677   457A      3.825089  
     458A      3.834912   459A      3.852618   460A      3.868371  
     461A      3.880338   462A      3.890204   463A      3.896784  
     464A      3.917655   465A      3.936854   466A      3.940271  
     467A      3.952909   468A      3.963213   469A      3.966784  
     470A      3.982925   471A      3.997090   472A      3.999662  
     473A      4.016523   474A      4.024819   475A      4.035904  
     476A      4.059525   477A      4.061683   478A      4.079102  
     479A      4.092011   480A      4.114541   481A      4.118897  
     482A      4.134954   483A      4.144885   484A      4.153857  
     485A      4.172220   486A      4.184112   487A      4.191504  
     488A      4.205834   489A      4.226174   490A      4.228291  
     491A      4.230892   492A      4.237871   493A      4.272610  
     494A      4.283943   495A      4.288482   496A      4.295283  
     497A      4.306738   498A      4.317985   499A      4.337400  
     500A      4.349479   501A      4.359966   502A      4.378221  
     503A      4.387822   504A      4.393574   505A      4.409215  
     506A      4.428235   507A      4.432481   508A      4.438542  
     509A      4.444379   510A      4.468587   511A      4.477784  
     512A      4.497722   513A      4.498413   514A      4.511546  
     515A      4.518216   516A      4.541801   517A      4.554226  
     518A      4.573105   519A      4.577600   520A      4.596058  
     521A      4.604266   522A      4.617702   523A      4.632583  
     524A      4.648933   525A      4.654390   526A      4.663279  
     527A      4.674662   528A      4.687950   529A      4.709130  
     530A      4.725590   531A      4.735943   532A      4.753845  
     533A      4.763482   534A      4.772354   535A      4.794227  
     536A      4.794771   537A      4.821248   538A      4.832368  
     539A      4.851259   540A      4.866522   541A      4.887456  
     542A      4.891112   543A      4.902682   544A      4.909440  
     545A      4.934647   546A      4.939176   547A      4.969818  
     548A      4.981385   549A      4.986271   550A      5.011277  
     551A      5.018600   552A      5.028956   553A      5.058935  
     554A      5.073703   555A      5.084173   556A      5.093052  
     557A      5.105347   558A      5.134971   559A      5.141701  
     560A      5.148166   561A      5.168165   562A      5.175423  
     563A      5.198129   564A      5.220596   565A      5.224359  
     566A      5.228697   567A      5.265909   568A      5.288549  
     569A      5.298521   570A      5.309122   571A      5.313696  
     572A      5.316056   573A      5.332799   574A      5.359475  
     575A      5.379350   576A      5.389426   577A      5.396642  
     578A      5.412906   579A      5.421228   580A      5.440543  
     581A      5.457501   582A      5.480096   583A      5.486066  
     584A      5.494233   585A      5.502689   586A      5.512873  
     587A      5.532076   588A      5.548173   589A      5.578952  
     590A      5.590069   591A      5.612052   592A      5.630553  
     593A      5.633848   594A      5.674930   595A      5.683309  
     596A      5.706061   597A      5.710327   598A      5.757676  
     599A      5.768343   600A      5.780000   601A      5.804158  
     602A      5.816811   603A      5.838275   604A      5.853508  
     605A      5.877180   606A      5.892868   607A      5.913587  
     608A      5.967624   609A      5.992357   610A      6.021727  
     611A      6.040094   612A      6.098665   613A      6.101633  
     614A      6.148750   615A      6.201718   616A      6.206681  
     617A      6.281965   618A      6.310244   619A      6.334038  
     620A      6.383060   621A      6.453267   622A      6.460570  
     623A      6.556149   624A      6.674804   625A      6.681708  
     626A      6.712287   627A      6.778633   628A      6.795471  
     629A      6.846274   630A      6.884700   631A      6.913371  
     632A      6.916576   633A      6.935774   634A      7.009905  
     635A      7.012225   636A      7.043361   637A      7.074951  
     638A      7.094602   639A      7.103185   640A      7.153357  
     641A      7.212760   642A      7.220259   643A      7.240821  
     644A      7.276600   645A      7.300353   646A      7.356447  
     647A      7.375302   648A      7.396384   649A      7.403706  
     650A      7.412772   651A      7.436204   652A      7.468375  
     653A      7.498297   654A      7.512788   655A      7.523662  
     656A      7.564410   657A      7.576219   658A      7.592914  
     659A      7.642637   660A      7.658687   661A      7.690337  
     662A      7.714018   663A      7.723115   664A      7.745668  
     665A      7.859478   666A      7.899705   667A      7.918981  
     668A      7.949237   669A      7.992746   670A      8.034077  
     671A      8.050393   672A      8.082974   673A      8.150380  
     674A      8.186763   675A      8.312052   676A      8.313842  
     677A      8.428629   678A      8.444980   679A      8.678242  
     680A      8.726446   681A      8.993332   682A     16.529796  
     683A     16.677294   684A     16.798848   685A     17.347460  
     686A     18.265450   687A     18.552767   688A     19.081630  
     689A     19.501664   690A     20.306194  

    Final Occupation by Irrep:
              A 
    DOCC [    37 ]

  @DF-RHF Final Energy:  -495.95120192256172

   => Energetics <=

    Nuclear Repulsion Energy =            529.0272117881485201
    One-Electron Energy =               -1731.0510417232731015
    Two-Electron Energy =                 706.0726280125627454
    Total Energy =                       -495.9512019225617223

Computation Completed


Properties will be evaluated at   0.000000,   0.000000,   0.000000 [a0]

Properties computed using the SCF density matrix

  Nuclear Dipole Moment: [e a0]
     X:     0.7702      Y:     1.1679      Z:    -0.7889

  Electronic Dipole Moment: [e a0]
     X:    -1.1641      Y:    -0.8753      Z:     0.9552

  Dipole Moment: [e a0]
     X:    -0.3939      Y:     0.2926      Z:     0.1663     Total:     0.5181

  Dipole Moment: [D]
     X:    -1.0011      Y:     0.7437      Z:     0.4227     Total:     1.3168


*** tstop() called on node108.bme.utexas.edu at Thu Feb 15 17:01:33 2024
Module time:
	user time   =     207.53 seconds =       3.46 minutes
	system time =       1.86 seconds =       0.03 minutes
	total time  =         28 seconds =       0.47 minutes
Total time:
	user time   =     207.53 seconds =       3.46 minutes
	system time =       1.86 seconds =       0.03 minutes
	total time  =         28 seconds =       0.47 minutes

*** tstart() called on node108.bme.utexas.edu
*** at Thu Feb 15 17:01:33 2024


  //>>>>>>>>>>>>>>>>>>>>>>>>>>>>>>>>>>>//
  //               DFMP2               //
  //<<<<<<<<<<<<<<<<<<<<<<<<<<<<<<<<<<<//

   => Loading Basis Set <=

    Name: (AUG-CC-PVTZ AUX)
    Role: RIFIT
    Keyword: DF_BASIS_MP2
    atoms 1, 5, 12, 19             entry O          line   264 file /opt/anaconda/envs/psi4v1.5/share/psi4/basis/aug-cc-pvtz-ri.gbs 
    atoms 2, 7-8, 11, 13-18, 20-21 entry H          line    30 file /opt/anaconda/envs/psi4v1.5/share/psi4/basis/aug-cc-pvtz-ri.gbs 
    atoms 3-4, 6, 9-10             entry C          line   148 file /opt/anaconda/envs/psi4v1.5/share/psi4/basis/aug-cc-pvtz-ri.gbs 

	 --------------------------------------------------------
	                          DF-MP2                         
	      2nd-Order Density-Fitted Moller-Plesset Theory     
	              RMP2 Wavefunction,   8 Threads             
	                                                         
	        Rob Parrish, Justin Turney, Andy Simmonett,      
	           Ed Hohenstein, and C. David Sherrill          
	 --------------------------------------------------------

   => Auxiliary Basis Set <=

  Basis Set: (AUG-CC-PVTZ AUX)
    Blend: AUG-CC-PVTZ-RI
    Number of shells: 420
    Number of basis functions: 1506
    Number of Cartesian functions: 1884
    Spherical Harmonics?: true
    Max angular momentum: 4

	 --------------------------------------------------------
	                 NBF =   690, NAUX =  1506
	 --------------------------------------------------------
	   CLASS    FOCC     OCC    AOCC    AVIR     VIR    FVIR
	   PAIRS       9      37      28     653     653       0
	 --------------------------------------------------------

	 Will save fitting metric to file 97.

	-----------------------------------------------------------
	 ==================> DF-MP2 Energies <==================== 
	-----------------------------------------------------------
	 Reference Energy          =    -495.9512019225617223 [Eh]
	 Singles Energy            =      -0.0000000000000000 [Eh]
	 Same-Spin Energy          =      -0.4620257218086385 [Eh]
	 Opposite-Spin Energy      =      -1.4153881933139956 [Eh]
	 Correlation Energy        =      -1.8774139151226341 [Eh]
	 Total Energy              =    -497.8286158376843673 [Eh]
	-----------------------------------------------------------
	 ================> DF-SCS-MP2 Energies <================== 
	-----------------------------------------------------------
	 SCS Same-Spin Scale       =       0.3333333333333333 [-]
	 SCS Opposite-Spin Scale   =       1.2000000000000000 [-]
	 SCS Same-Spin Energy      =      -0.1540085739362128 [Eh]
	 SCS Opposite-Spin Energy  =      -1.6984658319767947 [Eh]
	 SCS Correlation Energy    =      -1.8524744059130076 [Eh]
	 SCS Total Energy          =    -497.8036763284747508 [Eh]
	-----------------------------------------------------------


*** tstop() called on node108.bme.utexas.edu at Thu Feb 15 17:01:41 2024
Module time:
	user time   =      46.91 seconds =       0.78 minutes
	system time =       0.82 seconds =       0.01 minutes
	total time  =          8 seconds =       0.13 minutes
Total time:
	user time   =     254.44 seconds =       4.24 minutes
	system time =       2.68 seconds =       0.04 minutes
	total time  =         36 seconds =       0.60 minutes

  //>>>>>>>>>>>>>>>>>>>>>>>>>>>>>>>>>>>//
  //            Monomer A HF           //
  //<<<<<<<<<<<<<<<<<<<<<<<<<<<<<<<<<<<//


*** tstart() called on node108.bme.utexas.edu
*** at Thu Feb 15 17:01:41 2024

   => Loading Basis Set <=

    Name: AUG-CC-PVTZ
    Role: ORBITAL
    Keyword: BASIS
    atoms 1, 5, 12, 19             entry O          line   331 file /opt/anaconda/envs/psi4v1.5/share/psi4/basis/aug-cc-pvtz.gbs 
    atoms 2, 7-8, 11, 13-18, 20-21 entry H          line    40 file /opt/anaconda/envs/psi4v1.5/share/psi4/basis/aug-cc-pvtz.gbs 
    atoms 3-4, 6, 9-10             entry C          line   239 file /opt/anaconda/envs/psi4v1.5/share/psi4/basis/aug-cc-pvtz.gbs 


         ---------------------------------------------------------
                                   SCF
               by Justin Turney, Rob Parrish, Andy Simmonett
                          and Daniel G. A. Smith
                              RHF Reference
                        8 Threads,  28610 MiB Core
         ---------------------------------------------------------

  ==> Geometry <==

    Molecular point group: c1
    Full point group: C1

    Geometry (in Angstrom), charge = 0, multiplicity = 1:

       Center              X                  Y                   Z               Mass       
    ------------   -----------------  -----------------  -----------------  -----------------
         O            1.326807577492    -1.381708061383    -0.870171272481    15.994914619570
         H            1.980587577492    -0.650358061383    -0.812571272481     1.007825032230
         C            0.791817577492    -1.553058061383     0.431768727519    12.000000000000
         C           -0.322142422508    -0.567658061383     0.743718727519    12.000000000000
         O            0.245207577492     0.759071938617     0.924768727519    15.994914619570
         C           -0.523262422508     1.692331938617     0.135148727519    12.000000000000
         H            0.134367577492     2.530871938617    -0.106311272481     1.007825032230
         H           -1.380502422508     2.050101938617     0.716578727519     1.007825032230
         C           -1.349312422508    -0.444098061383    -0.384721272481    12.000000000000
         C           -0.966762422508     0.868711938617    -1.061071272481    12.000000000000
         H           -1.798522422508     1.312981938617    -1.617801272481     1.007825032230
         O           -2.631852422508    -0.355988061383     0.249808727519    15.994914619570
         H            1.568947577492    -1.474118061383     1.206028727519     1.007825032230
         H            0.378487577492    -2.566628061383     0.481338727519     1.007825032230
         H           -0.838342422508    -0.853718061383     1.669788727519     1.007825032230
         H           -1.302642422508    -1.301578061383    -1.066811272481     1.007825032230
         H           -0.124452422508     0.700321938617    -1.737181272481     1.007825032230
         H           -3.297682422508    -0.285228061383    -0.456591272481     1.007825032230
      Gh(O)           2.786437577492     0.902931938617    -0.149931272481    15.994914619570
      Gh(H)           1.976067577492     0.984831938617     0.401518727519     1.007825032230
      Gh(H)           3.516447577492     0.798701938617     0.479668727519     1.007825032230

  Running in c1 symmetry.

  Rotational constants: A =      0.07517  B =      0.04059  C =      0.03300 [cm^-1]
  Rotational constants: A =   2253.64899  B =   1216.87010  C =    989.34117 [MHz]
  Nuclear repulsion =  423.200995402785452

  Charge       = 0
  Multiplicity = 1
  Electrons    = 64
  Nalpha       = 32
  Nbeta        = 32

  ==> Algorithm <==

  SCF Algorithm Type is DF.
  DIIS enabled.
  MOM disabled.
  Fractional occupation disabled.
  Guess Type is SAD.
  Energy threshold   = 1.00e-08
  Density threshold  = 1.00e-08
  Integral threshold = 1.00e-12

  ==> Primary Basis <==

  Basis Set: AUG-CC-PVTZ
    Blend: AUG-CC-PVTZ
    Number of shells: 234
    Number of basis functions: 690
    Number of Cartesian functions: 795
    Spherical Harmonics?: true
    Max angular momentum: 3

   => Loading Basis Set <=

    Name: (AUG-CC-PVTZ AUX)
    Role: JKFIT
    Keyword: DF_BASIS_SCF
    atoms 1, 5, 12, 19             entry O          line   286 file /opt/anaconda/envs/psi4v1.5/share/psi4/basis/aug-cc-pvtz-jkfit.gbs 
    atoms 2, 7-8, 11, 13-18, 20-21 entry H          line    70 file /opt/anaconda/envs/psi4v1.5/share/psi4/basis/aug-cc-pvtz-jkfit.gbs 
    atoms 3-4, 6, 9-10             entry C          line   162 file /opt/anaconda/envs/psi4v1.5/share/psi4/basis/aug-cc-pvtz-jkfit.gbs 

  ==> Integral Setup <==

  ==> DiskDFJK: Density-Fitted J/K Matrices <==

    J tasked:                  Yes
    K tasked:                  Yes
    wK tasked:                  No
    OpenMP threads:              8
    Integrals threads:           8
    Memory [MiB]:            21457
    Algorithm:                Core
    Integral Cache:           LOAD
    Schwarz Cutoff:          1E-12
    Fitting Condition:       1E-10

   => Auxiliary Basis Set <=

  Basis Set: (AUG-CC-PVTZ AUX)
    Blend: AUG-CC-PVTZ-JKFIT
    Number of shells: 438
    Number of basis functions: 1488
    Number of Cartesian functions: 1839
    Spherical Harmonics?: true
    Max angular momentum: 4

  Minimum eigenvalue in the overlap matrix is 1.8337377679E-06.
  Reciprocal condition number of the overlap matrix is 8.1643942421E-08.
    Using symmetric orthogonalization.

  ==> Pre-Iterations <==

  SCF Guess: Superposition of Atomic Densities via on-the-fly atomic UHF (no occupation information).

   -------------------------
    Irrep   Nso     Nmo    
   -------------------------
     A        690     690 
   -------------------------
    Total     690     690
   -------------------------

  ==> Iterations <==

                           Total Energy        Delta E     RMS |[F,P]|

   @DF-RHF iter SAD:  -419.31421830819602   -4.19314e+02   0.00000e+00 
   @DF-RHF iter   1:  -419.61314380649105   -2.98925e-01   1.02352e-03 DIIS
   @DF-RHF iter   2:  -419.82359553902046   -2.10452e-01   5.65342e-04 DIIS
   @DF-RHF iter   3:  -419.87931732613464   -5.57218e-02   1.00213e-04 DIIS
   @DF-RHF iter   4:  -419.88278887912719   -3.47155e-03   2.86186e-05 DIIS
   @DF-RHF iter   5:  -419.88302898184702   -2.40103e-04   8.79304e-06 DIIS
   @DF-RHF iter   6:  -419.88305331970128   -2.43379e-05   2.33586e-06 DIIS
   @DF-RHF iter   7:  -419.88305580316126   -2.48346e-06   7.97227e-07 DIIS
   @DF-RHF iter   8:  -419.88305603745317   -2.34292e-07   2.58060e-07 DIIS
   @DF-RHF iter   9:  -419.88305606903873   -3.15856e-08   7.58086e-08 DIIS
   @DF-RHF iter  10:  -419.88305607134157   -2.30284e-09   2.61023e-08 DIIS
   @DF-RHF iter  11:  -419.88305607163841   -2.96836e-10   6.05608e-09 DIIS
  Energy and wave function converged.


  ==> Post-Iterations <==

    Orbital Energies [Eh]
    ---------------------

    Doubly Occupied:                                                      

       1A    -20.564932     2A    -20.564871     3A    -20.551232  
       4A    -11.284541     5A    -11.277885     6A    -11.275636  
       7A    -11.272424     8A    -11.226301     9A     -1.380853  
      10A     -1.361411    11A     -1.347506    12A     -1.050932  
      13A     -1.025819    14A     -0.904293    15A     -0.823875  
      16A     -0.784850    17A     -0.704890    18A     -0.695813  
      19A     -0.671969    20A     -0.662008    21A     -0.630210  
      22A     -0.588126    23A     -0.580500    24A     -0.560002  
      25A     -0.548373    26A     -0.528865    27A     -0.504297  
      28A     -0.490477    29A     -0.467794    30A     -0.454145  
      31A     -0.441460    32A     -0.414819  

    Virtual:                                                              

      33A      0.026236    34A      0.031582    35A      0.035834  
      36A      0.039979    37A      0.048866    38A      0.051118  
      39A      0.056184    40A      0.058519    41A      0.062760  
      42A      0.071876    43A      0.079198    44A      0.086391  
      45A      0.105137    46A      0.107742    47A      0.112145  
      48A      0.117198    49A      0.119501    50A      0.123651  
      51A      0.128685    52A      0.131313    53A      0.135500  
      54A      0.138605    55A      0.140554    56A      0.146985  
      57A      0.157206    58A      0.161277    59A      0.162744  
      60A      0.165557    61A      0.173333    62A      0.179667  
      63A      0.186199    64A      0.192159    65A      0.196108  
      66A      0.210544    67A      0.218487    68A      0.220869  
      69A      0.228982    70A      0.236273    71A      0.246266  
      72A      0.251536    73A      0.255774    74A      0.262477  
      75A      0.274330    76A      0.276850    77A      0.279261  
      78A      0.289765    79A      0.294557    80A      0.297039  
      81A      0.302345    82A      0.303207    83A      0.307221  
      84A      0.309059    85A      0.317425    86A      0.327605  
      87A      0.330349    88A      0.332786    89A      0.340337  
      90A      0.344385    91A      0.349456    92A      0.353101  
      93A      0.359374    94A      0.362750    95A      0.366984  
      96A      0.374306    97A      0.380142    98A      0.383072  
      99A      0.393673   100A      0.397511   101A      0.405739  
     102A      0.409197   103A      0.413224   104A      0.415913  
     105A      0.422044   106A      0.425629   107A      0.434670  
     108A      0.438999   109A      0.444479   110A      0.453482  
     111A      0.457950   112A      0.459719   113A      0.467060  
     114A      0.470398   115A      0.475477   116A      0.479566  
     117A      0.485031   118A      0.486775   119A      0.490007  
     120A      0.493382   121A      0.504023   122A      0.508275  
     123A      0.511278   124A      0.513709   125A      0.523618  
     126A      0.527745   127A      0.534245   128A      0.538399  
     129A      0.540561   130A      0.545620   131A      0.550656  
     132A      0.555443   133A      0.562948   134A      0.567461  
     135A      0.574735   136A      0.576376   137A      0.583151  
     138A      0.587960   139A      0.597166   140A      0.598157  
     141A      0.602808   142A      0.607407   143A      0.617869  
     144A      0.628643   145A      0.632097   146A      0.635231  
     147A      0.644866   148A      0.651342   149A      0.655189  
     150A      0.661875   151A      0.671424   152A      0.677879  
     153A      0.678703   154A      0.683904   155A      0.693697  
     156A      0.703478   157A      0.704792   158A      0.712770  
     159A      0.724601   160A      0.727327   161A      0.743519  
     162A      0.762259   163A      0.766839   164A      0.774294  
     165A      0.788292   166A      0.791974   167A      0.804491  
     168A      0.806711   169A      0.814241   170A      0.836132  
     171A      0.838630   172A      0.850330   173A      0.857225  
     174A      0.862262   175A      0.862929   176A      0.876066  
     177A      0.882599   178A      0.894903   179A      0.895787  
     180A      0.899833   181A      0.905935   182A      0.908150  
     183A      0.922387   184A      0.930627   185A      0.934159  
     186A      0.934906   187A      0.943700   188A      0.950360  
     189A      0.960584   190A      0.962923   191A      0.965457  
     192A      0.974163   193A      0.986947   194A      0.989843  
     195A      0.997492   196A      1.002870   197A      1.005474  
     198A      1.016069   199A      1.017500   200A      1.023420  
     201A      1.025169   202A      1.039280   203A      1.045560  
     204A      1.050546   205A      1.058499   206A      1.064660  
     207A      1.068623   208A      1.074287   209A      1.081365  
     210A      1.087106   211A      1.094871   212A      1.099619  
     213A      1.104214   214A      1.111361   215A      1.114600  
     216A      1.126690   217A      1.128678   218A      1.134748  
     219A      1.143117   220A      1.147677   221A      1.149997  
     222A      1.154783   223A      1.160595   224A      1.167109  
     225A      1.177306   226A      1.182579   227A      1.191847  
     228A      1.200055   229A      1.202849   230A      1.209562  
     231A      1.217670   232A      1.225104   233A      1.227512  
     234A      1.236048   235A      1.243291   236A      1.255108  
     237A      1.256578   238A      1.266711   239A      1.270864  
     240A      1.279036   241A      1.284091   242A      1.299983  
     243A      1.305399   244A      1.309806   245A      1.318407  
     246A      1.329194   247A      1.340363   248A      1.348166  
     249A      1.354849   250A      1.361575   251A      1.374705  
     252A      1.382713   253A      1.390564   254A      1.397969  
     255A      1.410853   256A      1.418186   257A      1.421050  
     258A      1.431317   259A      1.440702   260A      1.445615  
     261A      1.459488   262A      1.470646   263A      1.487328  
     264A      1.488612   265A      1.495108   266A      1.499526  
     267A      1.511779   268A      1.525489   269A      1.526010  
     270A      1.535463   271A      1.556581   272A      1.562917  
     273A      1.570248   274A      1.572379   275A      1.577267  
     276A      1.594658   277A      1.596494   278A      1.603315  
     279A      1.613500   280A      1.615343   281A      1.624134  
     282A      1.637772   283A      1.648159   284A      1.657951  
     285A      1.659797   286A      1.672044   287A      1.676619  
     288A      1.683396   289A      1.693522   290A      1.705135  
     291A      1.708740   292A      1.715342   293A      1.723264  
     294A      1.726797   295A      1.734453   296A      1.736505  
     297A      1.750932   298A      1.757120   299A      1.762543  
     300A      1.775493   301A      1.779092   302A      1.782795  
     303A      1.800830   304A      1.813803   305A      1.831146  
     306A      1.834175   307A      1.838734   308A      1.846805  
     309A      1.856019   310A      1.859160   311A      1.863804  
     312A      1.875943   313A      1.892125   314A      1.896942  
     315A      1.901472   316A      1.905783   317A      1.918670  
     318A      1.925039   319A      1.939021   320A      1.941083  
     321A      1.953989   322A      1.957292   323A      1.962804  
     324A      1.968407   325A      1.979835   326A      1.982985  
     327A      2.004076   328A      2.008348   329A      2.015177  
     330A      2.021691   331A      2.031361   332A      2.047155  
     333A      2.053969   334A      2.064177   335A      2.069007  
     336A      2.085503   337A      2.087415   338A      2.095743  
     339A      2.100289   340A      2.125280   341A      2.137082  
     342A      2.152081   343A      2.165456   344A      2.168303  
     345A      2.181410   346A      2.192185   347A      2.198326  
     348A      2.205566   349A      2.222430   350A      2.240745  
     351A      2.246281   352A      2.264761   353A      2.276917  
     354A      2.290924   355A      2.299607   356A      2.315399  
     357A      2.328813   358A      2.334865   359A      2.344055  
     360A      2.354087   361A      2.365288   362A      2.370864  
     363A      2.387943   364A      2.402761   365A      2.441067  
     366A      2.448360   367A      2.460302   368A      2.478508  
     369A      2.495856   370A      2.514477   371A      2.524959  
     372A      2.538143   373A      2.552289   374A      2.572199  
     375A      2.588875   376A      2.599699   377A      2.612059  
     378A      2.618211   379A      2.642370   380A      2.660915  
     381A      2.671302   382A      2.687851   383A      2.713587  
     384A      2.720364   385A      2.732846   386A      2.749605  
     387A      2.765727   388A      2.772071   389A      2.790563  
     390A      2.804656   391A      2.845291   392A      2.846663  
     393A      2.859944   394A      2.862942   395A      2.890291  
     396A      2.897304   397A      2.902986   398A      2.925831  
     399A      2.940859   400A      2.945753   401A      2.954638  
     402A      2.982682   403A      2.995850   404A      3.008600  
     405A      3.030258   406A      3.051368   407A      3.060194  
     408A      3.065091   409A      3.078319   410A      3.093749  
     411A      3.113552   412A      3.124915   413A      3.140350  
     414A      3.159063   415A      3.176085   416A      3.185449  
     417A      3.199582   418A      3.205921   419A      3.211200  
     420A      3.226692   421A      3.250388   422A      3.263849  
     423A      3.289881   424A      3.292887   425A      3.318505  
     426A      3.329830   427A      3.348712   428A      3.356667  
     429A      3.366433   430A      3.385457   431A      3.403365  
     432A      3.431508   433A      3.455496   434A      3.476403  
     435A      3.502991   436A      3.525926   437A      3.562957  
     438A      3.578376   439A      3.591201   440A      3.597358  
     441A      3.614562   442A      3.638216   443A      3.644396  
     444A      3.675691   445A      3.696992   446A      3.706087  
     447A      3.728348   448A      3.731577   449A      3.752628  
     450A      3.762087   451A      3.768930   452A      3.792169  
     453A      3.812373   454A      3.820949   455A      3.830318  
     456A      3.847471   457A      3.869231   458A      3.879856  
     459A      3.888753   460A      3.896871   461A      3.909713  
     462A      3.928174   463A      3.935078   464A      3.953590  
     465A      3.960288   466A      3.968117   467A      3.975036  
     468A      3.981376   469A      4.000818   470A      4.009265  
     471A      4.022539   472A      4.043111   473A      4.048371  
     474A      4.059543   475A      4.075526   476A      4.086016  
     477A      4.107356   478A      4.120170   479A      4.136350  
     480A      4.153771   481A      4.166671   482A      4.172199  
     483A      4.180944   484A      4.208940   485A      4.213563  
     486A      4.232133   487A      4.240798   488A      4.248937  
     489A      4.260258   490A      4.282730   491A      4.293290  
     492A      4.309873   493A      4.316928   494A      4.339892  
     495A      4.347754   496A      4.351317   497A      4.367493  
     498A      4.391836   499A      4.399150   500A      4.405614  
     501A      4.428710   502A      4.437103   503A      4.448639  
     504A      4.464156   505A      4.467480   506A      4.498742  
     507A      4.505559   508A      4.520665   509A      4.530107  
     510A      4.539416   511A      4.565276   512A      4.571684  
     513A      4.585138   514A      4.603140   515A      4.628363  
     516A      4.644725   517A      4.646976   518A      4.652498  
     519A      4.657950   520A      4.672641   521A      4.679103  
     522A      4.700601   523A      4.720396   524A      4.727257  
     525A      4.738813   526A      4.749472   527A      4.770703  
     528A      4.780102   529A      4.796768   530A      4.813553  
     531A      4.823605   532A      4.855228   533A      4.872831  
     534A      4.884569   535A      4.897495   536A      4.906578  
     537A      4.908867   538A      4.933549   539A      4.952041  
     540A      4.974614   541A      4.988686   542A      5.002389  
     543A      5.012283   544A      5.017507   545A      5.040793  
     546A      5.051432   547A      5.072821   548A      5.094088  
     549A      5.112253   550A      5.120575   551A      5.129279  
     552A      5.147690   553A      5.161671   554A      5.180346  
     555A      5.194440   556A      5.216947   557A      5.224612  
     558A      5.226203   559A      5.257271   560A      5.276009  
     561A      5.284771   562A      5.293963   563A      5.309317  
     564A      5.332359   565A      5.344041   566A      5.365482  
     567A      5.369356   568A      5.387514   569A      5.393847  
     570A      5.409505   571A      5.432739   572A      5.440487  
     573A      5.460701   574A      5.462052   575A      5.485025  
     576A      5.497349   577A      5.507088   578A      5.518862  
     579A      5.532225   580A      5.546629   581A      5.567880  
     582A      5.578931   583A      5.600528   584A      5.609011  
     585A      5.627558   586A      5.645421   587A      5.669909  
     588A      5.682311   589A      5.697749   590A      5.709986  
     591A      5.737495   592A      5.767769   593A      5.773894  
     594A      5.786487   595A      5.806392   596A      5.828449  
     597A      5.846038   598A      5.857700   599A      5.893713  
     600A      5.911112   601A      5.969059   602A      5.989983  
     603A      6.017790   604A      6.028356   605A      6.054644  
     606A      6.103027   607A      6.107715   608A      6.153039  
     609A      6.202570   610A      6.213856   611A      6.282958  
     612A      6.302488   613A      6.330263   614A      6.373927  
     615A      6.461420   616A      6.500897   617A      6.546981  
     618A      6.634869   619A      6.683414   620A      6.706489  
     621A      6.785820   622A      6.794160   623A      6.811010  
     624A      6.862287   625A      6.897841   626A      6.919490  
     627A      6.929885   628A      7.012256   629A      7.017963  
     630A      7.042794   631A      7.082111   632A      7.117951  
     633A      7.140038   634A      7.159769   635A      7.211646  
     636A      7.264114   637A      7.314237   638A      7.356881  
     639A      7.371476   640A      7.405592   641A      7.417390  
     642A      7.424610   643A      7.458754   644A      7.506299  
     645A      7.554805   646A      7.577622   647A      7.597642  
     648A      7.631845   649A      7.643142   650A      7.662282  
     651A      7.706241   652A      7.716621   653A      7.837099  
     654A      7.879819   655A      7.898111   656A      7.920231  
     657A      7.962305   658A      8.003535   659A      8.043534  
     660A      8.052554   661A      8.108459   662A      8.252853  
     663A      8.273672   664A      8.291671   665A      8.316189  
     666A      8.404821   667A      8.460172   668A      8.500511  
     669A      8.638624   670A      8.680117   671A      8.907023  
     672A      9.051109   673A      9.922374   674A     10.139941  
     675A     10.216769   676A     10.427712   677A     11.234488  
     678A     12.070792   679A     12.435268   680A     13.709262  
     681A     14.107890   682A     16.643758   683A     16.788997  
     684A     16.976002   685A     18.265176   686A     18.557463  
     687A     19.078919   688A     19.507146   689A     20.304166  
     690A     67.376770  

    Final Occupation by Irrep:
              A 
    DOCC [    32 ]

  @DF-RHF Final Energy:  -419.88305607163841

   => Energetics <=

    Nuclear Repulsion Energy =            423.2009954027854519
    One-Electron Energy =               -1414.8858817186221586
    Two-Electron Energy =                 571.8018302441982996
    Total Energy =                       -419.8830560716384070

Computation Completed


Properties will be evaluated at   0.000000,   0.000000,   0.000000 [a0]

Properties computed using the SCF density matrix

  Nuclear Dipole Moment: [e a0]
     X:   -51.7339      Y:   -15.8528      Z:    -0.1875

  Electronic Dipole Moment: [e a0]
     X:    51.5068      Y:    16.0664      Z:    -0.3863

  Dipole Moment: [e a0]
     X:    -0.2271      Y:     0.2135      Z:    -0.5738     Total:     0.6530

  Dipole Moment: [D]
     X:    -0.5773      Y:     0.5428      Z:    -1.4585     Total:     1.6598


*** tstop() called on node108.bme.utexas.edu at Thu Feb 15 17:02:04 2024
Module time:
	user time   =     162.57 seconds =       2.71 minutes
	system time =       1.34 seconds =       0.02 minutes
	total time  =         23 seconds =       0.38 minutes
Total time:
	user time   =     417.06 seconds =       6.95 minutes
	system time =       4.02 seconds =       0.07 minutes
	total time  =         59 seconds =       0.98 minutes

*** tstart() called on node108.bme.utexas.edu
*** at Thu Feb 15 17:02:04 2024


  //>>>>>>>>>>>>>>>>>>>>>>>>>>>>>>>>>>>//
  //               DFMP2               //
  //<<<<<<<<<<<<<<<<<<<<<<<<<<<<<<<<<<<//

   => Loading Basis Set <=

    Name: (AUG-CC-PVTZ AUX)
    Role: RIFIT
    Keyword: DF_BASIS_MP2
    atoms 1, 5, 12, 19             entry O          line   264 file /opt/anaconda/envs/psi4v1.5/share/psi4/basis/aug-cc-pvtz-ri.gbs 
    atoms 2, 7-8, 11, 13-18, 20-21 entry H          line    30 file /opt/anaconda/envs/psi4v1.5/share/psi4/basis/aug-cc-pvtz-ri.gbs 
    atoms 3-4, 6, 9-10             entry C          line   148 file /opt/anaconda/envs/psi4v1.5/share/psi4/basis/aug-cc-pvtz-ri.gbs 

	 --------------------------------------------------------
	                          DF-MP2                         
	      2nd-Order Density-Fitted Moller-Plesset Theory     
	              RMP2 Wavefunction,   8 Threads             
	                                                         
	        Rob Parrish, Justin Turney, Andy Simmonett,      
	           Ed Hohenstein, and C. David Sherrill          
	 --------------------------------------------------------

   => Auxiliary Basis Set <=

  Basis Set: (AUG-CC-PVTZ AUX)
    Blend: AUG-CC-PVTZ-RI
    Number of shells: 420
    Number of basis functions: 1506
    Number of Cartesian functions: 1884
    Spherical Harmonics?: true
    Max angular momentum: 4

	 --------------------------------------------------------
	                 NBF =   690, NAUX =  1506
	 --------------------------------------------------------
	   CLASS    FOCC     OCC    AOCC    AVIR     VIR    FVIR
	   PAIRS       8      32      24     658     658       0
	 --------------------------------------------------------

	 Will attempt to load fitting metric from file 97.

	-----------------------------------------------------------
	 ==================> DF-MP2 Energies <==================== 
	-----------------------------------------------------------
	 Reference Energy          =    -419.8830560716384070 [Eh]
	 Singles Energy            =      -0.0000000000000000 [Eh]
	 Same-Spin Energy          =      -0.3916836824668957 [Eh]
	 Opposite-Spin Energy      =      -1.2073790040465044 [Eh]
	 Correlation Energy        =      -1.5990626865134001 [Eh]
	 Total Energy              =    -421.4821187581517847 [Eh]
	-----------------------------------------------------------
	 ================> DF-SCS-MP2 Energies <================== 
	-----------------------------------------------------------
	 SCS Same-Spin Scale       =       0.3333333333333333 [-]
	 SCS Opposite-Spin Scale   =       1.2000000000000000 [-]
	 SCS Same-Spin Energy      =      -0.1305612274889652 [Eh]
	 SCS Opposite-Spin Energy  =      -1.4488548048558052 [Eh]
	 SCS Correlation Energy    =      -1.5794160323447703 [Eh]
	 SCS Total Energy          =    -421.4624721039832025 [Eh]
	-----------------------------------------------------------


*** tstop() called on node108.bme.utexas.edu at Thu Feb 15 17:02:10 2024
Module time:
	user time   =      38.23 seconds =       0.64 minutes
	system time =       0.75 seconds =       0.01 minutes
	total time  =          6 seconds =       0.10 minutes
Total time:
	user time   =     455.29 seconds =       7.59 minutes
	system time =       4.77 seconds =       0.08 minutes
	total time  =         65 seconds =       1.08 minutes

  //>>>>>>>>>>>>>>>>>>>>>>>>>>>>>>>>>>>//
  //            Monomer B HF           //
  //<<<<<<<<<<<<<<<<<<<<<<<<<<<<<<<<<<<//


*** tstart() called on node108.bme.utexas.edu
*** at Thu Feb 15 17:02:10 2024

   => Loading Basis Set <=

    Name: AUG-CC-PVTZ
    Role: ORBITAL
    Keyword: BASIS
    atoms 1, 5, 12, 19             entry O          line   331 file /opt/anaconda/envs/psi4v1.5/share/psi4/basis/aug-cc-pvtz.gbs 
    atoms 2, 7-8, 11, 13-18, 20-21 entry H          line    40 file /opt/anaconda/envs/psi4v1.5/share/psi4/basis/aug-cc-pvtz.gbs 
    atoms 3-4, 6, 9-10             entry C          line   239 file /opt/anaconda/envs/psi4v1.5/share/psi4/basis/aug-cc-pvtz.gbs 


         ---------------------------------------------------------
                                   SCF
               by Justin Turney, Rob Parrish, Andy Simmonett
                          and Daniel G. A. Smith
                              RHF Reference
                        8 Threads,  28610 MiB Core
         ---------------------------------------------------------

  ==> Geometry <==

    Molecular point group: c1
    Full point group: C1

    Geometry (in Angstrom), charge = 0, multiplicity = 1:

       Center              X                  Y                   Z               Mass       
    ------------   -----------------  -----------------  -----------------  -----------------
      Gh(O)           1.326807577492    -1.381708061383    -0.870171272481    15.994914619570
      Gh(H)           1.980587577492    -0.650358061383    -0.812571272481     1.007825032230
      Gh(C)           0.791817577492    -1.553058061383     0.431768727519    12.000000000000
      Gh(C)          -0.322142422508    -0.567658061383     0.743718727519    12.000000000000
      Gh(O)           0.245207577492     0.759071938617     0.924768727519    15.994914619570
      Gh(C)          -0.523262422508     1.692331938617     0.135148727519    12.000000000000
      Gh(H)           0.134367577492     2.530871938617    -0.106311272481     1.007825032230
      Gh(H)          -1.380502422508     2.050101938617     0.716578727519     1.007825032230
      Gh(C)          -1.349312422508    -0.444098061383    -0.384721272481    12.000000000000
      Gh(C)          -0.966762422508     0.868711938617    -1.061071272481    12.000000000000
      Gh(H)          -1.798522422508     1.312981938617    -1.617801272481     1.007825032230
      Gh(O)          -2.631852422508    -0.355988061383     0.249808727519    15.994914619570
      Gh(H)           1.568947577492    -1.474118061383     1.206028727519     1.007825032230
      Gh(H)           0.378487577492    -2.566628061383     0.481338727519     1.007825032230
      Gh(H)          -0.838342422508    -0.853718061383     1.669788727519     1.007825032230
      Gh(H)          -1.302642422508    -1.301578061383    -1.066811272481     1.007825032230
      Gh(H)          -0.124452422508     0.700321938617    -1.737181272481     1.007825032230
      Gh(H)          -3.297682422508    -0.285228061383    -0.456591272481     1.007825032230
         O            2.786437577492     0.902931938617    -0.149931272481    15.994914619570
         H            1.976067577492     0.984831938617     0.401518727519     1.007825032230
         H            3.516447577492     0.798701938617     0.479668727519     1.007825032230

  Running in c1 symmetry.

  Rotational constants: A =      0.07517  B =      0.04059  C =      0.03300 [cm^-1]
  Rotational constants: A =   2253.64899  B =   1216.87010  C =    989.34117 [MHz]
  Nuclear repulsion =    9.010580380498860

  Charge       = 0
  Multiplicity = 1
  Electrons    = 10
  Nalpha       = 5
  Nbeta        = 5

  ==> Algorithm <==

  SCF Algorithm Type is DF.
  DIIS enabled.
  MOM disabled.
  Fractional occupation disabled.
  Guess Type is SAD.
  Energy threshold   = 1.00e-08
  Density threshold  = 1.00e-08
  Integral threshold = 1.00e-12

  ==> Primary Basis <==

  Basis Set: AUG-CC-PVTZ
    Blend: AUG-CC-PVTZ
    Number of shells: 234
    Number of basis functions: 690
    Number of Cartesian functions: 795
    Spherical Harmonics?: true
    Max angular momentum: 3

   => Loading Basis Set <=

    Name: (AUG-CC-PVTZ AUX)
    Role: JKFIT
    Keyword: DF_BASIS_SCF
    atoms 1, 5, 12, 19             entry O          line   286 file /opt/anaconda/envs/psi4v1.5/share/psi4/basis/aug-cc-pvtz-jkfit.gbs 
    atoms 2, 7-8, 11, 13-18, 20-21 entry H          line    70 file /opt/anaconda/envs/psi4v1.5/share/psi4/basis/aug-cc-pvtz-jkfit.gbs 
    atoms 3-4, 6, 9-10             entry C          line   162 file /opt/anaconda/envs/psi4v1.5/share/psi4/basis/aug-cc-pvtz-jkfit.gbs 

  ==> Integral Setup <==

  ==> DiskDFJK: Density-Fitted J/K Matrices <==

    J tasked:                  Yes
    K tasked:                  Yes
    wK tasked:                  No
    OpenMP threads:              8
    Integrals threads:           8
    Memory [MiB]:            21457
    Algorithm:                Core
    Integral Cache:           LOAD
    Schwarz Cutoff:          1E-12
    Fitting Condition:       1E-10

   => Auxiliary Basis Set <=

  Basis Set: (AUG-CC-PVTZ AUX)
    Blend: AUG-CC-PVTZ-JKFIT
    Number of shells: 438
    Number of basis functions: 1488
    Number of Cartesian functions: 1839
    Spherical Harmonics?: true
    Max angular momentum: 4

  Minimum eigenvalue in the overlap matrix is 1.8337377679E-06.
  Reciprocal condition number of the overlap matrix is 8.1643942421E-08.
    Using symmetric orthogonalization.

  ==> Pre-Iterations <==

  SCF Guess: Superposition of Atomic Densities via on-the-fly atomic UHF (no occupation information).

   -------------------------
    Irrep   Nso     Nmo    
   -------------------------
     A        690     690 
   -------------------------
    Total     690     690
   -------------------------

  ==> Iterations <==

                           Total Energy        Delta E     RMS |[F,P]|

   @DF-RHF iter SAD:   -75.45458545962627   -7.54546e+01   0.00000e+00 
   @DF-RHF iter   1:   -75.97368283145411   -5.19097e-01   6.77001e-04 DIIS
   @DF-RHF iter   2:   -76.02560344266897   -5.19206e-02   4.70026e-04 DIIS
   @DF-RHF iter   3:   -76.05828534622142   -3.26819e-02   3.20635e-05 DIIS
   @DF-RHF iter   4:   -76.05870062203238   -4.15276e-04   7.98053e-06 DIIS
   @DF-RHF iter   5:   -76.05872897064721   -2.83486e-05   1.83952e-06 DIIS
   @DF-RHF iter   6:   -76.05873135614922   -2.38550e-06   4.06447e-07 DIIS
   @DF-RHF iter   7:   -76.05873148346319   -1.27314e-07   7.33649e-08 DIIS
   @DF-RHF iter   8:   -76.05873148708218   -3.61899e-09   1.25873e-08 DIIS
   @DF-RHF iter   9:   -76.05873148716785   -8.56630e-11   3.21796e-09 DIIS
  Energy and wave function converged.


  ==> Post-Iterations <==

    Orbital Energies [Eh]
    ---------------------

    Doubly Occupied:                                                      

       1A    -20.569937     2A     -1.343096     3A     -0.708814  
       4A     -0.579392     5A     -0.508491  

    Virtual:                                                              

       6A      0.015562     7A      0.029607     8A      0.032129  
       9A      0.035049    10A      0.048307    11A      0.051826  
      12A      0.054399    13A      0.057937    14A      0.059865  
      15A      0.069981    16A      0.073671    17A      0.081802  
      18A      0.083330    19A      0.095641    20A      0.101916  
      21A      0.107821    22A      0.111856    23A      0.114693  
      24A      0.119418    25A      0.122952    26A      0.126883  
      27A      0.133163    28A      0.137924    29A      0.141681  
      30A      0.153323    31A      0.157305    32A      0.161412  
      33A      0.166814    34A      0.169451    35A      0.174558  
      36A      0.176699    37A      0.181983    38A      0.186500  
      39A      0.190382    40A      0.196659    41A      0.204448  
      42A      0.214646    43A      0.225743    44A      0.228450  
      45A      0.232212    46A      0.241142    47A      0.252095  
      48A      0.253906    49A      0.260933    50A      0.265021  
      51A      0.269000    52A      0.275897    53A      0.284828  
      54A      0.292958    55A      0.299684    56A      0.307831  
      57A      0.313095    58A      0.320035    59A      0.326280  
      60A      0.331323    61A      0.338289    62A      0.342041  
      63A      0.343249    64A      0.348177    65A      0.349212  
      66A      0.362420    67A      0.364688    68A      0.372358  
      69A      0.373641    70A      0.381398    71A      0.383061  
      72A      0.386047    73A      0.390980    74A      0.394848  
      75A      0.404389    76A      0.405316    77A      0.412795  
      78A      0.417315    79A      0.422183    80A      0.426374  
      81A      0.435379    82A      0.445043    83A      0.446692  
      84A      0.455140    85A      0.462496    86A      0.468837  
      87A      0.473268    88A      0.479370    89A      0.485063  
      90A      0.487020    91A      0.495185    92A      0.496603  
      93A      0.499355    94A      0.507722    95A      0.512736  
      96A      0.513536    97A      0.518602    98A      0.525971  
      99A      0.531547   100A      0.533205   101A      0.541773  
     102A      0.549725   103A      0.550696   104A      0.557835  
     105A      0.569282   106A      0.581144   107A      0.582143  
     108A      0.591225   109A      0.592287   110A      0.596838  
     111A      0.607543   112A      0.615855   113A      0.628386  
     114A      0.637315   115A      0.639656   116A      0.647719  
     117A      0.653585   118A      0.660162   119A      0.661356  
     120A      0.673810   121A      0.675132   122A      0.678062  
     123A      0.688016   124A      0.699619   125A      0.705699  
     126A      0.709853   127A      0.713734   128A      0.715588  
     129A      0.726080   130A      0.728399   131A      0.736577  
     132A      0.744848   133A      0.748836   134A      0.762811  
     135A      0.764961   136A      0.779324   137A      0.784262  
     138A      0.800090   139A      0.810974   140A      0.819234  
     141A      0.821296   142A      0.823965   143A      0.829574  
     144A      0.835229   145A      0.845264   146A      0.854336  
     147A      0.864141   148A      0.882133   149A      0.893702  
     150A      0.895040   151A      0.912298   152A      0.925766  
     153A      0.935279   154A      0.944345   155A      0.949867  
     156A      0.953536   157A      0.960099   158A      0.970780  
     159A      0.982217   160A      0.993003   161A      0.997834  
     162A      1.004145   163A      1.008749   164A      1.020056  
     165A      1.025125   166A      1.028746   167A      1.031922  
     168A      1.038624   169A      1.050474   170A      1.051547  
     171A      1.055990   172A      1.064210   173A      1.076276  
     174A      1.080237   175A      1.086346   176A      1.091357  
     177A      1.097088   178A      1.101704   179A      1.107182  
     180A      1.109590   181A      1.114465   182A      1.117855  
     183A      1.127461   184A      1.135042   185A      1.138776  
     186A      1.143911   187A      1.157773   188A      1.159272  
     189A      1.169922   190A      1.175937   191A      1.177450  
     192A      1.181212   193A      1.188446   194A      1.195558  
     195A      1.197641   196A      1.213256   197A      1.216761  
     198A      1.224154   199A      1.230452   200A      1.245631  
     201A      1.249624   202A      1.250592   203A      1.260988  
     204A      1.264690   205A      1.268841   206A      1.273385  
     207A      1.281000   208A      1.292373   209A      1.301826  
     210A      1.303583   211A      1.315978   212A      1.324996  
     213A      1.331312   214A      1.336445   215A      1.346492  
     216A      1.353214   217A      1.356668   218A      1.365654  
     219A      1.373124   220A      1.383296   221A      1.388131  
     222A      1.392425   223A      1.406959   224A      1.412585  
     225A      1.422721   226A      1.426066   227A      1.435029  
     228A      1.439548   229A      1.454904   230A      1.463267  
     231A      1.472511   232A      1.484076   233A      1.485561  
     234A      1.499306   235A      1.500534   236A      1.509438  
     237A      1.518191   238A      1.524165   239A      1.525530  
     240A      1.534651   241A      1.547204   242A      1.557900  
     243A      1.560256   244A      1.565563   245A      1.578869  
     246A      1.581684   247A      1.604431   248A      1.606851  
     249A      1.612227   250A      1.620934   251A      1.632991  
     252A      1.641199   253A      1.652435   254A      1.662197  
     255A      1.668057   256A      1.678042   257A      1.685228  
     258A      1.696519   259A      1.701655   260A      1.713223  
     261A      1.719654   262A      1.731276   263A      1.735818  
     264A      1.745114   265A      1.751084   266A      1.761893  
     267A      1.773405   268A      1.784707   269A      1.786893  
     270A      1.798016   271A      1.805366   272A      1.817155  
     273A      1.828801   274A      1.835857   275A      1.851916  
     276A      1.857203   277A      1.877090   278A      1.882761  
     279A      1.893170   280A      1.902083   281A      1.908028  
     282A      1.911299   283A      1.924332   284A      1.928507  
     285A      1.939070   286A      1.951711   287A      1.960112  
     288A      1.979028   289A      1.984108   290A      1.996877  
     291A      2.009101   292A      2.015860   293A      2.020502  
     294A      2.025978   295A      2.035920   296A      2.038765  
     297A      2.059956   298A      2.070798   299A      2.082320  
     300A      2.089652   301A      2.102205   302A      2.105883  
     303A      2.120640   304A      2.128713   305A      2.144915  
     306A      2.155319   307A      2.167901   308A      2.173100  
     309A      2.186022   310A      2.194709   311A      2.216335  
     312A      2.221528   313A      2.230420   314A      2.242711  
     315A      2.249788   316A      2.253487   317A      2.264088  
     318A      2.278082   319A      2.287563   320A      2.299345  
     321A      2.319757   322A      2.321294   323A      2.328570  
     324A      2.347936   325A      2.355923   326A      2.359881  
     327A      2.380132   328A      2.389247   329A      2.404062  
     330A      2.419100   331A      2.425986   332A      2.453657  
     333A      2.467855   334A      2.483057   335A      2.492711  
     336A      2.500972   337A      2.514382   338A      2.532670  
     339A      2.544150   340A      2.551470   341A      2.567967  
     342A      2.576941   343A      2.593299   344A      2.605710  
     345A      2.620711   346A      2.634456   347A      2.640862  
     348A      2.645170   349A      2.660573   350A      2.676540  
     351A      2.687041   352A      2.695471   353A      2.706761  
     354A      2.721756   355A      2.729659   356A      2.750286  
     357A      2.760948   358A      2.779410   359A      2.786363  
     360A      2.792827   361A      2.809830   362A      2.811818  
     363A      2.823207   364A      2.843109   365A      2.849957  
     366A      2.867896   367A      2.876379   368A      2.886612  
     369A      2.894864   370A      2.925199   371A      2.925989  
     372A      2.937792   373A      2.942836   374A      2.950041  
     375A      2.964482   376A      2.977197   377A      2.987065  
     378A      2.999790   379A      3.018410   380A      3.042901  
     381A      3.049730   382A      3.071017   383A      3.094388  
     384A      3.106177   385A      3.118353   386A      3.146285  
     387A      3.153069   388A      3.166356   389A      3.193318  
     390A      3.210568   391A      3.242746   392A      3.244514  
     393A      3.259055   394A      3.296534   395A      3.324693  
     396A      3.331858   397A      3.347873   398A      3.352150  
     399A      3.389988   400A      3.408546   401A      3.434954  
     402A      3.438235   403A      3.478131   404A      3.492166  
     405A      3.517662   406A      3.530496   407A      3.539717  
     408A      3.565438   409A      3.586483   410A      3.617780  
     411A      3.626051   412A      3.638951   413A      3.670078  
     414A      3.677928   415A      3.704156   416A      3.719835  
     417A      3.726186   418A      3.741075   419A      3.778869  
     420A      3.793884   421A      3.811952   422A      3.850270  
     423A      3.860674   424A      3.893738   425A      3.980770  
     426A      3.999202   427A      4.008591   428A      4.023310  
     429A      4.046070   430A      4.075006   431A      4.123416  
     432A      4.155004   433A      4.169074   434A      4.211841  
     435A      4.228035   436A      4.255868   437A      4.285309  
     438A      4.293556   439A      4.311551   440A      4.328706  
     441A      4.337346   442A      4.353506   443A      4.366390  
     444A      4.368916   445A      4.383084   446A      4.392507  
     447A      4.393530   448A      4.416288   449A      4.419881  
     450A      4.453068   451A      4.456848   452A      4.476697  
     453A      4.490887   454A      4.504531   455A      4.517779  
     456A      4.530014   457A      4.558577   458A      4.568602  
     459A      4.584459   460A      4.608270   461A      4.624958  
     462A      4.637812   463A      4.641990   464A      4.642562  
     465A      4.668692   466A      4.681453   467A      4.690976  
     468A      4.703678   469A      4.713916   470A      4.733494  
     471A      4.747686   472A      4.760040   473A      4.766219  
     474A      4.774954   475A      4.792397   476A      4.793998  
     477A      4.830392   478A      4.833309   479A      4.843112  
     480A      4.862803   481A      4.879225   482A      4.896376  
     483A      4.904424   484A      4.914452   485A      4.921539  
     486A      4.931393   487A      4.939520   488A      4.961719  
     489A      4.978232   490A      4.989795   491A      4.998353  
     492A      5.012139   493A      5.038620   494A      5.048371  
     495A      5.057057   496A      5.081914   497A      5.098739  
     498A      5.117594   499A      5.124538   500A      5.145483  
     501A      5.180995   502A      5.186615   503A      5.191932  
     504A      5.210657   505A      5.213542   506A      5.228836  
     507A      5.234254   508A      5.267561   509A      5.277477  
     510A      5.303910   511A      5.311939   512A      5.328925  
     513A      5.345741   514A      5.350992   515A      5.369112  
     516A      5.383837   517A      5.395757   518A      5.412873  
     519A      5.419893   520A      5.432163   521A      5.460432  
     522A      5.471631   523A      5.475577   524A      5.492822  
     525A      5.508780   526A      5.522646   527A      5.527422  
     528A      5.541498   529A      5.549054   530A      5.568840  
     531A      5.575804   532A      5.595431   533A      5.624618  
     534A      5.641617   535A      5.649875   536A      5.664798  
     537A      5.679396   538A      5.695368   539A      5.710805  
     540A      5.715581   541A      5.753785   542A      5.758657  
     543A      5.778365   544A      5.791835   545A      5.796932  
     546A      5.826406   547A      5.841929   548A      5.851001  
     549A      5.860132   550A      5.870491   551A      5.883023  
     552A      5.894472   553A      5.906909   554A      5.917784  
     555A      5.935487   556A      5.964755   557A      5.996595  
     558A      6.027168   559A      6.072574   560A      6.088941  
     561A      6.098368   562A      6.120809   563A      6.135735  
     564A      6.149045   565A      6.180505   566A      6.198991  
     567A      6.227122   568A      6.266972   569A      6.280168  
     570A      6.300615   571A      6.324266   572A      6.366300  
     573A      6.380883   574A      6.422530   575A      6.443558  
     576A      6.479450   577A      6.523223   578A      6.531065  
     579A      6.565113   580A      6.642190   581A      6.676959  
     582A      6.733805   583A      6.790961   584A      6.834530  
     585A      6.881007   586A      6.925275   587A      6.939094  
     588A      6.974433   589A      7.047150   590A      7.064444  
     591A      7.109408   592A      7.128985   593A      7.184350  
     594A      7.206571   595A      7.263058   596A      7.286587  
     597A      7.313561   598A      7.360046   599A      7.411392  
     600A      7.429751   601A      7.490344   602A      7.567899  
     603A      7.598830   604A      7.623781   605A      7.661866  
     606A      7.690724   607A      7.783112   608A      7.809345  
     609A      7.831403   610A      7.861329   611A      7.897219  
     612A      7.905689   613A      7.936619   614A      7.945695  
     615A      7.957825   616A      7.965856   617A      7.975927  
     618A      8.031653   619A      8.043671   620A      8.067934  
     621A      8.109363   622A      8.131233   623A      8.148638  
     624A      8.184904   625A      8.214115   626A      8.236981  
     627A      8.253703   628A      8.286625   629A      8.325645  
     630A      8.346015   631A      8.376858   632A      8.405933  
     633A      8.429312   634A      8.448561   635A      8.466372  
     636A      8.503611   637A      8.569950   638A      8.589270  
     639A      8.595271   640A      8.681699   641A      8.720834  
     642A      8.911884   643A      8.987882   644A      9.023064  
     645A      9.028286   646A      9.066134   647A      9.142488  
     648A      9.223283   649A      9.499477   650A     10.081083  
     651A     10.110964   652A     10.141563   653A     10.195729  
     654A     10.258666   655A     10.328735   656A     10.357304  
     657A     10.380915   658A     10.486653   659A     10.519452  
     660A     10.560506   661A     10.638691   662A     10.683928  
     663A     10.785050   664A     10.810322   665A     10.888866  
     666A     10.940715   667A     11.122498   668A     11.155267  
     669A     11.342042   670A     12.102806   671A     12.173088  
     672A     12.328376   673A     12.462048   674A     12.554205  
     675A     12.620562   676A     13.362476   677A     13.395328  
     678A     13.415937   679A     13.954007   680A     14.219868  
     681A     14.338422   682A     17.030855   683A     53.649346  
     684A     54.504785   685A     55.397457   686A     56.301576  
     687A     57.857612   688A     67.446518   689A     67.835308  
     690A     68.651483  

    Final Occupation by Irrep:
              A 
    DOCC [     5 ]

  @DF-RHF Final Energy:   -76.05873148716785

   => Energetics <=

    Nuclear Repulsion Energy =              9.0105803804988600
    One-Electron Energy =                -122.7191602358531952
    Two-Electron Energy =                  37.6498483681864826
    Total Energy =                        -76.0587314871678473

Computation Completed


Properties will be evaluated at   0.000000,   0.000000,   0.000000 [a0]

Properties computed using the SCF density matrix

  Nuclear Dipole Moment: [e a0]
     X:    52.5042      Y:    17.0207      Z:    -0.6014

  Electronic Dipole Moment: [e a0]
     X:   -52.5550      Y:   -17.0354      Z:     1.3794

  Dipole Moment: [e a0]
     X:    -0.0508      Y:    -0.0147      Z:     0.7780     Total:     0.7798

  Dipole Moment: [D]
     X:    -0.1291      Y:    -0.0373      Z:     1.9775     Total:     1.9820


*** tstop() called on node108.bme.utexas.edu at Thu Feb 15 17:02:28 2024
Module time:
	user time   =     123.94 seconds =       2.07 minutes
	system time =       1.05 seconds =       0.02 minutes
	total time  =         18 seconds =       0.30 minutes
Total time:
	user time   =     579.27 seconds =       9.65 minutes
	system time =       5.82 seconds =       0.10 minutes
	total time  =         83 seconds =       1.38 minutes

*** tstart() called on node108.bme.utexas.edu
*** at Thu Feb 15 17:02:28 2024


  //>>>>>>>>>>>>>>>>>>>>>>>>>>>>>>>>>>>//
  //               DFMP2               //
  //<<<<<<<<<<<<<<<<<<<<<<<<<<<<<<<<<<<//

   => Loading Basis Set <=

    Name: (AUG-CC-PVTZ AUX)
    Role: RIFIT
    Keyword: DF_BASIS_MP2
    atoms 1, 5, 12, 19             entry O          line   264 file /opt/anaconda/envs/psi4v1.5/share/psi4/basis/aug-cc-pvtz-ri.gbs 
    atoms 2, 7-8, 11, 13-18, 20-21 entry H          line    30 file /opt/anaconda/envs/psi4v1.5/share/psi4/basis/aug-cc-pvtz-ri.gbs 
    atoms 3-4, 6, 9-10             entry C          line   148 file /opt/anaconda/envs/psi4v1.5/share/psi4/basis/aug-cc-pvtz-ri.gbs 

	 --------------------------------------------------------
	                          DF-MP2                         
	      2nd-Order Density-Fitted Moller-Plesset Theory     
	              RMP2 Wavefunction,   8 Threads             
	                                                         
	        Rob Parrish, Justin Turney, Andy Simmonett,      
	           Ed Hohenstein, and C. David Sherrill          
	 --------------------------------------------------------

   => Auxiliary Basis Set <=

  Basis Set: (AUG-CC-PVTZ AUX)
    Blend: AUG-CC-PVTZ-RI
    Number of shells: 420
    Number of basis functions: 1506
    Number of Cartesian functions: 1884
    Spherical Harmonics?: true
    Max angular momentum: 4

	 --------------------------------------------------------
	                 NBF =   690, NAUX =  1506
	 --------------------------------------------------------
	   CLASS    FOCC     OCC    AOCC    AVIR     VIR    FVIR
	   PAIRS       1       5       4     685     685       0
	 --------------------------------------------------------

	 Will attempt to load fitting metric from file 97.

	-----------------------------------------------------------
	 ==================> DF-MP2 Energies <==================== 
	-----------------------------------------------------------
	 Reference Energy          =     -76.0587314871678473 [Eh]
	 Singles Energy            =      -0.0000000000000000 [Eh]
	 Same-Spin Energy          =      -0.0655616062680739 [Eh]
	 Opposite-Spin Energy      =      -0.2051197408214229 [Eh]
	 Correlation Energy        =      -0.2706813470894969 [Eh]
	 Total Energy              =     -76.3294128342573401 [Eh]
	-----------------------------------------------------------
	 ================> DF-SCS-MP2 Energies <================== 
	-----------------------------------------------------------
	 SCS Same-Spin Scale       =       0.3333333333333333 [-]
	 SCS Opposite-Spin Scale   =       1.2000000000000000 [-]
	 SCS Same-Spin Energy      =      -0.0218538687560246 [Eh]
	 SCS Opposite-Spin Energy  =      -0.2461436889857075 [Eh]
	 SCS Correlation Energy    =      -0.2679975577417321 [Eh]
	 SCS Total Energy          =     -76.3267290449095839 [Eh]
	-----------------------------------------------------------


*** tstop() called on node108.bme.utexas.edu at Thu Feb 15 17:02:32 2024
Module time:
	user time   =      22.91 seconds =       0.38 minutes
	system time =       0.54 seconds =       0.01 minutes
	total time  =          4 seconds =       0.07 minutes
Total time:
	user time   =     602.19 seconds =      10.04 minutes
	system time =       6.36 seconds =       0.11 minutes
	total time  =         87 seconds =       1.45 minutes
  Constructing Basis Sets for SAPT...

   => Loading Basis Set <=

    Name: (AUG-CC-PVTZ AUX)
    Role: RIFIT
    Keyword: DF_BASIS_SAPT
    atoms 1, 5, 12, 19             entry O          line   264 file /opt/anaconda/envs/psi4v1.5/share/psi4/basis/aug-cc-pvtz-ri.gbs 
    atoms 2, 7-8, 11, 13-18, 20-21 entry H          line    30 file /opt/anaconda/envs/psi4v1.5/share/psi4/basis/aug-cc-pvtz-ri.gbs 
    atoms 3-4, 6, 9-10             entry C          line   148 file /opt/anaconda/envs/psi4v1.5/share/psi4/basis/aug-cc-pvtz-ri.gbs 


  //>>>>>>>>>>>>>>>>>>>>>>>>>>>>>>>>>>>//
  //           SAPT2+(3)DMP2           //
  //<<<<<<<<<<<<<<<<<<<<<<<<<<<<<<<<<<<//


*** tstart() called on node108.bme.utexas.edu
*** at Thu Feb 15 17:02:32 2024

      SAPT2+(3)  
    Ed Hohenstein
     6 June 2009

      Orbital Information
  --------------------------
    NSO        =       690
    NMO        =       690
    NRI        =      1506
    NOCC A     =        32
    NOCC B     =         5
    FOCC A     =         8
    FOCC B     =         1
    NVIR A     =       658
    NVIR B     =       685

    Estimated memory usage: 17184.9 MB

    Natural Orbital Cutoff:   1.000E-06
    Disp(T3) Truncation:            Yes
    CCD (vv|vv) Truncation:         Yes
    MBPT T2 Truncation:             Yes

    Monomer A: 154 virtual orbitals dropped
    Monomer B: 600 virtual orbitals dropped

    Elst10,r            =    -0.033755632577 [Eh]
    Exch10 (S^2)        =     0.036189261159 [Eh]
    Exch10              =     0.036516674792 [Eh]
    Ind20,r (A<-B)      =    -0.009277127507 [Eh]
    Ind20,r (B<-A)      =    -0.008230227875 [Eh]
    Ind20,r             =    -0.017507355381 [Eh]
    Exch-Ind20,r (A<-B) =     0.005487740217 [Eh]
    Exch-Ind20,r (B<-A) =     0.004957856486 [Eh]
    Exch-Ind20,r        =     0.010445596704 [Eh]
    Disp20              =    -0.014450487981 [Eh]
    Disp20 (NO)         =    -0.012590951040 [Eh]
    Exch-Disp20         =     0.002734107220 [Eh]
    Elst12,r            =    -0.001274916100 [Eh]
    Exch11              =     0.000379266605 [Eh]
    Exch12              =     0.006121726605 [Eh]
    Ind22               =    -0.003335953037 [Eh]
    Disp21              =     0.001061807439 [Eh]
    Disp22 (SDQ)        =    -0.000464710138 [Eh]

    (i =   1 of   4)        241 seconds
    (i =   2 of   4)        482 seconds
    (i =   3 of   4)        723 seconds
    (i =   4 of   4)        966 seconds

    Disp220 (T)         =    -0.001168664200 [Eh]

    (i =   1 of  24)          3 seconds
    (i =   2 of  24)          7 seconds
    (i =   3 of  24)         11 seconds
    (i =   4 of  24)         15 seconds
    (i =   5 of  24)         18 seconds
    (i =   6 of  24)         22 seconds
    (i =   7 of  24)         26 seconds
    (i =   8 of  24)         30 seconds
    (i =   9 of  24)         34 seconds
    (i =  10 of  24)         37 seconds
    (i =  11 of  24)         41 seconds
    (i =  12 of  24)         45 seconds
    (i =  13 of  24)         49 seconds
    (i =  14 of  24)         52 seconds
    (i =  15 of  24)         56 seconds
    (i =  16 of  24)         60 seconds
    (i =  17 of  24)         64 seconds
    (i =  18 of  24)         67 seconds
    (i =  19 of  24)         71 seconds
    (i =  20 of  24)         75 seconds
    (i =  21 of  24)         79 seconds
    (i =  22 of  24)         82 seconds
    (i =  23 of  24)         86 seconds
    (i =  24 of  24)         90 seconds

    Disp202 (T)         =    -0.001080448731 [Eh]

    Disp22 (T)          =    -0.002249112931 [Eh]

    Est. Disp220 (T)    =    -0.001341262301 [Eh]
    Est. Disp202 (T)    =    -0.001240018435 [Eh]

    Est. Disp22 (T)     =    -0.002581280736 [Eh]
    Elst13,r            =     0.001235717495 [Eh]
    Disp30              =     0.000506917897 [Eh]

    SAPT Results 
  --------------------------------------------------------------------------------------------------------
    Electrostatics                -33.79483118 [mEh]     -21.20657673 [kcal/mol]     -88.72831704 [kJ/mol]
      Elst10,r                    -33.75563258 [mEh]     -21.18197924 [kcal/mol]     -88.62540112 [kJ/mol]
      Elst12,r                     -1.27491610 [mEh]      -0.80002193 [kcal/mol]      -3.34729176 [kJ/mol]
      Elst13,r                      1.23571750 [mEh]       0.77542444 [kcal/mol]       3.24437584 [kJ/mol]

    Exchange                       43.01766800 [mEh]      26.99399421 [kcal/mol]     112.94287178 [kJ/mol]
      Exch10                       36.51667479 [mEh]      22.91455938 [kcal/mol]      95.87451646 [kJ/mol]
      Exch10(S^2)                  36.18926116 [mEh]      22.70910423 [kcal/mol]      95.01489208 [kJ/mol]
      Exch11(S^2)                   0.37926661 [mEh]       0.23799339 [kcal/mol]       0.99576433 [kJ/mol]
      Exch12(S^2)                   6.12172661 [mEh]       3.84144144 [kcal/mol]      16.07259099 [kJ/mol]

    Induction                     -13.35498384 [mEh]      -8.38037888 [kcal/mol]     -35.06350524 [kJ/mol]
      Ind20,r                     -17.50735538 [mEh]     -10.98603136 [kcal/mol]     -45.96555522 [kJ/mol]
      Ind22                        -3.33595304 [mEh]      -2.09334213 [kcal/mol]      -8.75854349 [kJ/mol]
      Exch-Ind20,r                 10.44559670 [mEh]       6.55471089 [kcal/mol]      27.42491037 [kJ/mol]
      Exch-Ind22                    1.99036458 [mEh]       1.24897263 [kcal/mol]       5.22570149 [kJ/mol]
      delta HF,r (2)               -5.11364729 [mEh]      -3.20886212 [kcal/mol]     -13.42587912 [kJ/mol]
      delta MP2,r (2)               0.16601059 [mEh]       0.10417322 [kcal/mol]       0.43586074 [kJ/mol]

    Dispersion                    -13.19364630 [mEh]      -8.27913805 [kcal/mol]     -34.63991359 [kJ/mol]
      Disp20                      -14.45048798 [mEh]      -9.06781811 [kcal/mol]     -37.93975097 [kJ/mol]
      Disp30                        0.50691790 [mEh]       0.31809578 [kcal/mol]       1.33091275 [kJ/mol]
      Disp21                        1.06180744 [mEh]       0.66629423 [kcal/mol]       2.78777505 [kJ/mol]
      Disp22 (SDQ)                 -0.46471014 [mEh]      -0.29161001 [kcal/mol]      -1.22009630 [kJ/mol]
      Disp22 (T)                   -2.24911293 [mEh]      -1.41133967 [kcal/mol]      -5.90504519 [kJ/mol]
      Est. Disp22 (T)              -2.58128074 [mEh]      -1.61977812 [kcal/mol]      -6.77715164 [kJ/mol]
      Exch-Disp20                   2.73410722 [mEh]       1.71567818 [kcal/mol]       7.17839752 [kJ/mol]

  Total HF                         -9.41436376 [mEh]      -5.90760245 [kcal/mol]     -24.71740863 [kJ/mol]
  Total SAPT0                     -21.13074452 [mEh]     -13.25974237 [kcal/mol]     -55.47876208 [kJ/mol]
  Total SAPT2                     -17.25025586 [mEh]     -10.82469898 [kcal/mol]     -45.29054053 [kJ/mol]
  Total SAPT2+                    -19.23443930 [mEh]     -12.06979288 [kcal/mol]     -50.50001342 [kJ/mol]
  Total SAPT2+(3)                 -17.49180391 [mEh]     -10.97627266 [kcal/mol]     -45.92472483 [kJ/mol]
  Total SAPT2+dMP2                -19.06842871 [mEh]     -11.96561967 [kcal/mol]     -50.06415268 [kJ/mol]
  Total SAPT2+(3)dMP2             -17.32579332 [mEh]     -10.87209945 [kcal/mol]     -45.48886409 [kJ/mol]

  Special recipe for scaled SAPT0 (see Manual):
    Electrostatics sSAPT0         -33.75563258 [mEh]     -21.18197924 [kcal/mol]     -88.62540112 [kJ/mol]
    Exchange sSAPT0                36.51667479 [mEh]      22.91455938 [kcal/mol]      95.87451646 [kJ/mol]
    Induction sSAPT0              -11.88932116 [mEh]      -7.46066166 [kcal/mol]     -31.21540840 [kJ/mol]
    Dispersion sSAPT0             -11.64149882 [mEh]      -7.30515080 [kcal/mol]     -30.56475094 [kJ/mol]
  Total sSAPT0                    -20.76977776 [mEh]     -13.03323232 [kcal/mol]     -54.53104401 [kJ/mol]
  --------------------------------------------------------------------------------------------------------

*** tstop() called on node108.bme.utexas.edu at Thu Feb 15 17:57:48 2024
Module time:
	user time   =   24454.63 seconds =     407.58 minutes
	system time =     118.88 seconds =       1.98 minutes
	total time  =       3316 seconds =      55.27 minutes
Total time:
	user time   =   25057.38 seconds =     417.62 minutes
	system time =     125.25 seconds =       2.09 minutes
	total time  =       3403 seconds =      56.72 minutes

    Psi4 stopped on: Thursday, 15 February 2024 05:57PM
    Psi4 wall time for execution: 0:56:43.32

*** Psi4 exiting successfully. Buy a developer a beer!
