
    -----------------------------------------------------------------------
          Psi4: An Open-Source Ab Initio Electronic Structure Package
                               Psi4 1.5 release

                         Git: Rev {HEAD} e9f4d6d 


    D. G. A. Smith, L. A. Burns, A. C. Simmonett, R. M. Parrish,
    M. C. Schieber, R. Galvelis, P. Kraus, H. Kruse, R. Di Remigio,
    A. Alenaizan, A. M. James, S. Lehtola, J. P. Misiewicz, M. Scheurer,
    R. A. Shaw, J. B. Schriber, Y. Xie, Z. L. Glick, D. A. Sirianni,
    J. S. O'Brien, J. M. Waldrop, A. Kumar, E. G. Hohenstein,
    B. P. Pritchard, B. R. Brooks, H. F. Schaefer III, A. Yu. Sokolov,
    K. Patkowski, A. E. DePrince III, U. Bozkaya, R. A. King,
    F. A. Evangelista, J. M. Turney, T. D. Crawford, C. D. Sherrill,
    J. Chem. Phys. 152(18) 184108 (2020). https://doi.org/10.1063/5.0006002

                            Additional Code Authors
    E. T. Seidl, C. L. Janssen, E. F. Valeev, M. L. Leininger,
    J. F. Gonthier, R. M. Richard, H. R. McAlexander, M. Saitow, X. Wang,
    P. Verma, M. H. Lechner, and A. Jiang

             Previous Authors, Complete List of Code Contributors,
                       and Citations for Specific Modules
    https://github.com/psi4/psi4/blob/master/codemeta.json
    https://github.com/psi4/psi4/graphs/contributors
    http://psicode.org/psi4manual/master/introduction.html#citing-psifour

    -----------------------------------------------------------------------


    Psi4 started on: Monday, 12 February 2024 05:02PM

    Process ID: 1417554
    Host:       bme-pluto.bme.utexas.edu
    PSIDATADIR: /opt/anaconda/envs/psi4v1.5/share/psi4
    Memory:     500.0 MiB
    Threads:    8
    
  ==> Input File <==

--------------------------------------------------------------------------
memory 80GB

molecule {
0 1
O 2.98096 0.11724 -0.60003
H 2.76785 1.00525 -0.25787
C 2.45201 -0.77212 0.37646
C 0.98493 -0.47266 0.6073
O 0.93078 0.90083 1.04716
C -0.33674 1.41914 0.63221
H -0.28167 2.50899 0.67208
H -1.14089 1.07161 1.2948
C 0.12926 -0.54794 -0.65944
C -0.51401 0.8558 -0.77915
O -0.88395 -1.55215 -0.4827
O -1.84334 0.8155 -1.26791
H 2.99617 -0.69207 1.32798
H 2.57734 -1.78673 -0.01125
H 0.55635 -1.13638 1.3744
H 0.73365 -0.7943 -1.53929
H 0.0667 1.4554 -1.48673
H -2.42162 0.55066 -0.51752
H -1.48893 -1.40661 -1.23869
--
0 1
O -3.3515815438596492 -0.5708890877192982 1.0964585087719299
H -4.16165154385965 -1.104319087719298 1.10925850877193
H -2.6272315438596494 -1.1912790877192982 0.8683085087719298
 units angstrom
 no_reorient
 symmetry c1}
set  {scf_type DF
 basis aug-cc-pvtz
 freeze_core True
 guess SAD}
energy('sapt2+(3)dmp2')

--------------------------------------------------------------------------

  Memory set to  74.506 GiB by Python driver.

Scratch directory: /tmp/
   => Loading Basis Set <=

    Name: AUG-CC-PVTZ
    Role: ORBITAL
    Keyword: BASIS
    atoms 1, 5, 11-12, 20      entry O          line   331 file /opt/anaconda/envs/psi4v1.5/share/psi4/basis/aug-cc-pvtz.gbs 
    atoms 2, 7-8, 13-19, 21-22 entry H          line    40 file /opt/anaconda/envs/psi4v1.5/share/psi4/basis/aug-cc-pvtz.gbs 
    atoms 3-4, 6, 9-10         entry C          line   239 file /opt/anaconda/envs/psi4v1.5/share/psi4/basis/aug-cc-pvtz.gbs 

   => Loading Basis Set <=

    Name: AUG-CC-PVTZ
    Role: ORBITAL
    Keyword: BASIS
    atoms 1, 5, 11-12, 20      entry O          line   331 file /opt/anaconda/envs/psi4v1.5/share/psi4/basis/aug-cc-pvtz.gbs 
    atoms 2, 7-8, 13-19, 21-22 entry H          line    40 file /opt/anaconda/envs/psi4v1.5/share/psi4/basis/aug-cc-pvtz.gbs 
    atoms 3-4, 6, 9-10         entry C          line   239 file /opt/anaconda/envs/psi4v1.5/share/psi4/basis/aug-cc-pvtz.gbs 


  //>>>>>>>>>>>>>>>>>>>>>>>>>>>>>>>>>>>//
  //              Dimer HF             //
  //<<<<<<<<<<<<<<<<<<<<<<<<<<<<<<<<<<<//


*** tstart() called on bme-pluto.bme.utexas.edu
*** at Mon Feb 12 17:02:40 2024

   => Loading Basis Set <=

    Name: AUG-CC-PVTZ
    Role: ORBITAL
    Keyword: BASIS
    atoms 1, 5, 11-12, 20      entry O          line   331 file /opt/anaconda/envs/psi4v1.5/share/psi4/basis/aug-cc-pvtz.gbs 
    atoms 2, 7-8, 13-19, 21-22 entry H          line    40 file /opt/anaconda/envs/psi4v1.5/share/psi4/basis/aug-cc-pvtz.gbs 
    atoms 3-4, 6, 9-10         entry C          line   239 file /opt/anaconda/envs/psi4v1.5/share/psi4/basis/aug-cc-pvtz.gbs 


         ---------------------------------------------------------
                                   SCF
               by Justin Turney, Rob Parrish, Andy Simmonett
                          and Daniel G. A. Smith
                              RHF Reference
                        8 Threads,  76293 MiB Core
         ---------------------------------------------------------

  ==> Geometry <==

    Molecular point group: c1
    Full point group: C1

    Geometry (in Angstrom), charge = 0, multiplicity = 1:

       Center              X                  Y                   Z               Mass       
    ------------   -----------------  -----------------  -----------------  -----------------
         O            3.010687295554     0.119706414130    -0.602826310046    15.994914619570
         H            2.797577295554     1.007716414130    -0.260666310046     1.007825032230
         C            2.481737295554    -0.769653585870     0.373663689954    12.000000000000
         C            1.014657295554    -0.470193585870     0.604503689954    12.000000000000
         O            0.960507295554     0.903296414130     1.044363689954    15.994914619570
         C           -0.307012704446     1.421606414130     0.629413689954    12.000000000000
         H           -0.251942704446     2.511456414130     0.669283689954     1.007825032230
         H           -1.111162704446     1.074076414130     1.292003689954     1.007825032230
         C            0.158987295554    -0.545473585870    -0.662236310046    12.000000000000
         C           -0.484282704446     0.858266414130    -0.781946310046    12.000000000000
         O           -0.854222704446    -1.549683585870    -0.485496310046    15.994914619570
         O           -1.813612704446     0.817966414130    -1.270706310046    15.994914619570
         H            3.025897295554    -0.689603585870     1.325183689954     1.007825032230
         H            2.607067295554    -1.784263585870    -0.014046310046     1.007825032230
         H            0.586077295554    -1.133913585870     1.371603689954     1.007825032230
         H            0.763377295554    -0.791833585870    -1.542086310046     1.007825032230
         H            0.096427295554     1.457866414130    -1.489526310046     1.007825032230
         H           -2.391892704446     0.553126414130    -0.520316310046     1.007825032230
         H           -1.459202704446    -1.404143585870    -1.241486310046     1.007825032230
         O           -3.321854248306    -0.568422673589     1.093662198726    15.994914619570
         H           -4.131924248306    -1.101852673589     1.106462198726     1.007825032230
         H           -2.597504248306    -1.188812673589     0.865512198726     1.007825032230

  Running in c1 symmetry.

  Rotational constants: A =      0.06895  B =      0.02558  C =      0.02462 [cm^-1]
  Rotational constants: A =   2067.09360  B =    766.91916  C =    738.03680 [MHz]
  Nuclear repulsion =  618.163678595987335

  Charge       = 0
  Multiplicity = 1
  Electrons    = 82
  Nalpha       = 41
  Nbeta        = 41

  ==> Algorithm <==

  SCF Algorithm Type is DF.
  DIIS enabled.
  MOM disabled.
  Fractional occupation disabled.
  Guess Type is SAD.
  Energy threshold   = 1.00e-08
  Density threshold  = 1.00e-08
  Integral threshold = 1.00e-12

  ==> Primary Basis <==

  Basis Set: AUG-CC-PVTZ
    Blend: AUG-CC-PVTZ
    Number of shells: 248
    Number of basis functions: 736
    Number of Cartesian functions: 850
    Spherical Harmonics?: true
    Max angular momentum: 3

   => Loading Basis Set <=

    Name: (AUG-CC-PVTZ AUX)
    Role: JKFIT
    Keyword: DF_BASIS_SCF
    atoms 1, 5, 11-12, 20      entry O          line   286 file /opt/anaconda/envs/psi4v1.5/share/psi4/basis/aug-cc-pvtz-jkfit.gbs 
    atoms 2, 7-8, 13-19, 21-22 entry H          line    70 file /opt/anaconda/envs/psi4v1.5/share/psi4/basis/aug-cc-pvtz-jkfit.gbs 
    atoms 3-4, 6, 9-10         entry C          line   162 file /opt/anaconda/envs/psi4v1.5/share/psi4/basis/aug-cc-pvtz-jkfit.gbs 

  ==> Integral Setup <==

  ==> DiskDFJK: Density-Fitted J/K Matrices <==

    J tasked:                  Yes
    K tasked:                  Yes
    wK tasked:                  No
    OpenMP threads:              8
    Integrals threads:           8
    Memory [MiB]:            57220
    Algorithm:                Core
    Integral Cache:           SAVE
    Schwarz Cutoff:          1E-12
    Fitting Condition:       1E-10

   => Auxiliary Basis Set <=

  Basis Set: (AUG-CC-PVTZ AUX)
    Blend: AUG-CC-PVTZ-JKFIT
    Number of shells: 468
    Number of basis functions: 1592
    Number of Cartesian functions: 1970
    Spherical Harmonics?: true
    Max angular momentum: 4

  Minimum eigenvalue in the overlap matrix is 1.4649462777E-06.
  Reciprocal condition number of the overlap matrix is 6.6270511785E-08.
    Using symmetric orthogonalization.

  ==> Pre-Iterations <==

  SCF Guess: Superposition of Atomic Densities via on-the-fly atomic UHF (no occupation information).

   -------------------------
    Irrep   Nso     Nmo    
   -------------------------
     A        736     736 
   -------------------------
    Total     736     736
   -------------------------

  ==> Iterations <==

                           Total Energy        Delta E     RMS |[F,P]|

   @DF-RHF iter SAD:  -569.74033297709775   -5.69740e+02   0.00000e+00 
   @DF-RHF iter   1:  -570.50333077677533   -7.62998e-01   1.13251e-03 DIIS
   @DF-RHF iter   2:  -570.76264758414356   -2.59317e-01   6.33103e-04 DIIS
   @DF-RHF iter   3:  -570.83343026662919   -7.07827e-02   1.01507e-04 DIIS
   @DF-RHF iter   4:  -570.83740309378368   -3.97283e-03   2.84000e-05 DIIS
   @DF-RHF iter   5:  -570.83767466375389   -2.71570e-04   8.27482e-06 DIIS
   @DF-RHF iter   6:  -570.83770400249318   -2.93387e-05   2.36244e-06 DIIS
   @DF-RHF iter   7:  -570.83770740389332   -3.40140e-06   8.12475e-07 DIIS
   @DF-RHF iter   8:  -570.83770771125307   -3.07360e-07   2.80203e-07 DIIS
   @DF-RHF iter   9:  -570.83770775056439   -3.93113e-08   7.32467e-08 DIIS
   @DF-RHF iter  10:  -570.83770775274411   -2.17972e-09   2.24177e-08 DIIS
   @DF-RHF iter  11:  -570.83770775297910   -2.34991e-10   5.51776e-09 DIIS
  Energy and wave function converged.


  ==> Post-Iterations <==

    Orbital Energies [Eh]
    ---------------------

    Doubly Occupied:                                                      

       1A    -20.582273     2A    -20.579495     3A    -20.573143  
       4A    -20.571220     5A    -20.559843     6A    -11.291737  
       7A    -11.290640     8A    -11.289794     9A    -11.285151  
      10A    -11.280748    11A     -1.407093    12A     -1.381589  
      13A     -1.359404    14A     -1.358175    15A     -1.354332  
      16A     -1.046454    17A     -1.026713    18A     -0.912545  
      19A     -0.840243    20A     -0.799316    21A     -0.734626  
      22A     -0.717539    23A     -0.713617    24A     -0.690689  
      25A     -0.681729    26A     -0.648822    27A     -0.625606  
      28A     -0.617182    29A     -0.601663    30A     -0.596043  
      31A     -0.576410    32A     -0.563807    33A     -0.553148  
      34A     -0.525454    35A     -0.522963    36A     -0.501830  
      37A     -0.492186    38A     -0.474854    39A     -0.454121  
      40A     -0.439614    41A     -0.428329  

    Virtual:                                                              

      42A      0.024369    43A      0.035115    44A      0.035658  
      45A      0.037491    46A      0.050267    47A      0.053418  
      48A      0.056440    49A      0.057224    50A      0.058369  
      51A      0.074893    52A      0.078256    53A      0.085845  
      54A      0.103016    55A      0.110689    56A      0.111398  
      57A      0.117783    58A      0.119385    59A      0.126537  
      60A      0.127807    61A      0.132294    62A      0.133736  
      63A      0.140716    64A      0.143659    65A      0.147043  
      66A      0.149640    67A      0.159050    68A      0.164435  
      69A      0.169159    70A      0.179260    71A      0.182298  
      72A      0.185773    73A      0.192105    74A      0.196239  
      75A      0.208557    76A      0.209019    77A      0.215603  
      78A      0.224067    79A      0.232607    80A      0.235664  
      81A      0.239914    82A      0.245660    83A      0.250556  
      84A      0.254787    85A      0.261214    86A      0.269369  
      87A      0.275105    88A      0.277136    89A      0.285521  
      90A      0.288898    91A      0.291021    92A      0.295230  
      93A      0.299222    94A      0.307091    95A      0.313696  
      96A      0.315592    97A      0.319328    98A      0.324143  
      99A      0.327397   100A      0.331945   101A      0.335006  
     102A      0.340589   103A      0.345820   104A      0.350972  
     105A      0.358287   106A      0.367878   107A      0.371483  
     108A      0.379510   109A      0.385456   110A      0.386682  
     111A      0.393028   112A      0.396221   113A      0.398698  
     114A      0.405938   115A      0.407372   116A      0.412224  
     117A      0.424849   118A      0.433593   119A      0.435708  
     120A      0.443983   121A      0.447956   122A      0.452732  
     123A      0.454512   124A      0.460004   125A      0.462548  
     126A      0.465213   127A      0.470017   128A      0.477361  
     129A      0.482978   130A      0.488608   131A      0.494433  
     132A      0.498666   133A      0.501732   134A      0.502261  
     135A      0.507705   136A      0.511384   137A      0.514694  
     138A      0.522813   139A      0.525159   140A      0.526151  
     141A      0.531282   142A      0.535047   143A      0.537216  
     144A      0.545438   145A      0.555857   146A      0.557884  
     147A      0.561228   148A      0.563262   149A      0.571139  
     150A      0.575633   151A      0.580964   152A      0.587430  
     153A      0.596233   154A      0.598314   155A      0.605986  
     156A      0.613008   157A      0.613889   158A      0.619439  
     159A      0.624471   160A      0.641047   161A      0.648389  
     162A      0.651523   163A      0.654943   164A      0.655346  
     165A      0.658478   166A      0.670359   167A      0.676677  
     168A      0.685318   169A      0.689035   170A      0.694874  
     171A      0.700276   172A      0.705337   173A      0.708784  
     174A      0.718648   175A      0.726260   176A      0.738586  
     177A      0.748408   178A      0.753458   179A      0.774292  
     180A      0.776183   181A      0.783578   182A      0.792046  
     183A      0.807743   184A      0.813148   185A      0.820243  
     186A      0.832128   187A      0.840480   188A      0.842589  
     189A      0.854699   190A      0.860783   191A      0.864358  
     192A      0.869696   193A      0.879258   194A      0.881869  
     195A      0.891875   196A      0.894427   197A      0.897633  
     198A      0.902495   199A      0.913195   200A      0.915589  
     201A      0.922748   202A      0.926128   203A      0.928597  
     204A      0.941120   205A      0.946390   206A      0.948958  
     207A      0.960073   208A      0.961578   209A      0.971492  
     210A      0.978536   211A      0.985555   212A      0.986962  
     213A      0.993148   214A      1.004805   215A      1.014796  
     216A      1.023648   217A      1.031057   218A      1.034254  
     219A      1.040986   220A      1.047255   221A      1.055834  
     222A      1.059919   223A      1.064872   224A      1.066240  
     225A      1.072712   226A      1.082203   227A      1.085539  
     228A      1.090466   229A      1.092278   230A      1.097489  
     231A      1.101197   232A      1.109711   233A      1.115462  
     234A      1.121370   235A      1.125389   236A      1.130395  
     237A      1.136025   238A      1.143830   239A      1.145979  
     240A      1.147971   241A      1.157415   242A      1.161701  
     243A      1.168611   244A      1.179515   245A      1.192685  
     246A      1.194805   247A      1.200128   248A      1.204644  
     249A      1.217136   250A      1.218599   251A      1.225587  
     252A      1.229679   253A      1.233174   254A      1.239248  
     255A      1.246814   256A      1.256434   257A      1.259766  
     258A      1.265537   259A      1.277704   260A      1.284182  
     261A      1.294617   262A      1.296171   263A      1.306183  
     264A      1.306742   265A      1.318358   266A      1.332598  
     267A      1.335892   268A      1.339266   269A      1.353258  
     270A      1.356803   271A      1.366577   272A      1.385311  
     273A      1.389694   274A      1.399525   275A      1.400521  
     276A      1.412642   277A      1.418019   278A      1.425554  
     279A      1.437598   280A      1.443109   281A      1.444962  
     282A      1.453590   283A      1.462801   284A      1.469829  
     285A      1.471950   286A      1.478162   287A      1.493981  
     288A      1.512170   289A      1.518125   290A      1.521593  
     291A      1.532755   292A      1.534475   293A      1.543621  
     294A      1.544615   295A      1.555949   296A      1.572558  
     297A      1.576816   298A      1.581811   299A      1.587583  
     300A      1.593339   301A      1.606975   302A      1.611385  
     303A      1.617238   304A      1.623624   305A      1.636307  
     306A      1.637250   307A      1.654810   308A      1.660243  
     309A      1.671727   310A      1.686286   311A      1.689680  
     312A      1.697416   313A      1.709011   314A      1.711520  
     315A      1.712477   316A      1.719743   317A      1.726284  
     318A      1.733925   319A      1.736057   320A      1.749947  
     321A      1.766297   322A      1.769746   323A      1.775176  
     324A      1.780303   325A      1.795938   326A      1.806090  
     327A      1.808869   328A      1.815554   329A      1.828983  
     330A      1.833573   331A      1.840115   332A      1.851669  
     333A      1.858065   334A      1.863134   335A      1.868412  
     336A      1.875949   337A      1.879786   338A      1.897122  
     339A      1.898979   340A      1.903913   341A      1.912908  
     342A      1.919657   343A      1.922690   344A      1.934251  
     345A      1.952998   346A      1.957690   347A      1.972132  
     348A      1.980887   349A      1.988248   350A      1.992687  
     351A      1.997894   352A      2.008988   353A      2.018415  
     354A      2.028187   355A      2.041216   356A      2.045626  
     357A      2.061281   358A      2.067783   359A      2.073376  
     360A      2.083126   361A      2.091138   362A      2.105380  
     363A      2.118349   364A      2.122687   365A      2.125490  
     366A      2.139454   367A      2.150443   368A      2.170485  
     369A      2.177835   370A      2.183314   371A      2.189195  
     372A      2.195964   373A      2.200265   374A      2.220110  
     375A      2.240530   376A      2.253065   377A      2.268086  
     378A      2.277313   379A      2.289339   380A      2.303610  
     381A      2.307127   382A      2.326992   383A      2.339773  
     384A      2.351959   385A      2.365932   386A      2.381524  
     387A      2.403711   388A      2.414397   389A      2.419761  
     390A      2.434690   391A      2.441610   392A      2.462253  
     393A      2.472214   394A      2.487069   395A      2.497238  
     396A      2.517573   397A      2.531565   398A      2.544414  
     399A      2.549867   400A      2.561270   401A      2.584652  
     402A      2.602351   403A      2.609284   404A      2.623831  
     405A      2.634971   406A      2.643560   407A      2.655081  
     408A      2.661138   409A      2.673162   410A      2.694452  
     411A      2.705999   412A      2.719964   413A      2.725420  
     414A      2.741118   415A      2.753902   416A      2.768484  
     417A      2.772539   418A      2.778789   419A      2.810657  
     420A      2.819983   421A      2.827655   422A      2.839422  
     423A      2.849483   424A      2.864854   425A      2.874072  
     426A      2.887903   427A      2.903981   428A      2.916658  
     429A      2.921447   430A      2.935512   431A      2.944538  
     432A      2.962622   433A      2.971270   434A      2.975107  
     435A      2.994828   436A      3.010095   437A      3.012338  
     438A      3.018244   439A      3.042967   440A      3.045647  
     441A      3.055853   442A      3.061743   443A      3.074415  
     444A      3.105774   445A      3.111959   446A      3.119381  
     447A      3.126697   448A      3.136277   449A      3.138643  
     450A      3.145714   451A      3.153466   452A      3.160970  
     453A      3.183507   454A      3.195758   455A      3.206029  
     456A      3.238979   457A      3.252173   458A      3.258039  
     459A      3.272999   460A      3.304665   461A      3.306916  
     462A      3.334149   463A      3.363578   464A      3.378472  
     465A      3.386402   466A      3.412162   467A      3.430193  
     468A      3.484235   469A      3.494199   470A      3.510452  
     471A      3.538986   472A      3.546609   473A      3.594687  
     474A      3.615598   475A      3.642267   476A      3.675546  
     477A      3.682274   478A      3.706049   479A      3.717169  
     480A      3.739648   481A      3.753169   482A      3.765223  
     483A      3.776115   484A      3.798543   485A      3.802370  
     486A      3.827550   487A      3.841836   488A      3.846779  
     489A      3.850919   490A      3.875962   491A      3.881415  
     492A      3.900763   493A      3.903495   494A      3.909975  
     495A      3.930913   496A      3.946081   497A      3.972917  
     498A      3.989233   499A      3.998041   500A      4.007724  
     501A      4.018272   502A      4.035386   503A      4.044703  
     504A      4.054210   505A      4.061519   506A      4.076746  
     507A      4.085644   508A      4.098097   509A      4.103021  
     510A      4.109785   511A      4.125988   512A      4.133857  
     513A      4.149547   514A      4.163839   515A      4.188060  
     516A      4.191460   517A      4.203217   518A      4.221712  
     519A      4.225128   520A      4.236081   521A      4.249088  
     522A      4.268132   523A      4.277152   524A      4.287745  
     525A      4.295721   526A      4.312468   527A      4.317690  
     528A      4.324144   529A      4.340432   530A      4.353873  
     531A      4.363088   532A      4.367263   533A      4.378833  
     534A      4.392358   535A      4.398461   536A      4.419684  
     537A      4.424701   538A      4.441884   539A      4.453209  
     540A      4.460758   541A      4.471153   542A      4.485011  
     543A      4.489783   544A      4.503706   545A      4.525375  
     546A      4.528135   547A      4.539724   548A      4.541663  
     549A      4.558582   550A      4.572784   551A      4.578289  
     552A      4.599794   553A      4.613566   554A      4.621133  
     555A      4.633227   556A      4.659153   557A      4.666089  
     558A      4.673334   559A      4.681705   560A      4.692428  
     561A      4.708362   562A      4.713353   563A      4.721232  
     564A      4.745491   565A      4.753371   566A      4.773315  
     567A      4.782328   568A      4.804253   569A      4.821357  
     570A      4.832275   571A      4.834804   572A      4.873653  
     573A      4.876283   574A      4.896180   575A      4.902873  
     576A      4.924117   577A      4.943614   578A      4.950231  
     579A      4.966611   580A      4.978864   581A      4.993640  
     582A      5.004021   583A      5.016635   584A      5.041223  
     585A      5.051137   586A      5.059267   587A      5.080227  
     588A      5.096556   589A      5.103457   590A      5.118166  
     591A      5.130760   592A      5.156775   593A      5.171153  
     594A      5.181360   595A      5.187423   596A      5.194826  
     597A      5.220568   598A      5.226363   599A      5.243849  
     600A      5.270741   601A      5.272366   602A      5.305155  
     603A      5.312449   604A      5.325002   605A      5.337428  
     606A      5.350149   607A      5.361450   608A      5.376724  
     609A      5.393106   610A      5.404461   611A      5.417663  
     612A      5.431100   613A      5.441017   614A      5.451410  
     615A      5.473114   616A      5.482056   617A      5.486136  
     618A      5.499284   619A      5.537631   620A      5.543223  
     621A      5.554025   622A      5.562267   623A      5.576962  
     624A      5.596576   625A      5.619075   626A      5.634498  
     627A      5.644707   628A      5.663263   629A      5.671025  
     630A      5.698755   631A      5.712229   632A      5.732464  
     633A      5.738966   634A      5.793634   635A      5.795294  
     636A      5.825544   637A      5.837603   638A      5.868418  
     639A      5.911248   640A      5.938544   641A      5.962044  
     642A      6.000558   643A      6.018667   644A      6.063252  
     645A      6.066402   646A      6.101611   647A      6.127803  
     648A      6.195644   649A      6.204829   650A      6.213974  
     651A      6.298250   652A      6.340550   653A      6.365226  
     654A      6.408571   655A      6.496048   656A      6.538468  
     657A      6.645302   658A      6.693071   659A      6.714041  
     660A      6.742839   661A      6.758105   662A      6.793711  
     663A      6.822481   664A      6.844400   665A      6.860975  
     666A      6.881797   667A      6.909360   668A      6.964371  
     669A      6.989440   670A      7.010761   671A      7.042540  
     672A      7.056447   673A      7.080261   674A      7.099278  
     675A      7.130258   676A      7.132714   677A      7.152641  
     678A      7.199327   679A      7.214526   680A      7.231459  
     681A      7.271168   682A      7.313398   683A      7.327268  
     684A      7.340843   685A      7.366233   686A      7.383076  
     687A      7.387550   688A      7.408422   689A      7.416386  
     690A      7.428407   691A      7.455248   692A      7.457877  
     693A      7.481636   694A      7.491635   695A      7.522511  
     696A      7.531027   697A      7.562452   698A      7.578728  
     699A      7.587441   700A      7.596430   701A      7.633117  
     702A      7.684957   703A      7.724371   704A      7.742445  
     705A      7.784794   706A      7.789392   707A      7.836686  
     708A      7.876660   709A      7.902664   710A      7.957210  
     711A      7.973345   712A      7.993551   713A      8.042987  
     714A      8.044172   715A      8.050364   716A      8.075102  
     717A      8.119177   718A      8.258795   719A      8.307702  
     720A      8.325737   721A      8.448623   722A      8.502180  
     723A      8.585309   724A      8.613099   725A      8.676946  
     726A      8.845186   727A     16.049330   728A     16.187408  
     729A     16.433879   730A     16.850943   731A     17.018878  
     732A     18.356422   733A     18.697278   734A     18.978421  
     735A     20.116980   736A     20.461856  

    Final Occupation by Irrep:
              A 
    DOCC [    41 ]

  @DF-RHF Final Energy:  -570.83770775297910

   => Energetics <=

    Nuclear Repulsion Energy =            618.1636785959873350
    One-Electron Energy =               -2012.1024872041261915
    Two-Electron Energy =                 823.1011008551598707
    Total Energy =                       -570.8377077529790995

Computation Completed


Properties will be evaluated at   0.000000,   0.000000,   0.000000 [a0]

Properties computed using the SCF density matrix

  Nuclear Dipole Moment: [e a0]
     X:    -1.9476      Y:    -1.3983      Z:     1.4632

  Electronic Dipole Moment: [e a0]
     X:     1.2435      Y:     0.8746      Z:    -1.1670

  Dipole Moment: [e a0]
     X:    -0.7041      Y:    -0.5237      Z:     0.2961     Total:     0.9262

  Dipole Moment: [D]
     X:    -1.7897      Y:    -1.3312      Z:     0.7527     Total:     2.3541


*** tstop() called on bme-pluto.bme.utexas.edu at Mon Feb 12 17:03:17 2024
Module time:
	user time   =     278.61 seconds =       4.64 minutes
	system time =       1.60 seconds =       0.03 minutes
	total time  =         37 seconds =       0.62 minutes
Total time:
	user time   =     278.61 seconds =       4.64 minutes
	system time =       1.60 seconds =       0.03 minutes
	total time  =         37 seconds =       0.62 minutes

*** tstart() called on bme-pluto.bme.utexas.edu
*** at Mon Feb 12 17:03:17 2024


  //>>>>>>>>>>>>>>>>>>>>>>>>>>>>>>>>>>>//
  //               DFMP2               //
  //<<<<<<<<<<<<<<<<<<<<<<<<<<<<<<<<<<<//

   => Loading Basis Set <=

    Name: (AUG-CC-PVTZ AUX)
    Role: RIFIT
    Keyword: DF_BASIS_MP2
    atoms 1, 5, 11-12, 20      entry O          line   264 file /opt/anaconda/envs/psi4v1.5/share/psi4/basis/aug-cc-pvtz-ri.gbs 
    atoms 2, 7-8, 13-19, 21-22 entry H          line    30 file /opt/anaconda/envs/psi4v1.5/share/psi4/basis/aug-cc-pvtz-ri.gbs 
    atoms 3-4, 6, 9-10         entry C          line   148 file /opt/anaconda/envs/psi4v1.5/share/psi4/basis/aug-cc-pvtz-ri.gbs 

	 --------------------------------------------------------
	                          DF-MP2                         
	      2nd-Order Density-Fitted Moller-Plesset Theory     
	              RMP2 Wavefunction,   8 Threads             
	                                                         
	        Rob Parrish, Justin Turney, Andy Simmonett,      
	           Ed Hohenstein, and C. David Sherrill          
	 --------------------------------------------------------

   => Auxiliary Basis Set <=

  Basis Set: (AUG-CC-PVTZ AUX)
    Blend: AUG-CC-PVTZ-RI
    Number of shells: 448
    Number of basis functions: 1612
    Number of Cartesian functions: 2020
    Spherical Harmonics?: true
    Max angular momentum: 4

	 --------------------------------------------------------
	                 NBF =   736, NAUX =  1612
	 --------------------------------------------------------
	   CLASS    FOCC     OCC    AOCC    AVIR     VIR    FVIR
	   PAIRS      10      41      31     695     695       0
	 --------------------------------------------------------

	 Will save fitting metric to file 97.

	-----------------------------------------------------------
	 ==================> DF-MP2 Energies <==================== 
	-----------------------------------------------------------
	 Reference Energy          =    -570.8377077529790995 [Eh]
	 Singles Energy            =      -0.0000000000000000 [Eh]
	 Same-Spin Energy          =      -0.5254882429696072 [Eh]
	 Opposite-Spin Energy      =      -1.5884937260617391 [Eh]
	 Correlation Energy        =      -2.1139819690313462 [Eh]
	 Total Energy              =    -572.9516897220104283 [Eh]
	-----------------------------------------------------------
	 ================> DF-SCS-MP2 Energies <================== 
	-----------------------------------------------------------
	 SCS Same-Spin Scale       =       0.3333333333333333 [-]
	 SCS Opposite-Spin Scale   =       1.2000000000000000 [-]
	 SCS Same-Spin Energy      =      -0.1751627476565357 [Eh]
	 SCS Opposite-Spin Energy  =      -1.9061924712740868 [Eh]
	 SCS Correlation Energy    =      -2.0813552189306224 [Eh]
	 SCS Total Energy          =    -572.9190629719097387 [Eh]
	-----------------------------------------------------------


*** tstop() called on bme-pluto.bme.utexas.edu at Mon Feb 12 17:03:26 2024
Module time:
	user time   =      55.64 seconds =       0.93 minutes
	system time =       0.77 seconds =       0.01 minutes
	total time  =          9 seconds =       0.15 minutes
Total time:
	user time   =     334.26 seconds =       5.57 minutes
	system time =       2.37 seconds =       0.04 minutes
	total time  =         46 seconds =       0.77 minutes

  //>>>>>>>>>>>>>>>>>>>>>>>>>>>>>>>>>>>//
  //            Monomer A HF           //
  //<<<<<<<<<<<<<<<<<<<<<<<<<<<<<<<<<<<//


*** tstart() called on bme-pluto.bme.utexas.edu
*** at Mon Feb 12 17:03:26 2024

   => Loading Basis Set <=

    Name: AUG-CC-PVTZ
    Role: ORBITAL
    Keyword: BASIS
    atoms 1, 5, 11-12, 20      entry O          line   331 file /opt/anaconda/envs/psi4v1.5/share/psi4/basis/aug-cc-pvtz.gbs 
    atoms 2, 7-8, 13-19, 21-22 entry H          line    40 file /opt/anaconda/envs/psi4v1.5/share/psi4/basis/aug-cc-pvtz.gbs 
    atoms 3-4, 6, 9-10         entry C          line   239 file /opt/anaconda/envs/psi4v1.5/share/psi4/basis/aug-cc-pvtz.gbs 


         ---------------------------------------------------------
                                   SCF
               by Justin Turney, Rob Parrish, Andy Simmonett
                          and Daniel G. A. Smith
                              RHF Reference
                        8 Threads,  76293 MiB Core
         ---------------------------------------------------------

  ==> Geometry <==

    Molecular point group: c1
    Full point group: C1

    Geometry (in Angstrom), charge = 0, multiplicity = 1:

       Center              X                  Y                   Z               Mass       
    ------------   -----------------  -----------------  -----------------  -----------------
         O            3.010687295554     0.119706414130    -0.602826310046    15.994914619570
         H            2.797577295554     1.007716414130    -0.260666310046     1.007825032230
         C            2.481737295554    -0.769653585870     0.373663689954    12.000000000000
         C            1.014657295554    -0.470193585870     0.604503689954    12.000000000000
         O            0.960507295554     0.903296414130     1.044363689954    15.994914619570
         C           -0.307012704446     1.421606414130     0.629413689954    12.000000000000
         H           -0.251942704446     2.511456414130     0.669283689954     1.007825032230
         H           -1.111162704446     1.074076414130     1.292003689954     1.007825032230
         C            0.158987295554    -0.545473585870    -0.662236310046    12.000000000000
         C           -0.484282704446     0.858266414130    -0.781946310046    12.000000000000
         O           -0.854222704446    -1.549683585870    -0.485496310046    15.994914619570
         O           -1.813612704446     0.817966414130    -1.270706310046    15.994914619570
         H            3.025897295554    -0.689603585870     1.325183689954     1.007825032230
         H            2.607067295554    -1.784263585870    -0.014046310046     1.007825032230
         H            0.586077295554    -1.133913585870     1.371603689954     1.007825032230
         H            0.763377295554    -0.791833585870    -1.542086310046     1.007825032230
         H            0.096427295554     1.457866414130    -1.489526310046     1.007825032230
         H           -2.391892704446     0.553126414130    -0.520316310046     1.007825032230
         H           -1.459202704446    -1.404143585870    -1.241486310046     1.007825032230
      Gh(O)          -3.321854248306    -0.568422673589     1.093662198726    15.994914619570
      Gh(H)          -4.131924248306    -1.101852673589     1.106462198726     1.007825032230
      Gh(H)          -2.597504248306    -1.188812673589     0.865512198726     1.007825032230

  Running in c1 symmetry.

  Rotational constants: A =      0.06895  B =      0.02558  C =      0.02462 [cm^-1]
  Rotational constants: A =   2067.09360  B =    766.91916  C =    738.03680 [MHz]
  Nuclear repulsion =  514.888823588082573

  Charge       = 0
  Multiplicity = 1
  Electrons    = 72
  Nalpha       = 36
  Nbeta        = 36

  ==> Algorithm <==

  SCF Algorithm Type is DF.
  DIIS enabled.
  MOM disabled.
  Fractional occupation disabled.
  Guess Type is SAD.
  Energy threshold   = 1.00e-08
  Density threshold  = 1.00e-08
  Integral threshold = 1.00e-12

  ==> Primary Basis <==

  Basis Set: AUG-CC-PVTZ
    Blend: AUG-CC-PVTZ
    Number of shells: 248
    Number of basis functions: 736
    Number of Cartesian functions: 850
    Spherical Harmonics?: true
    Max angular momentum: 3

   => Loading Basis Set <=

    Name: (AUG-CC-PVTZ AUX)
    Role: JKFIT
    Keyword: DF_BASIS_SCF
    atoms 1, 5, 11-12, 20      entry O          line   286 file /opt/anaconda/envs/psi4v1.5/share/psi4/basis/aug-cc-pvtz-jkfit.gbs 
    atoms 2, 7-8, 13-19, 21-22 entry H          line    70 file /opt/anaconda/envs/psi4v1.5/share/psi4/basis/aug-cc-pvtz-jkfit.gbs 
    atoms 3-4, 6, 9-10         entry C          line   162 file /opt/anaconda/envs/psi4v1.5/share/psi4/basis/aug-cc-pvtz-jkfit.gbs 

  ==> Integral Setup <==

  ==> DiskDFJK: Density-Fitted J/K Matrices <==

    J tasked:                  Yes
    K tasked:                  Yes
    wK tasked:                  No
    OpenMP threads:              8
    Integrals threads:           8
    Memory [MiB]:            57220
    Algorithm:                Core
    Integral Cache:           LOAD
    Schwarz Cutoff:          1E-12
    Fitting Condition:       1E-10

   => Auxiliary Basis Set <=

  Basis Set: (AUG-CC-PVTZ AUX)
    Blend: AUG-CC-PVTZ-JKFIT
    Number of shells: 468
    Number of basis functions: 1592
    Number of Cartesian functions: 1970
    Spherical Harmonics?: true
    Max angular momentum: 4

  Minimum eigenvalue in the overlap matrix is 1.4649462777E-06.
  Reciprocal condition number of the overlap matrix is 6.6270511785E-08.
    Using symmetric orthogonalization.

  ==> Pre-Iterations <==

  SCF Guess: Superposition of Atomic Densities via on-the-fly atomic UHF (no occupation information).

   -------------------------
    Irrep   Nso     Nmo    
   -------------------------
     A        736     736 
   -------------------------
    Total     736     736
   -------------------------

  ==> Iterations <==

                           Total Energy        Delta E     RMS |[F,P]|

   @DF-RHF iter SAD:  -494.13666688175044   -4.94137e+02   0.00000e+00 
   @DF-RHF iter   1:  -494.50169227060894   -3.65025e-01   9.77573e-04 DIIS
   @DF-RHF iter   2:  -494.71705702554516   -2.15365e-01   5.17391e-04 DIIS
   @DF-RHF iter   3:  -494.76590429480245   -4.88473e-02   9.83596e-05 DIIS
   @DF-RHF iter   4:  -494.76939549915062   -3.49120e-03   2.82039e-05 DIIS
   @DF-RHF iter   5:  -494.76964928878670   -2.53790e-04   7.87648e-06 DIIS
   @DF-RHF iter   6:  -494.76967471745940   -2.54287e-05   2.06775e-06 DIIS
   @DF-RHF iter   7:  -494.76967744732639   -2.72987e-06   6.45956e-07 DIIS
   @DF-RHF iter   8:  -494.76967767336464   -2.26038e-07   2.23830e-07 DIIS
   @DF-RHF iter   9:  -494.76967770094950   -2.75849e-08   6.37237e-08 DIIS
   @DF-RHF iter  10:  -494.76967770263292   -1.68342e-09   2.31693e-08 DIIS
   @DF-RHF iter  11:  -494.76967770284938   -2.16460e-10   5.24646e-09 DIIS
  Energy and wave function converged.


  ==> Post-Iterations <==

    Orbital Energies [Eh]
    ---------------------

    Doubly Occupied:                                                      

       1A    -20.585454     2A    -20.576765     3A    -20.569664  
       4A    -20.560211     5A    -11.297048     6A    -11.293236  
       7A    -11.289560     8A    -11.288590     9A    -11.280584  
      10A     -1.409339    11A     -1.384548    12A     -1.356198  
      13A     -1.355709    14A     -1.046167    15A     -1.031078  
      16A     -0.914072    17A     -0.844472    18A     -0.798995  
      19A     -0.727195    20A     -0.713509    21A     -0.691357  
      22A     -0.680577    23A     -0.651278    24A     -0.627463  
      25A     -0.620317    26A     -0.603609    27A     -0.576144  
      28A     -0.566210    29A     -0.551319    30A     -0.525337  
      31A     -0.504066    32A     -0.495151    33A     -0.477390  
      34A     -0.451872    35A     -0.441711    36A     -0.431856  

    Virtual:                                                              

      37A      0.023499    38A      0.033231    39A      0.035370  
      40A      0.036662    41A      0.050220    42A      0.052127  
      43A      0.054576    44A      0.056958    45A      0.057615  
      46A      0.072548    47A      0.076360    48A      0.084660  
      49A      0.100170    50A      0.103606    51A      0.110597  
      52A      0.114975    53A      0.117238    54A      0.122036  
      55A      0.125232    56A      0.129010    57A      0.131970  
      58A      0.138039    59A      0.139311    60A      0.143995  
      61A      0.147482    62A      0.156545    63A      0.158855  
      64A      0.169349    65A      0.171350    66A      0.172478  
      67A      0.179314    68A      0.189815    69A      0.190940  
      70A      0.200781    71A      0.207229    72A      0.213679  
      73A      0.221960    74A      0.223076    75A      0.232456  
      76A      0.239718    77A      0.245601    78A      0.250633  
      79A      0.255558    80A      0.259749    81A      0.267204  
      82A      0.274394    83A      0.275615    84A      0.284939  
      85A      0.286509    86A      0.289069    87A      0.293465  
      88A      0.296764    89A      0.304434    90A      0.312449  
      91A      0.314359    92A      0.318506    93A      0.319650  
      94A      0.322802    95A      0.333128    96A      0.338709  
      97A      0.339903    98A      0.346495    99A      0.351746  
     100A      0.355182   101A      0.365827   102A      0.366861  
     103A      0.377735   104A      0.381737   105A      0.382473  
     106A      0.385518   107A      0.389094   108A      0.395865  
     109A      0.405165   110A      0.408603   111A      0.410222  
     112A      0.419031   113A      0.425477   114A      0.429673  
     115A      0.436152   116A      0.443450   117A      0.449862  
     118A      0.454024   119A      0.456917   120A      0.462759  
     121A      0.464143   122A      0.472008   123A      0.477122  
     124A      0.478787   125A      0.480082   126A      0.492623  
     127A      0.497751   128A      0.500364   129A      0.503712  
     130A      0.507409   131A      0.514338   132A      0.517290  
     133A      0.519692   134A      0.522208   135A      0.528181  
     136A      0.532896   137A      0.536887   138A      0.541128  
     139A      0.544534   140A      0.548158   141A      0.552895  
     142A      0.559325   143A      0.565206   144A      0.572348  
     145A      0.574882   146A      0.578612   147A      0.585706  
     148A      0.589822   149A      0.596580   150A      0.597650  
     151A      0.607812   152A      0.613358   153A      0.616900  
     154A      0.623140   155A      0.632585   156A      0.642765  
     157A      0.646922   158A      0.651208   159A      0.657224  
     160A      0.660948   161A      0.666409   162A      0.673452  
     163A      0.682610   164A      0.686830   165A      0.694069  
     166A      0.702300   167A      0.705554   168A      0.706155  
     169A      0.716317   170A      0.726017   171A      0.738821  
     172A      0.742492   173A      0.762993   174A      0.776375  
     175A      0.788670   176A      0.793380   177A      0.801317  
     178A      0.811797   179A      0.824514   180A      0.830370  
     181A      0.835175   182A      0.848318   183A      0.851996  
     184A      0.855086   185A      0.858763   186A      0.862010  
     187A      0.867699   188A      0.872084   189A      0.880854  
     190A      0.884960   191A      0.891940   192A      0.897499  
     193A      0.904418   194A      0.914715   195A      0.918711  
     196A      0.923655   197A      0.925355   198A      0.929726  
     199A      0.937312   200A      0.943577   201A      0.946848  
     202A      0.958291   203A      0.961039   204A      0.965671  
     205A      0.975660   206A      0.979478   207A      0.992983  
     208A      0.996769   209A      0.998481   210A      1.007489  
     211A      1.009797   212A      1.023768   213A      1.028774  
     214A      1.039379   215A      1.044202   216A      1.048975  
     217A      1.055188   218A      1.063536   219A      1.066631  
     220A      1.070672   221A      1.079409   222A      1.080536  
     223A      1.088203   224A      1.092526   225A      1.097029  
     226A      1.107619   227A      1.109717   228A      1.112818  
     229A      1.120223   230A      1.124697   231A      1.126806  
     232A      1.139856   233A      1.144422   234A      1.147406  
     235A      1.155730   236A      1.160429   237A      1.163028  
     238A      1.168775   239A      1.170974   240A      1.189971  
     241A      1.192295   242A      1.199852   243A      1.206696  
     244A      1.217152   245A      1.221549   246A      1.223109  
     247A      1.225246   248A      1.232143   249A      1.246010  
     250A      1.250371   251A      1.253293   252A      1.257871  
     253A      1.264962   254A      1.281156   255A      1.287932  
     256A      1.293828   257A      1.296808   258A      1.310777  
     259A      1.312019   260A      1.320619   261A      1.329013  
     262A      1.335318   263A      1.341452   264A      1.347511  
     265A      1.360380   266A      1.361680   267A      1.387124  
     268A      1.401681   269A      1.402392   270A      1.408816  
     271A      1.413421   272A      1.417927   273A      1.428263  
     274A      1.435453   275A      1.438388   276A      1.445956  
     277A      1.449895   278A      1.467537   279A      1.470137  
     280A      1.484769   281A      1.493180   282A      1.497336  
     283A      1.509760   284A      1.522209   285A      1.524163  
     286A      1.531175   287A      1.535119   288A      1.540665  
     289A      1.554344   290A      1.567013   291A      1.572625  
     292A      1.583955   293A      1.585263   294A      1.587883  
     295A      1.598648   296A      1.605005   297A      1.610380  
     298A      1.615450   299A      1.627616   300A      1.631878  
     301A      1.639286   302A      1.647317   303A      1.657437  
     304A      1.669829   305A      1.686187   306A      1.692367  
     307A      1.702632   308A      1.707813   309A      1.711988  
     310A      1.721855   311A      1.726149   312A      1.728847  
     313A      1.739526   314A      1.741709   315A      1.749265  
     316A      1.766511   317A      1.771073   318A      1.779919  
     319A      1.782094   320A      1.792955   321A      1.804950  
     322A      1.811617   323A      1.817183   324A      1.826095  
     325A      1.844036   326A      1.846925   327A      1.855621  
     328A      1.858443   329A      1.866642   330A      1.872062  
     331A      1.877329   332A      1.890281   333A      1.892334  
     334A      1.899585   335A      1.908808   336A      1.915735  
     337A      1.918171   338A      1.926553   339A      1.934137  
     340A      1.943973   341A      1.952467   342A      1.970621  
     343A      1.974414   344A      1.983862   345A      1.987057  
     346A      1.994209   347A      2.003769   348A      2.014642  
     349A      2.018869   350A      2.033038   351A      2.044576  
     352A      2.050968   353A      2.064125   354A      2.070538  
     355A      2.079275   356A      2.087763   357A      2.092945  
     358A      2.108338   359A      2.115385   360A      2.123564  
     361A      2.133555   362A      2.141970   363A      2.154615  
     364A      2.173395   365A      2.180224   366A      2.183508  
     367A      2.197879   368A      2.199080   369A      2.222492  
     370A      2.226096   371A      2.251606   372A      2.260444  
     373A      2.274643   374A      2.293068   375A      2.295742  
     376A      2.299813   377A      2.317469   378A      2.323562  
     379A      2.354621   380A      2.369134   381A      2.380268  
     382A      2.392133   383A      2.410988   384A      2.417785  
     385A      2.444263   386A      2.456851   387A      2.466429  
     388A      2.469320   389A      2.503876   390A      2.522867  
     391A      2.531107   392A      2.551038   393A      2.560835  
     394A      2.591702   395A      2.597388   396A      2.610371  
     397A      2.623387   398A      2.627740   399A      2.633334  
     400A      2.639426   401A      2.648642   402A      2.674726  
     403A      2.687501   404A      2.699076   405A      2.718018  
     406A      2.724375   407A      2.736528   408A      2.758356  
     409A      2.771560   410A      2.775717   411A      2.792920  
     412A      2.805654   413A      2.810458   414A      2.818722  
     415A      2.831593   416A      2.850361   417A      2.857899  
     418A      2.865309   419A      2.884296   420A      2.900749  
     421A      2.906711   422A      2.921221   423A      2.935300  
     424A      2.958213   425A      2.967050   426A      2.976396  
     427A      2.990074   428A      2.995247   429A      3.006126  
     430A      3.019204   431A      3.027527   432A      3.036105  
     433A      3.041140   434A      3.054785   435A      3.077922  
     436A      3.085128   437A      3.102619   438A      3.108301  
     439A      3.117741   440A      3.127515   441A      3.142084  
     442A      3.148434   443A      3.157993   444A      3.159474  
     445A      3.184337   446A      3.195303   447A      3.207899  
     448A      3.232734   449A      3.241439   450A      3.259271  
     451A      3.262779   452A      3.268569   453A      3.273802  
     454A      3.297722   455A      3.315998   456A      3.350710  
     457A      3.362671   458A      3.374921   459A      3.384236  
     460A      3.420754   461A      3.434908   462A      3.436816  
     463A      3.462996   464A      3.484893   465A      3.496549  
     466A      3.513121   467A      3.528676   468A      3.541442  
     469A      3.554412   470A      3.598447   471A      3.617884  
     472A      3.621774   473A      3.655563   474A      3.678407  
     475A      3.689293   476A      3.706564   477A      3.719846  
     478A      3.743513   479A      3.762343   480A      3.773686  
     481A      3.783798   482A      3.798106   483A      3.806901  
     484A      3.820623   485A      3.842166   486A      3.846218  
     487A      3.851826   488A      3.861336   489A      3.886683  
     490A      3.899206   491A      3.907475   492A      3.911391  
     493A      3.941108   494A      3.952161   495A      3.980750  
     496A      3.988360   497A      3.995235   498A      4.017780  
     499A      4.037371   500A      4.042818   501A      4.047888  
     502A      4.057912   503A      4.069351   504A      4.083187  
     505A      4.097188   506A      4.111471   507A      4.123835  
     508A      4.126819   509A      4.137551   510A      4.159981  
     511A      4.179462   512A      4.195468   513A      4.202326  
     514A      4.220777   515A      4.226815   516A      4.235835  
     517A      4.252156   518A      4.265578   519A      4.277698  
     520A      4.288203   521A      4.300769   522A      4.312287  
     523A      4.325191   524A      4.341974   525A      4.348534  
     526A      4.366181   527A      4.383265   528A      4.387381  
     529A      4.393966   530A      4.408563   531A      4.424605  
     532A      4.430521   533A      4.447191   534A      4.449907  
     535A      4.469771   536A      4.486532   537A      4.505418  
     538A      4.515090   539A      4.533893   540A      4.534736  
     541A      4.546492   542A      4.560847   543A      4.570131  
     544A      4.591187   545A      4.606479   546A      4.616769  
     547A      4.627307   548A      4.630735   549A      4.654531  
     550A      4.663310   551A      4.675299   552A      4.682393  
     553A      4.694507   554A      4.706525   555A      4.719693  
     556A      4.734773   557A      4.744033   558A      4.764511  
     559A      4.770973   560A      4.793890   561A      4.818735  
     562A      4.825370   563A      4.828633   564A      4.848253  
     565A      4.871143   566A      4.882508   567A      4.906282  
     568A      4.913529   569A      4.934439   570A      4.948559  
     571A      4.955020   572A      4.968529   573A      4.972176  
     574A      5.004203   575A      5.015152   576A      5.033797  
     577A      5.041313   578A      5.046711   579A      5.059278  
     580A      5.075797   581A      5.086233   582A      5.106075  
     583A      5.113648   584A      5.120794   585A      5.125432  
     586A      5.143723   587A      5.174840   588A      5.190774  
     589A      5.196683   590A      5.210298   591A      5.234919  
     592A      5.243665   593A      5.268254   594A      5.281868  
     595A      5.307304   596A      5.316811   597A      5.324211  
     598A      5.342161   599A      5.353925   600A      5.363499  
     601A      5.370271   602A      5.394853   603A      5.405688  
     604A      5.425497   605A      5.441263   606A      5.454226  
     607A      5.462126   608A      5.472412   609A      5.489990  
     610A      5.500589   611A      5.527290   612A      5.539064  
     613A      5.543080   614A      5.561065   615A      5.562362  
     616A      5.571610   617A      5.592036   618A      5.628423  
     619A      5.638635   620A      5.645085   621A      5.656186  
     622A      5.670816   623A      5.700906   624A      5.712633  
     625A      5.730454   626A      5.738858   627A      5.760542  
     628A      5.792213   629A      5.794570   630A      5.833982  
     631A      5.864796   632A      5.894862   633A      5.926184  
     634A      5.940679   635A      5.962958   636A      5.997804  
     637A      6.009668   638A      6.061257   639A      6.063040  
     640A      6.098654   641A      6.122085   642A      6.192758  
     643A      6.200379   644A      6.214087   645A      6.336044  
     646A      6.343163   647A      6.368832   648A      6.383863  
     649A      6.464025   650A      6.492223   651A      6.530896  
     652A      6.694207   653A      6.705630   654A      6.728152  
     655A      6.745330   656A      6.787553   657A      6.796658  
     658A      6.835987   659A      6.868573   660A      6.887336  
     661A      6.909921   662A      6.970924   663A      7.009940  
     664A      7.048593   665A      7.055633   666A      7.081274  
     667A      7.087414   668A      7.102712   669A      7.132252  
     670A      7.140095   671A      7.158504   672A      7.201203  
     673A      7.226370   674A      7.269952   675A      7.332791  
     676A      7.365170   677A      7.365781   678A      7.391231  
     679A      7.400604   680A      7.423166   681A      7.437099  
     682A      7.469412   683A      7.514643   684A      7.521570  
     685A      7.535085   686A      7.577067   687A      7.585577  
     688A      7.592590   689A      7.631461   690A      7.709284  
     691A      7.723244   692A      7.738506   693A      7.765951  
     694A      7.787271   695A      7.819357   696A      7.864721  
     697A      7.888302   698A      7.903449   699A      7.958821  
     700A      8.012525   701A      8.030042   702A      8.038832  
     703A      8.049281   704A      8.111175   705A      8.156281  
     706A      8.201924   707A      8.258608   708A      8.301988  
     709A      8.315766   710A      8.333705   711A      8.447032  
     712A      8.497499   713A      8.585147   714A      8.616001  
     715A      8.675279   716A      8.795843   717A      8.899970  
     718A      9.866470   719A      9.999257   720A     10.081934  
     721A     10.295229   722A     11.167270   723A     11.896453  
     724A     12.171415   725A     13.580942   726A     14.024375  
     727A     16.177756   728A     16.433299   729A     16.856413  
     730A     17.005096   731A     18.356032   732A     18.690082  
     733A     18.975337   734A     20.113503   735A     20.463294  
     736A     65.465093  

    Final Occupation by Irrep:
              A 
    DOCC [    36 ]

  @DF-RHF Final Energy:  -494.76967770284938

   => Energetics <=

    Nuclear Repulsion Energy =            514.8888235880825732
    One-Electron Energy =               -1700.8809003535759530
    Two-Electron Energy =                 691.2223990626440582
    Total Energy =                       -494.7696777028494353

Computation Completed


Properties will be evaluated at   0.000000,   0.000000,   0.000000 [a0]

Properties computed using the SCF density matrix

  Nuclear Dipole Moment: [e a0]
     X:    60.9883      Y:    11.5237      Z:   -18.7971

  Electronic Dipole Moment: [e a0]
     X:   -61.5709      Y:   -11.2898      Z:    19.1823

  Dipole Moment: [e a0]
     X:    -0.5827      Y:     0.2339      Z:     0.3852     Total:     0.7366

  Dipole Moment: [D]
     X:    -1.4810      Y:     0.5946      Z:     0.9791     Total:     1.8722


*** tstop() called on bme-pluto.bme.utexas.edu at Mon Feb 12 17:03:56 2024
Module time:
	user time   =     231.29 seconds =       3.85 minutes
	system time =       1.11 seconds =       0.02 minutes
	total time  =         30 seconds =       0.50 minutes
Total time:
	user time   =     565.59 seconds =       9.43 minutes
	system time =       3.48 seconds =       0.06 minutes
	total time  =         76 seconds =       1.27 minutes

*** tstart() called on bme-pluto.bme.utexas.edu
*** at Mon Feb 12 17:03:56 2024


  //>>>>>>>>>>>>>>>>>>>>>>>>>>>>>>>>>>>//
  //               DFMP2               //
  //<<<<<<<<<<<<<<<<<<<<<<<<<<<<<<<<<<<//

   => Loading Basis Set <=

    Name: (AUG-CC-PVTZ AUX)
    Role: RIFIT
    Keyword: DF_BASIS_MP2
    atoms 1, 5, 11-12, 20      entry O          line   264 file /opt/anaconda/envs/psi4v1.5/share/psi4/basis/aug-cc-pvtz-ri.gbs 
    atoms 2, 7-8, 13-19, 21-22 entry H          line    30 file /opt/anaconda/envs/psi4v1.5/share/psi4/basis/aug-cc-pvtz-ri.gbs 
    atoms 3-4, 6, 9-10         entry C          line   148 file /opt/anaconda/envs/psi4v1.5/share/psi4/basis/aug-cc-pvtz-ri.gbs 

	 --------------------------------------------------------
	                          DF-MP2                         
	      2nd-Order Density-Fitted Moller-Plesset Theory     
	              RMP2 Wavefunction,   8 Threads             
	                                                         
	        Rob Parrish, Justin Turney, Andy Simmonett,      
	           Ed Hohenstein, and C. David Sherrill          
	 --------------------------------------------------------

   => Auxiliary Basis Set <=

  Basis Set: (AUG-CC-PVTZ AUX)
    Blend: AUG-CC-PVTZ-RI
    Number of shells: 448
    Number of basis functions: 1612
    Number of Cartesian functions: 2020
    Spherical Harmonics?: true
    Max angular momentum: 4

	 --------------------------------------------------------
	                 NBF =   736, NAUX =  1612
	 --------------------------------------------------------
	   CLASS    FOCC     OCC    AOCC    AVIR     VIR    FVIR
	   PAIRS       9      36      27     700     700       0
	 --------------------------------------------------------

	 Will attempt to load fitting metric from file 97.

	-----------------------------------------------------------
	 ==================> DF-MP2 Energies <==================== 
	-----------------------------------------------------------
	 Reference Energy          =    -494.7696777028493784 [Eh]
	 Singles Energy            =      -0.0000000000000000 [Eh]
	 Same-Spin Energy          =      -0.4574257541988543 [Eh]
	 Opposite-Spin Energy      =      -1.3821046804612784 [Eh]
	 Correlation Energy        =      -1.8395304346601327 [Eh]
	 Total Energy              =    -496.6092081375094835 [Eh]
	-----------------------------------------------------------
	 ================> DF-SCS-MP2 Energies <================== 
	-----------------------------------------------------------
	 SCS Same-Spin Scale       =       0.3333333333333333 [-]
	 SCS Opposite-Spin Scale   =       1.2000000000000000 [-]
	 SCS Same-Spin Energy      =      -0.1524752513996181 [Eh]
	 SCS Opposite-Spin Energy  =      -1.6585256165535340 [Eh]
	 SCS Correlation Energy    =      -1.8110008679531522 [Eh]
	 SCS Total Energy          =    -496.5806785708025473 [Eh]
	-----------------------------------------------------------


*** tstop() called on bme-pluto.bme.utexas.edu at Mon Feb 12 17:04:04 2024
Module time:
	user time   =      47.07 seconds =       0.78 minutes
	system time =       0.72 seconds =       0.01 minutes
	total time  =          8 seconds =       0.13 minutes
Total time:
	user time   =     612.67 seconds =      10.21 minutes
	system time =       4.20 seconds =       0.07 minutes
	total time  =         84 seconds =       1.40 minutes

  //>>>>>>>>>>>>>>>>>>>>>>>>>>>>>>>>>>>//
  //            Monomer B HF           //
  //<<<<<<<<<<<<<<<<<<<<<<<<<<<<<<<<<<<//


*** tstart() called on bme-pluto.bme.utexas.edu
*** at Mon Feb 12 17:04:04 2024

   => Loading Basis Set <=

    Name: AUG-CC-PVTZ
    Role: ORBITAL
    Keyword: BASIS
    atoms 1, 5, 11-12, 20      entry O          line   331 file /opt/anaconda/envs/psi4v1.5/share/psi4/basis/aug-cc-pvtz.gbs 
    atoms 2, 7-8, 13-19, 21-22 entry H          line    40 file /opt/anaconda/envs/psi4v1.5/share/psi4/basis/aug-cc-pvtz.gbs 
    atoms 3-4, 6, 9-10         entry C          line   239 file /opt/anaconda/envs/psi4v1.5/share/psi4/basis/aug-cc-pvtz.gbs 


         ---------------------------------------------------------
                                   SCF
               by Justin Turney, Rob Parrish, Andy Simmonett
                          and Daniel G. A. Smith
                              RHF Reference
                        8 Threads,  76293 MiB Core
         ---------------------------------------------------------

  ==> Geometry <==

    Molecular point group: c1
    Full point group: C1

    Geometry (in Angstrom), charge = 0, multiplicity = 1:

       Center              X                  Y                   Z               Mass       
    ------------   -----------------  -----------------  -----------------  -----------------
      Gh(O)           3.010687295554     0.119706414130    -0.602826310046    15.994914619570
      Gh(H)           2.797577295554     1.007716414130    -0.260666310046     1.007825032230
      Gh(C)           2.481737295554    -0.769653585870     0.373663689954    12.000000000000
      Gh(C)           1.014657295554    -0.470193585870     0.604503689954    12.000000000000
      Gh(O)           0.960507295554     0.903296414130     1.044363689954    15.994914619570
      Gh(C)          -0.307012704446     1.421606414130     0.629413689954    12.000000000000
      Gh(H)          -0.251942704446     2.511456414130     0.669283689954     1.007825032230
      Gh(H)          -1.111162704446     1.074076414130     1.292003689954     1.007825032230
      Gh(C)           0.158987295554    -0.545473585870    -0.662236310046    12.000000000000
      Gh(C)          -0.484282704446     0.858266414130    -0.781946310046    12.000000000000
      Gh(O)          -0.854222704446    -1.549683585870    -0.485496310046    15.994914619570
      Gh(O)          -1.813612704446     0.817966414130    -1.270706310046    15.994914619570
      Gh(H)           3.025897295554    -0.689603585870     1.325183689954     1.007825032230
      Gh(H)           2.607067295554    -1.784263585870    -0.014046310046     1.007825032230
      Gh(H)           0.586077295554    -1.133913585870     1.371603689954     1.007825032230
      Gh(H)           0.763377295554    -0.791833585870    -1.542086310046     1.007825032230
      Gh(H)           0.096427295554     1.457866414130    -1.489526310046     1.007825032230
      Gh(H)          -2.391892704446     0.553126414130    -0.520316310046     1.007825032230
      Gh(H)          -1.459202704446    -1.404143585870    -1.241486310046     1.007825032230
         O           -3.321854248306    -0.568422673589     1.093662198726    15.994914619570
         H           -4.131924248306    -1.101852673589     1.106462198726     1.007825032230
         H           -2.597504248306    -1.188812673589     0.865512198726     1.007825032230

  Running in c1 symmetry.

  Rotational constants: A =      0.06895  B =      0.02558  C =      0.02462 [cm^-1]
  Rotational constants: A =   2067.09360  B =    766.91916  C =    738.03680 [MHz]
  Nuclear repulsion =    9.021528973657572

  Charge       = 0
  Multiplicity = 1
  Electrons    = 10
  Nalpha       = 5
  Nbeta        = 5

  ==> Algorithm <==

  SCF Algorithm Type is DF.
  DIIS enabled.
  MOM disabled.
  Fractional occupation disabled.
  Guess Type is SAD.
  Energy threshold   = 1.00e-08
  Density threshold  = 1.00e-08
  Integral threshold = 1.00e-12

  ==> Primary Basis <==

  Basis Set: AUG-CC-PVTZ
    Blend: AUG-CC-PVTZ
    Number of shells: 248
    Number of basis functions: 736
    Number of Cartesian functions: 850
    Spherical Harmonics?: true
    Max angular momentum: 3

   => Loading Basis Set <=

    Name: (AUG-CC-PVTZ AUX)
    Role: JKFIT
    Keyword: DF_BASIS_SCF
    atoms 1, 5, 11-12, 20      entry O          line   286 file /opt/anaconda/envs/psi4v1.5/share/psi4/basis/aug-cc-pvtz-jkfit.gbs 
    atoms 2, 7-8, 13-19, 21-22 entry H          line    70 file /opt/anaconda/envs/psi4v1.5/share/psi4/basis/aug-cc-pvtz-jkfit.gbs 
    atoms 3-4, 6, 9-10         entry C          line   162 file /opt/anaconda/envs/psi4v1.5/share/psi4/basis/aug-cc-pvtz-jkfit.gbs 

  ==> Integral Setup <==

  ==> DiskDFJK: Density-Fitted J/K Matrices <==

    J tasked:                  Yes
    K tasked:                  Yes
    wK tasked:                  No
    OpenMP threads:              8
    Integrals threads:           8
    Memory [MiB]:            57220
    Algorithm:                Core
    Integral Cache:           LOAD
    Schwarz Cutoff:          1E-12
    Fitting Condition:       1E-10

   => Auxiliary Basis Set <=

  Basis Set: (AUG-CC-PVTZ AUX)
    Blend: AUG-CC-PVTZ-JKFIT
    Number of shells: 468
    Number of basis functions: 1592
    Number of Cartesian functions: 1970
    Spherical Harmonics?: true
    Max angular momentum: 4

  Minimum eigenvalue in the overlap matrix is 1.4649462777E-06.
  Reciprocal condition number of the overlap matrix is 6.6270511785E-08.
    Using symmetric orthogonalization.

  ==> Pre-Iterations <==

  SCF Guess: Superposition of Atomic Densities via on-the-fly atomic UHF (no occupation information).

   -------------------------
    Irrep   Nso     Nmo    
   -------------------------
     A        736     736 
   -------------------------
    Total     736     736
   -------------------------

  ==> Iterations <==

                           Total Energy        Delta E     RMS |[F,P]|

   @DF-RHF iter SAD:   -75.45573840676485   -7.54557e+01   0.00000e+00 
   @DF-RHF iter   1:   -75.97397133346834   -5.18233e-01   6.34751e-04 DIIS
   @DF-RHF iter   2:   -76.02591072367548   -5.19394e-02   4.39839e-04 DIIS
   @DF-RHF iter   3:   -76.05845039951242   -3.25397e-02   2.99944e-05 DIIS
   @DF-RHF iter   4:   -76.05886388680815   -4.13487e-04   7.44301e-06 DIIS
   @DF-RHF iter   5:   -76.05889187021818   -2.79834e-05   1.71157e-06 DIIS
   @DF-RHF iter   6:   -76.05889421920406   -2.34899e-06   3.78638e-07 DIIS
   @DF-RHF iter   7:   -76.05889434508894   -1.25885e-07   6.87008e-08 DIIS
   @DF-RHF iter   8:   -76.05889434870919   -3.62024e-09   1.17557e-08 DIIS
   @DF-RHF iter   9:   -76.05889434879431   -8.51230e-11   3.00516e-09 DIIS
  Energy and wave function converged.


  ==> Post-Iterations <==

    Orbital Energies [Eh]
    ---------------------

    Doubly Occupied:                                                      

       1A    -20.569549     2A     -1.343458     3A     -0.710278  
       4A     -0.578886     5A     -0.508458  

    Virtual:                                                              

       6A      0.016400     7A      0.029054     8A      0.032961  
       9A      0.034528    10A      0.046805    11A      0.053672  
      12A      0.054219    13A      0.055448    14A      0.057908  
      15A      0.068008    16A      0.078073    17A      0.080801  
      18A      0.084027    19A      0.095150    20A      0.096220  
      21A      0.098766    22A      0.110585    23A      0.116498  
      24A      0.117894    25A      0.122794    26A      0.128981  
      27A      0.135405    28A      0.135530    29A      0.139868  
      30A      0.144304    31A      0.154631    32A      0.158930  
      33A      0.162611    34A      0.166080    35A      0.171486  
      36A      0.177437    37A      0.181908    38A      0.188862  
      39A      0.194257    40A      0.198585    41A      0.202459  
      42A      0.210795    43A      0.217859    44A      0.220423  
      45A      0.221730    46A      0.227677    47A      0.233723  
      48A      0.233933    49A      0.244645    50A      0.255411  
      51A      0.255819    52A      0.272785    53A      0.273611  
      54A      0.279068    55A      0.281235    56A      0.289092  
      57A      0.291427    58A      0.304973    59A      0.306230  
      60A      0.315454    61A      0.318316    62A      0.324115  
      63A      0.329960    64A      0.333526    65A      0.339755  
      66A      0.345892    67A      0.346195    68A      0.351877  
      69A      0.359559    70A      0.366668    71A      0.369295  
      72A      0.375455    73A      0.389010    74A      0.390999  
      75A      0.392314    76A      0.399416    77A      0.401269  
      78A      0.405631    79A      0.408416    80A      0.413144  
      81A      0.416462    82A      0.427156    83A      0.437640  
      84A      0.439879    85A      0.442324    86A      0.448319  
      87A      0.452833    88A      0.460918    89A      0.466401  
      90A      0.467014    91A      0.471089    92A      0.475868  
      93A      0.477712    94A      0.489514    95A      0.494020  
      96A      0.497463    97A      0.503707    98A      0.508577  
      99A      0.516121   100A      0.518682   101A      0.527324  
     102A      0.529898   103A      0.533929   104A      0.537044  
     105A      0.545900   106A      0.552439   107A      0.554695  
     108A      0.566715   109A      0.570121   110A      0.581037  
     111A      0.585475   112A      0.587995   113A      0.592893  
     114A      0.595622   115A      0.597948   116A      0.604463  
     117A      0.612807   118A      0.623933   119A      0.631932  
     120A      0.636806   121A      0.643284   122A      0.648549  
     123A      0.656802   124A      0.658755   125A      0.662065  
     126A      0.672018   127A      0.686083   128A      0.690713  
     129A      0.698680   130A      0.708999   131A      0.710603  
     132A      0.717904   133A      0.728056   134A      0.729515  
     135A      0.739472   136A      0.746629   137A      0.748152  
     138A      0.756639   139A      0.763156   140A      0.772760  
     141A      0.777457   142A      0.785188   143A      0.792618  
     144A      0.797924   145A      0.804502   146A      0.810466  
     147A      0.822494   148A      0.827167   149A      0.841708  
     150A      0.849712   151A      0.855818   152A      0.856962  
     153A      0.873036   154A      0.882001   155A      0.896232  
     156A      0.904327   157A      0.909229   158A      0.912720  
     159A      0.928768   160A      0.929763   161A      0.934665  
     162A      0.945549   163A      0.953856   164A      0.958056  
     165A      0.969115   166A      0.975470   167A      0.982457  
     168A      0.989808   169A      0.996586   170A      1.003012  
     171A      1.013543   172A      1.017710   173A      1.023441  
     174A      1.029350   175A      1.037614   176A      1.038166  
     177A      1.041136   178A      1.045222   179A      1.050022  
     180A      1.053464   181A      1.061983   182A      1.064802  
     183A      1.070799   184A      1.087138   185A      1.089441  
     186A      1.095601   187A      1.096409   188A      1.109099  
     189A      1.114067   190A      1.123784   191A      1.129689  
     192A      1.131579   193A      1.140578   194A      1.147862  
     195A      1.153917   196A      1.155561   197A      1.165246  
     198A      1.170975   199A      1.172920   200A      1.180724  
     201A      1.183164   202A      1.196701   203A      1.210212  
     204A      1.214428   205A      1.216082   206A      1.221592  
     207A      1.225002   208A      1.226976   209A      1.237405  
     210A      1.243965   211A      1.251652   212A      1.256956  
     213A      1.266058   214A      1.269671   215A      1.273005  
     216A      1.281693   217A      1.285266   218A      1.297812  
     219A      1.309087   220A      1.311811   221A      1.318737  
     222A      1.323376   223A      1.330171   224A      1.339686  
     225A      1.344503   226A      1.355827   227A      1.363079  
     228A      1.364098   229A      1.372786   230A      1.384586  
     231A      1.388581   232A      1.393265   233A      1.405892  
     234A      1.413591   235A      1.419556   236A      1.426866  
     237A      1.434652   238A      1.438268   239A      1.446155  
     240A      1.455690   241A      1.462850   242A      1.467535  
     243A      1.475224   244A      1.485766   245A      1.492238  
     246A      1.502144   247A      1.516285   248A      1.521721  
     249A      1.525907   250A      1.532197   251A      1.536986  
     252A      1.546959   253A      1.559494   254A      1.567925  
     255A      1.572251   256A      1.583844   257A      1.591303  
     258A      1.593753   259A      1.601826   260A      1.613135  
     261A      1.615276   262A      1.626297   263A      1.638115  
     264A      1.648840   265A      1.651310   266A      1.658052  
     267A      1.665731   268A      1.671045   269A      1.678477  
     270A      1.689222   271A      1.698588   272A      1.708606  
     273A      1.725298   274A      1.730615   275A      1.736867  
     276A      1.742601   277A      1.753932   278A      1.763756  
     279A      1.770599   280A      1.782360   281A      1.790071  
     282A      1.800071   283A      1.805338   284A      1.812827  
     285A      1.821532   286A      1.832102   287A      1.837425  
     288A      1.847968   289A      1.851581   290A      1.864371  
     291A      1.876752   292A      1.881600   293A      1.883117  
     294A      1.895000   295A      1.910098   296A      1.926045  
     297A      1.928016   298A      1.936038   299A      1.941762  
     300A      1.948284   301A      1.950116   302A      1.969216  
     303A      1.977452   304A      1.984160   305A      1.997006  
     306A      2.012795   307A      2.017526   308A      2.026617  
     309A      2.035642   310A      2.048899   311A      2.063536  
     312A      2.068651   313A      2.078793   314A      2.085252  
     315A      2.098798   316A      2.110613   317A      2.116967  
     318A      2.124035   319A      2.133383   320A      2.141846  
     321A      2.154446   322A      2.169203   323A      2.177943  
     324A      2.189331   325A      2.194721   326A      2.204478  
     327A      2.214844   328A      2.233764   329A      2.238264  
     330A      2.251350   331A      2.256157   332A      2.269240  
     333A      2.283267   334A      2.285896   335A      2.307144  
     336A      2.312166   337A      2.324620   338A      2.327381  
     339A      2.344274   340A      2.360505   341A      2.374403  
     342A      2.389627   343A      2.400242   344A      2.423172  
     345A      2.432965   346A      2.445681   347A      2.450729  
     348A      2.456436   349A      2.469827   350A      2.484031  
     351A      2.494069   352A      2.502974   353A      2.511753  
     354A      2.533674   355A      2.537331   356A      2.552053  
     357A      2.558842   358A      2.571748   359A      2.589496  
     360A      2.606720   361A      2.610601   362A      2.628564  
     363A      2.636464   364A      2.646158   365A      2.665280  
     366A      2.670272   367A      2.689093   368A      2.703529  
     369A      2.716773   370A      2.719598   371A      2.736864  
     372A      2.742997   373A      2.756140   374A      2.778606  
     375A      2.789936   376A      2.795234   377A      2.809062  
     378A      2.815643   379A      2.819173   380A      2.844700  
     381A      2.853966   382A      2.863464   383A      2.873906  
     384A      2.885251   385A      2.891370   386A      2.896673  
     387A      2.912980   388A      2.917792   389A      2.942342  
     390A      2.947121   391A      2.963891   392A      2.969801  
     393A      2.985227   394A      2.992414   395A      2.999983  
     396A      3.020689   397A      3.033907   398A      3.044927  
     399A      3.057031   400A      3.068935   401A      3.070464  
     402A      3.089878   403A      3.104628   404A      3.111318  
     405A      3.146744   406A      3.154347   407A      3.163519  
     408A      3.177300   409A      3.189990   410A      3.214373  
     411A      3.215043   412A      3.256875   413A      3.264678  
     414A      3.288911   415A      3.300896   416A      3.315100  
     417A      3.320910   418A      3.334480   419A      3.349500  
     420A      3.375159   421A      3.392982   422A      3.410682  
     423A      3.438440   424A      3.446048   425A      3.449864  
     426A      3.482592   427A      3.487598   428A      3.517844  
     429A      3.528909   430A      3.553313   431A      3.569170  
     432A      3.581761   433A      3.601022   434A      3.613801  
     435A      3.630441   436A      3.653029   437A      3.659970  
     438A      3.684907   439A      3.687588   440A      3.697882  
     441A      3.711910   442A      3.722365   443A      3.734326  
     444A      3.759247   445A      3.777299   446A      3.817459  
     447A      3.827555   448A      3.851465   449A      3.894482  
     450A      3.934611   451A      3.940803   452A      3.963760  
     453A      3.986257   454A      4.004603   455A      4.014601  
     456A      4.033796   457A      4.071197   458A      4.091409  
     459A      4.111745   460A      4.132805   461A      4.150470  
     462A      4.183083   463A      4.246147   464A      4.279742  
     465A      4.287267   466A      4.300314   467A      4.316678  
     468A      4.320725   469A      4.355780   470A      4.363749  
     471A      4.372482   472A      4.387363   473A      4.411753  
     474A      4.414395   475A      4.436846   476A      4.451462  
     477A      4.455994   478A      4.470987   479A      4.485630  
     480A      4.502051   481A      4.513855   482A      4.527955  
     483A      4.534495   484A      4.547866   485A      4.567826  
     486A      4.581820   487A      4.596487   488A      4.615366  
     489A      4.627758   490A      4.638146   491A      4.648345  
     492A      4.655107   493A      4.660217   494A      4.668522  
     495A      4.677612   496A      4.699374   497A      4.703245  
     498A      4.719484   499A      4.739527   500A      4.754997  
     501A      4.756873   502A      4.769586   503A      4.778332  
     504A      4.795219   505A      4.810327   506A      4.824716  
     507A      4.833334   508A      4.846352   509A      4.861841  
     510A      4.897877   511A      4.905846   512A      4.921270  
     513A      4.927767   514A      4.943902   515A      4.965823  
     516A      4.983351   517A      4.994519   518A      5.004337  
     519A      5.025207   520A      5.035477   521A      5.047049  
     522A      5.049615   523A      5.073993   524A      5.085871  
     525A      5.098496   526A      5.132467   527A      5.135033  
     528A      5.143954   529A      5.158303   530A      5.169049  
     531A      5.174510   532A      5.182800   533A      5.194900  
     534A      5.227297   535A      5.248611   536A      5.274337  
     537A      5.283851   538A      5.289980   539A      5.306119  
     540A      5.325794   541A      5.331909   542A      5.350334  
     543A      5.365327   544A      5.370155   545A      5.387689  
     546A      5.397042   547A      5.421633   548A      5.425877  
     549A      5.437052   550A      5.446911   551A      5.460046  
     552A      5.479677   553A      5.505770   554A      5.528491  
     555A      5.546369   556A      5.550865   557A      5.567015  
     558A      5.578457   559A      5.596396   560A      5.610374  
     561A      5.629936   562A      5.637852   563A      5.651287  
     564A      5.663874   565A      5.678286   566A      5.696574  
     567A      5.706517   568A      5.719825   569A      5.740282  
     570A      5.755311   571A      5.769805   572A      5.776022  
     573A      5.809756   574A      5.826140   575A      5.830006  
     576A      5.837761   577A      5.844433   578A      5.867541  
     579A      5.888792   580A      5.904742   581A      5.920423  
     582A      5.945778   583A      5.963820   584A      5.986198  
     585A      6.000895   586A      6.019824   587A      6.031080  
     588A      6.047812   589A      6.072300   590A      6.089792  
     591A      6.132697   592A      6.142205   593A      6.168323  
     594A      6.201930   595A      6.207992   596A      6.235690  
     597A      6.245676   598A      6.265474   599A      6.311371  
     600A      6.319003   601A      6.328744   602A      6.350580  
     603A      6.390264   604A      6.416976   605A      6.432087  
     606A      6.480136   607A      6.534119   608A      6.592083  
     609A      6.606342   610A      6.642228   611A      6.672310  
     612A      6.719560   613A      6.753565   614A      6.805983  
     615A      6.832835   616A      6.854895   617A      6.928602  
     618A      6.992915   619A      7.044900   620A      7.068701  
     621A      7.077272   622A      7.138916   623A      7.212949  
     624A      7.231461   625A      7.240270   626A      7.253350  
     627A      7.286284   628A      7.345579   629A      7.385745  
     630A      7.399535   631A      7.430365   632A      7.469430  
     633A      7.509372   634A      7.667957   635A      7.674606  
     636A      7.690419   637A      7.756557   638A      7.784608  
     639A      7.804799   640A      7.820959   641A      7.857153  
     642A      7.875967   643A      7.914213   644A      7.935503  
     645A      7.945473   646A      7.981115   647A      7.994868  
     648A      8.002328   649A      8.018088   650A      8.029916  
     651A      8.051294   652A      8.062616   653A      8.076857  
     654A      8.097826   655A      8.137694   656A      8.162576  
     657A      8.181046   658A      8.183786   659A      8.208131  
     660A      8.234454   661A      8.262886   662A      8.291321  
     663A      8.341139   664A      8.342399   665A      8.370248  
     666A      8.383689   667A      8.404129   668A      8.419228  
     669A      8.453159   670A      8.501291   671A      8.515682  
     672A      8.569268   673A      8.596192   674A      8.647639  
     675A      8.657380   676A      8.680468   677A      8.855501  
     678A      8.910356   679A      8.957766   680A      8.995289  
     681A      9.047729   682A      9.073692   683A      9.176189  
     684A      9.231825   685A      9.580730   686A     10.085363  
     687A     10.091891   688A     10.117890   689A     10.129448  
     690A     10.141016   691A     10.189002   692A     10.246230  
     693A     10.289724   694A     10.342258   695A     10.386198  
     696A     10.437197   697A     10.465449   698A     10.542826  
     699A     10.567898   700A     10.611566   701A     10.651583  
     702A     10.732776   703A     10.771033   704A     10.872850  
     705A     10.925884   706A     11.017672   707A     11.109460  
     708A     11.131355   709A     11.276798   710A     11.361259  
     711A     12.110944   712A     12.133889   713A     12.186908  
     714A     12.335992   715A     12.401050   716A     12.458120  
     717A     12.566828   718A     12.678996   719A     13.208073  
     720A     13.382992   721A     13.417332   722A     13.524352  
     723A     14.042672   724A     14.160477   725A     14.260704  
     726A     14.381050   727A     16.097249   728A     54.010366  
     729A     54.482766   730A     55.001293   731A     57.647046  
     732A     58.247364   733A     66.925878   734A     67.080693  
     735A     68.101508   736A     68.328705  

    Final Occupation by Irrep:
              A 
    DOCC [     5 ]

  @DF-RHF Final Energy:   -76.05889434879431

   => Energetics <=

    Nuclear Repulsion Energy =              9.0215289736575723
    One-Electron Energy =                -122.7395843509600439
    Two-Electron Energy =                  37.6591610285081657
    Total Energy =                        -76.0588943487943112

Computation Completed


Properties will be evaluated at   0.000000,   0.000000,   0.000000 [a0]

Properties computed using the SCF density matrix

  Nuclear Dipole Moment: [e a0]
     X:   -62.9359      Y:   -12.9220      Z:    20.2603

  Electronic Dipole Moment: [e a0]
     X:    62.8779      Y:    12.1606      Z:   -20.4019

  Dipole Moment: [e a0]
     X:    -0.0581      Y:    -0.7614      Z:    -0.1416     Total:     0.7767

  Dipole Moment: [D]
     X:    -0.1476      Y:    -1.9354      Z:    -0.3600     Total:     1.9741


*** tstop() called on bme-pluto.bme.utexas.edu at Mon Feb 12 17:04:26 2024
Module time:
	user time   =     166.42 seconds =       2.77 minutes
	system time =       0.88 seconds =       0.01 minutes
	total time  =         22 seconds =       0.37 minutes
Total time:
	user time   =     779.12 seconds =      12.99 minutes
	system time =       5.08 seconds =       0.08 minutes
	total time  =        106 seconds =       1.77 minutes

*** tstart() called on bme-pluto.bme.utexas.edu
*** at Mon Feb 12 17:04:26 2024


  //>>>>>>>>>>>>>>>>>>>>>>>>>>>>>>>>>>>//
  //               DFMP2               //
  //<<<<<<<<<<<<<<<<<<<<<<<<<<<<<<<<<<<//

   => Loading Basis Set <=

    Name: (AUG-CC-PVTZ AUX)
    Role: RIFIT
    Keyword: DF_BASIS_MP2
    atoms 1, 5, 11-12, 20      entry O          line   264 file /opt/anaconda/envs/psi4v1.5/share/psi4/basis/aug-cc-pvtz-ri.gbs 
    atoms 2, 7-8, 13-19, 21-22 entry H          line    30 file /opt/anaconda/envs/psi4v1.5/share/psi4/basis/aug-cc-pvtz-ri.gbs 
    atoms 3-4, 6, 9-10         entry C          line   148 file /opt/anaconda/envs/psi4v1.5/share/psi4/basis/aug-cc-pvtz-ri.gbs 

	 --------------------------------------------------------
	                          DF-MP2                         
	      2nd-Order Density-Fitted Moller-Plesset Theory     
	              RMP2 Wavefunction,   8 Threads             
	                                                         
	        Rob Parrish, Justin Turney, Andy Simmonett,      
	           Ed Hohenstein, and C. David Sherrill          
	 --------------------------------------------------------

   => Auxiliary Basis Set <=

  Basis Set: (AUG-CC-PVTZ AUX)
    Blend: AUG-CC-PVTZ-RI
    Number of shells: 448
    Number of basis functions: 1612
    Number of Cartesian functions: 2020
    Spherical Harmonics?: true
    Max angular momentum: 4

	 --------------------------------------------------------
	                 NBF =   736, NAUX =  1612
	 --------------------------------------------------------
	   CLASS    FOCC     OCC    AOCC    AVIR     VIR    FVIR
	   PAIRS       1       5       4     731     731       0
	 --------------------------------------------------------

	 Will attempt to load fitting metric from file 97.

	-----------------------------------------------------------
	 ==================> DF-MP2 Energies <==================== 
	-----------------------------------------------------------
	 Reference Energy          =     -76.0588943487943112 [Eh]
	 Singles Energy            =      -0.0000000000000000 [Eh]
	 Same-Spin Energy          =      -0.0655049528514960 [Eh]
	 Opposite-Spin Energy      =      -0.2047540515394083 [Eh]
	 Correlation Energy        =      -0.2702590043909042 [Eh]
	 Total Energy              =     -76.3291533531852195 [Eh]
	-----------------------------------------------------------
	 ================> DF-SCS-MP2 Energies <================== 
	-----------------------------------------------------------
	 SCS Same-Spin Scale       =       0.3333333333333333 [-]
	 SCS Opposite-Spin Scale   =       1.2000000000000000 [-]
	 SCS Same-Spin Energy      =      -0.0218349842838320 [Eh]
	 SCS Opposite-Spin Energy  =      -0.2457048618472899 [Eh]
	 SCS Correlation Energy    =      -0.2675398461311219 [Eh]
	 SCS Total Energy          =     -76.3264341949254401 [Eh]
	-----------------------------------------------------------


*** tstop() called on bme-pluto.bme.utexas.edu at Mon Feb 12 17:04:31 2024
Module time:
	user time   =      24.86 seconds =       0.41 minutes
	system time =       0.41 seconds =       0.01 minutes
	total time  =          5 seconds =       0.08 minutes
Total time:
	user time   =     803.99 seconds =      13.40 minutes
	system time =       5.49 seconds =       0.09 minutes
	total time  =        111 seconds =       1.85 minutes
  Constructing Basis Sets for SAPT...

   => Loading Basis Set <=

    Name: (AUG-CC-PVTZ AUX)
    Role: RIFIT
    Keyword: DF_BASIS_SAPT
    atoms 1, 5, 11-12, 20      entry O          line   264 file /opt/anaconda/envs/psi4v1.5/share/psi4/basis/aug-cc-pvtz-ri.gbs 
    atoms 2, 7-8, 13-19, 21-22 entry H          line    30 file /opt/anaconda/envs/psi4v1.5/share/psi4/basis/aug-cc-pvtz-ri.gbs 
    atoms 3-4, 6, 9-10         entry C          line   148 file /opt/anaconda/envs/psi4v1.5/share/psi4/basis/aug-cc-pvtz-ri.gbs 


  //>>>>>>>>>>>>>>>>>>>>>>>>>>>>>>>>>>>//
  //           SAPT2+(3)DMP2           //
  //<<<<<<<<<<<<<<<<<<<<<<<<<<<<<<<<<<<//


*** tstart() called on bme-pluto.bme.utexas.edu
*** at Mon Feb 12 17:04:31 2024

      SAPT2+(3)  
    Ed Hohenstein
     6 June 2009

      Orbital Information
  --------------------------
    NSO        =       736
    NMO        =       736
    NRI        =      1612
    NOCC A     =        36
    NOCC B     =         5
    FOCC A     =         9
    FOCC B     =         1
    NVIR A     =       700
    NVIR B     =       731

    Estimated memory usage: 23511.9 MB

    Natural Orbital Cutoff:   1.000E-06
    Disp(T3) Truncation:            Yes
    CCD (vv|vv) Truncation:         Yes
    MBPT T2 Truncation:             Yes

    Monomer A: 159 virtual orbitals dropped
    Monomer B: 648 virtual orbitals dropped

    Elst10,r            =    -0.016453659730 [Eh]
    Exch10 (S^2)        =     0.011284391140 [Eh]
    Exch10              =     0.011317429303 [Eh]
    Ind20,r (A<-B)      =    -0.002959417913 [Eh]
    Ind20,r (B<-A)      =    -0.002458635560 [Eh]
    Ind20,r             =    -0.005418053473 [Eh]
    Exch-Ind20,r (A<-B) =     0.001667520876 [Eh]
    Exch-Ind20,r (B<-A) =     0.001141183434 [Eh]
    Exch-Ind20,r        =     0.002808704310 [Eh]
    Disp20              =    -0.007000955713 [Eh]
    Disp20 (NO)         =    -0.006154768178 [Eh]
    Exch-Disp20         =     0.000957825149 [Eh]
    Elst12,r            =    -0.000275632773 [Eh]
    Exch11              =     0.000130351817 [Eh]
    Exch12              =     0.002419803153 [Eh]
    Ind22               =    -0.001051953179 [Eh]
    Disp21              =     0.000380561780 [Eh]
    Disp22 (SDQ)        =    -0.000215869304 [Eh]

    (i =   1 of   4)        377 seconds
    (i =   2 of   4)        757 seconds
    (i =   3 of   4)       1135 seconds
    (i =   4 of   4)       1513 seconds

    Disp220 (T)         =    -0.000601590392 [Eh]

    (i =   1 of  27)          5 seconds
    (i =   2 of  27)         10 seconds
    (i =   3 of  27)         15 seconds
    (i =   4 of  27)         20 seconds
    (i =   5 of  27)         25 seconds
    (i =   6 of  27)         30 seconds
    (i =   7 of  27)         34 seconds
    (i =   8 of  27)         39 seconds
    (i =   9 of  27)         44 seconds
    (i =  10 of  27)         49 seconds
    (i =  11 of  27)         54 seconds
    (i =  12 of  27)         59 seconds
    (i =  13 of  27)         63 seconds
    (i =  14 of  27)         68 seconds
    (i =  15 of  27)         73 seconds
    (i =  16 of  27)         78 seconds
    (i =  17 of  27)         83 seconds
    (i =  18 of  27)         88 seconds
    (i =  19 of  27)         93 seconds
    (i =  20 of  27)         98 seconds
    (i =  21 of  27)        103 seconds
    (i =  22 of  27)        108 seconds
    (i =  23 of  27)        112 seconds
    (i =  24 of  27)        117 seconds
    (i =  25 of  27)        122 seconds
    (i =  26 of  27)        127 seconds
    (i =  27 of  27)        132 seconds

    Disp202 (T)         =    -0.000545904645 [Eh]

    Disp22 (T)          =    -0.001147495037 [Eh]

    Est. Disp220 (T)    =    -0.000684299972 [Eh]
    Est. Disp202 (T)    =    -0.000620958277 [Eh]

    Est. Disp22 (T)     =    -0.001305258249 [Eh]
    Elst13,r            =     0.000518646407 [Eh]
    Disp30              =     0.000224650551 [Eh]

    SAPT Results 
  --------------------------------------------------------------------------------------------------------
    Electrostatics                -16.21064610 [mEh]     -10.17233400 [kcal/mol]     -42.56104546 [kJ/mol]
      Elst10,r                    -16.45365973 [mEh]     -10.32482736 [kcal/mol]     -43.19907767 [kJ/mol]
      Elst12,r                     -0.27563277 [mEh]      -0.17296218 [kcal/mol]      -0.72367375 [kJ/mol]
      Elst13,r                      0.51864641 [mEh]       0.32545553 [kcal/mol]       1.36170595 [kJ/mol]

    Exchange                       13.86758427 [mEh]       8.70204051 [kcal/mol]      36.40933749 [kJ/mol]
      Exch10                       11.31742930 [mEh]       7.10179411 [kcal/mol]      29.71390654 [kJ/mol]
      Exch10(S^2)                  11.28439114 [mEh]       7.08106235 [kcal/mol]      29.62716486 [kJ/mol]
      Exch11(S^2)                   0.13035182 [mEh]       0.08179700 [kcal/mol]       0.34223865 [kJ/mol]
      Exch12(S^2)                   2.41980315 [mEh]       1.51844940 [kcal/mol]       6.35319230 [kJ/mol]

    Induction                      -4.42339252 [mEh]      -2.77572071 [kcal/mol]     -11.61361547 [kJ/mol]
      Ind20,r                      -5.41805347 [mEh]      -3.39987988 [kcal/mol]     -14.22509743 [kJ/mol]
      Ind22                        -1.05195318 [mEh]      -0.66011059 [kcal/mol]      -2.76190269 [kJ/mol]
      Exch-Ind20,r                  2.80870431 [mEh]       1.76248856 [kcal/mol]       7.37425215 [kJ/mol]
      Exch-Ind22                    0.54532969 [mEh]       0.34219955 [kcal/mol]       1.43176291 [kJ/mol]
      delta HF,r (2)               -1.39012175 [mEh]      -0.87231457 [kcal/mol]      -3.64976414 [kJ/mol]
      delta MP2,r (2)               0.08270188 [mEh]       0.05189621 [kcal/mol]       0.21713374 [kJ/mol]

    Dispersion                     -6.95904579 [mEh]      -4.36686716 [kcal/mol]     -18.27097219 [kJ/mol]
      Disp20                       -7.00095571 [mEh]      -4.39316604 [kcal/mol]     -18.38100669 [kJ/mol]
      Disp30                        0.22465055 [mEh]       0.14097035 [kcal/mol]       0.58981994 [kJ/mol]
      Disp21                        0.38056178 [mEh]       0.23880612 [kcal/mol]       0.99916482 [kJ/mol]
      Disp22 (SDQ)                 -0.21586930 [mEh]      -0.13546003 [kcal/mol]      -0.56676478 [kJ/mol]
      Disp22 (T)                   -1.14749504 [mEh]      -0.72006401 [kcal/mol]      -3.01274780 [kJ/mol]
      Est. Disp22 (T)              -1.30525825 [mEh]      -0.81906192 [kcal/mol]      -3.42695506 [kJ/mol]
      Exch-Disp20                   0.95782515 [mEh]       0.60104436 [kcal/mol]       2.51476958 [kJ/mol]

  Total HF                         -9.13570134 [mEh]      -5.73273914 [kcal/mol]     -23.98578055 [kJ/mol]
  Total SAPT0                     -15.17883190 [mEh]      -9.52486082 [kcal/mol]     -39.85201766 [kJ/mol]
  Total SAPT2                     -13.41093319 [mEh]      -8.41548763 [kcal/mol]     -35.21040024 [kJ/mol]
  Total SAPT2+                    -14.55149896 [mEh]      -9.13120346 [kcal/mol]     -38.20495526 [kJ/mol]
  Total SAPT2+(3)                 -13.80820201 [mEh]      -8.66477757 [kcal/mol]     -36.25342937 [kJ/mol]
  Total SAPT2+dMP2                -14.46879709 [mEh]      -9.07930725 [kcal/mol]     -37.98782152 [kJ/mol]
  Total SAPT2+(3)dMP2             -13.72550013 [mEh]      -8.61288136 [kcal/mol]     -36.03629563 [kJ/mol]

  Special recipe for scaled SAPT0 (see Manual):
    Electrostatics sSAPT0         -16.45365973 [mEh]     -10.32482736 [kcal/mol]     -43.19907767 [kJ/mol]
    Exchange sSAPT0                11.31742930 [mEh]       7.10179411 [kcal/mol]      29.71390654 [kJ/mol]
    Induction sSAPT0               -3.97472884 [mEh]      -2.49418001 [kcal/mol]     -10.43564914 [kJ/mol]
    Dispersion sSAPT0              -6.03469302 [mEh]      -3.78682704 [kcal/mol]     -15.84408434 [kJ/mol]
  Total sSAPT0                    -15.14565229 [mEh]      -9.50404030 [kcal/mol]     -39.76490461 [kJ/mol]
  --------------------------------------------------------------------------------------------------------

*** tstop() called on bme-pluto.bme.utexas.edu at Mon Feb 12 18:32:20 2024
Module time:
	user time   =   38890.06 seconds =     648.17 minutes
	system time =     135.37 seconds =       2.26 minutes
	total time  =       5269 seconds =      87.82 minutes
Total time:
	user time   =   39694.99 seconds =     661.58 minutes
	system time =     140.87 seconds =       2.35 minutes
	total time  =       5380 seconds =      89.67 minutes

    Psi4 stopped on: Monday, 12 February 2024 06:32PM
    Psi4 wall time for execution: 1:29:40.71

*** Psi4 exiting successfully. Buy a developer a beer!
