
    -----------------------------------------------------------------------
          Psi4: An Open-Source Ab Initio Electronic Structure Package
                               Psi4 1.5 release

                         Git: Rev {HEAD} e9f4d6d 


    D. G. A. Smith, L. A. Burns, A. C. Simmonett, R. M. Parrish,
    M. C. Schieber, R. Galvelis, P. Kraus, H. Kruse, R. Di Remigio,
    A. Alenaizan, A. M. James, S. Lehtola, J. P. Misiewicz, M. Scheurer,
    R. A. Shaw, J. B. Schriber, Y. Xie, Z. L. Glick, D. A. Sirianni,
    J. S. O'Brien, J. M. Waldrop, A. Kumar, E. G. Hohenstein,
    B. P. Pritchard, B. R. Brooks, H. F. Schaefer III, A. Yu. Sokolov,
    K. Patkowski, A. E. DePrince III, U. Bozkaya, R. A. King,
    F. A. Evangelista, J. M. Turney, T. D. Crawford, C. D. Sherrill,
    J. Chem. Phys. 152(18) 184108 (2020). https://doi.org/10.1063/5.0006002

                            Additional Code Authors
    E. T. Seidl, C. L. Janssen, E. F. Valeev, M. L. Leininger,
    J. F. Gonthier, R. M. Richard, H. R. McAlexander, M. Saitow, X. Wang,
    P. Verma, M. H. Lechner, and A. Jiang

             Previous Authors, Complete List of Code Contributors,
                       and Citations for Specific Modules
    https://github.com/psi4/psi4/blob/master/codemeta.json
    https://github.com/psi4/psi4/graphs/contributors
    http://psicode.org/psi4manual/master/introduction.html#citing-psifour

    -----------------------------------------------------------------------


    Psi4 started on: Tuesday, 16 January 2024 09:46AM

    Process ID: 4070265
    Host:       node151.bme.utexas.edu
    PSIDATADIR: /opt/anaconda/envs/psi4v1.5/share/psi4
    Memory:     500.0 MiB
    Threads:    8
    
  ==> Input File <==

--------------------------------------------------------------------------
memory 100GB

molecule {
0 1
H 0.14794 -2.41467 -0.63597
N -0.77392 -1.98791 -0.53193
C -1.8302 -2.45246 0.20981
H -1.87895 -3.48099 0.54761
N -2.77378 -1.54265 0.42922
C -2.27062 -0.41479 -0.188
C -2.77416 0.89548 -0.31572
N -3.9442 1.27809 0.27344
N -2.04759 1.80807 -0.97624
C -0.85862 1.42752 -1.49817
H -0.30969 2.20904 -2.01944
N -0.27393 0.22273 -1.46666
C -1.03085 -0.65901 -0.78878
H -4.33612 2.15021 -0.05996
H -4.59957 0.5422 0.50487
--
0 1
H 3.4182105333333332 0.2412436 -2.0138279333333333
N 2.849600533333333 -0.16682639999999999 -1.2807279333333332
C 2.5246505333333333 -1.4826964 -1.1220279333333332
H 2.921730533333333 -2.2538364 -1.7705179333333332
N 1.7045105333333335 -1.7047664 -0.09844793333333335
C 1.4867605333333334 -0.4396164 0.4198120666666666
C 0.6421205333333332 0.04023360000000001 1.4417320666666666
N -0.05974946666666675 -0.7870964 2.2762320666666667
N 0.5731305333333333 1.3619835999999998 1.6543520666666667
C 1.3059105333333334 2.1836936 0.8710720666666666
H 1.2035205333333332 3.2446136 1.0884620666666667
N 2.1346605333333333 1.8643536 -0.13113793333333335
C 2.1704005333333334 0.5375135999999999 -0.3123479333333333
H -0.8233094666666667 -0.3307464 2.7642620666666664
H -0.2740794666666667 -1.7090764 1.9171120666666666
units angstrom
no_reorient
symmetry c1
}
set {
scf_type DF
basis aug-cc-pvtz
freeze_core True
guess SAD
}
energy('sapt2+(3)dmp2')
--------------------------------------------------------------------------

  Memory set to  93.132 GiB by Python driver.

Scratch directory: /tmp/
   => Loading Basis Set <=

    Name: AUG-CC-PVTZ
    Role: ORBITAL
    Keyword: BASIS
    atoms 1, 4, 11, 14-16, 19, 26, 29-30    entry H          line    40 file /opt/anaconda/envs/psi4v1.5/share/psi4/basis/aug-cc-pvtz.gbs 
    atoms 2, 5, 8-9, 12, 17, 20, 23-24, 27  entry N          line   285 file /opt/anaconda/envs/psi4v1.5/share/psi4/basis/aug-cc-pvtz.gbs 
    atoms 3, 6-7, 10, 13, 18, 21-22, 25, 28 entry C          line   239 file /opt/anaconda/envs/psi4v1.5/share/psi4/basis/aug-cc-pvtz.gbs 

   => Loading Basis Set <=

    Name: AUG-CC-PVTZ
    Role: ORBITAL
    Keyword: BASIS
    atoms 1, 4, 11, 14-16, 19, 26, 29-30    entry H          line    40 file /opt/anaconda/envs/psi4v1.5/share/psi4/basis/aug-cc-pvtz.gbs 
    atoms 2, 5, 8-9, 12, 17, 20, 23-24, 27  entry N          line   285 file /opt/anaconda/envs/psi4v1.5/share/psi4/basis/aug-cc-pvtz.gbs 
    atoms 3, 6-7, 10, 13, 18, 21-22, 25, 28 entry C          line   239 file /opt/anaconda/envs/psi4v1.5/share/psi4/basis/aug-cc-pvtz.gbs 


  //>>>>>>>>>>>>>>>>>>>>>>>>>>>>>>>>>>>//
  //              Dimer HF             //
  //<<<<<<<<<<<<<<<<<<<<<<<<<<<<<<<<<<<//


*** tstart() called on node151.bme.utexas.edu
*** at Tue Jan 16 09:46:43 2024

   => Loading Basis Set <=

    Name: AUG-CC-PVTZ
    Role: ORBITAL
    Keyword: BASIS
    atoms 1, 4, 11, 14-16, 19, 26, 29-30    entry H          line    40 file /opt/anaconda/envs/psi4v1.5/share/psi4/basis/aug-cc-pvtz.gbs 
    atoms 2, 5, 8-9, 12, 17, 20, 23-24, 27  entry N          line   285 file /opt/anaconda/envs/psi4v1.5/share/psi4/basis/aug-cc-pvtz.gbs 
    atoms 3, 6-7, 10, 13, 18, 21-22, 25, 28 entry C          line   239 file /opt/anaconda/envs/psi4v1.5/share/psi4/basis/aug-cc-pvtz.gbs 


         ---------------------------------------------------------
                                   SCF
               by Justin Turney, Rob Parrish, Andy Simmonett
                          and Daniel G. A. Smith
                              RHF Reference
                        8 Threads,  95367 MiB Core
         ---------------------------------------------------------

  ==> Geometry <==

    Molecular point group: c1
    Full point group: C1

    Geometry (in Angstrom), charge = 0, multiplicity = 1:

       Center              X                  Y                   Z               Mass       
    ------------   -----------------  -----------------  -----------------  -----------------
         H            0.328410945674    -2.409705554862    -0.587869226445     1.007825032230
         N           -0.593449054326    -1.982945554862    -0.483829226445    14.003074004430
         C           -1.649729054326    -2.447495554862     0.257910773555    12.000000000000
         H           -1.698479054326    -3.476025554862     0.595710773555     1.007825032230
         N           -2.593309054326    -1.537685554862     0.477320773555    14.003074004430
         C           -2.090149054326    -0.409825554862    -0.139899226445    12.000000000000
         C           -2.593689054326     0.900444445138    -0.267619226445    12.000000000000
         N           -3.763729054326     1.283054445138     0.321540773555    14.003074004430
         N           -1.867119054326     1.813034445138    -0.928139226445    14.003074004430
         C           -0.678149054326     1.432484445138    -1.450069226445    12.000000000000
         H           -0.129219054326     2.214004445138    -1.971339226445     1.007825032230
         N           -0.093459054326     0.227694445138    -1.418559226445    14.003074004430
         C           -0.850379054326    -0.654045554862    -0.740679226445    12.000000000000
         H           -4.155649054326     2.155174445138    -0.011859226445     1.007825032230
         H           -4.419099054326     0.547164445138     0.552970773555     1.007825032230
         H            3.598681479007     0.246208045138    -1.965727159778     1.007825032230
         N            3.030071479007    -0.161861954862    -1.232627159778    14.003074004430
         C            2.705121479007    -1.477731954862    -1.073927159778    12.000000000000
         H            3.102201479007    -2.248871954862    -1.722417159778     1.007825032230
         N            1.884981479007    -1.699801954862    -0.050347159778    14.003074004430
         C            1.667231479007    -0.434651954862     0.467912840222    12.000000000000
         C            0.822591479007     0.045198045138     1.489832840222    12.000000000000
         N            0.120721479007    -0.782131954862     2.324332840222    14.003074004430
         N            0.753601479007     1.366948045138     1.702452840222    14.003074004430
         C            1.486381479007     2.188658045138     0.919172840222    12.000000000000
         H            1.383991479007     3.249578045138     1.136562840222     1.007825032230
         N            2.315131479007     1.869318045138    -0.083037159778    14.003074004430
         C            2.350871479007     0.542478045138    -0.264247159778    12.000000000000
         H           -0.642838520993    -0.325781954862     2.812362840222     1.007825032230
         H           -0.093608520993    -1.704111954862     1.965212840222     1.007825032230

  Running in c1 symmetry.

  Rotational constants: A =      0.02032  B =      0.01227  C =      0.01048 [cm^-1]
  Rotational constants: A =    609.28004  B =    367.84283  C =    314.16221 [MHz]
  Nuclear repulsion = 1627.753789546985672

  Charge       = 0
  Multiplicity = 1
  Electrons    = 140
  Nalpha       = 70
  Nbeta        = 70

  ==> Algorithm <==

  SCF Algorithm Type is DF.
  DIIS enabled.
  MOM disabled.
  Fractional occupation disabled.
  Guess Type is SAD.
  Energy threshold   = 1.00e-08
  Density threshold  = 1.00e-08
  Integral threshold = 1.00e-12

  ==> Primary Basis <==

  Basis Set: AUG-CC-PVTZ
    Blend: AUG-CC-PVTZ
    Number of shells: 370
    Number of basis functions: 1150
    Number of Cartesian functions: 1350
    Spherical Harmonics?: true
    Max angular momentum: 3

   => Loading Basis Set <=

    Name: (AUG-CC-PVTZ AUX)
    Role: JKFIT
    Keyword: DF_BASIS_SCF
    atoms 1, 4, 11, 14-16, 19, 26, 29-30    entry H          line    70 file /opt/anaconda/envs/psi4v1.5/share/psi4/basis/aug-cc-pvtz-jkfit.gbs 
    atoms 2, 5, 8-9, 12, 17, 20, 23-24, 27  entry N          line   224 file /opt/anaconda/envs/psi4v1.5/share/psi4/basis/aug-cc-pvtz-jkfit.gbs 
    atoms 3, 6-7, 10, 13, 18, 21-22, 25, 28 entry C          line   162 file /opt/anaconda/envs/psi4v1.5/share/psi4/basis/aug-cc-pvtz-jkfit.gbs 

  ==> Integral Setup <==

  ==> DiskDFJK: Density-Fitted J/K Matrices <==

    J tasked:                  Yes
    K tasked:                  Yes
    wK tasked:                  No
    OpenMP threads:              8
    Integrals threads:           8
    Memory [MiB]:            71525
    Algorithm:                Core
    Integral Cache:           SAVE
    Schwarz Cutoff:          1E-12
    Fitting Condition:       1E-10

   => Auxiliary Basis Set <=

  Basis Set: (AUG-CC-PVTZ AUX)
    Blend: AUG-CC-PVTZ-JKFIT
    Number of shells: 740
    Number of basis functions: 2540
    Number of Cartesian functions: 3170
    Spherical Harmonics?: true
    Max angular momentum: 4

  Minimum eigenvalue in the overlap matrix is 5.2868164486E-07.
  Reciprocal condition number of the overlap matrix is 2.0922245925E-08.
    Using symmetric orthogonalization.

  ==> Pre-Iterations <==

  SCF Guess: Superposition of Atomic Densities via on-the-fly atomic UHF (no occupation information).

   -------------------------
    Irrep   Nso     Nmo    
   -------------------------
     A       1150    1150 
   -------------------------
    Total    1150    1150
   -------------------------

  ==> Iterations <==

                           Total Energy        Delta E     RMS |[F,P]|

   @DF-RHF iter SAD:  -929.68320360788073   -9.29683e+02   0.00000e+00 
   @DF-RHF iter   1:  -928.86331659670452    8.19887e-01   8.09296e-04 DIIS
   @DF-RHF iter   2:  -929.23348395806386   -3.70167e-01   3.96309e-04 DIIS
   @DF-RHF iter   3:  -929.31794526031945   -8.44613e-02   9.29028e-05 DIIS
   @DF-RHF iter   4:  -929.32470054910300   -6.75529e-03   4.16951e-05 DIIS
   @DF-RHF iter   5:  -929.32591166016675   -1.21111e-03   9.70435e-06 DIIS
   @DF-RHF iter   6:  -929.32603465669376   -1.22997e-04   4.61788e-06 DIIS
   @DF-RHF iter   7:  -929.32606845528744   -3.37986e-05   1.98255e-06 DIIS
   @DF-RHF iter   8:  -929.32607581514731   -7.35986e-06   8.04603e-07 DIIS
   @DF-RHF iter   9:  -929.32607723193701   -1.41679e-06   3.76873e-07 DIIS
   @DF-RHF iter  10:  -929.32607757264407   -3.40707e-07   1.63544e-07 DIIS
   @DF-RHF iter  11:  -929.32607764030968   -6.76656e-08   8.27917e-08 DIIS
   @DF-RHF iter  12:  -929.32607765720968   -1.69000e-08   2.99737e-08 DIIS
   @DF-RHF iter  13:  -929.32607765998966   -2.77998e-09   1.28003e-08 DIIS
   @DF-RHF iter  14:  -929.32607766026365   -2.73985e-10   4.61616e-09 DIIS
  Energy and wave function converged.


  ==> Post-Iterations <==

    Orbital Energies [Eh]
    ---------------------

    Doubly Occupied:                                                      

       1A    -15.637017     2A    -15.614273     3A    -15.581373  
       4A    -15.578699     5A    -15.578314     6A    -15.568505  
       7A    -15.559655     8A    -15.555666     9A    -15.551529  
      10A    -15.549122    11A    -11.338223    12A    -11.335532  
      13A    -11.334417    14A    -11.320687    15A    -11.319284  
      16A    -11.312707    17A    -11.311382    18A    -11.309333  
      19A    -11.254025    20A    -11.250038    21A     -1.374097  
      22A     -1.359186    23A     -1.298232    24A     -1.293268  
      25A     -1.244903    26A     -1.242131    27A     -1.194714  
      28A     -1.177166    29A     -1.150852    30A     -1.148129  
      31A     -1.035939    32A     -1.028059    33A     -0.896276  
      34A     -0.888792    35A     -0.878392    36A     -0.871635  
      37A     -0.858988    38A     -0.834665    39A     -0.777925  
      40A     -0.770291    41A     -0.732926    42A     -0.728730  
      43A     -0.700135    44A     -0.693819    45A     -0.676109  
      46A     -0.669209    47A     -0.658586    48A     -0.639990  
      49A     -0.629549    50A     -0.615337    51A     -0.610505  
      52A     -0.606876    53A     -0.591011    54A     -0.584862  
      55A     -0.557135    56A     -0.551955    57A     -0.508291  
      58A     -0.500901    59A     -0.492624    60A     -0.487974  
      61A     -0.457581    62A     -0.451400    63A     -0.435680  
      64A     -0.414234    65A     -0.411721    66A     -0.408699  
      67A     -0.377844    68A     -0.367570    69A     -0.308007  
      70A     -0.305797  

    Virtual:                                                              

      71A      0.018274    72A      0.026972    73A      0.031675  
      74A      0.039244    75A      0.043330    76A      0.044403  
      77A      0.051673    78A      0.055269    79A      0.061432  
      80A      0.062334    81A      0.071241    82A      0.072652  
      83A      0.084504    84A      0.088759    85A      0.091025  
      86A      0.092580    87A      0.097179    88A      0.102157  
      89A      0.102793    90A      0.106278    91A      0.108949  
      92A      0.109306    93A      0.113035    94A      0.116316  
      95A      0.122001    96A      0.122835    97A      0.124936  
      98A      0.126073    99A      0.129854   100A      0.131622  
     101A      0.131945   102A      0.137327   103A      0.139393  
     104A      0.142720   105A      0.146183   106A      0.149155  
     107A      0.151037   108A      0.152900   109A      0.157201  
     110A      0.158952   111A      0.165606   112A      0.167994  
     113A      0.173151   114A      0.178500   115A      0.180959  
     116A      0.183739   117A      0.185546   118A      0.189591  
     119A      0.193674   120A      0.196012   121A      0.199894  
     122A      0.207050   123A      0.211760   124A      0.213517  
     125A      0.214853   126A      0.216648   127A      0.222191  
     128A      0.226207   129A      0.226666   130A      0.228685  
     131A      0.233712   132A      0.234641   133A      0.238521  
     134A      0.241992   135A      0.245937   136A      0.249211  
     137A      0.249998   138A      0.254247   139A      0.258224  
     140A      0.260403   141A      0.262972   142A      0.264342  
     143A      0.270196   144A      0.271369   145A      0.274678  
     146A      0.275785   147A      0.280988   148A      0.284995  
     149A      0.286595   150A      0.289995   151A      0.293338  
     152A      0.300530   153A      0.302063   154A      0.303595  
     155A      0.305084   156A      0.311475   157A      0.315530  
     158A      0.317240   159A      0.319347   160A      0.328284  
     161A      0.330214   162A      0.333671   163A      0.335839  
     164A      0.338943   165A      0.346332   166A      0.350796  
     167A      0.354316   168A      0.359426   169A      0.360182  
     170A      0.363291   171A      0.370521   172A      0.372717  
     173A      0.376641   174A      0.378980   175A      0.383060  
     176A      0.387535   177A      0.388638   178A      0.390737  
     179A      0.395314   180A      0.397293   181A      0.401447  
     182A      0.403699   183A      0.407226   184A      0.408547  
     185A      0.412240   186A      0.420632   187A      0.422397  
     188A      0.423774   189A      0.430292   190A      0.431300  
     191A      0.434443   192A      0.436329   193A      0.437782  
     194A      0.441668   195A      0.444144   196A      0.448072  
     197A      0.448775   198A      0.450724   199A      0.455972  
     200A      0.460031   201A      0.463656   202A      0.467188  
     203A      0.470666   204A      0.475033   205A      0.480019  
     206A      0.481745   207A      0.486034   208A      0.486597  
     209A      0.492954   210A      0.494032   211A      0.495676  
     212A      0.498859   213A      0.499866   214A      0.503061  
     215A      0.505402   216A      0.510862   217A      0.514353  
     218A      0.516858   219A      0.523111   220A      0.523549  
     221A      0.527617   222A      0.532132   223A      0.535503  
     224A      0.541088   225A      0.541706   226A      0.542748  
     227A      0.547796   228A      0.551743   229A      0.555680  
     230A      0.559010   231A      0.562823   232A      0.564798  
     233A      0.567395   234A      0.571449   235A      0.576225  
     236A      0.580501   237A      0.581972   238A      0.585881  
     239A      0.589596   240A      0.590679   241A      0.593075  
     242A      0.596967   243A      0.601827   244A      0.607156  
     245A      0.608576   246A      0.611011   247A      0.613144  
     248A      0.618280   249A      0.622084   250A      0.626555  
     251A      0.630432   252A      0.633360   253A      0.633671  
     254A      0.640272   255A      0.643227   256A      0.649594  
     257A      0.655591   258A      0.657837   259A      0.660077  
     260A      0.666100   261A      0.670106   262A      0.675399  
     263A      0.678976   264A      0.680974   265A      0.686046  
     266A      0.693398   267A      0.694241   268A      0.697512  
     269A      0.703016   270A      0.705808   271A      0.708992  
     272A      0.712960   273A      0.716420   274A      0.719518  
     275A      0.728298   276A      0.729197   277A      0.731549  
     278A      0.741127   279A      0.745969   280A      0.749864  
     281A      0.758079   282A      0.760623   283A      0.762452  
     284A      0.764628   285A      0.772260   286A      0.776159  
     287A      0.780290   288A      0.781648   289A      0.790737  
     290A      0.792401   291A      0.794731   292A      0.798309  
     293A      0.804380   294A      0.807460   295A      0.812630  
     296A      0.814635   297A      0.816575   298A      0.823208  
     299A      0.826662   300A      0.834303   301A      0.836247  
     302A      0.839818   303A      0.846525   304A      0.849092  
     305A      0.850470   306A      0.855641   307A      0.857598  
     308A      0.861830   309A      0.865387   310A      0.867300  
     311A      0.876128   312A      0.876944   313A      0.883483  
     314A      0.886607   315A      0.889957   316A      0.892187  
     317A      0.896130   318A      0.900080   319A      0.902499  
     320A      0.911047   321A      0.912537   322A      0.916249  
     323A      0.918734   324A      0.923558   325A      0.932605  
     326A      0.934999   327A      0.943743   328A      0.944594  
     329A      0.953663   330A      0.958188   331A      0.959207  
     332A      0.964325   333A      0.968042   334A      0.968249  
     335A      0.970660   336A      0.972548   337A      0.976564  
     338A      0.983196   339A      0.987697   340A      0.992131  
     341A      0.996875   342A      1.002237   343A      1.005320  
     344A      1.006174   345A      1.009762   346A      1.014440  
     347A      1.016325   348A      1.023797   349A      1.026978  
     350A      1.033464   351A      1.036387   352A      1.040966  
     353A      1.043961   354A      1.046697   355A      1.048259  
     356A      1.054868   357A      1.060733   358A      1.061578  
     359A      1.067094   360A      1.071137   361A      1.076976  
     362A      1.080920   363A      1.084441   364A      1.087349  
     365A      1.088369   366A      1.094362   367A      1.098672  
     368A      1.103458   369A      1.105129   370A      1.107781  
     371A      1.111979   372A      1.115233   373A      1.120038  
     374A      1.124672   375A      1.126800   376A      1.131357  
     377A      1.138341   378A      1.144264   379A      1.146517  
     380A      1.151846   381A      1.155790   382A      1.156333  
     383A      1.163539   384A      1.167968   385A      1.169700  
     386A      1.177540   387A      1.180663   388A      1.183988  
     389A      1.186657   390A      1.196109   391A      1.198249  
     392A      1.200096   393A      1.205859   394A      1.212021  
     395A      1.212702   396A      1.215452   397A      1.220316  
     398A      1.223015   399A      1.230373   400A      1.235682  
     401A      1.238225   402A      1.241096   403A      1.246477  
     404A      1.247456   405A      1.252691   406A      1.258695  
     407A      1.260083   408A      1.264523   409A      1.272148  
     410A      1.277446   411A      1.280572   412A      1.285230  
     413A      1.288302   414A      1.290957   415A      1.295652  
     416A      1.296779   417A      1.302981   418A      1.309966  
     419A      1.313268   420A      1.320523   421A      1.323492  
     422A      1.324464   423A      1.329497   424A      1.333150  
     425A      1.340870   426A      1.344081   427A      1.351733  
     428A      1.354869   429A      1.356550   430A      1.361278  
     431A      1.365400   432A      1.371088   433A      1.379485  
     434A      1.383017   435A      1.389928   436A      1.391423  
     437A      1.401230   438A      1.402533   439A      1.405943  
     440A      1.416345   441A      1.418587   442A      1.424055  
     443A      1.425695   444A      1.432850   445A      1.435814  
     446A      1.438504   447A      1.442334   448A      1.443738  
     449A      1.447036   450A      1.456271   451A      1.464107  
     452A      1.468344   453A      1.470285   454A      1.477676  
     455A      1.479452   456A      1.483667   457A      1.490372  
     458A      1.494681   459A      1.496139   460A      1.504438  
     461A      1.509014   462A      1.513914   463A      1.517281  
     464A      1.525328   465A      1.526251   466A      1.537901  
     467A      1.540315   468A      1.545756   469A      1.549013  
     470A      1.554874   471A      1.557907   472A      1.561957  
     473A      1.567651   474A      1.570479   475A      1.574856  
     476A      1.587743   477A      1.589435   478A      1.592788  
     479A      1.603586   480A      1.606454   481A      1.610095  
     482A      1.614447   483A      1.621951   484A      1.625715  
     485A      1.629219   486A      1.630563   487A      1.637176  
     488A      1.647528   489A      1.651154   490A      1.659314  
     491A      1.664038   492A      1.666299   493A      1.672842  
     494A      1.676841   495A      1.680911   496A      1.686376  
     497A      1.690132   498A      1.691336   499A      1.701070  
     500A      1.706840   501A      1.718728   502A      1.722164  
     503A      1.725018   504A      1.729650   505A      1.731865  
     506A      1.739186   507A      1.744561   508A      1.747891  
     509A      1.757722   510A      1.761441   511A      1.764570  
     512A      1.769563   513A      1.774161   514A      1.777181  
     515A      1.779883   516A      1.783774   517A      1.794339  
     518A      1.799887   519A      1.809224   520A      1.816413  
     521A      1.823175   522A      1.829495   523A      1.836235  
     524A      1.840367   525A      1.842371   526A      1.844144  
     527A      1.853408   528A      1.859156   529A      1.867129  
     530A      1.871826   531A      1.876567   532A      1.886706  
     533A      1.889207   534A      1.897682   535A      1.901612  
     536A      1.909096   537A      1.917084   538A      1.923460  
     539A      1.927351   540A      1.930118   541A      1.939963  
     542A      1.944544   543A      1.951427   544A      1.955291  
     545A      1.957581   546A      1.970320   547A      1.979138  
     548A      1.982489   549A      1.993892   550A      1.998191  
     551A      2.000031   552A      2.008421   553A      2.010515  
     554A      2.015792   555A      2.023658   556A      2.028112  
     557A      2.039799   558A      2.045759   559A      2.047084  
     560A      2.054242   561A      2.060931   562A      2.064051  
     563A      2.066983   564A      2.070933   565A      2.078992  
     566A      2.083174   567A      2.095128   568A      2.097419  
     569A      2.108884   570A      2.114248   571A      2.115871  
     572A      2.121647   573A      2.130222   574A      2.133659  
     575A      2.141164   576A      2.144622   577A      2.155648  
     578A      2.158506   579A      2.161686   580A      2.171640  
     581A      2.173425   582A      2.175303   583A      2.185311  
     584A      2.189457   585A      2.202588   586A      2.208951  
     587A      2.211810   588A      2.214136   589A      2.222984  
     590A      2.229662   591A      2.231701   592A      2.245977  
     593A      2.246618   594A      2.250373   595A      2.255760  
     596A      2.259512   597A      2.272944   598A      2.276482  
     599A      2.278482   600A      2.285065   601A      2.295378  
     602A      2.297734   603A      2.301864   604A      2.307724  
     605A      2.315558   606A      2.316572   607A      2.328454  
     608A      2.332275   609A      2.338114   610A      2.340385  
     611A      2.349605   612A      2.353662   613A      2.360309  
     614A      2.366257   615A      2.368330   616A      2.373142  
     617A      2.380189   618A      2.386347   619A      2.394571  
     620A      2.397723   621A      2.401751   622A      2.413284  
     623A      2.417485   624A      2.424929   625A      2.432052  
     626A      2.436459   627A      2.436864   628A      2.445834  
     629A      2.447096   630A      2.452219   631A      2.459848  
     632A      2.462421   633A      2.471034   634A      2.478512  
     635A      2.488396   636A      2.494222   637A      2.496123  
     638A      2.499948   639A      2.505858   640A      2.511356  
     641A      2.517792   642A      2.525206   643A      2.527968  
     644A      2.541059   645A      2.549610   646A      2.551021  
     647A      2.560999   648A      2.572271   649A      2.578689  
     650A      2.587892   651A      2.592910   652A      2.601826  
     653A      2.606491   654A      2.614361   655A      2.619241  
     656A      2.627447   657A      2.637575   658A      2.640986  
     659A      2.651081   660A      2.655840   661A      2.660246  
     662A      2.664941   663A      2.674509   664A      2.678400  
     665A      2.685581   666A      2.696907   667A      2.698593  
     668A      2.704872   669A      2.711438   670A      2.723452  
     671A      2.728471   672A      2.738293   673A      2.743185  
     674A      2.749888   675A      2.752360   676A      2.758817  
     677A      2.762293   678A      2.771864   679A      2.779385  
     680A      2.791484   681A      2.796368   682A      2.800051  
     683A      2.819654   684A      2.821551   685A      2.834826  
     686A      2.844296   687A      2.844788   688A      2.856004  
     689A      2.866224   690A      2.872001   691A      2.881035  
     692A      2.884106   693A      2.890246   694A      2.910640  
     695A      2.917101   696A      2.920436   697A      2.941097  
     698A      2.946689   699A      2.952415   700A      2.961291  
     701A      2.967307   702A      2.974608   703A      2.989472  
     704A      3.000644   705A      3.009007   706A      3.017916  
     707A      3.021018   708A      3.040779   709A      3.053788  
     710A      3.059976   711A      3.074341   712A      3.081641  
     713A      3.099585   714A      3.119628   715A      3.130130  
     716A      3.145561   717A      3.155851   718A      3.179120  
     719A      3.199919   720A      3.207439   721A      3.222185  
     722A      3.250913   723A      3.262213   724A      3.278673  
     725A      3.283409   726A      3.301253   727A      3.306999  
     728A      3.317002   729A      3.330941   730A      3.340103  
     731A      3.361258   732A      3.369231   733A      3.384662  
     734A      3.405671   735A      3.418381   736A      3.429508  
     737A      3.445419   738A      3.467950   739A      3.477650  
     740A      3.494147   741A      3.496282   742A      3.508896  
     743A      3.520990   744A      3.522954   745A      3.526898  
     746A      3.542151   747A      3.552117   748A      3.559978  
     749A      3.564641   750A      3.573725   751A      3.587598  
     752A      3.594914   753A      3.600491   754A      3.611894  
     755A      3.621325   756A      3.626545   757A      3.640756  
     758A      3.651684   759A      3.661505   760A      3.667065  
     761A      3.676989   762A      3.679877   763A      3.690377  
     764A      3.694084   765A      3.702331   766A      3.713197  
     767A      3.724328   768A      3.734807   769A      3.742078  
     770A      3.748524   771A      3.763320   772A      3.767763  
     773A      3.780661   774A      3.782135   775A      3.789051  
     776A      3.793325   777A      3.806706   778A      3.819906  
     779A      3.824151   780A      3.828849   781A      3.834814  
     782A      3.840741   783A      3.849473   784A      3.857138  
     785A      3.860685   786A      3.866663   787A      3.879790  
     788A      3.881935   789A      3.892326   790A      3.899036  
     791A      3.902294   792A      3.910248   793A      3.911096  
     794A      3.924709   795A      3.928540   796A      3.935664  
     797A      3.947056   798A      3.949523   799A      3.955989  
     800A      3.965151   801A      3.967205   802A      3.975313  
     803A      3.981247   804A      3.998403   805A      4.004044  
     806A      4.008691   807A      4.017062   808A      4.021451  
     809A      4.024677   810A      4.034940   811A      4.046636  
     812A      4.051822   813A      4.054689   814A      4.059575  
     815A      4.071184   816A      4.075270   817A      4.082500  
     818A      4.086648   819A      4.093322   820A      4.097080  
     821A      4.108916   822A      4.118111   823A      4.124546  
     824A      4.129167   825A      4.142798   826A      4.147520  
     827A      4.154171   828A      4.158184   829A      4.164822  
     830A      4.166974   831A      4.182414   832A      4.187376  
     833A      4.192463   834A      4.196385   835A      4.206425  
     836A      4.210251   837A      4.227721   838A      4.232498  
     839A      4.236387   840A      4.243252   841A      4.249314  
     842A      4.255535   843A      4.263875   844A      4.269520  
     845A      4.276640   846A      4.285203   847A      4.292164  
     848A      4.296785   849A      4.300626   850A      4.308961  
     851A      4.313515   852A      4.320583   853A      4.329602  
     854A      4.338759   855A      4.340935   856A      4.350894  
     857A      4.353164   858A      4.356178   859A      4.362653  
     860A      4.367909   861A      4.376259   862A      4.385325  
     863A      4.394380   864A      4.405359   865A      4.409799  
     866A      4.420302   867A      4.425958   868A      4.432933  
     869A      4.442471   870A      4.445594   871A      4.450845  
     872A      4.456637   873A      4.471179   874A      4.475557  
     875A      4.483903   876A      4.486805   877A      4.492157  
     878A      4.495197   879A      4.513908   880A      4.520988  
     881A      4.523518   882A      4.534634   883A      4.541297  
     884A      4.552667   885A      4.557211   886A      4.566541  
     887A      4.579025   888A      4.585181   889A      4.590481  
     890A      4.597373   891A      4.612835   892A      4.620537  
     893A      4.624269   894A      4.628661   895A      4.648030  
     896A      4.651092   897A      4.661873   898A      4.671293  
     899A      4.675862   900A      4.690568   901A      4.692089  
     902A      4.696081   903A      4.700781   904A      4.717422  
     905A      4.724649   906A      4.727595   907A      4.746157  
     908A      4.757025   909A      4.761832   910A      4.773354  
     911A      4.784125   912A      4.789590   913A      4.798816  
     914A      4.806308   915A      4.822403   916A      4.831662  
     917A      4.834694   918A      4.836703   919A      4.850434  
     920A      4.859664   921A      4.871041   922A      4.885103  
     923A      4.892035   924A      4.902080   925A      4.904926  
     926A      4.919423   927A      4.935457   928A      4.938181  
     929A      4.942553   930A      4.954911   931A      4.975756  
     932A      4.986964   933A      4.993200   934A      5.003600  
     935A      5.011133   936A      5.026769   937A      5.041123  
     938A      5.045014   939A      5.052976   940A      5.060936  
     941A      5.066948   942A      5.077645   943A      5.087367  
     944A      5.096133   945A      5.110479   946A      5.125656  
     947A      5.129875   948A      5.135362   949A      5.144423  
     950A      5.152840   951A      5.162809   952A      5.180551  
     953A      5.193039   954A      5.194576   955A      5.203696  
     956A      5.215865   957A      5.224689   958A      5.233938  
     959A      5.244287   960A      5.261539   961A      5.273648  
     962A      5.279229   963A      5.284567   964A      5.308884  
     965A      5.321884   966A      5.323123   967A      5.329658  
     968A      5.339851   969A      5.356392   970A      5.367181  
     971A      5.372597   972A      5.388925   973A      5.395605  
     974A      5.412480   975A      5.414718   976A      5.417139  
     977A      5.419849   978A      5.432595   979A      5.439856  
     980A      5.450469   981A      5.470601   982A      5.478313  
     983A      5.483123   984A      5.490271   985A      5.498200  
     986A      5.505913   987A      5.508578   988A      5.533221  
     989A      5.539629   990A      5.551353   991A      5.558433  
     992A      5.564955   993A      5.577132   994A      5.594579  
     995A      5.604451   996A      5.615189   997A      5.617264  
     998A      5.630515   999A      5.632454  1000A      5.647349  
    1001A      5.670015  1002A      5.674594  1003A      5.686944  
    1004A      5.691740  1005A      5.698082  1006A      5.703888  
    1007A      5.711213  1008A      5.719929  1009A      5.726199  
    1010A      5.736988  1011A      5.743651  1012A      5.755222  
    1013A      5.761568  1014A      5.764669  1015A      5.774393  
    1016A      5.782822  1017A      5.796493  1018A      5.802335  
    1019A      5.810336  1020A      5.817043  1021A      5.823801  
    1022A      5.835504  1023A      5.852969  1024A      5.854999  
    1025A      5.860931  1026A      5.868710  1027A      5.880489  
    1028A      5.886864  1029A      5.898848  1030A      5.910602  
    1031A      5.925277  1032A      5.928145  1033A      5.933369  
    1034A      5.939332  1035A      5.948157  1036A      5.959561  
    1037A      5.972882  1038A      5.990179  1039A      5.994260  
    1040A      6.009977  1041A      6.015265  1042A      6.021176  
    1043A      6.032923  1044A      6.040649  1045A      6.051024  
    1046A      6.053771  1047A      6.065124  1048A      6.086603  
    1049A      6.098218  1050A      6.107352  1051A      6.119898  
    1052A      6.131945  1053A      6.145316  1054A      6.150106  
    1055A      6.170469  1056A      6.187457  1057A      6.191653  
    1058A      6.200837  1059A      6.202279  1060A      6.215710  
    1061A      6.221984  1062A      6.233092  1063A      6.238741  
    1064A      6.241602  1065A      6.265370  1066A      6.279619  
    1067A      6.287326  1068A      6.304786  1069A      6.318785  
    1070A      6.322832  1071A      6.334192  1072A      6.359257  
    1073A      6.381849  1074A      6.398804  1075A      6.410889  
    1076A      6.452023  1077A      6.470187  1078A      6.478971  
    1079A      6.503488  1080A      6.540430  1081A      6.553624  
    1082A      6.560395  1083A      6.581977  1084A      6.595977  
    1085A      6.603678  1086A      6.642011  1087A      6.668861  
    1088A      6.692779  1089A      6.718530  1090A      6.737695  
    1091A      6.749602  1092A      6.752635  1093A      6.771030  
    1094A      6.779314  1095A      6.803413  1096A      6.818718  
    1097A      6.841766  1098A      6.856803  1099A      6.883832  
    1100A      6.914222  1101A      6.931264  1102A      6.943435  
    1103A      6.954760  1104A      6.980287  1105A      7.005561  
    1106A      7.021233  1107A      7.083777  1108A      7.089477  
    1109A      7.108847  1110A      7.123309  1111A      7.147496  
    1112A      7.152388  1113A      7.171367  1114A      7.199010  
    1115A      7.224147  1116A      7.281111  1117A      7.343362  
    1118A      7.361404  1119A      7.415408  1120A      7.422061  
    1121A      7.446830  1122A      7.457156  1123A      7.509619  
    1124A      7.540601  1125A      7.621053  1126A      7.638363  
    1127A      7.785765  1128A      7.875303  1129A      7.894761  
    1130A      7.940504  1131A     16.378595  1132A     16.509796  
    1133A     16.567490  1134A     16.628408  1135A     16.728766  
    1136A     16.878680  1137A     17.944115  1138A     18.318095  
    1139A     18.606519  1140A     18.736664  1141A     19.393063  
    1142A     19.492092  1143A     19.819335  1144A     19.840942  
    1145A     20.086196  1146A     20.318897  1147A     20.488438  
    1148A     20.699693  1149A     21.741852  1150A     22.109203  

    Final Occupation by Irrep:
              A 
    DOCC [    70 ]

  @DF-RHF Final Energy:  -929.32607766026365

   => Energetics <=

    Nuclear Repulsion Energy =           1627.7537895469856721
    One-Electron Energy =               -4501.4427694221067213
    Two-Electron Energy =                1944.3629022148570584
    Total Energy =                       -929.3260776602637634

Computation Completed


Properties will be evaluated at   0.000000,   0.000000,   0.000000 [a0]

Properties computed using the SCF density matrix

  Nuclear Dipole Moment: [e a0]
     X:    -2.5528      Y:    -1.6439      Z:     0.7515

  Electronic Dipole Moment: [e a0]
     X:     2.9236      Y:     0.3852      Z:    -1.6971

  Dipole Moment: [e a0]
     X:     0.3708      Y:    -1.2587      Z:    -0.9456     Total:     1.6174

  Dipole Moment: [D]
     X:     0.9425      Y:    -3.1993      Z:    -2.4034     Total:     4.1110


*** tstop() called on node151.bme.utexas.edu at Tue Jan 16 09:48:59 2024
Module time:
	user time   =     940.15 seconds =      15.67 minutes
	system time =       9.96 seconds =       0.17 minutes
	total time  =        136 seconds =       2.27 minutes
Total time:
	user time   =     940.15 seconds =      15.67 minutes
	system time =       9.96 seconds =       0.17 minutes
	total time  =        136 seconds =       2.27 minutes

*** tstart() called on node151.bme.utexas.edu
*** at Tue Jan 16 09:48:59 2024


  //>>>>>>>>>>>>>>>>>>>>>>>>>>>>>>>>>>>//
  //               DFMP2               //
  //<<<<<<<<<<<<<<<<<<<<<<<<<<<<<<<<<<<//

   => Loading Basis Set <=

    Name: (AUG-CC-PVTZ AUX)
    Role: RIFIT
    Keyword: DF_BASIS_MP2
    atoms 1, 4, 11, 14-16, 19, 26, 29-30    entry H          line    30 file /opt/anaconda/envs/psi4v1.5/share/psi4/basis/aug-cc-pvtz-ri.gbs 
    atoms 2, 5, 8-9, 12, 17, 20, 23-24, 27  entry N          line   206 file /opt/anaconda/envs/psi4v1.5/share/psi4/basis/aug-cc-pvtz-ri.gbs 
    atoms 3, 6-7, 10, 13, 18, 21-22, 25, 28 entry C          line   148 file /opt/anaconda/envs/psi4v1.5/share/psi4/basis/aug-cc-pvtz-ri.gbs 

	 --------------------------------------------------------
	                          DF-MP2                         
	      2nd-Order Density-Fitted Moller-Plesset Theory     
	              RMP2 Wavefunction,   8 Threads             
	                                                         
	        Rob Parrish, Justin Turney, Andy Simmonett,      
	           Ed Hohenstein, and C. David Sherrill          
	 --------------------------------------------------------

   => Auxiliary Basis Set <=

  Basis Set: (AUG-CC-PVTZ AUX)
    Blend: AUG-CC-PVTZ-RI
    Number of shells: 700
    Number of basis functions: 2580
    Number of Cartesian functions: 3270
    Spherical Harmonics?: true
    Max angular momentum: 4

	 --------------------------------------------------------
	                 NBF =  1150, NAUX =  2580
	 --------------------------------------------------------
	   CLASS    FOCC     OCC    AOCC    AVIR     VIR    FVIR
	   PAIRS      20      70      50    1080    1080       0
	 --------------------------------------------------------

	 Will save fitting metric to file 97.

	-----------------------------------------------------------
	 ==================> DF-MP2 Energies <==================== 
	-----------------------------------------------------------
	 Reference Energy          =    -929.3260776602636497 [Eh]
	 Singles Energy            =      -0.0000000000000000 [Eh]
	 Same-Spin Energy          =      -0.9805513078321074 [Eh]
	 Opposite-Spin Energy      =      -2.6763626224220651 [Eh]
	 Correlation Energy        =      -3.6569139302541727 [Eh]
	 Total Energy              =    -932.9829915905178268 [Eh]
	-----------------------------------------------------------
	 ================> DF-SCS-MP2 Energies <================== 
	-----------------------------------------------------------
	 SCS Same-Spin Scale       =       0.3333333333333333 [-]
	 SCS Opposite-Spin Scale   =       1.2000000000000000 [-]
	 SCS Same-Spin Energy      =      -0.3268504359440358 [Eh]
	 SCS Opposite-Spin Energy  =      -3.2116351469064779 [Eh]
	 SCS Correlation Energy    =      -3.5384855828505137 [Eh]
	 SCS Total Energy          =    -932.8645632431141621 [Eh]
	-----------------------------------------------------------


*** tstop() called on node151.bme.utexas.edu at Tue Jan 16 09:49:44 2024
Module time:
	user time   =     266.21 seconds =       4.44 minutes
	system time =       4.21 seconds =       0.07 minutes
	total time  =         45 seconds =       0.75 minutes
Total time:
	user time   =    1206.37 seconds =      20.11 minutes
	system time =      14.17 seconds =       0.24 minutes
	total time  =        181 seconds =       3.02 minutes

  //>>>>>>>>>>>>>>>>>>>>>>>>>>>>>>>>>>>//
  //            Monomer A HF           //
  //<<<<<<<<<<<<<<<<<<<<<<<<<<<<<<<<<<<//


*** tstart() called on node151.bme.utexas.edu
*** at Tue Jan 16 09:49:44 2024

   => Loading Basis Set <=

    Name: AUG-CC-PVTZ
    Role: ORBITAL
    Keyword: BASIS
    atoms 1, 4, 11, 14-16, 19, 26, 29-30    entry H          line    40 file /opt/anaconda/envs/psi4v1.5/share/psi4/basis/aug-cc-pvtz.gbs 
    atoms 2, 5, 8-9, 12, 17, 20, 23-24, 27  entry N          line   285 file /opt/anaconda/envs/psi4v1.5/share/psi4/basis/aug-cc-pvtz.gbs 
    atoms 3, 6-7, 10, 13, 18, 21-22, 25, 28 entry C          line   239 file /opt/anaconda/envs/psi4v1.5/share/psi4/basis/aug-cc-pvtz.gbs 


         ---------------------------------------------------------
                                   SCF
               by Justin Turney, Rob Parrish, Andy Simmonett
                          and Daniel G. A. Smith
                              RHF Reference
                        8 Threads,  95367 MiB Core
         ---------------------------------------------------------

  ==> Geometry <==

    Molecular point group: c1
    Full point group: C1

    Geometry (in Angstrom), charge = 0, multiplicity = 1:

       Center              X                  Y                   Z               Mass       
    ------------   -----------------  -----------------  -----------------  -----------------
         H            0.328410945674    -2.409705554862    -0.587869226445     1.007825032230
         N           -0.593449054326    -1.982945554862    -0.483829226445    14.003074004430
         C           -1.649729054326    -2.447495554862     0.257910773555    12.000000000000
         H           -1.698479054326    -3.476025554862     0.595710773555     1.007825032230
         N           -2.593309054326    -1.537685554862     0.477320773555    14.003074004430
         C           -2.090149054326    -0.409825554862    -0.139899226445    12.000000000000
         C           -2.593689054326     0.900444445138    -0.267619226445    12.000000000000
         N           -3.763729054326     1.283054445138     0.321540773555    14.003074004430
         N           -1.867119054326     1.813034445138    -0.928139226445    14.003074004430
         C           -0.678149054326     1.432484445138    -1.450069226445    12.000000000000
         H           -0.129219054326     2.214004445138    -1.971339226445     1.007825032230
         N           -0.093459054326     0.227694445138    -1.418559226445    14.003074004430
         C           -0.850379054326    -0.654045554862    -0.740679226445    12.000000000000
         H           -4.155649054326     2.155174445138    -0.011859226445     1.007825032230
         H           -4.419099054326     0.547164445138     0.552970773555     1.007825032230
      Gh(H)           3.598681479007     0.246208045138    -1.965727159778     1.007825032230
      Gh(N)           3.030071479007    -0.161861954862    -1.232627159778    14.003074004430
      Gh(C)           2.705121479007    -1.477731954862    -1.073927159778    12.000000000000
      Gh(H)           3.102201479007    -2.248871954862    -1.722417159778     1.007825032230
      Gh(N)           1.884981479007    -1.699801954862    -0.050347159778    14.003074004430
      Gh(C)           1.667231479007    -0.434651954862     0.467912840222    12.000000000000
      Gh(C)           0.822591479007     0.045198045138     1.489832840222    12.000000000000
      Gh(N)           0.120721479007    -0.782131954862     2.324332840222    14.003074004430
      Gh(N)           0.753601479007     1.366948045138     1.702452840222    14.003074004430
      Gh(C)           1.486381479007     2.188658045138     0.919172840222    12.000000000000
      Gh(H)           1.383991479007     3.249578045138     1.136562840222     1.007825032230
      Gh(N)           2.315131479007     1.869318045138    -0.083037159778    14.003074004430
      Gh(C)           2.350871479007     0.542478045138    -0.264247159778    12.000000000000
      Gh(H)          -0.642838520993    -0.325781954862     2.812362840222     1.007825032230
      Gh(H)          -0.093608520993    -1.704111954862     1.965212840222     1.007825032230

  Running in c1 symmetry.

  Rotational constants: A =      0.02032  B =      0.01227  C =      0.01048 [cm^-1]
  Rotational constants: A =    609.28004  B =    367.84283  C =    314.16221 [MHz]
  Nuclear repulsion =  501.483706113377536

  Charge       = 0
  Multiplicity = 1
  Electrons    = 70
  Nalpha       = 35
  Nbeta        = 35

  ==> Algorithm <==

  SCF Algorithm Type is DF.
  DIIS enabled.
  MOM disabled.
  Fractional occupation disabled.
  Guess Type is SAD.
  Energy threshold   = 1.00e-08
  Density threshold  = 1.00e-08
  Integral threshold = 1.00e-12

  ==> Primary Basis <==

  Basis Set: AUG-CC-PVTZ
    Blend: AUG-CC-PVTZ
    Number of shells: 370
    Number of basis functions: 1150
    Number of Cartesian functions: 1350
    Spherical Harmonics?: true
    Max angular momentum: 3

   => Loading Basis Set <=

    Name: (AUG-CC-PVTZ AUX)
    Role: JKFIT
    Keyword: DF_BASIS_SCF
    atoms 1, 4, 11, 14-16, 19, 26, 29-30    entry H          line    70 file /opt/anaconda/envs/psi4v1.5/share/psi4/basis/aug-cc-pvtz-jkfit.gbs 
    atoms 2, 5, 8-9, 12, 17, 20, 23-24, 27  entry N          line   224 file /opt/anaconda/envs/psi4v1.5/share/psi4/basis/aug-cc-pvtz-jkfit.gbs 
    atoms 3, 6-7, 10, 13, 18, 21-22, 25, 28 entry C          line   162 file /opt/anaconda/envs/psi4v1.5/share/psi4/basis/aug-cc-pvtz-jkfit.gbs 

  ==> Integral Setup <==

  ==> DiskDFJK: Density-Fitted J/K Matrices <==

    J tasked:                  Yes
    K tasked:                  Yes
    wK tasked:                  No
    OpenMP threads:              8
    Integrals threads:           8
    Memory [MiB]:            71525
    Algorithm:                Core
    Integral Cache:           LOAD
    Schwarz Cutoff:          1E-12
    Fitting Condition:       1E-10

   => Auxiliary Basis Set <=

  Basis Set: (AUG-CC-PVTZ AUX)
    Blend: AUG-CC-PVTZ-JKFIT
    Number of shells: 740
    Number of basis functions: 2540
    Number of Cartesian functions: 3170
    Spherical Harmonics?: true
    Max angular momentum: 4

  Minimum eigenvalue in the overlap matrix is 5.2868164486E-07.
  Reciprocal condition number of the overlap matrix is 2.0922245925E-08.
    Using symmetric orthogonalization.

  ==> Pre-Iterations <==

  SCF Guess: Superposition of Atomic Densities via on-the-fly atomic UHF (no occupation information).

   -------------------------
    Irrep   Nso     Nmo    
   -------------------------
     A       1150    1150 
   -------------------------
    Total    1150    1150
   -------------------------

  ==> Iterations <==

                           Total Energy        Delta E     RMS |[F,P]|

   @DF-RHF iter SAD:  -464.44068990440360   -4.64441e+02   0.00000e+00 
   @DF-RHF iter   1:  -464.44240246613214   -1.71256e-03   5.80566e-04 DIIS
   @DF-RHF iter   2:  -464.63216124406142   -1.89759e-01   2.87512e-04 DIIS
   @DF-RHF iter   3:  -464.67606269804577   -4.39015e-02   6.65921e-05 DIIS
   @DF-RHF iter   4:  -464.67944871680783   -3.38602e-03   3.15424e-05 DIIS
   @DF-RHF iter   5:  -464.68013779095037   -6.89074e-04   6.25151e-06 DIIS
   @DF-RHF iter   6:  -464.68019555547977   -5.77645e-05   2.97253e-06 DIIS
   @DF-RHF iter   7:  -464.68021008663726   -1.45312e-05   1.19087e-06 DIIS
   @DF-RHF iter   8:  -464.68021317977480   -3.09314e-06   4.42466e-07 DIIS
   @DF-RHF iter   9:  -464.68021364500055   -4.65226e-07   2.35948e-07 DIIS
   @DF-RHF iter  10:  -464.68021376658339   -1.21583e-07   8.83421e-08 DIIS
   @DF-RHF iter  11:  -464.68021379285631   -2.62729e-08   3.71144e-08 DIIS
   @DF-RHF iter  12:  -464.68021379680573   -3.94942e-09   1.48563e-08 DIIS
   @DF-RHF iter  13:  -464.68021379737939   -5.73664e-10   5.19162e-09 DIIS
  Energy and wave function converged.


  ==> Post-Iterations <==

    Orbital Energies [Eh]
    ---------------------

    Doubly Occupied:                                                      

       1A    -15.636420     2A    -15.584330     3A    -15.573997  
       4A    -15.563012     5A    -15.554663     6A    -11.338385  
       7A    -11.329147     8A    -11.319956     9A    -11.314202  
      10A    -11.255652    11A     -1.367912    12A     -1.298262  
      13A     -1.245151    14A     -1.186827    15A     -1.152472  
      16A     -1.032947    17A     -0.894256    18A     -0.876213  
      19A     -0.846963    20A     -0.775658    21A     -0.733951  
      22A     -0.697607    23A     -0.674062    24A     -0.643939  
      25A     -0.626742    26A     -0.610845    27A     -0.591167  
      28A     -0.557812    29A     -0.499610    30A     -0.497666  
      31A     -0.454715    32A     -0.428616    33A     -0.411889  
      34A     -0.375836    35A     -0.311220  

    Virtual:                                                              

      36A      0.016411    37A      0.028151    38A      0.028596  
      39A      0.033878    40A      0.039973    41A      0.045819  
      42A      0.048459    43A      0.052995    44A      0.056743  
      45A      0.062826    46A      0.067505    47A      0.072328  
      48A      0.077828    49A      0.082781    50A      0.083893  
      51A      0.087229    52A      0.088254    53A      0.094111  
      54A      0.098916    55A      0.104758    56A      0.105944  
      57A      0.108147    58A      0.110396    59A      0.116347  
      60A      0.118194    61A      0.120952    62A      0.121931  
      63A      0.124665    64A      0.127419    65A      0.130654  
      66A      0.133087    67A      0.134529    68A      0.139183  
      69A      0.140750    70A      0.145640    71A      0.146056  
      72A      0.148020    73A      0.152189    74A      0.155138  
      75A      0.160042    76A      0.164567    77A      0.167575  
      78A      0.171840    79A      0.176988    80A      0.179934  
      81A      0.180832    82A      0.188238    83A      0.191425  
      84A      0.193035    85A      0.195263    86A      0.197839  
      87A      0.200624    88A      0.202036    89A      0.207901  
      90A      0.210377    91A      0.214667    92A      0.219358  
      93A      0.221501    94A      0.224576    95A      0.227151  
      96A      0.233325    97A      0.234068    98A      0.238347  
      99A      0.240681   100A      0.241784   101A      0.245642  
     102A      0.247770   103A      0.249429   104A      0.253396  
     105A      0.254862   106A      0.256918   107A      0.262623  
     108A      0.267877   109A      0.270490   110A      0.274258  
     111A      0.277425   112A      0.281086   113A      0.283013  
     114A      0.284054   115A      0.289947   116A      0.292471  
     117A      0.293929   118A      0.298628   119A      0.300264  
     120A      0.305286   121A      0.307690   122A      0.308302  
     123A      0.314715   124A      0.316758   125A      0.323014  
     126A      0.325981   127A      0.335883   128A      0.337448  
     129A      0.341396   130A      0.343621   131A      0.346602  
     132A      0.354742   133A      0.361207   134A      0.366262  
     135A      0.368395   136A      0.374317   137A      0.375454  
     138A      0.380835   139A      0.381534   140A      0.385262  
     141A      0.393353   142A      0.394197   143A      0.396664  
     144A      0.400330   145A      0.402216   146A      0.404316  
     147A      0.408422   148A      0.410886   149A      0.414888  
     150A      0.415767   151A      0.419721   152A      0.422873  
     153A      0.427781   154A      0.431333   155A      0.432701  
     156A      0.434566   157A      0.437951   158A      0.442218  
     159A      0.448032   160A      0.450796   161A      0.452425  
     162A      0.453432   163A      0.459048   164A      0.461303  
     165A      0.464611   166A      0.470919   167A      0.472945  
     168A      0.476325   169A      0.479456   170A      0.482092  
     171A      0.484485   172A      0.488543   173A      0.490861  
     174A      0.492408   175A      0.496570   176A      0.500435  
     177A      0.502593   178A      0.505605   179A      0.508295  
     180A      0.511610   181A      0.515054   182A      0.519619  
     183A      0.524943   184A      0.528727   185A      0.532504  
     186A      0.532572   187A      0.539473   188A      0.540757  
     189A      0.542403   190A      0.546573   191A      0.548107  
     192A      0.552627   193A      0.556200   194A      0.563696  
     195A      0.565172   196A      0.569085   197A      0.569512  
     198A      0.573697   199A      0.576592   200A      0.579452  
     201A      0.583446   202A      0.586933   203A      0.592536  
     204A      0.595226   205A      0.599445   206A      0.605505  
     207A      0.608811   208A      0.610012   209A      0.620408  
     210A      0.620923   211A      0.628543   212A      0.634769  
     213A      0.638301   214A      0.639585   215A      0.642441  
     216A      0.646279   217A      0.649585   218A      0.656904  
     219A      0.658296   220A      0.666559   221A      0.669787  
     222A      0.675025   223A      0.675966   224A      0.682978  
     225A      0.685557   226A      0.691443   227A      0.698597  
     228A      0.700244   229A      0.706043   230A      0.706813  
     231A      0.712284   232A      0.720203   233A      0.721160  
     234A      0.722634   235A      0.732929   236A      0.736592  
     237A      0.738151   238A      0.741776   239A      0.751391  
     240A      0.753128   241A      0.755614   242A      0.759961  
     243A      0.763614   244A      0.766774   245A      0.775502  
     246A      0.778964   247A      0.784511   248A      0.787144  
     249A      0.790124   250A      0.795618   251A      0.799928  
     252A      0.803261   253A      0.808497   254A      0.810801  
     255A      0.815120   256A      0.818144   257A      0.822418  
     258A      0.824206   259A      0.829357   260A      0.831551  
     261A      0.836326   262A      0.842527   263A      0.849646  
     264A      0.853569   265A      0.856484   266A      0.861705  
     267A      0.863734   268A      0.865650   269A      0.870165  
     270A      0.872124   271A      0.876639   272A      0.882539  
     273A      0.886309   274A      0.887638   275A      0.891626  
     276A      0.893839   277A      0.899939   278A      0.902437  
     279A      0.907529   280A      0.911285   281A      0.916022  
     282A      0.919256   283A      0.922457   284A      0.926971  
     285A      0.932395   286A      0.935993   287A      0.942517  
     288A      0.947309   289A      0.951692   290A      0.958064  
     291A      0.961625   292A      0.965254   293A      0.966364  
     294A      0.967554   295A      0.973948   296A      0.978433  
     297A      0.981837   298A      0.982978   299A      0.990233  
     300A      0.992141   301A      0.996414   302A      0.997983  
     303A      1.005995   304A      1.007456   305A      1.016453  
     306A      1.018006   307A      1.019560   308A      1.025929  
     309A      1.030820   310A      1.031785   311A      1.035628  
     312A      1.041502   313A      1.044729   314A      1.045654  
     315A      1.048912   316A      1.060607   317A      1.061927  
     318A      1.065679   319A      1.068297   320A      1.074286  
     321A      1.075404   322A      1.080222   323A      1.084896  
     324A      1.093193   325A      1.097801   326A      1.100497  
     327A      1.104205   328A      1.105730   329A      1.109215  
     330A      1.112402   331A      1.121194   332A      1.122863  
     333A      1.127394   334A      1.130164   335A      1.134913  
     336A      1.141627   337A      1.144517   338A      1.145748  
     339A      1.149143   340A      1.155269   341A      1.156744  
     342A      1.166197   343A      1.167123   344A      1.170897  
     345A      1.178775   346A      1.184646   347A      1.187870  
     348A      1.192090   349A      1.197747   350A      1.204000  
     351A      1.208362   352A      1.210599   353A      1.215761  
     354A      1.219790   355A      1.228222   356A      1.232304  
     357A      1.235365   358A      1.241826   359A      1.243314  
     360A      1.249698   361A      1.255157   362A      1.257745  
     363A      1.260325   364A      1.265208   365A      1.270536  
     366A      1.275877   367A      1.282616   368A      1.284695  
     369A      1.287718   370A      1.289358   371A      1.294558  
     372A      1.298097   373A      1.302731   374A      1.306975  
     375A      1.313302   376A      1.318801   377A      1.324730  
     378A      1.326938   379A      1.329801   380A      1.336022  
     381A      1.338756   382A      1.341971   383A      1.347987  
     384A      1.353149   385A      1.356558   386A      1.366019  
     387A      1.367121   388A      1.373505   389A      1.380298  
     390A      1.385004   391A      1.386725   392A      1.391884  
     393A      1.398361   394A      1.404249   395A      1.411487  
     396A      1.417302   397A      1.425128   398A      1.427099  
     399A      1.434771   400A      1.437109   401A      1.442513  
     402A      1.443742   403A      1.452100   404A      1.453475  
     405A      1.461889   406A      1.470008   407A      1.471808  
     408A      1.484603   409A      1.485983   410A      1.490509  
     411A      1.497962   412A      1.502290   413A      1.505794  
     414A      1.510004   415A      1.511370   416A      1.519473  
     417A      1.522631   418A      1.530375   419A      1.533359  
     420A      1.541279   421A      1.548965   422A      1.551704  
     423A      1.553327   424A      1.563350   425A      1.565375  
     426A      1.571043   427A      1.574699   428A      1.580657  
     429A      1.588720   430A      1.590760   431A      1.593034  
     432A      1.596494   433A      1.606096   434A      1.611814  
     435A      1.617452   436A      1.621654   437A      1.628076  
     438A      1.635467   439A      1.637642   440A      1.640583  
     441A      1.650627   442A      1.654072   443A      1.660542  
     444A      1.666884   445A      1.668831   446A      1.673758  
     447A      1.679133   448A      1.681346   449A      1.688857  
     450A      1.690798   451A      1.701508   452A      1.703961  
     453A      1.708001   454A      1.709328   455A      1.712540  
     456A      1.723231   457A      1.726846   458A      1.740139  
     459A      1.743848   460A      1.744908   461A      1.746328  
     462A      1.752272   463A      1.757154   464A      1.764145  
     465A      1.766992   466A      1.772042   467A      1.783561  
     468A      1.791464   469A      1.792706   470A      1.797938  
     471A      1.803843   472A      1.808356   473A      1.819465  
     474A      1.820321   475A      1.824214   476A      1.828572  
     477A      1.832258   478A      1.837722   479A      1.843662  
     480A      1.849688   481A      1.858357   482A      1.859060  
     483A      1.864022   484A      1.873941   485A      1.874185  
     486A      1.878071   487A      1.884529   488A      1.889995  
     489A      1.897637   490A      1.903788   491A      1.912959  
     492A      1.917159   493A      1.920566   494A      1.927689  
     495A      1.935419   496A      1.942182   497A      1.949960  
     498A      1.957184   499A      1.959366   500A      1.967026  
     501A      1.972040   502A      1.974140   503A      1.975361  
     504A      1.980302   505A      1.989693   506A      1.994036  
     507A      2.000872   508A      2.009409   509A      2.012855  
     510A      2.017826   511A      2.024442   512A      2.029581  
     513A      2.037800   514A      2.039101   515A      2.046515  
     516A      2.062888   517A      2.066125   518A      2.069144  
     519A      2.069670   520A      2.080302   521A      2.086345  
     522A      2.090852   523A      2.095804   524A      2.099172  
     525A      2.106242   526A      2.107114   527A      2.116382  
     528A      2.119813   529A      2.125092   530A      2.135163  
     531A      2.137347   532A      2.146029   533A      2.150421  
     534A      2.151048   535A      2.160543   536A      2.164295  
     537A      2.166573   538A      2.172338   539A      2.176640  
     540A      2.181859   541A      2.187341   542A      2.195435  
     543A      2.205920   544A      2.213128   545A      2.221567  
     546A      2.222702   547A      2.224537   548A      2.228929  
     549A      2.236183   550A      2.242576   551A      2.250025  
     552A      2.257318   553A      2.262464   554A      2.267963  
     555A      2.272435   556A      2.281202   557A      2.283491  
     558A      2.291055   559A      2.296222   560A      2.305788  
     561A      2.310906   562A      2.319331   563A      2.325116  
     564A      2.328775   565A      2.337703   566A      2.344774  
     567A      2.345243   568A      2.352948   569A      2.358592  
     570A      2.364008   571A      2.370007   572A      2.377555  
     573A      2.379358   574A      2.386199   575A      2.399611  
     576A      2.401293   577A      2.410627   578A      2.414406  
     579A      2.423217   580A      2.425137   581A      2.431534  
     582A      2.437365   583A      2.443431   584A      2.453392  
     585A      2.462750   586A      2.471560   587A      2.472663  
     588A      2.475715   589A      2.479565   590A      2.487080  
     591A      2.491109   592A      2.502755   593A      2.505262  
     594A      2.509357   595A      2.517020   596A      2.521971  
     597A      2.532060   598A      2.537820   599A      2.545577  
     600A      2.548415   601A      2.553089   602A      2.558306  
     603A      2.570451   604A      2.577436   605A      2.580993  
     606A      2.584303   607A      2.599739   608A      2.607800  
     609A      2.609515   610A      2.619223   611A      2.622508  
     612A      2.635192   613A      2.639202   614A      2.646622  
     615A      2.658362   616A      2.660159   617A      2.663560  
     618A      2.670660   619A      2.676754   620A      2.680880  
     621A      2.692927   622A      2.697022   623A      2.700274  
     624A      2.707764   625A      2.719585   626A      2.731111  
     627A      2.744280   628A      2.748400   629A      2.756974  
     630A      2.760353   631A      2.766250   632A      2.770051  
     633A      2.771401   634A      2.788382   635A      2.794769  
     636A      2.803825   637A      2.816950   638A      2.818352  
     639A      2.834336   640A      2.834864   641A      2.842056  
     642A      2.852734   643A      2.859043   644A      2.878492  
     645A      2.883272   646A      2.890236   647A      2.903174  
     648A      2.909777   649A      2.915599   650A      2.923735  
     651A      2.933286   652A      2.940118   653A      2.945848  
     654A      2.951923   655A      2.961039   656A      2.963845  
     657A      2.971848   658A      2.979774   659A      2.988642  
     660A      3.001555   661A      3.011520   662A      3.014449  
     663A      3.022960   664A      3.027258   665A      3.047057  
     666A      3.056495   667A      3.064383   668A      3.073203  
     669A      3.083134   670A      3.086442   671A      3.098695  
     672A      3.102925   673A      3.115859   674A      3.128005  
     675A      3.135375   676A      3.148469   677A      3.152926  
     678A      3.164112   679A      3.170541   680A      3.178887  
     681A      3.186944   682A      3.195900   683A      3.211916  
     684A      3.219052   685A      3.221688   686A      3.228576  
     687A      3.241405   688A      3.259520   689A      3.265839  
     690A      3.296527   691A      3.305150   692A      3.310202  
     693A      3.331386   694A      3.332678   695A      3.347976  
     696A      3.359330   697A      3.367190   698A      3.375972  
     699A      3.392388   700A      3.398118   701A      3.417636  
     702A      3.430183   703A      3.438644   704A      3.445555  
     705A      3.459635   706A      3.473954   707A      3.490924  
     708A      3.495487   709A      3.512710   710A      3.524489  
     711A      3.537260   712A      3.544199   713A      3.558744  
     714A      3.571042   715A      3.579860   716A      3.593449  
     717A      3.598815   718A      3.611425   719A      3.619477  
     720A      3.631479   721A      3.646031   722A      3.670671  
     723A      3.674083   724A      3.687081   725A      3.695277  
     726A      3.708368   727A      3.709804   728A      3.726601  
     729A      3.731853   730A      3.742288   731A      3.752370  
     732A      3.770586   733A      3.773563   734A      3.784482  
     735A      3.795209   736A      3.810795   737A      3.839410  
     738A      3.844854   739A      3.851379   740A      3.861864  
     741A      3.869523   742A      3.874969   743A      3.883309  
     744A      3.889319   745A      3.902822   746A      3.905275  
     747A      3.916447   748A      3.922536   749A      3.939111  
     750A      3.951471   751A      3.953026   752A      3.959667  
     753A      3.975203   754A      3.988209   755A      3.990286  
     756A      4.003343   757A      4.020085   758A      4.024661  
     759A      4.033659   760A      4.042449   761A      4.050472  
     762A      4.063681   763A      4.065065   764A      4.078350  
     765A      4.089213   766A      4.102185   767A      4.109895  
     768A      4.119973   769A      4.126931   770A      4.138856  
     771A      4.147799   772A      4.168744   773A      4.172650  
     774A      4.193098   775A      4.200057   776A      4.205689  
     777A      4.219552   778A      4.225903   779A      4.229041  
     780A      4.236806   781A      4.247400   782A      4.256909  
     783A      4.265843   784A      4.273952   785A      4.281466  
     786A      4.286407   787A      4.302927   788A      4.307107  
     789A      4.314853   790A      4.326351   791A      4.329514  
     792A      4.332840   793A      4.343216   794A      4.353405  
     795A      4.362298   796A      4.368445   797A      4.377293  
     798A      4.385983   799A      4.389489   800A      4.398321  
     801A      4.407284   802A      4.412017   803A      4.423468  
     804A      4.428855   805A      4.434533   806A      4.452848  
     807A      4.462775   808A      4.467350   809A      4.484102  
     810A      4.503420   811A      4.504707   812A      4.516927  
     813A      4.522041   814A      4.528513   815A      4.551645  
     816A      4.555573   817A      4.563042   818A      4.586400  
     819A      4.593880   820A      4.602954   821A      4.610332  
     822A      4.614083   823A      4.636052   824A      4.640997  
     825A      4.648088   826A      4.651892   827A      4.659049  
     828A      4.673523   829A      4.677863   830A      4.692816  
     831A      4.705854   832A      4.715472   833A      4.719432  
     834A      4.726942   835A      4.733570   836A      4.734385  
     837A      4.743496   838A      4.758148   839A      4.771919  
     840A      4.777737   841A      4.790211   842A      4.794689  
     843A      4.808506   844A      4.813534   845A      4.827262  
     846A      4.833882   847A      4.838449   848A      4.848185  
     849A      4.866225   850A      4.870047   851A      4.872394  
     852A      4.882267   853A      4.891311   854A      4.897904  
     855A      4.915712   856A      4.921173   857A      4.927800  
     858A      4.941822   859A      4.951428   860A      4.960510  
     861A      4.968159   862A      4.977290   863A      4.984344  
     864A      4.992041   865A      4.996733   866A      5.011194  
     867A      5.013228   868A      5.029922   869A      5.037033  
     870A      5.051898   871A      5.063277   872A      5.065915  
     873A      5.070506   874A      5.078971   875A      5.089947  
     876A      5.099588   877A      5.108064   878A      5.117955  
     879A      5.122107   880A      5.127171   881A      5.136197  
     882A      5.147819   883A      5.159549   884A      5.166649  
     885A      5.177771   886A      5.183492   887A      5.187722  
     888A      5.197583   889A      5.202629   890A      5.218431  
     891A      5.227655   892A      5.236502   893A      5.243197  
     894A      5.248357   895A      5.263572   896A      5.276815  
     897A      5.282170   898A      5.291003   899A      5.306872  
     900A      5.312366   901A      5.318661   902A      5.323435  
     903A      5.333954   904A      5.346142   905A      5.349214  
     906A      5.356280   907A      5.377329   908A      5.380567  
     909A      5.389943   910A      5.393946   911A      5.408862  
     912A      5.415987   913A      5.424863   914A      5.435699  
     915A      5.447520   916A      5.452944   917A      5.461489  
     918A      5.474025   919A      5.487098   920A      5.490446  
     921A      5.496901   922A      5.507007   923A      5.514550  
     924A      5.529982   925A      5.536221   926A      5.543938  
     927A      5.560576   928A      5.575294   929A      5.591255  
     930A      5.597698   931A      5.602619   932A      5.615320  
     933A      5.632881   934A      5.642864   935A      5.644267  
     936A      5.653997   937A      5.656425   938A      5.668927  
     939A      5.694821   940A      5.699855   941A      5.705243  
     942A      5.711352   943A      5.725992   944A      5.736628  
     945A      5.744339   946A      5.761052   947A      5.772013  
     948A      5.779794   949A      5.785729   950A      5.799403  
     951A      5.803362   952A      5.817752   953A      5.831239  
     954A      5.846815   955A      5.849285   956A      5.861484  
     957A      5.876450   958A      5.884647   959A      5.900036  
     960A      5.910810   961A      5.924407   962A      5.930005  
     963A      5.938934   964A      5.952379   965A      5.959450  
     966A      5.966896   967A      5.969058   968A      6.002816  
     969A      6.006394   970A      6.025724   971A      6.034354  
     972A      6.046115   973A      6.057957   974A      6.059408  
     975A      6.084082   976A      6.108603   977A      6.112931  
     978A      6.122369   979A      6.130666   980A      6.145192  
     981A      6.150127   982A      6.162657   983A      6.173586  
     984A      6.179796   985A      6.191928   986A      6.201540  
     987A      6.221636   988A      6.223145   989A      6.240865  
     990A      6.244965   991A      6.264663   992A      6.280215  
     993A      6.314239   994A      6.323526   995A      6.340902  
     996A      6.363790   997A      6.379177   998A      6.394947  
     999A      6.413898  1000A      6.432575  1001A      6.439240  
    1002A      6.467705  1003A      6.482303  1004A      6.512539  
    1005A      6.543185  1006A      6.553597  1007A      6.558965  
    1008A      6.573497  1009A      6.582565  1010A      6.586729  
    1011A      6.600686  1012A      6.619072  1013A      6.621829  
    1014A      6.660670  1015A      6.664616  1016A      6.671360  
    1017A      6.698779  1018A      6.706870  1019A      6.733963  
    1020A      6.744090  1021A      6.756269  1022A      6.771015  
    1023A      6.786315  1024A      6.799229  1025A      6.801683  
    1026A      6.818603  1027A      6.829478  1028A      6.848013  
    1029A      6.876922  1030A      6.894423  1031A      6.911043  
    1032A      6.923888  1033A      6.942608  1034A      6.948610  
    1035A      6.965684  1036A      6.972898  1037A      6.993363  
    1038A      7.019461  1039A      7.041896  1040A      7.056211  
    1041A      7.074560  1042A      7.108284  1043A      7.119445  
    1044A      7.130208  1045A      7.144623  1046A      7.164889  
    1047A      7.186825  1048A      7.191708  1049A      7.226607  
    1050A      7.265201  1051A      7.286068  1052A      7.329523  
    1053A      7.353066  1054A      7.398221  1055A      7.419474  
    1056A      7.442834  1057A      7.458301  1058A      7.488608  
    1059A      7.500387  1060A      7.528378  1061A      7.550922  
    1062A      7.581525  1063A      7.611821  1064A      7.632439  
    1065A      7.661737  1066A      7.676040  1067A      7.703885  
    1068A      7.718941  1069A      7.725116  1070A      7.757079  
    1071A      7.772904  1072A      7.783852  1073A      7.810141  
    1074A      7.842346  1075A      7.862658  1076A      7.898276  
    1077A      7.912442  1078A      7.927375  1079A      7.977342  
    1080A      7.989733  1081A      8.009893  1082A      8.035528  
    1083A      8.067654  1084A      8.083815  1085A      8.107301  
    1086A      8.162520  1087A      8.183136  1088A      8.251801  
    1089A      8.303852  1090A      8.348256  1091A      8.400734  
    1092A      8.432252  1093A      8.521081  1094A      8.543936  
    1095A      8.638830  1096A      8.755676  1097A      8.832471  
    1098A      8.903557  1099A      8.997248  1100A      9.066423  
    1101A      9.085989  1102A      9.317143  1103A      9.346473  
    1104A      9.430795  1105A      9.677117  1106A      9.757257  
    1107A      9.771635  1108A      9.845891  1109A      9.878963  
    1110A     10.004297  1111A     10.275322  1112A     10.336930  
    1113A     10.563763  1114A     10.813920  1115A     11.134065  
    1116A     11.190278  1117A     11.283335  1118A     11.356666  
    1119A     11.631688  1120A     11.751141  1121A     11.868715  
    1122A     11.944294  1123A     12.134442  1124A     12.170496  
    1125A     12.374621  1126A     12.431712  1127A     12.605555  
    1128A     12.671194  1129A     12.940138  1130A     13.124396  
    1131A     16.492117  1132A     16.560892  1133A     16.894515  
    1134A     17.943001  1135A     18.737191  1136A     19.404245  
    1137A     19.813336  1138A     20.278388  1139A     20.448962  
    1140A     21.824165  1141A     52.214694  1142A     52.619376  
    1143A     53.565150  1144A     55.079270  1145A     58.846812  
    1146A     61.029918  1147A     63.008883  1148A     63.198120  
    1149A     64.087304  1150A     65.545447  

    Final Occupation by Irrep:
              A 
    DOCC [    35 ]

  @DF-RHF Final Energy:  -464.68021379737939

   => Energetics <=

    Nuclear Repulsion Energy =            501.4837061133775364
    One-Electron Energy =               -1625.8036337573373658
    Two-Electron Energy =                 659.6397138465803209
    Total Energy =                       -464.6802137973794515

Computation Completed


Properties will be evaluated at   0.000000,   0.000000,   0.000000 [a0]

Properties computed using the SCF density matrix

  Nuclear Dipole Moment: [e a0]
     X:  -226.0567      Y:   -17.7973      Z:   -56.0988

  Electronic Dipole Moment: [e a0]
     X:   226.0400      Y:    16.7982      Z:    56.2240

  Dipole Moment: [e a0]
     X:    -0.0168      Y:    -0.9991      Z:     0.1252     Total:     1.0071

  Dipole Moment: [D]
     X:    -0.0426      Y:    -2.5395      Z:     0.3183     Total:     2.5597


*** tstop() called on node151.bme.utexas.edu at Tue Jan 16 09:51:09 2024
Module time:
	user time   =     584.00 seconds =       9.73 minutes
	system time =       4.35 seconds =       0.07 minutes
	total time  =         85 seconds =       1.42 minutes
Total time:
	user time   =    1790.37 seconds =      29.84 minutes
	system time =      18.53 seconds =       0.31 minutes
	total time  =        266 seconds =       4.43 minutes

*** tstart() called on node151.bme.utexas.edu
*** at Tue Jan 16 09:51:09 2024


  //>>>>>>>>>>>>>>>>>>>>>>>>>>>>>>>>>>>//
  //               DFMP2               //
  //<<<<<<<<<<<<<<<<<<<<<<<<<<<<<<<<<<<//

   => Loading Basis Set <=

    Name: (AUG-CC-PVTZ AUX)
    Role: RIFIT
    Keyword: DF_BASIS_MP2
    atoms 1, 4, 11, 14-16, 19, 26, 29-30    entry H          line    30 file /opt/anaconda/envs/psi4v1.5/share/psi4/basis/aug-cc-pvtz-ri.gbs 
    atoms 2, 5, 8-9, 12, 17, 20, 23-24, 27  entry N          line   206 file /opt/anaconda/envs/psi4v1.5/share/psi4/basis/aug-cc-pvtz-ri.gbs 
    atoms 3, 6-7, 10, 13, 18, 21-22, 25, 28 entry C          line   148 file /opt/anaconda/envs/psi4v1.5/share/psi4/basis/aug-cc-pvtz-ri.gbs 

	 --------------------------------------------------------
	                          DF-MP2                         
	      2nd-Order Density-Fitted Moller-Plesset Theory     
	              RMP2 Wavefunction,   8 Threads             
	                                                         
	        Rob Parrish, Justin Turney, Andy Simmonett,      
	           Ed Hohenstein, and C. David Sherrill          
	 --------------------------------------------------------

   => Auxiliary Basis Set <=

  Basis Set: (AUG-CC-PVTZ AUX)
    Blend: AUG-CC-PVTZ-RI
    Number of shells: 700
    Number of basis functions: 2580
    Number of Cartesian functions: 3270
    Spherical Harmonics?: true
    Max angular momentum: 4

	 --------------------------------------------------------
	                 NBF =  1150, NAUX =  2580
	 --------------------------------------------------------
	   CLASS    FOCC     OCC    AOCC    AVIR     VIR    FVIR
	   PAIRS      10      35      25    1115    1115       0
	 --------------------------------------------------------

	 Will attempt to load fitting metric from file 97.

	-----------------------------------------------------------
	 ==================> DF-MP2 Energies <==================== 
	-----------------------------------------------------------
	 Reference Energy          =    -464.6802137973793947 [Eh]
	 Singles Energy            =      -0.0000000000000000 [Eh]
	 Same-Spin Energy          =      -0.4792016047005566 [Eh]
	 Opposite-Spin Energy      =      -1.3270665972406388 [Eh]
	 Correlation Energy        =      -1.8062682019411955 [Eh]
	 Total Energy              =    -466.4864819993205742 [Eh]
	-----------------------------------------------------------
	 ================> DF-SCS-MP2 Energies <================== 
	-----------------------------------------------------------
	 SCS Same-Spin Scale       =       0.3333333333333333 [-]
	 SCS Opposite-Spin Scale   =       1.2000000000000000 [-]
	 SCS Same-Spin Energy      =      -0.1597338682335189 [Eh]
	 SCS Opposite-Spin Energy  =      -1.5924799166887664 [Eh]
	 SCS Correlation Energy    =      -1.7522137849222852 [Eh]
	 SCS Total Energy          =    -466.4324275823016706 [Eh]
	-----------------------------------------------------------


*** tstop() called on node151.bme.utexas.edu at Tue Jan 16 09:51:36 2024
Module time:
	user time   =     152.76 seconds =       2.55 minutes
	system time =       3.19 seconds =       0.05 minutes
	total time  =         27 seconds =       0.45 minutes
Total time:
	user time   =    1943.14 seconds =      32.39 minutes
	system time =      21.72 seconds =       0.36 minutes
	total time  =        293 seconds =       4.88 minutes

  //>>>>>>>>>>>>>>>>>>>>>>>>>>>>>>>>>>>//
  //            Monomer B HF           //
  //<<<<<<<<<<<<<<<<<<<<<<<<<<<<<<<<<<<//


*** tstart() called on node151.bme.utexas.edu
*** at Tue Jan 16 09:51:36 2024

   => Loading Basis Set <=

    Name: AUG-CC-PVTZ
    Role: ORBITAL
    Keyword: BASIS
    atoms 1, 4, 11, 14-16, 19, 26, 29-30    entry H          line    40 file /opt/anaconda/envs/psi4v1.5/share/psi4/basis/aug-cc-pvtz.gbs 
    atoms 2, 5, 8-9, 12, 17, 20, 23-24, 27  entry N          line   285 file /opt/anaconda/envs/psi4v1.5/share/psi4/basis/aug-cc-pvtz.gbs 
    atoms 3, 6-7, 10, 13, 18, 21-22, 25, 28 entry C          line   239 file /opt/anaconda/envs/psi4v1.5/share/psi4/basis/aug-cc-pvtz.gbs 


         ---------------------------------------------------------
                                   SCF
               by Justin Turney, Rob Parrish, Andy Simmonett
                          and Daniel G. A. Smith
                              RHF Reference
                        8 Threads,  95367 MiB Core
         ---------------------------------------------------------

  ==> Geometry <==

    Molecular point group: c1
    Full point group: C1

    Geometry (in Angstrom), charge = 0, multiplicity = 1:

       Center              X                  Y                   Z               Mass       
    ------------   -----------------  -----------------  -----------------  -----------------
      Gh(H)           0.328410945674    -2.409705554862    -0.587869226445     1.007825032230
      Gh(N)          -0.593449054326    -1.982945554862    -0.483829226445    14.003074004430
      Gh(C)          -1.649729054326    -2.447495554862     0.257910773555    12.000000000000
      Gh(H)          -1.698479054326    -3.476025554862     0.595710773555     1.007825032230
      Gh(N)          -2.593309054326    -1.537685554862     0.477320773555    14.003074004430
      Gh(C)          -2.090149054326    -0.409825554862    -0.139899226445    12.000000000000
      Gh(C)          -2.593689054326     0.900444445138    -0.267619226445    12.000000000000
      Gh(N)          -3.763729054326     1.283054445138     0.321540773555    14.003074004430
      Gh(N)          -1.867119054326     1.813034445138    -0.928139226445    14.003074004430
      Gh(C)          -0.678149054326     1.432484445138    -1.450069226445    12.000000000000
      Gh(H)          -0.129219054326     2.214004445138    -1.971339226445     1.007825032230
      Gh(N)          -0.093459054326     0.227694445138    -1.418559226445    14.003074004430
      Gh(C)          -0.850379054326    -0.654045554862    -0.740679226445    12.000000000000
      Gh(H)          -4.155649054326     2.155174445138    -0.011859226445     1.007825032230
      Gh(H)          -4.419099054326     0.547164445138     0.552970773555     1.007825032230
         H            3.598681479007     0.246208045138    -1.965727159778     1.007825032230
         N            3.030071479007    -0.161861954862    -1.232627159778    14.003074004430
         C            2.705121479007    -1.477731954862    -1.073927159778    12.000000000000
         H            3.102201479007    -2.248871954862    -1.722417159778     1.007825032230
         N            1.884981479007    -1.699801954862    -0.050347159778    14.003074004430
         C            1.667231479007    -0.434651954862     0.467912840222    12.000000000000
         C            0.822591479007     0.045198045138     1.489832840222    12.000000000000
         N            0.120721479007    -0.782131954862     2.324332840222    14.003074004430
         N            0.753601479007     1.366948045138     1.702452840222    14.003074004430
         C            1.486381479007     2.188658045138     0.919172840222    12.000000000000
         H            1.383991479007     3.249578045138     1.136562840222     1.007825032230
         N            2.315131479007     1.869318045138    -0.083037159778    14.003074004430
         C            2.350871479007     0.542478045138    -0.264247159778    12.000000000000
         H           -0.642838520993    -0.325781954862     2.812362840222     1.007825032230
         H           -0.093608520993    -1.704111954862     1.965212840222     1.007825032230

  Running in c1 symmetry.

  Rotational constants: A =      0.02032  B =      0.01227  C =      0.01048 [cm^-1]
  Rotational constants: A =    609.28004  B =    367.84283  C =    314.16221 [MHz]
  Nuclear repulsion =  501.531811150906321

  Charge       = 0
  Multiplicity = 1
  Electrons    = 70
  Nalpha       = 35
  Nbeta        = 35

  ==> Algorithm <==

  SCF Algorithm Type is DF.
  DIIS enabled.
  MOM disabled.
  Fractional occupation disabled.
  Guess Type is SAD.
  Energy threshold   = 1.00e-08
  Density threshold  = 1.00e-08
  Integral threshold = 1.00e-12

  ==> Primary Basis <==

  Basis Set: AUG-CC-PVTZ
    Blend: AUG-CC-PVTZ
    Number of shells: 370
    Number of basis functions: 1150
    Number of Cartesian functions: 1350
    Spherical Harmonics?: true
    Max angular momentum: 3

   => Loading Basis Set <=

    Name: (AUG-CC-PVTZ AUX)
    Role: JKFIT
    Keyword: DF_BASIS_SCF
    atoms 1, 4, 11, 14-16, 19, 26, 29-30    entry H          line    70 file /opt/anaconda/envs/psi4v1.5/share/psi4/basis/aug-cc-pvtz-jkfit.gbs 
    atoms 2, 5, 8-9, 12, 17, 20, 23-24, 27  entry N          line   224 file /opt/anaconda/envs/psi4v1.5/share/psi4/basis/aug-cc-pvtz-jkfit.gbs 
    atoms 3, 6-7, 10, 13, 18, 21-22, 25, 28 entry C          line   162 file /opt/anaconda/envs/psi4v1.5/share/psi4/basis/aug-cc-pvtz-jkfit.gbs 

  ==> Integral Setup <==

  ==> DiskDFJK: Density-Fitted J/K Matrices <==

    J tasked:                  Yes
    K tasked:                  Yes
    wK tasked:                  No
    OpenMP threads:              8
    Integrals threads:           8
    Memory [MiB]:            71525
    Algorithm:                Core
    Integral Cache:           LOAD
    Schwarz Cutoff:          1E-12
    Fitting Condition:       1E-10

   => Auxiliary Basis Set <=

  Basis Set: (AUG-CC-PVTZ AUX)
    Blend: AUG-CC-PVTZ-JKFIT
    Number of shells: 740
    Number of basis functions: 2540
    Number of Cartesian functions: 3170
    Spherical Harmonics?: true
    Max angular momentum: 4

  Minimum eigenvalue in the overlap matrix is 5.2868164486E-07.
  Reciprocal condition number of the overlap matrix is 2.0922245925E-08.
    Using symmetric orthogonalization.

  ==> Pre-Iterations <==

  SCF Guess: Superposition of Atomic Densities via on-the-fly atomic UHF (no occupation information).

   -------------------------
    Irrep   Nso     Nmo    
   -------------------------
     A       1150    1150 
   -------------------------
    Total    1150    1150
   -------------------------

  ==> Iterations <==

                           Total Energy        Delta E     RMS |[F,P]|

   @DF-RHF iter SAD:  -464.45646533596585   -4.64456e+02   0.00000e+00 
   @DF-RHF iter   1:  -464.44327812090461    1.31872e-02   5.81544e-04 DIIS
   @DF-RHF iter   2:  -464.63333664083621   -1.90059e-01   2.87673e-04 DIIS
   @DF-RHF iter   3:  -464.67721013376479   -4.38735e-02   6.60160e-05 DIIS
   @DF-RHF iter   4:  -464.68055011034534   -3.33998e-03   3.10635e-05 DIIS
   @DF-RHF iter   5:  -464.68121754353996   -6.67433e-04   6.24009e-06 DIIS
   @DF-RHF iter   6:  -464.68127341868410   -5.58751e-05   2.91624e-06 DIIS
   @DF-RHF iter   7:  -464.68128718019744   -1.37615e-05   1.15132e-06 DIIS
   @DF-RHF iter   8:  -464.68129003556646   -2.85537e-06   4.29049e-07 DIIS
   @DF-RHF iter   9:  -464.68129046696220   -4.31396e-07   2.29804e-07 DIIS
   @DF-RHF iter  10:  -464.68129058118467   -1.14222e-07   8.54529e-08 DIIS
   @DF-RHF iter  11:  -464.68129060587853   -2.46939e-08   3.61900e-08 DIIS
   @DF-RHF iter  12:  -464.68129060957159   -3.69306e-09   1.45850e-08 DIIS
   @DF-RHF iter  13:  -464.68129061013394   -5.62352e-10   5.13339e-09 DIIS
  Energy and wave function converged.


  ==> Post-Iterations <==

    Orbital Energies [Eh]
    ---------------------

    Doubly Occupied:                                                      

       1A    -15.636426     2A    -15.583872     3A    -15.572339  
       4A    -15.563351     5A    -15.554964     6A    -11.338787  
       7A    -11.328734     8A    -11.320391     9A    -11.314299  
      10A    -11.256974    11A     -1.369508    12A     -1.299628  
      13A     -1.245552    14A     -1.185971    15A     -1.153052  
      16A     -1.034374    17A     -0.895856    18A     -0.877337  
      19A     -0.848155    20A     -0.776829    21A     -0.733301  
      22A     -0.696903    23A     -0.673624    24A     -0.640703  
      25A     -0.631395    26A     -0.611595    27A     -0.591688  
      28A     -0.558346    29A     -0.499053    30A     -0.498761  
      31A     -0.453760    32A     -0.427910    33A     -0.412667  
      34A     -0.376282    35A     -0.312176  

    Virtual:                                                              

      36A      0.017740    37A      0.022455    38A      0.028976  
      39A      0.038043    40A      0.039925    41A      0.042775  
      42A      0.049346    43A      0.053044    44A      0.058642  
      45A      0.061577    46A      0.067343    47A      0.073732  
      48A      0.075112    49A      0.082098    50A      0.085149  
      51A      0.087652    52A      0.088448    53A      0.096699  
      54A      0.098307    55A      0.102387    56A      0.104870  
      57A      0.105617    58A      0.110253    59A      0.114800  
      60A      0.120575    61A      0.121531    62A      0.122547  
      63A      0.124216    64A      0.125936    65A      0.129031  
      66A      0.132773    67A      0.135649    68A      0.137761  
      69A      0.141622    70A      0.144103    71A      0.145334  
      72A      0.150508    73A      0.151375    74A      0.156031  
      75A      0.162603    76A      0.163356    77A      0.167868  
      78A      0.171707    79A      0.176527    80A      0.177718  
      81A      0.179982    82A      0.184962    83A      0.187427  
      84A      0.191741    85A      0.196518    86A      0.201233  
      87A      0.205288    88A      0.210009    89A      0.212639  
      90A      0.213608    91A      0.213997    92A      0.218887  
      93A      0.220912    94A      0.222162    95A      0.223244  
      96A      0.226868    97A      0.231877    98A      0.234509  
      99A      0.238693   100A      0.243839   101A      0.246842  
     102A      0.248233   103A      0.249684   104A      0.251184  
     105A      0.257205   106A      0.261250   107A      0.263312  
     108A      0.264788   109A      0.271121   110A      0.273612  
     111A      0.276579   112A      0.282405   113A      0.285782  
     114A      0.289399   115A      0.289922   116A      0.291450  
     117A      0.295765   118A      0.297993   119A      0.301491  
     120A      0.302726   121A      0.303175   122A      0.308673  
     123A      0.315918   124A      0.317077   125A      0.323366  
     126A      0.326940   127A      0.330711   128A      0.336162  
     129A      0.341892   130A      0.346208   131A      0.347571  
     132A      0.351990   133A      0.354646   134A      0.361248  
     135A      0.368457   136A      0.372437   137A      0.374732  
     138A      0.377906   139A      0.383049   140A      0.385554  
     141A      0.388648   142A      0.390175   143A      0.395197  
     144A      0.396810   145A      0.401969   146A      0.405299  
     147A      0.409363   148A      0.413296   149A      0.415073  
     150A      0.417064   151A      0.419295   152A      0.422026  
     153A      0.426735   154A      0.428327   155A      0.432650  
     156A      0.434696   157A      0.436275   158A      0.444723  
     159A      0.447860   160A      0.449469   161A      0.451807  
     162A      0.454550   163A      0.457545   164A      0.463173  
     165A      0.467277   166A      0.469042   167A      0.471972  
     168A      0.474398   169A      0.477504   170A      0.479907  
     171A      0.483005   172A      0.489950   173A      0.492648  
     174A      0.494923   175A      0.498948   176A      0.501177  
     177A      0.502720   178A      0.504361   179A      0.507567  
     180A      0.514496   181A      0.516470   182A      0.519363  
     183A      0.522108   184A      0.525184   185A      0.527850  
     186A      0.533927   187A      0.537196   188A      0.539054  
     189A      0.543927   190A      0.544851   191A      0.552222  
     192A      0.555028   193A      0.556116   194A      0.561327  
     195A      0.567909   196A      0.568536   197A      0.572748  
     198A      0.575369   199A      0.578141   200A      0.582403  
     201A      0.583921   202A      0.591795   203A      0.593401  
     204A      0.596210   205A      0.599290   206A      0.604551  
     207A      0.610806   208A      0.615182   209A      0.618187  
     210A      0.621790   211A      0.628769   212A      0.629915  
     213A      0.633682   214A      0.638400   215A      0.644668  
     216A      0.647086   217A      0.651276   218A      0.654083  
     219A      0.662969   220A      0.667872   221A      0.671997  
     222A      0.673498   223A      0.676464   224A      0.684348  
     225A      0.689862   226A      0.691295   227A      0.694653  
     228A      0.702152   229A      0.703118   230A      0.706239  
     231A      0.711555   232A      0.716774   233A      0.719439  
     234A      0.723534   235A      0.727903   236A      0.735022  
     237A      0.741665   238A      0.745642   239A      0.748302  
     240A      0.754538   241A      0.758246   242A      0.760247  
     243A      0.764972   244A      0.769851   245A      0.773840  
     246A      0.779205   247A      0.781423   248A      0.782839  
     249A      0.789929   250A      0.792557   251A      0.796187  
     252A      0.798902   253A      0.808470   254A      0.809057  
     255A      0.814206   256A      0.817172   257A      0.823935  
     258A      0.827314   259A      0.828802   260A      0.833168  
     261A      0.842356   262A      0.842554   263A      0.844789  
     264A      0.849586   265A      0.852505   266A      0.856291  
     267A      0.862012   268A      0.862958   269A      0.868679  
     270A      0.874044   271A      0.875833   272A      0.880251  
     273A      0.884411   274A      0.889958   275A      0.892353  
     276A      0.894696   277A      0.897103   278A      0.906332  
     279A      0.909624   280A      0.913670   281A      0.918668  
     282A      0.920851   283A      0.924943   284A      0.929182  
     285A      0.933363   286A      0.935841   287A      0.939099  
     288A      0.943185   289A      0.947481   290A      0.955724  
     291A      0.958356   292A      0.963622   293A      0.965099  
     294A      0.968230   295A      0.972417   296A      0.975784  
     297A      0.980014   298A      0.985567   299A      0.986749  
     300A      0.989798   301A      0.994279   302A      0.995193  
     303A      0.997361   304A      1.007546   305A      1.008897  
     306A      1.017179   307A      1.017585   308A      1.022996  
     309A      1.024488   310A      1.029526   311A      1.039045  
     312A      1.041314   313A      1.045192   314A      1.047884  
     315A      1.051643   316A      1.057358   317A      1.064018  
     318A      1.069731   319A      1.072011   320A      1.079069  
     321A      1.081130   322A      1.084155   323A      1.092548  
     324A      1.095714   325A      1.097665   326A      1.101471  
     327A      1.102202   328A      1.107648   329A      1.113544  
     330A      1.114927   331A      1.118701   332A      1.124471  
     333A      1.130479   334A      1.134222   335A      1.135825  
     336A      1.141815   337A      1.143197   338A      1.145600  
     339A      1.152246   340A      1.160187   341A      1.161435  
     342A      1.167635   343A      1.172826   344A      1.176714  
     345A      1.178980   346A      1.184463   347A      1.188399  
     348A      1.191559   349A      1.196730   350A      1.198217  
     351A      1.205705   352A      1.210128   353A      1.214977  
     354A      1.218666   355A      1.233082   356A      1.233603  
     357A      1.235585   358A      1.243803   359A      1.244454  
     360A      1.249013   361A      1.251790   362A      1.257406  
     363A      1.259001   364A      1.263498   365A      1.267671  
     366A      1.275203   367A      1.279162   368A      1.280959  
     369A      1.284121   370A      1.288909   371A      1.295690  
     372A      1.297951   373A      1.301712   374A      1.303823  
     375A      1.315442   376A      1.318529   377A      1.322430  
     378A      1.323905   379A      1.327412   380A      1.332595  
     381A      1.335491   382A      1.336620   383A      1.347363  
     384A      1.351166   385A      1.356849   386A      1.362248  
     387A      1.370372   388A      1.375147   389A      1.385459  
     390A      1.390456   391A      1.393484   392A      1.397947  
     393A      1.404553   394A      1.410348   395A      1.411587  
     396A      1.416656   397A      1.421114   398A      1.425027  
     399A      1.432151   400A      1.439222   401A      1.442239  
     402A      1.448833   403A      1.454756   404A      1.459105  
     405A      1.463837   406A      1.466500   407A      1.470840  
     408A      1.473824   409A      1.486268   410A      1.486794  
     411A      1.491367   412A      1.496036   413A      1.505733  
     414A      1.509187   415A      1.515074   416A      1.515944  
     417A      1.526603   418A      1.529012   419A      1.533610  
     420A      1.537764   421A      1.543066   422A      1.548720  
     423A      1.552019   424A      1.558628   425A      1.564542  
     426A      1.568209   427A      1.575403   428A      1.579132  
     429A      1.585488   430A      1.590779   431A      1.594560  
     432A      1.597148   433A      1.604217   434A      1.613313  
     435A      1.621762   436A      1.625389   437A      1.632126  
     438A      1.634813   439A      1.644191   440A      1.647053  
     441A      1.650450   442A      1.656593   443A      1.663468  
     444A      1.666175   445A      1.667235   446A      1.677292  
     447A      1.680702   448A      1.682932   449A      1.687180  
     450A      1.698776   451A      1.699625   452A      1.703238  
     453A      1.707756   454A      1.710604   455A      1.719170  
     456A      1.722194   457A      1.726452   458A      1.731384  
     459A      1.736539   460A      1.742946   461A      1.754490  
     462A      1.758569   463A      1.761043   464A      1.766684  
     465A      1.769863   466A      1.771979   467A      1.780992  
     468A      1.784135   469A      1.788789   470A      1.793283  
     471A      1.798570   472A      1.799876   473A      1.803761  
     474A      1.806341   475A      1.816470   476A      1.820337  
     477A      1.831645   478A      1.834096   479A      1.842798  
     480A      1.849067   481A      1.855797   482A      1.857676  
     483A      1.866320   484A      1.867636   485A      1.875110  
     486A      1.881326   487A      1.884453   488A      1.889443  
     489A      1.895267   490A      1.901968   491A      1.909077  
     492A      1.913375   493A      1.916544   494A      1.921562  
     495A      1.925032   496A      1.943546   497A      1.945919  
     498A      1.953832   499A      1.959203   500A      1.962938  
     501A      1.968013   502A      1.970694   503A      1.981930  
     504A      1.986343   505A      1.991162   506A      1.993484  
     507A      1.996393   508A      2.008540   509A      2.016834  
     510A      2.017262   511A      2.022774   512A      2.032994  
     513A      2.037452   514A      2.039356   515A      2.049856  
     516A      2.060989   517A      2.069455   518A      2.071078  
     519A      2.078561   520A      2.079395   521A      2.083347  
     522A      2.090797   523A      2.098186   524A      2.099642  
     525A      2.104276   526A      2.109600   527A      2.119136  
     528A      2.120869   529A      2.129632   530A      2.134036  
     531A      2.139668   532A      2.148761   533A      2.150997  
     534A      2.156279   535A      2.163200   536A      2.167131  
     537A      2.171074   538A      2.176113   539A      2.186985  
     540A      2.192221   541A      2.196827   542A      2.200389  
     543A      2.203011   544A      2.210274   545A      2.218433  
     546A      2.222668   547A      2.233671   548A      2.239869  
     549A      2.240865   550A      2.249504   551A      2.256436  
     552A      2.258747   553A      2.270149   554A      2.275131  
     555A      2.278966   556A      2.282918   557A      2.290968  
     558A      2.295889   559A      2.303719   560A      2.307366  
     561A      2.310622   562A      2.315668   563A      2.325893  
     564A      2.327416   565A      2.340194   566A      2.349569  
     567A      2.352911   568A      2.355797   569A      2.361751  
     570A      2.364458   571A      2.370762   572A      2.378004  
     573A      2.384913   574A      2.387893   575A      2.396830  
     576A      2.401204   577A      2.410644   578A      2.412917  
     579A      2.423702   580A      2.424236   581A      2.427354  
     582A      2.440418   583A      2.443124   584A      2.445665  
     585A      2.449746   586A      2.456945   587A      2.463488  
     588A      2.470872   589A      2.483887   590A      2.487293  
     591A      2.488104   592A      2.498712   593A      2.505787  
     594A      2.509997   595A      2.515608   596A      2.522105  
     597A      2.531432   598A      2.535419   599A      2.538304  
     600A      2.550103   601A      2.563212   602A      2.572446  
     603A      2.579061   604A      2.584648   605A      2.590801  
     606A      2.601041   607A      2.603347   608A      2.608639  
     609A      2.610176   610A      2.626724   611A      2.633795  
     612A      2.637415   613A      2.642851   614A      2.647557  
     615A      2.653345   616A      2.654924   617A      2.666075  
     618A      2.672766   619A      2.676554   620A      2.684603  
     621A      2.696872   622A      2.709626   623A      2.711736  
     624A      2.714300   625A      2.721207   626A      2.722619  
     627A      2.736029   628A      2.741525   629A      2.750007  
     630A      2.751009   631A      2.760841   632A      2.770454  
     633A      2.774813   634A      2.781896   635A      2.787512  
     636A      2.798230   637A      2.813522   638A      2.817645  
     639A      2.829071   640A      2.834823   641A      2.836656  
     642A      2.840501   643A      2.851696   644A      2.859690  
     645A      2.868121   646A      2.883805   647A      2.895214  
     648A      2.900088   649A      2.909405   650A      2.911731  
     651A      2.915416   652A      2.921819   653A      2.930661  
     654A      2.938163   655A      2.950115   656A      2.953382  
     657A      2.971642   658A      2.981748   659A      2.989338  
     660A      2.994988   661A      2.998233   662A      3.012847  
     663A      3.018305   664A      3.020062   665A      3.025370  
     666A      3.029805   667A      3.052811   668A      3.062422  
     669A      3.068326   670A      3.070693   671A      3.075596  
     672A      3.086010   673A      3.090744   674A      3.105222  
     675A      3.123335   676A      3.126602   677A      3.138387  
     678A      3.144812   679A      3.163731   680A      3.175338  
     681A      3.188532   682A      3.196152   683A      3.202540  
     684A      3.213722   685A      3.229990   686A      3.245677  
     687A      3.257585   688A      3.269434   689A      3.277433  
     690A      3.288880   691A      3.296863   692A      3.326068  
     693A      3.337494   694A      3.337976   695A      3.343402  
     696A      3.365343   697A      3.368748   698A      3.374206  
     699A      3.387418   700A      3.396583   701A      3.398624  
     702A      3.407960   703A      3.418611   704A      3.420509  
     705A      3.457228   706A      3.468209   707A      3.475633  
     708A      3.482887   709A      3.496316   710A      3.522967  
     711A      3.526354   712A      3.534651   713A      3.560073  
     714A      3.578830   715A      3.588778   716A      3.602809  
     717A      3.612294   718A      3.620438   719A      3.639016  
     720A      3.646903   721A      3.659175   722A      3.667583  
     723A      3.680297   724A      3.691962   725A      3.704232  
     726A      3.711478   727A      3.719494   728A      3.737480  
     729A      3.743822   730A      3.756557   731A      3.777871  
     732A      3.779347   733A      3.797979   734A      3.803304  
     735A      3.817903   736A      3.823968   737A      3.829666  
     738A      3.841340   739A      3.860179   740A      3.867000  
     741A      3.873501   742A      3.883000   743A      3.897228  
     744A      3.903159   745A      3.909955   746A      3.924077  
     747A      3.929696   748A      3.940926   749A      3.950176  
     750A      3.959710   751A      3.968359   752A      3.975960  
     753A      3.983248   754A      3.990950   755A      4.001402  
     756A      4.009809   757A      4.021926   758A      4.035195  
     759A      4.039786   760A      4.051873   761A      4.063019  
     762A      4.073635   763A      4.083794   764A      4.085435  
     765A      4.100186   766A      4.116412   767A      4.124960  
     768A      4.133897   769A      4.146462   770A      4.154630  
     771A      4.159191   772A      4.166645   773A      4.178432  
     774A      4.196232   775A      4.198626   776A      4.207051  
     777A      4.222660   778A      4.226824   779A      4.248314  
     780A      4.249099   781A      4.263922   782A      4.270157  
     783A      4.282434   784A      4.288058   785A      4.294230  
     786A      4.306955   787A      4.317220   788A      4.323195  
     789A      4.328836   790A      4.337266   791A      4.346667  
     792A      4.351161   793A      4.357098   794A      4.363334  
     795A      4.374749   796A      4.382855   797A      4.393698  
     798A      4.397727   799A      4.405687   800A      4.413555  
     801A      4.422658   802A      4.427406   803A      4.435644  
     804A      4.442748   805A      4.460729   806A      4.467705  
     807A      4.472416   808A      4.483427   809A      4.496313  
     810A      4.511397   811A      4.519722   812A      4.530253  
     813A      4.533861   814A      4.543000   815A      4.547717  
     816A      4.565243   817A      4.566565   818A      4.577907  
     819A      4.579939   820A      4.596153   821A      4.607326  
     822A      4.613656   823A      4.619452   824A      4.622453  
     825A      4.631106   826A      4.646867   827A      4.654135  
     828A      4.669248   829A      4.669512   830A      4.683432  
     831A      4.694558   832A      4.700362   833A      4.711940  
     834A      4.714099   835A      4.723627   836A      4.727383  
     837A      4.737835   838A      4.749695   839A      4.765832  
     840A      4.770053   841A      4.781769   842A      4.788052  
     843A      4.800486   844A      4.819863   845A      4.823501  
     846A      4.833584   847A      4.835800   848A      4.843965  
     849A      4.849980   850A      4.869312   851A      4.876458  
     852A      4.883197   853A      4.886406   854A      4.898640  
     855A      4.903564   856A      4.910368   857A      4.921481  
     858A      4.943204   859A      4.956917   860A      4.960369  
     861A      4.978170   862A      4.980201   863A      4.991227  
     864A      4.996608   865A      5.011038   866A      5.017132  
     867A      5.024608   868A      5.032034   869A      5.039623  
     870A      5.047091   871A      5.050797   872A      5.059695  
     873A      5.068852   874A      5.073853   875A      5.085752  
     876A      5.095752   877A      5.098352   878A      5.106754  
     879A      5.114336   880A      5.123287   881A      5.127454  
     882A      5.138883   883A      5.144625   884A      5.153145  
     885A      5.159903   886A      5.167284   887A      5.176278  
     888A      5.184221   889A      5.187729   890A      5.196168  
     891A      5.206246   892A      5.212752   893A      5.227245  
     894A      5.236167   895A      5.254896   896A      5.266392  
     897A      5.275692   898A      5.286788   899A      5.292203  
     900A      5.308172   901A      5.315437   902A      5.319984  
     903A      5.336359   904A      5.341477   905A      5.353720  
     906A      5.370331   907A      5.380673   908A      5.385326  
     909A      5.391046   910A      5.393369   911A      5.401572  
     912A      5.413623   913A      5.419553   914A      5.440786  
     915A      5.449915   916A      5.462353   917A      5.465001  
     918A      5.476857   919A      5.487791   920A      5.492550  
     921A      5.507382   922A      5.513571   923A      5.532847  
     924A      5.535803   925A      5.546775   926A      5.552805  
     927A      5.562278   928A      5.571013   929A      5.577122  
     930A      5.589938   931A      5.601937   932A      5.609027  
     933A      5.613328   934A      5.623267   935A      5.633490  
     936A      5.645944   937A      5.657531   938A      5.682477  
     939A      5.691757   940A      5.698680   941A      5.704630  
     942A      5.709611   943A      5.716971   944A      5.730138  
     945A      5.742448   946A      5.744569   947A      5.754454  
     948A      5.780173   949A      5.787678   950A      5.794131  
     951A      5.813812   952A      5.816231   953A      5.822073  
     954A      5.835307   955A      5.837266   956A      5.852567  
     957A      5.866945   958A      5.876347   959A      5.883518  
     960A      5.894974   961A      5.898743   962A      5.912107  
     963A      5.923435   964A      5.964831   965A      5.967648  
     966A      5.973741   967A      5.979092   968A      5.985306  
     969A      6.009650   970A      6.014675   971A      6.019773  
     972A      6.030566   973A      6.049414   974A      6.055357  
     975A      6.073651   976A      6.080908   977A      6.103561  
     978A      6.109814   979A      6.116358   980A      6.131937  
     981A      6.150217   982A      6.165549   983A      6.186671  
     984A      6.191803   985A      6.201023   986A      6.214530  
     987A      6.219645   988A      6.236521   989A      6.243149  
     990A      6.268061   991A      6.271923   992A      6.292360  
     993A      6.303609   994A      6.322561   995A      6.340495  
     996A      6.362509   997A      6.368188   998A      6.381681  
     999A      6.413228  1000A      6.429409  1001A      6.438681  
    1002A      6.484223  1003A      6.512580  1004A      6.527327  
    1005A      6.530377  1006A      6.547041  1007A      6.564324  
    1008A      6.572867  1009A      6.582581  1010A      6.597026  
    1011A      6.609351  1012A      6.619065  1013A      6.643280  
    1014A      6.644286  1015A      6.651327  1016A      6.675670  
    1017A      6.683721  1018A      6.696265  1019A      6.719941  
    1020A      6.725913  1021A      6.742329  1022A      6.770654  
    1023A      6.791700  1024A      6.803887  1025A      6.805907  
    1026A      6.834127  1027A      6.855180  1028A      6.867727  
    1029A      6.896532  1030A      6.900874  1031A      6.925185  
    1032A      6.936723  1033A      6.944309  1034A      6.973063  
    1035A      6.985842  1036A      7.016052  1037A      7.029829  
    1038A      7.037009  1039A      7.056964  1040A      7.083400  
    1041A      7.087554  1042A      7.113126  1043A      7.119632  
    1044A      7.140333  1045A      7.165859  1046A      7.190225  
    1047A      7.204385  1048A      7.249921  1049A      7.252908  
    1050A      7.259818  1051A      7.309468  1052A      7.340169  
    1053A      7.359302  1054A      7.383250  1055A      7.416227  
    1056A      7.443844  1057A      7.454626  1058A      7.468568  
    1059A      7.514653  1060A      7.530433  1061A      7.547804  
    1062A      7.568558  1063A      7.582298  1064A      7.615966  
    1065A      7.635361  1066A      7.645549  1067A      7.667731  
    1068A      7.689468  1069A      7.711539  1070A      7.748969  
    1071A      7.771274  1072A      7.824004  1073A      7.832743  
    1074A      7.865333  1075A      7.881707  1076A      7.898035  
    1077A      7.915989  1078A      7.955837  1079A      7.962512  
    1080A      7.981942  1081A      7.998354  1082A      8.011657  
    1083A      8.059604  1084A      8.078037  1085A      8.092088  
    1086A      8.135224  1087A      8.191035  1088A      8.230095  
    1089A      8.285484  1090A      8.338003  1091A      8.397989  
    1092A      8.434774  1093A      8.513384  1094A      8.557630  
    1095A      8.589464  1096A      8.736467  1097A      8.811423  
    1098A      8.868545  1099A      8.976893  1100A      9.050710  
    1101A      9.087608  1102A      9.300867  1103A      9.334097  
    1104A      9.418321  1105A      9.658829  1106A      9.689427  
    1107A      9.769148  1108A      9.839163  1109A      9.905092  
    1110A      9.979308  1111A     10.224553  1112A     10.332902  
    1113A     10.491439  1114A     10.817690  1115A     11.113140  
    1116A     11.162027  1117A     11.232649  1118A     11.327382  
    1119A     11.602149  1120A     11.751982  1121A     11.810772  
    1122A     11.893550  1123A     12.107611  1124A     12.180883  
    1125A     12.268501  1126A     12.379638  1127A     12.563346  
    1128A     12.823430  1129A     12.973242  1130A     13.124173  
    1131A     16.461325  1132A     16.631696  1133A     16.777845  
    1134A     18.406348  1135A     18.609205  1136A     19.482981  
    1137A     19.847718  1138A     20.086553  1139A     20.624507  
    1140A     21.994426  1141A     52.207030  1142A     53.040052  
    1143A     53.405637  1144A     55.007824  1145A     57.757323  
    1146A     60.526260  1147A     62.450904  1148A     63.719636  
    1149A     64.336637  1150A     65.694401  

    Final Occupation by Irrep:
              A 
    DOCC [    35 ]

  @DF-RHF Final Energy:  -464.68129061013394

   => Energetics <=

    Nuclear Repulsion Energy =            501.5318111509063215
    One-Electron Energy =               -1625.8770755126593031
    Two-Electron Energy =                 659.6639737516189825
    Total Energy =                       -464.6812906101339422

Computation Completed


Properties will be evaluated at   0.000000,   0.000000,   0.000000 [a0]

Properties computed using the SCF density matrix

  Nuclear Dipole Moment: [e a0]
     X:   223.5039      Y:    16.1534      Z:    56.8503

  Electronic Dipole Moment: [e a0]
     X:  -223.3353      Y:   -16.7005      Z:   -57.7862

  Dipole Moment: [e a0]
     X:     0.1686      Y:    -0.5471      Z:    -0.9359     Total:     1.0971

  Dipole Moment: [D]
     X:     0.4286      Y:    -1.3905      Z:    -2.3789     Total:     2.7886


*** tstop() called on node151.bme.utexas.edu at Tue Jan 16 09:53:02 2024
Module time:
	user time   =     590.69 seconds =       9.84 minutes
	system time =       4.60 seconds =       0.08 minutes
	total time  =         86 seconds =       1.43 minutes
Total time:
	user time   =    2533.85 seconds =      42.23 minutes
	system time =      26.32 seconds =       0.44 minutes
	total time  =        379 seconds =       6.32 minutes

*** tstart() called on node151.bme.utexas.edu
*** at Tue Jan 16 09:53:02 2024


  //>>>>>>>>>>>>>>>>>>>>>>>>>>>>>>>>>>>//
  //               DFMP2               //
  //<<<<<<<<<<<<<<<<<<<<<<<<<<<<<<<<<<<//

   => Loading Basis Set <=

    Name: (AUG-CC-PVTZ AUX)
    Role: RIFIT
    Keyword: DF_BASIS_MP2
    atoms 1, 4, 11, 14-16, 19, 26, 29-30    entry H          line    30 file /opt/anaconda/envs/psi4v1.5/share/psi4/basis/aug-cc-pvtz-ri.gbs 
    atoms 2, 5, 8-9, 12, 17, 20, 23-24, 27  entry N          line   206 file /opt/anaconda/envs/psi4v1.5/share/psi4/basis/aug-cc-pvtz-ri.gbs 
    atoms 3, 6-7, 10, 13, 18, 21-22, 25, 28 entry C          line   148 file /opt/anaconda/envs/psi4v1.5/share/psi4/basis/aug-cc-pvtz-ri.gbs 

	 --------------------------------------------------------
	                          DF-MP2                         
	      2nd-Order Density-Fitted Moller-Plesset Theory     
	              RMP2 Wavefunction,   8 Threads             
	                                                         
	        Rob Parrish, Justin Turney, Andy Simmonett,      
	           Ed Hohenstein, and C. David Sherrill          
	 --------------------------------------------------------

   => Auxiliary Basis Set <=

  Basis Set: (AUG-CC-PVTZ AUX)
    Blend: AUG-CC-PVTZ-RI
    Number of shells: 700
    Number of basis functions: 2580
    Number of Cartesian functions: 3270
    Spherical Harmonics?: true
    Max angular momentum: 4

	 --------------------------------------------------------
	                 NBF =  1150, NAUX =  2580
	 --------------------------------------------------------
	   CLASS    FOCC     OCC    AOCC    AVIR     VIR    FVIR
	   PAIRS      10      35      25    1115    1115       0
	 --------------------------------------------------------

	 Will attempt to load fitting metric from file 97.

	-----------------------------------------------------------
	 ==================> DF-MP2 Energies <==================== 
	-----------------------------------------------------------
	 Reference Energy          =    -464.6812906101339422 [Eh]
	 Singles Energy            =      -0.0000000000000000 [Eh]
	 Same-Spin Energy          =      -0.4791712786091822 [Eh]
	 Opposite-Spin Energy      =      -1.3268302400055130 [Eh]
	 Correlation Energy        =      -1.8060015186146952 [Eh]
	 Total Energy              =    -466.4872921287486633 [Eh]
	-----------------------------------------------------------
	 ================> DF-SCS-MP2 Energies <================== 
	-----------------------------------------------------------
	 SCS Same-Spin Scale       =       0.3333333333333333 [-]
	 SCS Opposite-Spin Scale   =       1.2000000000000000 [-]
	 SCS Same-Spin Energy      =      -0.1597237595363941 [Eh]
	 SCS Opposite-Spin Energy  =      -1.5921962880066156 [Eh]
	 SCS Correlation Energy    =      -1.7519200475430097 [Eh]
	 SCS Total Energy          =    -466.4332106576769661 [Eh]
	-----------------------------------------------------------


*** tstop() called on node151.bme.utexas.edu at Tue Jan 16 09:53:30 2024
Module time:
	user time   =     154.38 seconds =       2.57 minutes
	system time =       3.19 seconds =       0.05 minutes
	total time  =         28 seconds =       0.47 minutes
Total time:
	user time   =    2688.23 seconds =      44.80 minutes
	system time =      29.51 seconds =       0.49 minutes
	total time  =        407 seconds =       6.78 minutes
  Constructing Basis Sets for SAPT...

   => Loading Basis Set <=

    Name: (AUG-CC-PVTZ AUX)
    Role: RIFIT
    Keyword: DF_BASIS_SAPT
    atoms 1, 4, 11, 14-16, 19, 26, 29-30    entry H          line    30 file /opt/anaconda/envs/psi4v1.5/share/psi4/basis/aug-cc-pvtz-ri.gbs 
    atoms 2, 5, 8-9, 12, 17, 20, 23-24, 27  entry N          line   206 file /opt/anaconda/envs/psi4v1.5/share/psi4/basis/aug-cc-pvtz-ri.gbs 
    atoms 3, 6-7, 10, 13, 18, 21-22, 25, 28 entry C          line   148 file /opt/anaconda/envs/psi4v1.5/share/psi4/basis/aug-cc-pvtz-ri.gbs 


  //>>>>>>>>>>>>>>>>>>>>>>>>>>>>>>>>>>>//
  //           SAPT2+(3)DMP2           //
  //<<<<<<<<<<<<<<<<<<<<<<<<<<<<<<<<<<<//


*** tstart() called on node151.bme.utexas.edu
*** at Tue Jan 16 09:53:30 2024

      SAPT2+(3)  
    Ed Hohenstein
     6 June 2009

      Orbital Information
  --------------------------
    NSO        =      1150
    NMO        =      1150
    NRI        =      2580
    NOCC A     =        35
    NOCC B     =        35
    FOCC A     =        10
    FOCC B     =        10
    NVIR A     =      1115
    NVIR B     =      1115

    Estimated memory usage: 62211.0 MB

    Natural Orbital Cutoff:   1.000E-06
    Disp(T3) Truncation:            Yes
    CCD (vv|vv) Truncation:         Yes
    MBPT T2 Truncation:             Yes

    Monomer A: 609 virtual orbitals dropped
    Monomer B: 607 virtual orbitals dropped

    Elst10,r            =    -0.052573576012 [Eh]
    Exch10 (S^2)        =     0.102730877011 [Eh]
    Exch10              =     0.104749514276 [Eh]
    Ind20,r (A<-B)      =    -0.025117386632 [Eh]
    Ind20,r (B<-A)      =    -0.032948342162 [Eh]
    Ind20,r             =    -0.058065728794 [Eh]
    Exch-Ind20,r (A<-B) =     0.022310927575 [Eh]
    Exch-Ind20,r (B<-A) =     0.026604360401 [Eh]
    Exch-Ind20,r        =     0.048915287976 [Eh]
    Disp20              =    -0.061051128598 [Eh]
    Disp20 (NO)         =    -0.056420537992 [Eh]
    Exch-Disp20         =     0.011178987514 [Eh]
    Elst12,r            =    -0.001893007826 [Eh]
    Exch11              =     0.002270038003 [Eh]
    Exch12              =     0.002773562248 [Eh]
    Ind22               =    -0.004760054503 [Eh]
    Disp21              =     0.019694420984 [Eh]
    Disp22 (SDQ)        =    -0.003351564490 [Eh]

    (i =   1 of  25)       1704 seconds
    (i =   2 of  25)       3409 seconds
    (i =   3 of  25)       5235 seconds
    (i =   4 of  25)       7247 seconds
    (i =   5 of  25)       9308 seconds
    (i =   6 of  25)      11342 seconds
    (i =   7 of  25)      13390 seconds
    (i =   8 of  25)      15413 seconds
    (i =   9 of  25)      17434 seconds
    (i =  10 of  25)      19453 seconds
    (i =  11 of  25)      21466 seconds
    (i =  12 of  25)      23477 seconds
    (i =  13 of  25)      25486 seconds
    (i =  14 of  25)      27494 seconds
    (i =  15 of  25)      29503 seconds
    (i =  16 of  25)      31508 seconds
    (i =  17 of  25)      33516 seconds
    (i =  18 of  25)      35537 seconds
    (i =  19 of  25)      37557 seconds
    (i =  20 of  25)      39580 seconds
    (i =  21 of  25)      41604 seconds
    (i =  22 of  25)      43629 seconds
    (i =  23 of  25)      45660 seconds
    (i =  24 of  25)      47689 seconds
    (i =  25 of  25)      49713 seconds

    Disp220 (T)         =    -0.006485519698 [Eh]

    (i =   1 of  25)       1975 seconds
    (i =   2 of  25)       3946 seconds
    (i =   3 of  25)       5927 seconds
    (i =   4 of  25)       7911 seconds
    (i =   5 of  25)       9897 seconds
    (i =   6 of  25)      11878 seconds
    (i =   7 of  25)      13857 seconds
    (i =   8 of  25)      15836 seconds
    (i =   9 of  25)      17822 seconds
    (i =  10 of  25)      19804 seconds
    (i =  11 of  25)      21788 seconds
    (i =  12 of  25)      23773 seconds
    (i =  13 of  25)      25758 seconds
    (i =  14 of  25)      27743 seconds
    (i =  15 of  25)      29731 seconds
    (i =  16 of  25)      31713 seconds
    (i =  17 of  25)      33951 seconds
    (i =  18 of  25)      36330 seconds
    (i =  19 of  25)      38927 seconds
    (i =  20 of  25)      41435 seconds
    (i =  21 of  25)      43842 seconds
    (i =  22 of  25)      46311 seconds
    (i =  23 of  25)      48871 seconds
    (i =  24 of  25)      51513 seconds
    (i =  25 of  25)      54112 seconds

    Disp202 (T)         =    -0.006437125519 [Eh]

    Disp22 (T)          =    -0.012922645217 [Eh]

    Est. Disp220 (T)    =    -0.007017804353 [Eh]
    Est. Disp202 (T)    =    -0.006965438329 [Eh]

    Est. Disp22 (T)     =    -0.013983242681 [Eh]
    Elst13,r            =     0.002480290148 [Eh]
    Disp30              =     0.002023913050 [Eh]

    SAPT Results 
  --------------------------------------------------------------------------------------------------------
    Electrostatics                -51.98629369 [mEh]     -32.62189180 [kcal/mol]    -136.48999528 [kJ/mol]
      Elst10,r                    -52.57357601 [mEh]     -32.99041702 [kcal/mol]    -138.03190480 [kJ/mol]
      Elst12,r                     -1.89300783 [mEh]      -1.18788035 [kcal/mol]      -4.97009136 [kJ/mol]
      Elst13,r                      2.48029015 [mEh]       1.55640557 [kcal/mol]       6.51200089 [kJ/mol]

    Exchange                      109.79311453 [mEh]      68.89621952 [kcal/mol]     288.26178247 [kJ/mol]
      Exch10                      104.74951428 [mEh]      65.73131258 [kcal/mol]     275.01981184 [kJ/mol]
      Exch10(S^2)                 102.73087701 [mEh]      64.46459857 [kcal/mol]     269.71988043 [kJ/mol]
      Exch11(S^2)                   2.27003800 [mEh]       1.42447035 [kcal/mol]       5.95998396 [kJ/mol]
      Exch12(S^2)                   2.77356225 [mEh]       1.74043659 [kcal/mol]       7.28198668 [kJ/mol]

    Induction                     -14.67185205 [mEh]      -9.20672616 [kcal/mol]     -38.52094225 [kJ/mol]
      Ind20,r                     -58.06572879 [mEh]     -36.43679492 [kcal/mol]    -152.45154994 [kJ/mol]
      Ind22                        -4.76005450 [mEh]      -2.98697930 [kcal/mol]     -12.49752138 [kJ/mol]
      Exch-Ind20,r                 48.91528798 [mEh]      30.69480662 [kcal/mol]     128.42707089 [kJ/mol]
      Exch-Ind22                    4.00992878 [mEh]       2.51626830 [kcal/mol]      10.52806655 [kJ/mol]
      delta HF,r (2)               -7.59875020 [mEh]      -4.76828774 [kcal/mol]     -19.95051589 [kJ/mol]
      delta MP2,r (2)               2.82746469 [mEh]       1.77426088 [kcal/mol]       7.42350752 [kJ/mol]

    Dispersion                    -45.48861422 [mEh]     -28.54453637 [kcal/mol]    -119.43034019 [kJ/mol]
      Disp20                      -61.05112860 [mEh]     -38.31016158 [kcal/mol]    -160.28971605 [kJ/mol]
      Disp30                        2.02391305 [mEh]       1.27002461 [kcal/mol]       5.31378298 [kJ/mol]
      Disp21                       19.69442098 [mEh]      12.35843575 [kcal/mol]      51.70769517 [kJ/mol]
      Disp22 (SDQ)                 -3.35156449 [mEh]      -2.10313847 [kcal/mol]      -8.79953136 [kJ/mol]
      Disp22 (T)                  -12.92264522 [mEh]      -8.10908230 [kcal/mol]     -33.92840034 [kJ/mol]
      Est. Disp22 (T)             -13.98324268 [mEh]      -8.77461726 [kcal/mol]     -36.71299860 [kJ/mol]
      Exch-Disp20                  11.17898751 [mEh]       7.01492057 [kcal/mol]      29.35042767 [kJ/mol]

  Total HF                         35.42674725 [mEh]      22.23061952 [kcal/mol]      93.01291209 [kJ/mol]
  Total SAPT0                     -14.44539383 [mEh]      -9.06462148 [kcal/mol]     -37.92637629 [kJ/mol]
  Total SAPT2                     -12.04492714 [mEh]      -7.55830589 [kcal/mol]     -31.62395184 [kJ/mol]
  Total SAPT2+                     -9.68531332 [mEh]      -6.07762587 [kcal/mol]     -25.42878663 [kJ/mol]
  Total SAPT2+(3)                  -5.18111013 [mEh]      -3.25119569 [kcal/mol]     -13.60300276 [kJ/mol]
  Total SAPT2+dMP2                 -6.85784864 [mEh]      -4.30336499 [kcal/mol]     -18.00527911 [kJ/mol]
  Total SAPT2+(3)dMP2              -2.35364544 [mEh]      -1.47693481 [kcal/mol]      -6.17949525 [kJ/mol]

  Special recipe for scaled SAPT0 (see Manual):
    Electrostatics sSAPT0         -52.57357601 [mEh]     -32.99041702 [kcal/mol]    -138.03190480 [kJ/mol]
    Exchange sSAPT0               104.74951428 [mEh]      65.73131258 [kcal/mol]     275.01981184 [kJ/mol]
    Induction sSAPT0              -13.80863811 [mEh]      -8.66505123 [kcal/mol]     -36.25457437 [kJ/mol]
    Dispersion sSAPT0             -49.20011388 [mEh]     -30.87353757 [kcal/mol]    -129.17488120 [kJ/mol]
  Total sSAPT0                    -10.83281373 [mEh]      -6.79769324 [kcal/mol]     -28.44154853 [kJ/mol]
  --------------------------------------------------------------------------------------------------------

*** tstop() called on node151.bme.utexas.edu at Wed Jan 17 19:44:37 2024
Module time:
	user time   =  811916.14 seconds =   13531.94 minutes
	system time =    1375.27 seconds =      22.92 minutes
	total time  =     121867 seconds =    2031.12 minutes
Total time:
	user time   =  814605.10 seconds =   13576.75 minutes
	system time =    1404.79 seconds =      23.41 minutes
	total time  =     122274 seconds =    2037.90 minutes

    Psi4 stopped on: Wednesday, 17 January 2024 07:44PM
    Psi4 wall time for execution: 1 day, 9:57:53.98

*** Psi4 exiting successfully. Buy a developer a beer!
