28

H 0.52733 -2.00651 2.54251
N 0.96122 -1.58102 1.7317
C 1.70416 -2.20208 0.76392
H 1.91613 -3.26381 0.80035
N 2.13389 -1.37883 -0.18613
C 1.62587 -0.15326 0.20299
C 1.74321 1.1387 -0.34028
N 2.38138 1.36799 -1.54117
N 1.14434 2.16181 0.27547
C 0.41976 1.91171 1.38921
H -0.07961 2.77262 1.82473
N 0.24039 0.74198 2.01942
C 0.88391 -0.24842 1.38646
H 2.59613 2.34898 -1.69421
H 3.14927 0.73565 -1.74291
N -3.501465061538461 -0.6227351230769231 0.14138987692307697
H -4.150755061538462 -0.4903951230769231 0.9096998769230771
C -3.0839650615384615 0.5762548769230769 -0.48917012307692304
O -3.5349850615384613 1.6440048769230768 -0.08539012307692301
N -2.172405061538462 0.43407487692307695 -1.515910123076923
C -1.7428250615384615 -0.7666251230769232 -1.856420123076923
N -0.8526050615384615 -0.8429851230769232 -2.898890123076923
C -2.1824950615384617 -1.9882851230769232 -1.240950123076923
H -1.8440950615384615 -2.959335123076923 -1.582080123076923
C -3.078345061538461 -1.8595151230769231 -0.22550012307692302
H -3.4932950615384613 -2.701795123076923 0.321389876923077
H -0.39997506153846146 0.048854876923076884 -3.089360123076923
H -0.18865506153846145 -1.6080751230769232 -2.836660123076923
