
    -----------------------------------------------------------------------
          Psi4: An Open-Source Ab Initio Electronic Structure Package
                               Psi4 1.5 release

                         Git: Rev {HEAD} e9f4d6d 


    D. G. A. Smith, L. A. Burns, A. C. Simmonett, R. M. Parrish,
    M. C. Schieber, R. Galvelis, P. Kraus, H. Kruse, R. Di Remigio,
    A. Alenaizan, A. M. James, S. Lehtola, J. P. Misiewicz, M. Scheurer,
    R. A. Shaw, J. B. Schriber, Y. Xie, Z. L. Glick, D. A. Sirianni,
    J. S. O'Brien, J. M. Waldrop, A. Kumar, E. G. Hohenstein,
    B. P. Pritchard, B. R. Brooks, H. F. Schaefer III, A. Yu. Sokolov,
    K. Patkowski, A. E. DePrince III, U. Bozkaya, R. A. King,
    F. A. Evangelista, J. M. Turney, T. D. Crawford, C. D. Sherrill,
    J. Chem. Phys. 152(18) 184108 (2020). https://doi.org/10.1063/5.0006002

                            Additional Code Authors
    E. T. Seidl, C. L. Janssen, E. F. Valeev, M. L. Leininger,
    J. F. Gonthier, R. M. Richard, H. R. McAlexander, M. Saitow, X. Wang,
    P. Verma, M. H. Lechner, and A. Jiang

             Previous Authors, Complete List of Code Contributors,
                       and Citations for Specific Modules
    https://github.com/psi4/psi4/blob/master/codemeta.json
    https://github.com/psi4/psi4/graphs/contributors
    http://psicode.org/psi4manual/master/introduction.html#citing-psifour

    -----------------------------------------------------------------------


    Psi4 started on: Wednesday, 17 January 2024 10:59AM

    Process ID: 4024053
    Host:       node156.bme.utexas.edu
    PSIDATADIR: /opt/anaconda/envs/psi4v1.5/share/psi4
    Memory:     500.0 MiB
    Threads:    8
    
  ==> Input File <==

--------------------------------------------------------------------------
memory 100GB

molecule {
0 1
H -3.44482 2.21216 -0.90217
N -3.0785 1.35965 -0.49464
C -3.64063 0.10716 -0.53064
H -4.54904 -0.09371 -1.08581
N -2.96923 -0.79519 0.17069
C -1.91889 -0.0711 0.70404
C -0.83113 -0.44621 1.52192
N -0.67692 -1.71363 1.99425
N 0.05072 0.50575 1.88563
C -0.13593 1.76551 1.43648
H 0.60515 2.49032 1.77132
N -1.10247 2.24731 0.64366
C -1.96203 1.27217 0.31006
H 0.28047 -1.94267 2.25487
H -1.10783 -2.42489 1.41054
--
0 1
N 0.6811267875000001 -0.4392446000000001 -2.6741803749999997
H 0.2650967875000001 0.21096539999999991 -3.331050375
C 0.25237678750000014 -1.7067246 -2.362430375
H -0.6110632125 -2.1541346 -2.836620375
N 0.9987067875000001 -2.2886045999999998 -1.4347103749999999
C 1.9558667875000002 -1.3429146 -1.141250375
C 2.9737467875000005 -1.3559946 -0.12526037499999998
O 3.2422767875 -2.2096946 0.720239625
N 3.7329467875000004 -0.16077460000000007 -0.20208037499999998
C 3.4387067875 0.9441854 -0.961070375
N 4.2993167875000005 2.0219454 -0.8274103749999999
N 2.4703667875 0.9894054 -1.845270375
C 1.7747567875 -0.18016460000000006 -1.8894203749999998
H 4.4900167875 -0.11560460000000007 0.4763196250000001
H 4.5704667875 2.2400154 0.12637962500000005
H 3.9303667874999997 2.8360654 -1.309490375
 units angstrom
 no_reorient
 symmetry c1
}
set
 {scf_type DF
 basis aug-cc-pvtz
 freeze_core True
 guess SAD
}
energy('sapt2+(3)dmp2')
--------------------------------------------------------------------------

  Memory set to  93.132 GiB by Python driver.

Scratch directory: /tmp/
   => Loading Basis Set <=

    Name: AUG-CC-PVTZ
    Role: ORBITAL
    Keyword: BASIS
    atoms 1, 4, 11, 14-15, 17, 19, 29-31    entry H          line    40 file /opt/anaconda/envs/psi4v1.5/share/psi4/basis/aug-cc-pvtz.gbs 
    atoms 2, 5, 8-9, 12, 16, 20, 24, 26-27  entry N          line   285 file /opt/anaconda/envs/psi4v1.5/share/psi4/basis/aug-cc-pvtz.gbs 
    atoms 3, 6-7, 10, 13, 18, 21-22, 25, 28 entry C          line   239 file /opt/anaconda/envs/psi4v1.5/share/psi4/basis/aug-cc-pvtz.gbs 
    atoms 23                                entry O          line   331 file /opt/anaconda/envs/psi4v1.5/share/psi4/basis/aug-cc-pvtz.gbs 

   => Loading Basis Set <=

    Name: AUG-CC-PVTZ
    Role: ORBITAL
    Keyword: BASIS
    atoms 1, 4, 11, 14-15, 17, 19, 29-31    entry H          line    40 file /opt/anaconda/envs/psi4v1.5/share/psi4/basis/aug-cc-pvtz.gbs 
    atoms 2, 5, 8-9, 12, 16, 20, 24, 26-27  entry N          line   285 file /opt/anaconda/envs/psi4v1.5/share/psi4/basis/aug-cc-pvtz.gbs 
    atoms 3, 6-7, 10, 13, 18, 21-22, 25, 28 entry C          line   239 file /opt/anaconda/envs/psi4v1.5/share/psi4/basis/aug-cc-pvtz.gbs 
    atoms 23                                entry O          line   331 file /opt/anaconda/envs/psi4v1.5/share/psi4/basis/aug-cc-pvtz.gbs 


  //>>>>>>>>>>>>>>>>>>>>>>>>>>>>>>>>>>>//
  //              Dimer HF             //
  //<<<<<<<<<<<<<<<<<<<<<<<<<<<<<<<<<<<//


*** tstart() called on node156.bme.utexas.edu
*** at Wed Jan 17 10:59:12 2024

   => Loading Basis Set <=

    Name: AUG-CC-PVTZ
    Role: ORBITAL
    Keyword: BASIS
    atoms 1, 4, 11, 14-15, 17, 19, 29-31    entry H          line    40 file /opt/anaconda/envs/psi4v1.5/share/psi4/basis/aug-cc-pvtz.gbs 
    atoms 2, 5, 8-9, 12, 16, 20, 24, 26-27  entry N          line   285 file /opt/anaconda/envs/psi4v1.5/share/psi4/basis/aug-cc-pvtz.gbs 
    atoms 3, 6-7, 10, 13, 18, 21-22, 25, 28 entry C          line   239 file /opt/anaconda/envs/psi4v1.5/share/psi4/basis/aug-cc-pvtz.gbs 
    atoms 23                                entry O          line   331 file /opt/anaconda/envs/psi4v1.5/share/psi4/basis/aug-cc-pvtz.gbs 


         ---------------------------------------------------------
                                   SCF
               by Justin Turney, Rob Parrish, Andy Simmonett
                          and Daniel G. A. Smith
                              RHF Reference
                        8 Threads,  95367 MiB Core
         ---------------------------------------------------------

  ==> Geometry <==

    Molecular point group: c1
    Full point group: C1

    Geometry (in Angstrom), charge = 0, multiplicity = 1:

       Center              X                  Y                   Z               Mass       
    ------------   -----------------  -----------------  -----------------  -----------------
         H           -3.937312322257     2.282242622027    -0.666700883124     1.007825032230
         N           -3.570992322257     1.429732622027    -0.259170883124    14.003074004430
         C           -4.133122322257     0.177242622027    -0.295170883124    12.000000000000
         H           -5.041532322257    -0.023627377973    -0.850340883124     1.007825032230
         N           -3.461722322257    -0.725107377973     0.406159116876    14.003074004430
         C           -2.411382322257    -0.001017377973     0.939509116876    12.000000000000
         C           -1.323622322257    -0.376127377973     1.757389116876    12.000000000000
         N           -1.169412322257    -1.643547377973     2.229719116876    14.003074004430
         N           -0.441772322257     0.575832622027     2.121099116876    14.003074004430
         C           -0.628422322257     1.835592622027     1.671949116876    12.000000000000
         H            0.112657677743     2.560402622027     2.006789116876     1.007825032230
         N           -1.594962322257     2.317392622027     0.879129116876    14.003074004430
         C           -2.454522322257     1.342252622027     0.545529116876    12.000000000000
         H           -0.212022322257    -1.872587377973     2.490339116876     1.007825032230
         H           -1.600322322257    -2.354807377973     1.646009116876     1.007825032230
         N            0.188634465243    -0.369161977973    -2.438711258124    14.003074004430
         H           -0.227395534757     0.281048022027    -3.095581258124     1.007825032230
         C           -0.240115534757    -1.636641977973    -2.126961258124    12.000000000000
         H           -1.103555534757    -2.084051977973    -2.601151258124     1.007825032230
         N            0.506214465243    -2.218521977973    -1.199241258124    14.003074004430
         C            1.463374465243    -1.272831977973    -0.905781258124    12.000000000000
         C            2.481254465243    -1.285911977973     0.110208741876    12.000000000000
         O            2.749784465243    -2.139611977973     0.955708741876    15.994914619570
         N            3.240454465243    -0.090691977973     0.033388741876    14.003074004430
         C            2.946214465243     1.014268022027    -0.725601258124    12.000000000000
         N            3.806824465243     2.092028022027    -0.591941258124    14.003074004430
         N            1.977874465243     1.059488022027    -1.609801258124    14.003074004430
         C            1.282264465243    -0.110081977973    -1.653951258124    12.000000000000
         H            3.997524465243    -0.045521977973     0.711788741876     1.007825032230
         H            4.077974465243     2.310098022027     0.361848741876     1.007825032230
         H            3.437874465243     2.906148022027    -1.074021258124     1.007825032230

  Running in c1 symmetry.

  Rotational constants: A =      0.01639  B =      0.00783  C =      0.00753 [cm^-1]
  Rotational constants: A =    491.32758  B =    234.73927  C =    225.67912 [MHz]
  Nuclear repulsion = 1656.319067341915570

  Charge       = 0
  Multiplicity = 1
  Electrons    = 148
  Nalpha       = 74
  Nbeta        = 74

  ==> Algorithm <==

  SCF Algorithm Type is DF.
  DIIS enabled.
  MOM disabled.
  Fractional occupation disabled.
  Guess Type is SAD.
  Energy threshold   = 1.00e-08
  Density threshold  = 1.00e-08
  Integral threshold = 1.00e-12

  ==> Primary Basis <==

  Basis Set: AUG-CC-PVTZ
    Blend: AUG-CC-PVTZ
    Number of shells: 384
    Number of basis functions: 1196
    Number of Cartesian functions: 1405
    Spherical Harmonics?: true
    Max angular momentum: 3

   => Loading Basis Set <=

    Name: (AUG-CC-PVTZ AUX)
    Role: JKFIT
    Keyword: DF_BASIS_SCF
    atoms 1, 4, 11, 14-15, 17, 19, 29-31    entry H          line    70 file /opt/anaconda/envs/psi4v1.5/share/psi4/basis/aug-cc-pvtz-jkfit.gbs 
    atoms 2, 5, 8-9, 12, 16, 20, 24, 26-27  entry N          line   224 file /opt/anaconda/envs/psi4v1.5/share/psi4/basis/aug-cc-pvtz-jkfit.gbs 
    atoms 3, 6-7, 10, 13, 18, 21-22, 25, 28 entry C          line   162 file /opt/anaconda/envs/psi4v1.5/share/psi4/basis/aug-cc-pvtz-jkfit.gbs 
    atoms 23                                entry O          line   286 file /opt/anaconda/envs/psi4v1.5/share/psi4/basis/aug-cc-pvtz-jkfit.gbs 

  ==> Integral Setup <==

  ==> DiskDFJK: Density-Fitted J/K Matrices <==

    J tasked:                  Yes
    K tasked:                  Yes
    wK tasked:                  No
    OpenMP threads:              8
    Integrals threads:           8
    Memory [MiB]:            71525
    Algorithm:                Core
    Integral Cache:           SAVE
    Schwarz Cutoff:          1E-12
    Fitting Condition:       1E-10

   => Auxiliary Basis Set <=

  Basis Set: (AUG-CC-PVTZ AUX)
    Blend: AUG-CC-PVTZ-JKFIT
    Number of shells: 770
    Number of basis functions: 2644
    Number of Cartesian functions: 3301
    Spherical Harmonics?: true
    Max angular momentum: 4

  Minimum eigenvalue in the overlap matrix is 7.8532402406E-07.
  Reciprocal condition number of the overlap matrix is 3.6962961384E-08.
    Using symmetric orthogonalization.

  ==> Pre-Iterations <==

  SCF Guess: Superposition of Atomic Densities via on-the-fly atomic UHF (no occupation information).

   -------------------------
    Irrep   Nso     Nmo    
   -------------------------
     A       1196    1196 
   -------------------------
    Total    1196    1196
   -------------------------

  ==> Iterations <==

                           Total Energy        Delta E     RMS |[F,P]|

   @DF-RHF iter SAD: -1003.83892112452759   -1.00384e+03   0.00000e+00 
   @DF-RHF iter   1: -1003.72619633171576    1.12725e-01   8.65689e-04 DIIS
   @DF-RHF iter   2: -1004.13489395412557   -4.08698e-01   4.82111e-04 DIIS
   @DF-RHF iter   3: -1004.25890473813183   -1.24011e-01   1.09569e-04 DIIS
   @DF-RHF iter   4: -1004.26792866466394   -9.02393e-03   4.79394e-05 DIIS
   @DF-RHF iter   5: -1004.26974777160353   -1.81911e-03   9.64175e-06 DIIS
   @DF-RHF iter   6: -1004.26990940739995   -1.61636e-04   5.01450e-06 DIIS
   @DF-RHF iter   7: -1004.26995427518125   -4.48678e-05   2.10708e-06 DIIS
   @DF-RHF iter   8: -1004.26996327303732   -8.99786e-06   8.36837e-07 DIIS
   @DF-RHF iter   9: -1004.26996471611608   -1.44308e-06   3.58488e-07 DIIS
   @DF-RHF iter  10: -1004.26996499822440   -2.82108e-07   1.43730e-07 DIIS
   @DF-RHF iter  11: -1004.26996505002012   -5.17957e-08   6.51599e-08 DIIS
   @DF-RHF iter  12: -1004.26996506019168   -1.01716e-08   2.43499e-08 DIIS
   @DF-RHF iter  13: -1004.26996506187857   -1.68689e-09   1.00807e-08 DIIS
   @DF-RHF iter  14: -1004.26996506214073   -2.62162e-10   4.28103e-09 DIIS
  Energy and wave function converged.


  ==> Post-Iterations <==

    Orbital Energies [Eh]
    ---------------------

    Doubly Occupied:                                                      

       1A    -20.521839     2A    -15.636978     3A    -15.635489  
       4A    -15.631672     5A    -15.610725     6A    -15.573358  
       7A    -15.573091     8A    -15.571550     9A    -15.565040  
      10A    -15.563067    11A    -15.553089    12A    -11.397229  
      13A    -11.365849    14A    -11.335148    15A    -11.328675  
      16A    -11.326340    17A    -11.320559    18A    -11.314662  
      19A    -11.314471    20A    -11.254992    21A    -11.249211  
      22A     -1.391909    23A     -1.367705    24A     -1.358725  
      25A     -1.334249    26A     -1.295678    27A     -1.242770  
      28A     -1.220924    29A     -1.217730    30A     -1.185410  
      31A     -1.177780    32A     -1.150090    33A     -1.031927  
      34A     -1.030395    35A     -0.906834    36A     -0.892137  
      37A     -0.885724    38A     -0.875197    39A     -0.847329  
      40A     -0.844318    41A     -0.798797    42A     -0.772191  
      43A     -0.740889    44A     -0.728707    45A     -0.728566  
      46A     -0.698768    47A     -0.692929    48A     -0.671905  
      49A     -0.666744    50A     -0.657119    51A     -0.640110  
      52A     -0.632356    53A     -0.629188    54A     -0.612188  
      55A     -0.604745    56A     -0.601884    57A     -0.595017  
      58A     -0.590158    59A     -0.554949    60A     -0.545565  
      61A     -0.499858    62A     -0.498769    63A     -0.496687  
      64A     -0.461098    65A     -0.452779    66A     -0.442294  
      67A     -0.433503    68A     -0.430069    69A     -0.426696  
      70A     -0.411666    71A     -0.411349    72A     -0.374884  
      73A     -0.310895    74A     -0.300893  

    Virtual:                                                              

      75A      0.013901    76A      0.019302    77A      0.029313  
      78A      0.033052    79A      0.040579    80A      0.042548  
      81A      0.050880    82A      0.051806    83A      0.058595  
      84A      0.065678    85A      0.069743    86A      0.073035  
      87A      0.080049    88A      0.086228    89A      0.090985  
      90A      0.092689    91A      0.092894    92A      0.094474  
      93A      0.098380    94A      0.100007    95A      0.105333  
      96A      0.109331    97A      0.113902    98A      0.114731  
      99A      0.116542   100A      0.118585   101A      0.124288  
     102A      0.127742   103A      0.128829   104A      0.129951  
     105A      0.131997   106A      0.133348   107A      0.136418  
     108A      0.137807   109A      0.139836   110A      0.141592  
     111A      0.145728   112A      0.147973   113A      0.150000  
     114A      0.154581   115A      0.156581   116A      0.159413  
     117A      0.167571   118A      0.167849   119A      0.172046  
     120A      0.175005   121A      0.180147   122A      0.184249  
     123A      0.187919   124A      0.190112   125A      0.191854  
     126A      0.192799   127A      0.201960   128A      0.203522  
     129A      0.207891   130A      0.208788   131A      0.212028  
     132A      0.214867   133A      0.216790   134A      0.218595  
     135A      0.221522   136A      0.222886   137A      0.227242  
     138A      0.229554   139A      0.233886   140A      0.234544  
     141A      0.237221   142A      0.241357   143A      0.242122  
     144A      0.248131   145A      0.250134   146A      0.254011  
     147A      0.255545   148A      0.261193   149A      0.263864  
     150A      0.266654   151A      0.274222   152A      0.276584  
     153A      0.276873   154A      0.278853   155A      0.284230  
     156A      0.286972   157A      0.289523   158A      0.291355  
     159A      0.297527   160A      0.302763   161A      0.302953  
     162A      0.303196   163A      0.305034   164A      0.310160  
     165A      0.313616   166A      0.314641   167A      0.319215  
     168A      0.319972   169A      0.325758   170A      0.330535  
     171A      0.332968   172A      0.337607   173A      0.342457  
     174A      0.346547   175A      0.347438   176A      0.352076  
     177A      0.355639   178A      0.358140   179A      0.361273  
     180A      0.365140   181A      0.366340   182A      0.372353  
     183A      0.373059   184A      0.375587   185A      0.378368  
     186A      0.382244   187A      0.383967   188A      0.387956  
     189A      0.388636   190A      0.392603   191A      0.395551  
     192A      0.401502   193A      0.402633   194A      0.406002  
     195A      0.408204   196A      0.411476   197A      0.416079  
     198A      0.418269   199A      0.419272   200A      0.423831  
     201A      0.427703   202A      0.430214   203A      0.431211  
     204A      0.436682   205A      0.440625   206A      0.442773  
     207A      0.443460   208A      0.449326   209A      0.449580  
     210A      0.451166   211A      0.457892   212A      0.459690  
     213A      0.462323   214A      0.463904   215A      0.471095  
     216A      0.474366   217A      0.476717   218A      0.479944  
     219A      0.480656   220A      0.483201   221A      0.487108  
     222A      0.490050   223A      0.492639   224A      0.498105  
     225A      0.499092   226A      0.501946   227A      0.502081  
     228A      0.505676   229A      0.508496   230A      0.509793  
     231A      0.515836   232A      0.518241   233A      0.519086  
     234A      0.523764   235A      0.525262   236A      0.529933  
     237A      0.533492   238A      0.537027   239A      0.537250  
     240A      0.541881   241A      0.547141   242A      0.548828  
     243A      0.555350   244A      0.558459   245A      0.561595  
     246A      0.564115   247A      0.567178   248A      0.569195  
     249A      0.571747   250A      0.575697   251A      0.577496  
     252A      0.582207   253A      0.587845   254A      0.589696  
     255A      0.597120   256A      0.599971   257A      0.604946  
     258A      0.609064   259A      0.612693   260A      0.617596  
     261A      0.618276   262A      0.622856   263A      0.624961  
     264A      0.630398   265A      0.632244   266A      0.635719  
     267A      0.637816   268A      0.643601   269A      0.644858  
     270A      0.649012   271A      0.653213   272A      0.655584  
     273A      0.658288   274A      0.663382   275A      0.666274  
     276A      0.669788   277A      0.672874   278A      0.677106  
     279A      0.681812   280A      0.682572   281A      0.686913  
     282A      0.692358   283A      0.699162   284A      0.702000  
     285A      0.705869   286A      0.709453   287A      0.714985  
     288A      0.715532   289A      0.721981   290A      0.725778  
     291A      0.729496   292A      0.733984   293A      0.740176  
     294A      0.741712   295A      0.745492   296A      0.746911  
     297A      0.750486   298A      0.754534   299A      0.757030  
     300A      0.762754   301A      0.766205   302A      0.771757  
     303A      0.774985   304A      0.776886   305A      0.782423  
     306A      0.783437   307A      0.786761   308A      0.791560  
     309A      0.798997   310A      0.800630   311A      0.803034  
     312A      0.807304   313A      0.818595   314A      0.820331  
     315A      0.823980   316A      0.827578   317A      0.832688  
     318A      0.833527   319A      0.834818   320A      0.841595  
     321A      0.846676   322A      0.848933   323A      0.853352  
     324A      0.854218   325A      0.855968   326A      0.862540  
     327A      0.865800   328A      0.872050   329A      0.875744  
     330A      0.880698   331A      0.883098   332A      0.884592  
     333A      0.886152   334A      0.892060   335A      0.898222  
     336A      0.900117   337A      0.904638   338A      0.910837  
     339A      0.913615   340A      0.916988   341A      0.918554  
     342A      0.921227   343A      0.928113   344A      0.932930  
     345A      0.934616   346A      0.941322   347A      0.943373  
     348A      0.952844   349A      0.955749   350A      0.958296  
     351A      0.961347   352A      0.963970   353A      0.968289  
     354A      0.974634   355A      0.977414   356A      0.981122  
     357A      0.984936   358A      0.991498   359A      0.994254  
     360A      0.996830   361A      0.997285   362A      1.001713  
     363A      1.002033   364A      1.004966   365A      1.010283  
     366A      1.015926   367A      1.018954   368A      1.021254  
     369A      1.026169   370A      1.031957   371A      1.033670  
     372A      1.035898   373A      1.039281   374A      1.041167  
     375A      1.044502   376A      1.052323   377A      1.056202  
     378A      1.061275   379A      1.063807   380A      1.065520  
     381A      1.067656   382A      1.073087   383A      1.075389  
     384A      1.078557   385A      1.080453   386A      1.084152  
     387A      1.093587   388A      1.094866   389A      1.099011  
     390A      1.102868   391A      1.108082   392A      1.111563  
     393A      1.116000   394A      1.117051   395A      1.122728  
     396A      1.124155   397A      1.126485   398A      1.127515  
     399A      1.130439   400A      1.135780   401A      1.140191  
     402A      1.143199   403A      1.144168   404A      1.148121  
     405A      1.153466   406A      1.158806   407A      1.161839  
     408A      1.165710   409A      1.166344   410A      1.171590  
     411A      1.180294   412A      1.181612   413A      1.186479  
     414A      1.191387   415A      1.192849   416A      1.199233  
     417A      1.203130   418A      1.205717   419A      1.213815  
     420A      1.216751   421A      1.218304   422A      1.222385  
     423A      1.225752   424A      1.227057   425A      1.232709  
     426A      1.236217   427A      1.239437   428A      1.247565  
     429A      1.251177   430A      1.253907   431A      1.257474  
     432A      1.260731   433A      1.267572   434A      1.274073  
     435A      1.275982   436A      1.278062   437A      1.282895  
     438A      1.292988   439A      1.294408   440A      1.297748  
     441A      1.300920   442A      1.306072   443A      1.309394  
     444A      1.313813   445A      1.317734   446A      1.324817  
     447A      1.330272   448A      1.333797   449A      1.337256  
     450A      1.339708   451A      1.345379   452A      1.345849  
     453A      1.350462   454A      1.354775   455A      1.358101  
     456A      1.367167   457A      1.369323   458A      1.371497  
     459A      1.374762   460A      1.380833   461A      1.385683  
     462A      1.388712   463A      1.391554   464A      1.394127  
     465A      1.395630   466A      1.407311   467A      1.412217  
     468A      1.414671   469A      1.423107   470A      1.428190  
     471A      1.433885   472A      1.434661   473A      1.439123  
     474A      1.447353   475A      1.451561   476A      1.455095  
     477A      1.460179   478A      1.465619   479A      1.471488  
     480A      1.472512   481A      1.477679   482A      1.483750  
     483A      1.486998   484A      1.489651   485A      1.498507  
     486A      1.504690   487A      1.506731   488A      1.507941  
     489A      1.512996   490A      1.521571   491A      1.525085  
     492A      1.530241   493A      1.539479   494A      1.541077  
     495A      1.545223   496A      1.548953   497A      1.553454  
     498A      1.556827   499A      1.564286   500A      1.567210  
     501A      1.568673   502A      1.571697   503A      1.577943  
     504A      1.583786   505A      1.585586   506A      1.591144  
     507A      1.593186   508A      1.600404   509A      1.604317  
     510A      1.609320   511A      1.612026   512A      1.620145  
     513A      1.621241   514A      1.627493   515A      1.635171  
     516A      1.636099   517A      1.649070   518A      1.652574  
     519A      1.658846   520A      1.664789   521A      1.666228  
     522A      1.675098   523A      1.679613   524A      1.684790  
     525A      1.686547   526A      1.693512   527A      1.694625  
     528A      1.702197   529A      1.707509   530A      1.709819  
     531A      1.716987   532A      1.720419   533A      1.723604  
     534A      1.730711   535A      1.737335   536A      1.744192  
     537A      1.746171   538A      1.753268   539A      1.756493  
     540A      1.761674   541A      1.764425   542A      1.771378  
     543A      1.779751   544A      1.784033   545A      1.794924  
     546A      1.798914   547A      1.802214   548A      1.807651  
     549A      1.810757   550A      1.813834   551A      1.816560  
     552A      1.829713   553A      1.833876   554A      1.844352  
     555A      1.848290   556A      1.853546   557A      1.857252  
     558A      1.862678   559A      1.866317   560A      1.868819  
     561A      1.872583   562A      1.878103   563A      1.884329  
     564A      1.885936   565A      1.889142   566A      1.898220  
     567A      1.909640   568A      1.918576   569A      1.924823  
     570A      1.927635   571A      1.939444   572A      1.944095  
     573A      1.955644   574A      1.961629   575A      1.965910  
     576A      1.966922   577A      1.975377   578A      1.983312  
     579A      1.985864   580A      1.990220   581A      1.993176  
     582A      2.001996   583A      2.012564   584A      2.016185  
     585A      2.024702   586A      2.035434   587A      2.044177  
     588A      2.048343   589A      2.052096   590A      2.059645  
     591A      2.061721   592A      2.064062   593A      2.072918  
     594A      2.083415   595A      2.090723   596A      2.096091  
     597A      2.100282   598A      2.107583   599A      2.110842  
     600A      2.113766   601A      2.119805   602A      2.125433  
     603A      2.126326   604A      2.133700   605A      2.139305  
     606A      2.142541   607A      2.150310   608A      2.158046  
     609A      2.160623   610A      2.168374   611A      2.176918  
     612A      2.178294   613A      2.180145   614A      2.188547  
     615A      2.194088   616A      2.198256   617A      2.212200  
     618A      2.213834   619A      2.225141   620A      2.227121  
     621A      2.230208   622A      2.237839   623A      2.240551  
     624A      2.249671   625A      2.250237   626A      2.261155  
     627A      2.268051   628A      2.272651   629A      2.277475  
     630A      2.288557   631A      2.291615   632A      2.292026  
     633A      2.301314   634A      2.306176   635A      2.310842  
     636A      2.318214   637A      2.324544   638A      2.325620  
     639A      2.329259   640A      2.336072   641A      2.340000  
     642A      2.344778   643A      2.353503   644A      2.356489  
     645A      2.365837   646A      2.370369   647A      2.375948  
     648A      2.380344   649A      2.382086   650A      2.389659  
     651A      2.389991   652A      2.396032   653A      2.406949  
     654A      2.411743   655A      2.421905   656A      2.422724  
     657A      2.431249   658A      2.433272   659A      2.437887  
     660A      2.440983   661A      2.448271   662A      2.452306  
     663A      2.455076   664A      2.468817   665A      2.469884  
     666A      2.474280   667A      2.485025   668A      2.488635  
     669A      2.489489   670A      2.498166   671A      2.501419  
     672A      2.505564   673A      2.509918   674A      2.513490  
     675A      2.528102   676A      2.530793   677A      2.535405  
     678A      2.543549   679A      2.546579   680A      2.553813  
     681A      2.559814   682A      2.577571   683A      2.587718  
     684A      2.594642   685A      2.600283   686A      2.601106  
     687A      2.606677   688A      2.609301   689A      2.619548  
     690A      2.625275   691A      2.632661   692A      2.637235  
     693A      2.647933   694A      2.659310   695A      2.666922  
     696A      2.676536   697A      2.683249   698A      2.690781  
     699A      2.693310   700A      2.703808   701A      2.704428  
     702A      2.706882   703A      2.718499   704A      2.727443  
     705A      2.730691   706A      2.736596   707A      2.742662  
     708A      2.747604   709A      2.758050   710A      2.767644  
     711A      2.777793   712A      2.778693   713A      2.788124  
     714A      2.788863   715A      2.796038   716A      2.807890  
     717A      2.811955   718A      2.832721   719A      2.838481  
     720A      2.843103   721A      2.854958   722A      2.857136  
     723A      2.868449   724A      2.873439   725A      2.882886  
     726A      2.888582   727A      2.899436   728A      2.906824  
     729A      2.918041   730A      2.924217   731A      2.936120  
     732A      2.953188   733A      2.956273   734A      2.965733  
     735A      2.989914   736A      2.994554   737A      3.009367  
     738A      3.023358   739A      3.033686   740A      3.062627  
     741A      3.068469   742A      3.086440   743A      3.099084  
     744A      3.107687   745A      3.119134   746A      3.132035  
     747A      3.133941   748A      3.142354   749A      3.159930  
     750A      3.170529   751A      3.188903   752A      3.214912  
     753A      3.220257   754A      3.236885   755A      3.260612  
     756A      3.267465   757A      3.273692   758A      3.292086  
     759A      3.297943   760A      3.304025   761A      3.324373  
     762A      3.340823   763A      3.346519   764A      3.360867  
     765A      3.382178   766A      3.390304   767A      3.406914  
     768A      3.411051   769A      3.415022   770A      3.426622  
     771A      3.436403   772A      3.443674   773A      3.461505  
     774A      3.463904   775A      3.474409   776A      3.479677  
     777A      3.494885   778A      3.501855   779A      3.516609  
     780A      3.529200   781A      3.539099   782A      3.545619  
     783A      3.550332   784A      3.567095   785A      3.568493  
     786A      3.584803   787A      3.589571   788A      3.598528  
     789A      3.605199   790A      3.609668   791A      3.620097  
     792A      3.625064   793A      3.626718   794A      3.634615  
     795A      3.638127   796A      3.652844   797A      3.655393  
     798A      3.668750   799A      3.680692   800A      3.687787  
     801A      3.696159   802A      3.703510   803A      3.709564  
     804A      3.715571   805A      3.722177   806A      3.734582  
     807A      3.737728   808A      3.744019   809A      3.753337  
     810A      3.762245   811A      3.769476   812A      3.774470  
     813A      3.777737   814A      3.787672   815A      3.792425  
     816A      3.801332   817A      3.803891   818A      3.814551  
     819A      3.821254   820A      3.825249   821A      3.833563  
     822A      3.844374   823A      3.846675   824A      3.855620  
     825A      3.861926   826A      3.866689   827A      3.877100  
     828A      3.889061   829A      3.895647   830A      3.904930  
     831A      3.910197   832A      3.914586   833A      3.925523  
     834A      3.929305   835A      3.933167   836A      3.938391  
     837A      3.946638   838A      3.960468   839A      3.964911  
     840A      3.972232   841A      3.977729   842A      3.984256  
     843A      3.992230   844A      3.999602   845A      4.003851  
     846A      4.010272   847A      4.021073   848A      4.026739  
     849A      4.030641   850A      4.041000   851A      4.052616  
     852A      4.059530   853A      4.069841   854A      4.076150  
     855A      4.078396   856A      4.088552   857A      4.093924  
     858A      4.096410   859A      4.102749   860A      4.109176  
     861A      4.115221   862A      4.131036   863A      4.134547  
     864A      4.135752   865A      4.149520   866A      4.153263  
     867A      4.162707   868A      4.171355   869A      4.178903  
     870A      4.183137   871A      4.185748   872A      4.193471  
     873A      4.201290   874A      4.204311   875A      4.206722  
     876A      4.216604   877A      4.222724   878A      4.230468  
     879A      4.243734   880A      4.246717   881A      4.251099  
     882A      4.255110   883A      4.259418   884A      4.264128  
     885A      4.266870   886A      4.277317   887A      4.289108  
     888A      4.290917   889A      4.294116   890A      4.299702  
     891A      4.312515   892A      4.321854   893A      4.329060  
     894A      4.332865   895A      4.336800   896A      4.343786  
     897A      4.347630   898A      4.355857   899A      4.358341  
     900A      4.375628   901A      4.385308   902A      4.386559  
     903A      4.391015   904A      4.399262   905A      4.401368  
     906A      4.408603   907A      4.415246   908A      4.417944  
     909A      4.433477   910A      4.436327   911A      4.448426  
     912A      4.456208   913A      4.466343   914A      4.474118  
     915A      4.476754   916A      4.487523   917A      4.498918  
     918A      4.503156   919A      4.505943   920A      4.515242  
     921A      4.529491   922A      4.531585   923A      4.535572  
     924A      4.551678   925A      4.557585   926A      4.562762  
     927A      4.572339   928A      4.578573   929A      4.586892  
     930A      4.601213   931A      4.604317   932A      4.614562  
     933A      4.620106   934A      4.627725   935A      4.629135  
     936A      4.643618   937A      4.650487   938A      4.661703  
     939A      4.666370   940A      4.669754   941A      4.670795  
     942A      4.681531   943A      4.694188   944A      4.715257  
     945A      4.726799   946A      4.729456   947A      4.735217  
     948A      4.742975   949A      4.751779   950A      4.760074  
     951A      4.777469   952A      4.794259   953A      4.805662  
     954A      4.813495   955A      4.818676   956A      4.824872  
     957A      4.840065   958A      4.849197   959A      4.858917  
     960A      4.860474   961A      4.876121   962A      4.893939  
     963A      4.896385   964A      4.903038   965A      4.909593  
     966A      4.918416   967A      4.931523   968A      4.949465  
     969A      4.958162   970A      4.964058   971A      4.978330  
     972A      4.981738   973A      5.002705   974A      5.008516  
     975A      5.022323   976A      5.029237   977A      5.036403  
     978A      5.046041   979A      5.062239   980A      5.065936  
     981A      5.076032   982A      5.088591   983A      5.095498  
     984A      5.117095   985A      5.125258   986A      5.132912  
     987A      5.149476   988A      5.166358   989A      5.169324  
     990A      5.179134   991A      5.193886   992A      5.209611  
     993A      5.217173   994A      5.222276   995A      5.239272  
     996A      5.246125   997A      5.257212   998A      5.261038  
     999A      5.267201  1000A      5.282834  1001A      5.287479  
    1002A      5.293953  1003A      5.303128  1004A      5.306727  
    1005A      5.317403  1006A      5.328024  1007A      5.346860  
    1008A      5.356068  1009A      5.366025  1010A      5.368506  
    1011A      5.383405  1012A      5.390387  1013A      5.400111  
    1014A      5.404726  1015A      5.416912  1016A      5.439227  
    1017A      5.452317  1018A      5.458916  1019A      5.464754  
    1020A      5.472846  1021A      5.481862  1022A      5.491093  
    1023A      5.506538  1024A      5.529430  1025A      5.534306  
    1026A      5.536002  1027A      5.541775  1028A      5.549129  
    1029A      5.553926  1030A      5.559959  1031A      5.573137  
    1032A      5.582172  1033A      5.602797  1034A      5.608944  
    1035A      5.621289  1036A      5.627790  1037A      5.633894  
    1038A      5.646636  1039A      5.660310  1040A      5.665323  
    1041A      5.675681  1042A      5.676672  1043A      5.689943  
    1044A      5.693490  1045A      5.698570  1046A      5.709897  
    1047A      5.711147  1048A      5.722426  1049A      5.727789  
    1050A      5.733316  1051A      5.743726  1052A      5.759847  
    1053A      5.763100  1054A      5.776002  1055A      5.779390  
    1056A      5.783395  1057A      5.789139  1058A      5.818184  
    1059A      5.820027  1060A      5.828732  1061A      5.836260  
    1062A      5.847728  1063A      5.851871  1064A      5.863835  
    1065A      5.871247  1066A      5.885236  1067A      5.909416  
    1068A      5.910185  1069A      5.913962  1070A      5.932083  
    1071A      5.940961  1072A      5.946210  1073A      5.950956  
    1074A      5.958647  1075A      5.966680  1076A      5.974585  
    1077A      5.985925  1078A      5.991402  1079A      5.999128  
    1080A      6.000794  1081A      6.010233  1082A      6.021964  
    1083A      6.033276  1084A      6.042779  1085A      6.050011  
    1086A      6.068233  1087A      6.081596  1088A      6.095999  
    1089A      6.117073  1090A      6.128993  1091A      6.145266  
    1092A      6.152634  1093A      6.158749  1094A      6.168285  
    1095A      6.174479  1096A      6.189645  1097A      6.192360  
    1098A      6.196576  1099A      6.215161  1100A      6.229191  
    1101A      6.244280  1102A      6.254457  1103A      6.257853  
    1104A      6.268507  1105A      6.288857  1106A      6.294992  
    1107A      6.316107  1108A      6.325408  1109A      6.367464  
    1110A      6.393420  1111A      6.450162  1112A      6.485370  
    1113A      6.490789  1114A      6.498566  1115A      6.531880  
    1116A      6.538495  1117A      6.543327  1118A      6.566364  
    1119A      6.596607  1120A      6.607832  1121A      6.615580  
    1122A      6.646274  1123A      6.682984  1124A      6.688038  
    1125A      6.699658  1126A      6.722141  1127A      6.726435  
    1128A      6.736914  1129A      6.747902  1130A      6.764544  
    1131A      6.785857  1132A      6.794857  1133A      6.804541  
    1134A      6.829382  1135A      6.843605  1136A      6.862416  
    1137A      6.880089  1138A      6.895039  1139A      6.943837  
    1140A      6.981848  1141A      7.002480  1142A      7.015002  
    1143A      7.020464  1144A      7.039717  1145A      7.043286  
    1146A      7.050455  1147A      7.071812  1148A      7.084799  
    1149A      7.108535  1150A      7.130683  1151A      7.203847  
    1152A      7.208337  1153A      7.230429  1154A      7.258869  
    1155A      7.292186  1156A      7.297715  1157A      7.375623  
    1158A      7.384130  1159A      7.405201  1160A      7.429720  
    1161A      7.454074  1162A      7.458978  1163A      7.475301  
    1164A      7.488631  1165A      7.593224  1166A      7.669571  
    1167A      7.768490  1168A      7.802463  1169A      7.819852  
    1170A      7.836585  1171A      7.858716  1172A      7.865455  
    1173A      7.944866  1174A      7.995883  1175A      8.067475  
    1176A     16.065375  1177A     16.098100  1178A     16.246728  
    1179A     16.308682  1180A     16.399138  1181A     16.584682  
    1182A     17.065430  1183A     17.774868  1184A     17.793686  
    1185A     18.136261  1186A     18.410812  1187A     19.031601  
    1188A     19.215943  1189A     19.298554  1190A     19.391661  
    1191A     19.554802  1192A     20.009005  1193A     20.137771  
    1194A     20.863586  1195A     21.178892  1196A     21.256014  

    Final Occupation by Irrep:
              A 
    DOCC [    74 ]

  @DF-RHF Final Energy: -1004.26996506214073

   => Energetics <=

    Nuclear Repulsion Energy =           1656.3190673419155701
    One-Electron Energy =               -4661.1499055963713545
    Two-Electron Energy =                2000.5608731923148298
    Total Energy =                      -1004.2699650621407272

Computation Completed


Properties will be evaluated at   0.000000,   0.000000,   0.000000 [a0]

Properties computed using the SCF density matrix

  Nuclear Dipole Moment: [e a0]
     X:    -0.4504      Y:     3.6944      Z:    -0.9982

  Electronic Dipole Moment: [e a0]
     X:    -0.2427      Y:    -1.2615      Z:    -0.7441

  Dipole Moment: [e a0]
     X:    -0.6931      Y:     2.4329      Z:    -1.7423     Total:     3.0717

  Dipole Moment: [D]
     X:    -1.7616      Y:     6.1838      Z:    -4.4286     Total:     7.8074


*** tstop() called on node156.bme.utexas.edu at Wed Jan 17 11:05:39 2024
Module time:
	user time   =    2318.68 seconds =      38.64 minutes
	system time =      20.74 seconds =       0.35 minutes
	total time  =        387 seconds =       6.45 minutes
Total time:
	user time   =    2318.68 seconds =      38.64 minutes
	system time =      20.74 seconds =       0.35 minutes
	total time  =        387 seconds =       6.45 minutes

*** tstart() called on node156.bme.utexas.edu
*** at Wed Jan 17 11:05:39 2024


  //>>>>>>>>>>>>>>>>>>>>>>>>>>>>>>>>>>>//
  //               DFMP2               //
  //<<<<<<<<<<<<<<<<<<<<<<<<<<<<<<<<<<<//

   => Loading Basis Set <=

    Name: (AUG-CC-PVTZ AUX)
    Role: RIFIT
    Keyword: DF_BASIS_MP2
    atoms 1, 4, 11, 14-15, 17, 19, 29-31    entry H          line    30 file /opt/anaconda/envs/psi4v1.5/share/psi4/basis/aug-cc-pvtz-ri.gbs 
    atoms 2, 5, 8-9, 12, 16, 20, 24, 26-27  entry N          line   206 file /opt/anaconda/envs/psi4v1.5/share/psi4/basis/aug-cc-pvtz-ri.gbs 
    atoms 3, 6-7, 10, 13, 18, 21-22, 25, 28 entry C          line   148 file /opt/anaconda/envs/psi4v1.5/share/psi4/basis/aug-cc-pvtz-ri.gbs 
    atoms 23                                entry O          line   264 file /opt/anaconda/envs/psi4v1.5/share/psi4/basis/aug-cc-pvtz-ri.gbs 

	 --------------------------------------------------------
	                          DF-MP2                         
	      2nd-Order Density-Fitted Moller-Plesset Theory     
	              RMP2 Wavefunction,   8 Threads             
	                                                         
	        Rob Parrish, Justin Turney, Andy Simmonett,      
	           Ed Hohenstein, and C. David Sherrill          
	 --------------------------------------------------------

   => Auxiliary Basis Set <=

  Basis Set: (AUG-CC-PVTZ AUX)
    Blend: AUG-CC-PVTZ-RI
    Number of shells: 728
    Number of basis functions: 2686
    Number of Cartesian functions: 3406
    Spherical Harmonics?: true
    Max angular momentum: 4

	 --------------------------------------------------------
	                 NBF =  1196, NAUX =  2686
	 --------------------------------------------------------
	   CLASS    FOCC     OCC    AOCC    AVIR     VIR    FVIR
	   PAIRS      21      74      53    1122    1122       0
	 --------------------------------------------------------

	 Will save fitting metric to file 97.

	-----------------------------------------------------------
	 ==================> DF-MP2 Energies <==================== 
	-----------------------------------------------------------
	 Reference Energy          =   -1004.2699650621407272 [Eh]
	 Singles Energy            =      -0.0000000000000000 [Eh]
	 Same-Spin Energy          =      -1.0255441626261279 [Eh]
	 Opposite-Spin Energy      =      -2.8278050600238229 [Eh]
	 Correlation Energy        =      -3.8533492226499506 [Eh]
	 Total Energy              =   -1008.1233142847906947 [Eh]
	-----------------------------------------------------------
	 ================> DF-SCS-MP2 Energies <================== 
	-----------------------------------------------------------
	 SCS Same-Spin Scale       =       0.3333333333333333 [-]
	 SCS Opposite-Spin Scale   =       1.2000000000000000 [-]
	 SCS Same-Spin Energy      =      -0.3418480542087093 [Eh]
	 SCS Opposite-Spin Energy  =      -3.3933660720285874 [Eh]
	 SCS Correlation Energy    =      -3.7352141262372967 [Eh]
	 SCS Total Energy          =   -1008.0051791883780652 [Eh]
	-----------------------------------------------------------


*** tstop() called on node156.bme.utexas.edu at Wed Jan 17 11:07:00 2024
Module time:
	user time   =     438.31 seconds =       7.31 minutes
	system time =      11.61 seconds =       0.19 minutes
	total time  =         81 seconds =       1.35 minutes
Total time:
	user time   =    2756.99 seconds =      45.95 minutes
	system time =      32.35 seconds =       0.54 minutes
	total time  =        468 seconds =       7.80 minutes

  //>>>>>>>>>>>>>>>>>>>>>>>>>>>>>>>>>>>//
  //            Monomer A HF           //
  //<<<<<<<<<<<<<<<<<<<<<<<<<<<<<<<<<<<//


*** tstart() called on node156.bme.utexas.edu
*** at Wed Jan 17 11:07:00 2024

   => Loading Basis Set <=

    Name: AUG-CC-PVTZ
    Role: ORBITAL
    Keyword: BASIS
    atoms 1, 4, 11, 14-15, 17, 19, 29-31    entry H          line    40 file /opt/anaconda/envs/psi4v1.5/share/psi4/basis/aug-cc-pvtz.gbs 
    atoms 2, 5, 8-9, 12, 16, 20, 24, 26-27  entry N          line   285 file /opt/anaconda/envs/psi4v1.5/share/psi4/basis/aug-cc-pvtz.gbs 
    atoms 3, 6-7, 10, 13, 18, 21-22, 25, 28 entry C          line   239 file /opt/anaconda/envs/psi4v1.5/share/psi4/basis/aug-cc-pvtz.gbs 
    atoms 23                                entry O          line   331 file /opt/anaconda/envs/psi4v1.5/share/psi4/basis/aug-cc-pvtz.gbs 


         ---------------------------------------------------------
                                   SCF
               by Justin Turney, Rob Parrish, Andy Simmonett
                          and Daniel G. A. Smith
                              RHF Reference
                        8 Threads,  95367 MiB Core
         ---------------------------------------------------------

  ==> Geometry <==

    Molecular point group: c1
    Full point group: C1

    Geometry (in Angstrom), charge = 0, multiplicity = 1:

       Center              X                  Y                   Z               Mass       
    ------------   -----------------  -----------------  -----------------  -----------------
         H           -3.937312322257     2.282242622027    -0.666700883124     1.007825032230
         N           -3.570992322257     1.429732622027    -0.259170883124    14.003074004430
         C           -4.133122322257     0.177242622027    -0.295170883124    12.000000000000
         H           -5.041532322257    -0.023627377973    -0.850340883124     1.007825032230
         N           -3.461722322257    -0.725107377973     0.406159116876    14.003074004430
         C           -2.411382322257    -0.001017377973     0.939509116876    12.000000000000
         C           -1.323622322257    -0.376127377973     1.757389116876    12.000000000000
         N           -1.169412322257    -1.643547377973     2.229719116876    14.003074004430
         N           -0.441772322257     0.575832622027     2.121099116876    14.003074004430
         C           -0.628422322257     1.835592622027     1.671949116876    12.000000000000
         H            0.112657677743     2.560402622027     2.006789116876     1.007825032230
         N           -1.594962322257     2.317392622027     0.879129116876    14.003074004430
         C           -2.454522322257     1.342252622027     0.545529116876    12.000000000000
         H           -0.212022322257    -1.872587377973     2.490339116876     1.007825032230
         H           -1.600322322257    -2.354807377973     1.646009116876     1.007825032230
      Gh(N)           0.188634465243    -0.369161977973    -2.438711258124    14.003074004430
      Gh(H)          -0.227395534757     0.281048022027    -3.095581258124     1.007825032230
      Gh(C)          -0.240115534757    -1.636641977973    -2.126961258124    12.000000000000
      Gh(H)          -1.103555534757    -2.084051977973    -2.601151258124     1.007825032230
      Gh(N)           0.506214465243    -2.218521977973    -1.199241258124    14.003074004430
      Gh(C)           1.463374465243    -1.272831977973    -0.905781258124    12.000000000000
      Gh(C)           2.481254465243    -1.285911977973     0.110208741876    12.000000000000
      Gh(O)           2.749784465243    -2.139611977973     0.955708741876    15.994914619570
      Gh(N)           3.240454465243    -0.090691977973     0.033388741876    14.003074004430
      Gh(C)           2.946214465243     1.014268022027    -0.725601258124    12.000000000000
      Gh(N)           3.806824465243     2.092028022027    -0.591941258124    14.003074004430
      Gh(N)           1.977874465243     1.059488022027    -1.609801258124    14.003074004430
      Gh(C)           1.282264465243    -0.110081977973    -1.653951258124    12.000000000000
      Gh(H)           3.997524465243    -0.045521977973     0.711788741876     1.007825032230
      Gh(H)           4.077974465243     2.310098022027     0.361848741876     1.007825032230
      Gh(H)           3.437874465243     2.906148022027    -1.074021258124     1.007825032230

  Running in c1 symmetry.

  Rotational constants: A =      0.01639  B =      0.00783  C =      0.00753 [cm^-1]
  Rotational constants: A =    491.32758  B =    234.73927  C =    225.67912 [MHz]
  Nuclear repulsion =  501.381185017474309

  Charge       = 0
  Multiplicity = 1
  Electrons    = 70
  Nalpha       = 35
  Nbeta        = 35

  ==> Algorithm <==

  SCF Algorithm Type is DF.
  DIIS enabled.
  MOM disabled.
  Fractional occupation disabled.
  Guess Type is SAD.
  Energy threshold   = 1.00e-08
  Density threshold  = 1.00e-08
  Integral threshold = 1.00e-12

  ==> Primary Basis <==

  Basis Set: AUG-CC-PVTZ
    Blend: AUG-CC-PVTZ
    Number of shells: 384
    Number of basis functions: 1196
    Number of Cartesian functions: 1405
    Spherical Harmonics?: true
    Max angular momentum: 3

   => Loading Basis Set <=

    Name: (AUG-CC-PVTZ AUX)
    Role: JKFIT
    Keyword: DF_BASIS_SCF
    atoms 1, 4, 11, 14-15, 17, 19, 29-31    entry H          line    70 file /opt/anaconda/envs/psi4v1.5/share/psi4/basis/aug-cc-pvtz-jkfit.gbs 
    atoms 2, 5, 8-9, 12, 16, 20, 24, 26-27  entry N          line   224 file /opt/anaconda/envs/psi4v1.5/share/psi4/basis/aug-cc-pvtz-jkfit.gbs 
    atoms 3, 6-7, 10, 13, 18, 21-22, 25, 28 entry C          line   162 file /opt/anaconda/envs/psi4v1.5/share/psi4/basis/aug-cc-pvtz-jkfit.gbs 
    atoms 23                                entry O          line   286 file /opt/anaconda/envs/psi4v1.5/share/psi4/basis/aug-cc-pvtz-jkfit.gbs 

  ==> Integral Setup <==

  ==> DiskDFJK: Density-Fitted J/K Matrices <==

    J tasked:                  Yes
    K tasked:                  Yes
    wK tasked:                  No
    OpenMP threads:              8
    Integrals threads:           8
    Memory [MiB]:            71525
    Algorithm:                Core
    Integral Cache:           LOAD
    Schwarz Cutoff:          1E-12
    Fitting Condition:       1E-10

   => Auxiliary Basis Set <=

  Basis Set: (AUG-CC-PVTZ AUX)
    Blend: AUG-CC-PVTZ-JKFIT
    Number of shells: 770
    Number of basis functions: 2644
    Number of Cartesian functions: 3301
    Spherical Harmonics?: true
    Max angular momentum: 4

  Minimum eigenvalue in the overlap matrix is 7.8532402406E-07.
  Reciprocal condition number of the overlap matrix is 3.6962961384E-08.
    Using symmetric orthogonalization.

  ==> Pre-Iterations <==

  SCF Guess: Superposition of Atomic Densities via on-the-fly atomic UHF (no occupation information).

   -------------------------
    Irrep   Nso     Nmo    
   -------------------------
     A       1196    1196 
   -------------------------
    Total    1196    1196
   -------------------------

  ==> Iterations <==

                           Total Energy        Delta E     RMS |[F,P]|

   @DF-RHF iter SAD:  -464.44235421072244   -4.64442e+02   0.00000e+00 
   @DF-RHF iter   1:  -464.44223475180718    1.19459e-04   5.58231e-04 DIIS
   @DF-RHF iter   2:  -464.63240074137235   -1.90166e-01   2.75978e-04 DIIS
   @DF-RHF iter   3:  -464.67612219628097   -4.37215e-02   6.33912e-05 DIIS
   @DF-RHF iter   4:  -464.67948505706261   -3.36286e-03   2.98653e-05 DIIS
   @DF-RHF iter   5:  -464.68015575415319   -6.70697e-04   6.06203e-06 DIIS
   @DF-RHF iter   6:  -464.68021375378817   -5.79996e-05   2.84613e-06 DIIS
   @DF-RHF iter   7:  -464.68022802006743   -1.42663e-05   1.12443e-06 DIIS
   @DF-RHF iter   8:  -464.68023095084249   -2.93078e-06   4.19325e-07 DIIS
   @DF-RHF iter   9:  -464.68023140060905   -4.49767e-07   2.23761e-07 DIIS
   @DF-RHF iter  10:  -464.68023152000535   -1.19396e-07   8.37040e-08 DIIS
   @DF-RHF iter  11:  -464.68023154543141   -2.54261e-08   3.53133e-08 DIIS
   @DF-RHF iter  12:  -464.68023154923560   -3.80419e-09   1.42659e-08 DIIS
   @DF-RHF iter  13:  -464.68023154981472   -5.79121e-10   5.12353e-09 DIIS
  Energy and wave function converged.


  ==> Post-Iterations <==

    Orbital Energies [Eh]
    ---------------------

    Doubly Occupied:                                                      

       1A    -15.636308     2A    -15.586025     3A    -15.573251  
       4A    -15.563958     5A    -15.555917     6A    -11.339225  
       7A    -11.329452     8A    -11.321629     9A    -11.314334  
      10A    -11.257151    11A     -1.368018    12A     -1.298938  
      13A     -1.248170    14A     -1.187689    15A     -1.153453  
      16A     -1.033651    17A     -0.894630    18A     -0.876603  
      19A     -0.847672    20A     -0.775675    21A     -0.733751  
      22A     -0.695734    23A     -0.671916    24A     -0.641455  
      25A     -0.631481    26A     -0.609753    27A     -0.590832  
      28A     -0.558687    29A     -0.501260    30A     -0.498926  
      31A     -0.453963    32A     -0.430263    33A     -0.413192  
      34A     -0.376476    35A     -0.313148  

    Virtual:                                                              

      36A      0.017558    37A      0.023494    38A      0.029557  
      39A      0.033750    40A      0.040116    41A      0.043837  
      42A      0.047939    43A      0.051886    44A      0.055171  
      45A      0.063302    46A      0.067108    47A      0.067966  
      48A      0.073478    49A      0.075261    50A      0.082177  
      51A      0.084849    52A      0.089902    53A      0.090733  
      54A      0.095842    55A      0.098875    56A      0.099722  
      57A      0.100863    58A      0.108379    59A      0.109775  
      60A      0.113594    61A      0.117816    62A      0.119337  
      63A      0.122064    64A      0.124256    65A      0.127291  
      66A      0.132313    67A      0.133368    68A      0.134995  
      69A      0.138159    70A      0.139876    71A      0.140972  
      72A      0.147696    73A      0.149521    74A      0.151672  
      75A      0.153990    76A      0.157962    77A      0.160073  
      78A      0.162636    79A      0.167504    80A      0.169885  
      81A      0.171423    82A      0.175862    83A      0.181625  
      84A      0.188013    85A      0.189919    86A      0.193945  
      87A      0.198108    88A      0.198427    89A      0.205596  
      90A      0.208737    91A      0.209537    92A      0.211032  
      93A      0.212336    94A      0.216825    95A      0.217532  
      96A      0.219863    97A      0.224952    98A      0.228269  
      99A      0.229265   100A      0.229930   101A      0.234699  
     102A      0.236227   103A      0.240132   104A      0.241620  
     105A      0.248877   106A      0.249898   107A      0.251480  
     108A      0.256082   109A      0.262349   110A      0.263851  
     111A      0.264854   112A      0.266685   113A      0.271296  
     114A      0.275468   115A      0.276061   116A      0.279536  
     117A      0.281033   118A      0.282299   119A      0.284133  
     120A      0.291237   121A      0.295407   122A      0.299494  
     123A      0.302958   124A      0.304759   125A      0.306000  
     126A      0.309603   127A      0.315735   128A      0.317967  
     129A      0.321612   130A      0.324701   131A      0.325329  
     132A      0.335894   133A      0.337249   134A      0.340292  
     135A      0.342647   136A      0.346219   137A      0.353642  
     138A      0.358528   139A      0.360139   140A      0.365750  
     141A      0.368842   142A      0.369310   143A      0.372282  
     144A      0.378767   145A      0.380407   146A      0.383686  
     147A      0.388299   148A      0.389434   149A      0.394596  
     150A      0.396317   151A      0.399815   152A      0.402755  
     153A      0.408857   154A      0.410075   155A      0.412981  
     156A      0.417364   157A      0.420373   158A      0.424863  
     159A      0.428057   160A      0.429964   161A      0.432275  
     162A      0.433636   163A      0.435325   164A      0.439929  
     165A      0.444336   166A      0.447049   167A      0.448451  
     168A      0.450063   169A      0.457453   170A      0.461547  
     171A      0.463917   172A      0.467258   173A      0.468789  
     174A      0.471649   175A      0.474313   176A      0.476773  
     177A      0.478890   178A      0.483043   179A      0.483658  
     180A      0.485348   181A      0.486751   182A      0.489565  
     183A      0.496287   184A      0.498307   185A      0.499917  
     186A      0.503273   187A      0.506277   188A      0.509139  
     189A      0.511778   190A      0.513635   191A      0.516125  
     192A      0.518485   193A      0.524637   194A      0.529074  
     195A      0.531258   196A      0.534947   197A      0.538467  
     198A      0.539493   199A      0.542956   200A      0.549755  
     201A      0.554495   202A      0.556122   203A      0.559009  
     204A      0.564442   205A      0.566697   206A      0.568093  
     207A      0.574881   208A      0.577490   209A      0.579294  
     210A      0.585485   211A      0.589996   212A      0.590630  
     213A      0.592827   214A      0.601606   215A      0.604803  
     216A      0.612425   217A      0.613206   218A      0.620599  
     219A      0.622368   220A      0.624022   221A      0.624892  
     222A      0.631133   223A      0.632462   224A      0.640225  
     225A      0.643374   226A      0.645404   227A      0.650212  
     228A      0.654643   229A      0.662018   230A      0.665851  
     231A      0.670883   232A      0.673723   233A      0.679316  
     234A      0.679655   235A      0.685176   236A      0.686957  
     237A      0.694603   238A      0.698615   239A      0.701035  
     240A      0.705969   241A      0.709561   242A      0.712783  
     243A      0.716159   244A      0.721180   245A      0.723586  
     246A      0.728918   247A      0.731550   248A      0.739046  
     249A      0.739913   250A      0.741196   251A      0.746224  
     252A      0.749538   253A      0.753729   254A      0.759155  
     255A      0.764015   256A      0.766367   257A      0.774461  
     258A      0.780419   259A      0.781714   260A      0.785617  
     261A      0.788579   262A      0.794469   263A      0.800417  
     264A      0.803165   265A      0.805219   266A      0.811379  
     267A      0.816511   268A      0.817375   269A      0.824844  
     270A      0.827327   271A      0.831963   272A      0.834064  
     273A      0.838662   274A      0.841167   275A      0.842548  
     276A      0.851596   277A      0.853123   278A      0.855233  
     279A      0.859574   280A      0.861814   281A      0.864483  
     282A      0.871603   283A      0.874659   284A      0.876523  
     285A      0.882369   286A      0.886920   287A      0.891080  
     288A      0.893098   289A      0.896096   290A      0.899696  
     291A      0.905154   292A      0.907602   293A      0.909403  
     294A      0.914018   295A      0.915849   296A      0.923827  
     297A      0.926591   298A      0.930961   299A      0.933383  
     300A      0.935734   301A      0.941326   302A      0.943647  
     303A      0.947929   304A      0.953282   305A      0.955273  
     306A      0.956604   307A      0.963109   308A      0.965562  
     309A      0.966649   310A      0.968951   311A      0.975387  
     312A      0.978797   313A      0.983058   314A      0.986371  
     315A      0.991017   316A      0.993890   317A      0.996937  
     318A      0.998894   319A      1.005889   320A      1.007769  
     321A      1.011176   322A      1.013581   323A      1.017037  
     324A      1.022816   325A      1.026837   326A      1.031547  
     327A      1.035630   328A      1.041536   329A      1.045153  
     330A      1.045689   331A      1.051945   332A      1.057542  
     333A      1.059502   334A      1.063839   335A      1.068843  
     336A      1.070836   337A      1.076416   338A      1.079531  
     339A      1.083967   340A      1.086007   341A      1.088101  
     342A      1.093039   343A      1.094773   344A      1.104829  
     345A      1.107268   346A      1.109793   347A      1.113324  
     348A      1.118324   349A      1.121241   350A      1.125801  
     351A      1.127699   352A      1.130180   353A      1.134225  
     354A      1.136292   355A      1.142154   356A      1.146717  
     357A      1.150935   358A      1.155482   359A      1.157629  
     360A      1.163347   361A      1.169440   362A      1.172814  
     363A      1.175130   364A      1.178876   365A      1.182220  
     366A      1.185532   367A      1.189748   368A      1.196350  
     369A      1.204884   370A      1.205286   371A      1.208698  
     372A      1.211383   373A      1.219003   374A      1.222337  
     375A      1.225625   376A      1.228063   377A      1.232778  
     378A      1.237121   379A      1.238538   380A      1.244066  
     381A      1.247877   382A      1.257234   383A      1.259540  
     384A      1.269361   385A      1.274804   386A      1.278848  
     387A      1.281346   388A      1.285168   389A      1.286610  
     390A      1.293697   391A      1.295418   392A      1.303416  
     393A      1.306081   394A      1.310916   395A      1.314982  
     396A      1.316258   397A      1.319175   398A      1.320211  
     399A      1.328236   400A      1.332660   401A      1.335091  
     402A      1.342695   403A      1.351051   404A      1.354833  
     405A      1.356776   406A      1.360124   407A      1.363123  
     408A      1.365238   409A      1.373402   410A      1.379080  
     411A      1.385305   412A      1.388050   413A      1.396506  
     414A      1.401818   415A      1.406685   416A      1.411697  
     417A      1.413974   418A      1.417673   419A      1.421864  
     420A      1.428946   421A      1.434127   422A      1.440408  
     423A      1.445208   424A      1.448807   425A      1.453100  
     426A      1.458057   427A      1.464222   428A      1.466749  
     429A      1.474703   430A      1.475915   431A      1.487194  
     432A      1.492536   433A      1.492925   434A      1.499805  
     435A      1.504112   436A      1.509581   437A      1.511975  
     438A      1.515218   439A      1.524835   440A      1.537383  
     441A      1.542191   442A      1.545859   443A      1.547487  
     444A      1.549187   445A      1.552822   446A      1.557247  
     447A      1.565655   448A      1.568414   449A      1.574496  
     450A      1.574767   451A      1.580209   452A      1.581844  
     453A      1.592691   454A      1.599047   455A      1.606830  
     456A      1.610836   457A      1.615579   458A      1.616038  
     459A      1.621248   460A      1.624335   461A      1.633424  
     462A      1.642155   463A      1.644607   464A      1.648381  
     465A      1.657263   466A      1.660751   467A      1.665183  
     468A      1.666576   469A      1.671762   470A      1.676162  
     471A      1.682372   472A      1.687048   473A      1.692036  
     474A      1.696655   475A      1.701121   476A      1.707228  
     477A      1.710539   478A      1.712423   479A      1.720712  
     480A      1.725886   481A      1.733276   482A      1.743024  
     483A      1.745108   484A      1.748693   485A      1.752014  
     486A      1.756072   487A      1.757515   488A      1.765331  
     489A      1.770274   490A      1.776701   491A      1.779609  
     492A      1.780535   493A      1.785238   494A      1.795295  
     495A      1.797514   496A      1.804378   497A      1.809016  
     498A      1.813214   499A      1.814918   500A      1.824809  
     501A      1.828490   502A      1.833465   503A      1.836685  
     504A      1.846073   505A      1.850640   506A      1.852211  
     507A      1.859931   508A      1.867297   509A      1.870133  
     510A      1.878887   511A      1.882245   512A      1.883643  
     513A      1.894553   514A      1.897185   515A      1.906516  
     516A      1.910878   517A      1.914190   518A      1.925507  
     519A      1.927235   520A      1.929080   521A      1.934407  
     522A      1.939837   523A      1.942299   524A      1.951206  
     525A      1.954817   526A      1.960832   527A      1.965618  
     528A      1.972084   529A      1.981852   530A      1.986173  
     531A      1.988879   532A      1.996255   533A      1.998291  
     534A      2.007954   535A      2.013424   536A      2.024642  
     537A      2.032749   538A      2.033177   539A      2.040121  
     540A      2.045510   541A      2.046917   542A      2.050866  
     543A      2.058208   544A      2.065647   545A      2.072483  
     546A      2.076103   547A      2.081561   548A      2.085874  
     549A      2.096110   550A      2.096461   551A      2.104190  
     552A      2.110213   553A      2.113532   554A      2.118857  
     555A      2.123840   556A      2.125456   557A      2.131555  
     558A      2.137976   559A      2.141205   560A      2.150350  
     561A      2.151994   562A      2.157737   563A      2.161600  
     564A      2.165629   565A      2.174850   566A      2.178803  
     567A      2.184008   568A      2.187520   569A      2.197094  
     570A      2.203069   571A      2.207260   572A      2.210992  
     573A      2.222439   574A      2.228407   575A      2.236395  
     576A      2.240552   577A      2.243757   578A      2.248263  
     579A      2.253647   580A      2.260015   581A      2.265674  
     582A      2.273042   583A      2.281229   584A      2.288045  
     585A      2.296876   586A      2.304756   587A      2.305470  
     588A      2.318395   589A      2.318929   590A      2.330804  
     591A      2.338875   592A      2.340617   593A      2.345352  
     594A      2.356140   595A      2.359569   596A      2.369315  
     597A      2.371887   598A      2.372871   599A      2.377425  
     600A      2.386431   601A      2.392131   602A      2.401645  
     603A      2.407432   604A      2.408783   605A      2.414871  
     606A      2.425105   607A      2.434338   608A      2.440112  
     609A      2.442429   610A      2.447811   611A      2.451602  
     612A      2.464569   613A      2.467833   614A      2.471837  
     615A      2.476207   616A      2.483789   617A      2.487115  
     618A      2.491859   619A      2.497638   620A      2.502161  
     621A      2.506315   622A      2.519787   623A      2.523149  
     624A      2.528126   625A      2.535534   626A      2.539288  
     627A      2.552032   628A      2.559950   629A      2.561325  
     630A      2.574994   631A      2.585003   632A      2.587944  
     633A      2.596758   634A      2.600763   635A      2.603958  
     636A      2.614714   637A      2.618870   638A      2.623741  
     639A      2.632366   640A      2.638565   641A      2.646381  
     642A      2.660342   643A      2.662166   644A      2.666755  
     645A      2.676215   646A      2.680113   647A      2.685526  
     648A      2.692625   649A      2.706410   650A      2.710369  
     651A      2.713100   652A      2.716714   653A      2.723902  
     654A      2.734424   655A      2.743471   656A      2.750870  
     657A      2.755121   658A      2.761728   659A      2.770504  
     660A      2.776557   661A      2.786987   662A      2.795161  
     663A      2.807228   664A      2.815548   665A      2.819718  
     666A      2.823296   667A      2.826912   668A      2.840627  
     669A      2.849769   670A      2.852940   671A      2.856563  
     672A      2.869852   673A      2.875104   674A      2.879485  
     675A      2.887956   676A      2.894856   677A      2.901099  
     678A      2.908906   679A      2.920298   680A      2.923838  
     681A      2.933364   682A      2.946477   683A      2.948536  
     684A      2.950662   685A      2.955925   686A      2.963737  
     687A      2.983524   688A      2.987788   689A      2.991959  
     690A      3.006912   691A      3.007953   692A      3.030685  
     693A      3.035860   694A      3.044454   695A      3.052086  
     696A      3.059147   697A      3.068015   698A      3.075516  
     699A      3.092551   700A      3.097300   701A      3.103331  
     702A      3.113361   703A      3.126321   704A      3.132038  
     705A      3.144742   706A      3.160917   707A      3.168808  
     708A      3.171064   709A      3.202571   710A      3.206381  
     711A      3.209380   712A      3.216546   713A      3.232723  
     714A      3.235953   715A      3.248861   716A      3.252363  
     717A      3.272508   718A      3.280272   719A      3.284296  
     720A      3.296450   721A      3.308809   722A      3.314279  
     723A      3.331838   724A      3.343736   725A      3.352743  
     726A      3.363436   727A      3.370256   728A      3.393200  
     729A      3.401340   730A      3.408489   731A      3.425975  
     732A      3.429885   733A      3.435073   734A      3.445649  
     735A      3.462521   736A      3.465284   737A      3.469560  
     738A      3.477740   739A      3.489861   740A      3.501720  
     741A      3.504984   742A      3.539784   743A      3.545307  
     744A      3.555998   745A      3.564994   746A      3.569659  
     747A      3.574668   748A      3.587541   749A      3.603980  
     750A      3.606681   751A      3.620213   752A      3.635372  
     753A      3.645338   754A      3.663021   755A      3.670435  
     756A      3.679277   757A      3.682068   758A      3.695618  
     759A      3.714365   760A      3.723638   761A      3.732151  
     762A      3.741671   763A      3.750753   764A      3.762140  
     765A      3.772862   766A      3.784789   767A      3.789674  
     768A      3.798780   769A      3.818562   770A      3.823355  
     771A      3.830781   772A      3.843825   773A      3.850948  
     774A      3.862551   775A      3.867303   776A      3.886219  
     777A      3.889098   778A      3.899791   779A      3.904897  
     780A      3.915689   781A      3.925590   782A      3.937984  
     783A      3.956754   784A      3.957920   785A      3.970641  
     786A      3.975707   787A      3.984110   788A      3.993323  
     789A      4.009117   790A      4.022707   791A      4.030057  
     792A      4.037996   793A      4.055149   794A      4.066011  
     795A      4.071591   796A      4.081731   797A      4.093562  
     798A      4.096007   799A      4.105471   800A      4.128900  
     801A      4.134901   802A      4.157400   803A      4.163090  
     804A      4.168704   805A      4.186227   806A      4.188278  
     807A      4.196415   808A      4.200991   809A      4.207498  
     810A      4.208308   811A      4.224050   812A      4.238962  
     813A      4.247206   814A      4.247803   815A      4.251187  
     816A      4.260054   817A      4.266248   818A      4.278337  
     819A      4.282025   820A      4.291559   821A      4.299012  
     822A      4.302597   823A      4.313900   824A      4.324600  
     825A      4.330767   826A      4.338575   827A      4.349237  
     828A      4.365441   829A      4.369981   830A      4.372579  
     831A      4.388915   832A      4.393146   833A      4.410325  
     834A      4.422041   835A      4.426277   836A      4.436588  
     837A      4.454759   838A      4.464717   839A      4.465746  
     840A      4.474857   841A      4.485313   842A      4.486847  
     843A      4.499530   844A      4.514400   845A      4.526961  
     846A      4.529854   847A      4.535435   848A      4.538465  
     849A      4.553421   850A      4.557985   851A      4.564889  
     852A      4.576782   853A      4.585742   854A      4.593341  
     855A      4.595692   856A      4.604029   857A      4.620161  
     858A      4.629615   859A      4.638848   860A      4.645612  
     861A      4.647619   862A      4.657050   863A      4.667824  
     864A      4.671053   865A      4.679838   866A      4.691343  
     867A      4.694462   868A      4.702296   869A      4.712767  
     870A      4.719602   871A      4.738096   872A      4.740141  
     873A      4.743352   874A      4.767414   875A      4.776886  
     876A      4.783467   877A      4.790408   878A      4.797897  
     879A      4.804475   880A      4.812572   881A      4.825455  
     882A      4.832122   883A      4.835679   884A      4.848884  
     885A      4.858527   886A      4.872918   887A      4.888655  
     888A      4.901759   889A      4.904597   890A      4.914430  
     891A      4.921846   892A      4.935745   893A      4.943414  
     894A      4.956618   895A      4.957379   896A      4.964683  
     897A      4.973218   898A      4.977138   899A      4.987268  
     900A      4.990955   901A      5.002787   902A      5.012252  
     903A      5.017344   904A      5.022781   905A      5.027311  
     906A      5.033359   907A      5.042399   908A      5.049034  
     909A      5.062882   910A      5.068380   911A      5.076100  
     912A      5.090048   913A      5.099333   914A      5.104107  
     915A      5.108013   916A      5.119068   917A      5.130649  
     918A      5.151709   919A      5.153044   920A      5.161626  
     921A      5.167590   922A      5.173883   923A      5.188626  
     924A      5.196536   925A      5.203900   926A      5.209093  
     927A      5.217203   928A      5.219161   929A      5.243920  
     930A      5.250450   931A      5.261880   932A      5.264645  
     933A      5.277428   934A      5.284160   935A      5.291511  
     936A      5.297776   937A      5.307924   938A      5.313399  
     939A      5.325974   940A      5.334806   941A      5.352977  
     942A      5.359934   943A      5.362863   944A      5.378860  
     945A      5.387386   946A      5.402966   947A      5.405878  
     948A      5.411385   949A      5.437784   950A      5.442470  
     951A      5.453704   952A      5.458749   953A      5.466354  
     954A      5.470033   955A      5.485807   956A      5.498557  
     957A      5.529624   958A      5.535875   959A      5.541078  
     960A      5.546260   961A      5.555134   962A      5.563247  
     963A      5.567744   964A      5.582534   965A      5.596978  
     966A      5.608277   967A      5.628445   968A      5.634648  
     969A      5.639100   970A      5.648097   971A      5.664815  
     972A      5.677057   973A      5.686426   974A      5.689651  
     975A      5.690262   976A      5.703203   977A      5.714088  
     978A      5.720827   979A      5.731527   980A      5.760588  
     981A      5.765749   982A      5.771304   983A      5.777583  
     984A      5.781178   985A      5.806359   986A      5.811698  
     987A      5.818658   988A      5.823827   989A      5.831062  
     990A      5.842795   991A      5.867564   992A      5.878932  
     993A      5.907831   994A      5.913143   995A      5.931240  
     996A      5.938901   997A      5.954128   998A      5.963748  
     999A      5.966730  1000A      5.976621  1001A      5.984377  
    1002A      6.004526  1003A      6.011547  1004A      6.021766  
    1005A      6.028008  1006A      6.034371  1007A      6.043694  
    1008A      6.079899  1009A      6.088943  1010A      6.110514  
    1011A      6.114189  1012A      6.149059  1013A      6.152347  
    1014A      6.158201  1015A      6.173220  1016A      6.186418  
    1017A      6.190400  1018A      6.201689  1019A      6.218491  
    1020A      6.231154  1021A      6.247120  1022A      6.254343  
    1023A      6.260818  1024A      6.269893  1025A      6.275925  
    1026A      6.293276  1027A      6.316122  1028A      6.350089  
    1029A      6.363034  1030A      6.387786  1031A      6.412445  
    1032A      6.439589  1033A      6.473858  1034A      6.480978  
    1035A      6.487477  1036A      6.503205  1037A      6.509050  
    1038A      6.523647  1039A      6.529739  1040A      6.536749  
    1041A      6.539401  1042A      6.555944  1043A      6.566696  
    1044A      6.603464  1045A      6.608433  1046A      6.615205  
    1047A      6.627537  1048A      6.646669  1049A      6.682516  
    1050A      6.694245  1051A      6.718017  1052A      6.730650  
    1053A      6.742508  1054A      6.764621  1055A      6.775118  
    1056A      6.784194  1057A      6.788829  1058A      6.819183  
    1059A      6.844340  1060A      6.849259  1061A      6.860714  
    1062A      6.877329  1063A      6.887531  1064A      6.893606  
    1065A      6.953836  1066A      6.961475  1067A      6.974023  
    1068A      6.981927  1069A      7.002582  1070A      7.010163  
    1071A      7.016095  1072A      7.039719  1073A      7.040887  
    1074A      7.063979  1075A      7.097279  1076A      7.106201  
    1077A      7.132277  1078A      7.198179  1079A      7.219262  
    1080A      7.279383  1081A      7.287999  1082A      7.305197  
    1083A      7.321115  1084A      7.360108  1085A      7.371512  
    1086A      7.397754  1087A      7.428645  1088A      7.435449  
    1089A      7.449883  1090A      7.465864  1091A      7.495240  
    1092A      7.546799  1093A      7.568992  1094A      7.587610  
    1095A      7.591957  1096A      7.610165  1097A      7.627707  
    1098A      7.636059  1099A      7.656724  1100A      7.666473  
    1101A      7.695722  1102A      7.712501  1103A      7.737915  
    1104A      7.757803  1105A      7.784212  1106A      7.797766  
    1107A      7.827014  1108A      7.831497  1109A      7.859464  
    1110A      7.863216  1111A      7.915991  1112A      7.950631  
    1113A      7.953814  1114A      7.972225  1115A      7.980119  
    1116A      7.991552  1117A      8.048043  1118A      8.061254  
    1119A      8.094596  1120A      8.169888  1121A      8.188892  
    1122A      8.251540  1123A      8.279271  1124A      8.294046  
    1125A      8.337237  1126A      8.395753  1127A      8.509858  
    1128A      8.551314  1129A      8.570317  1130A      8.698161  
    1131A      8.736373  1132A      8.803068  1133A      8.834537  
    1134A      8.881206  1135A      9.035258  1136A      9.066180  
    1137A      9.140670  1138A      9.276402  1139A      9.328780  
    1140A      9.388926  1141A      9.544271  1142A      9.607210  
    1143A      9.685512  1144A      9.719867  1145A      9.795491  
    1146A      9.851909  1147A      9.936695  1148A     10.001680  
    1149A     10.155231  1150A     10.283966  1151A     10.316207  
    1152A     10.435569  1153A     10.495321  1154A     10.585671  
    1155A     10.717118  1156A     11.093851  1157A     11.165929  
    1158A     11.277927  1159A     11.385774  1160A     11.444796  
    1161A     11.577490  1162A     11.713240  1163A     11.998857  
    1164A     12.014941  1165A     12.053528  1166A     12.100819  
    1167A     12.229549  1168A     12.241349  1169A     12.389260  
    1170A     12.511823  1171A     12.800308  1172A     12.972653  
    1173A     13.301485  1174A     13.499192  1175A     14.230383  
    1176A     16.075624  1177A     16.248757  1178A     16.366252  
    1179A     17.775005  1180A     18.135716  1181A     19.033766  
    1182A     19.296226  1183A     19.386209  1184A     20.130397  
    1185A     21.170285  1186A     52.140531  1187A     52.500956  
    1188A     52.797016  1189A     53.843143  1190A     56.778374  
    1191A     59.654150  1192A     61.986949  1193A     62.228019  
    1194A     63.510855  1195A     65.539305  1196A     69.813511  

    Final Occupation by Irrep:
              A 
    DOCC [    35 ]

  @DF-RHF Final Energy:  -464.68023154981472

   => Energetics <=

    Nuclear Repulsion Energy =            501.3811850174743086
    One-Electron Energy =               -1625.5576611185667844
    Two-Electron Energy =                 659.4962445512777549
    Total Energy =                       -464.6802315498147209

Computation Completed


Properties will be evaluated at   0.000000,   0.000000,   0.000000 [a0]

Properties computed using the SCF density matrix

  Nuclear Dipole Moment: [e a0]
     X:  -279.7872      Y:    60.7347      Z:   132.2428

  Electronic Dipole Moment: [e a0]
     X:   279.1412      Y:   -60.8261      Z:  -133.1445

  Dipole Moment: [e a0]
     X:    -0.6459      Y:    -0.0914      Z:    -0.9017     Total:     1.1129

  Dipole Moment: [D]
     X:    -1.6418      Y:    -0.2324      Z:    -2.2918     Total:     2.8288


*** tstop() called on node156.bme.utexas.edu at Wed Jan 17 11:12:07 2024
Module time:
	user time   =    1646.78 seconds =      27.45 minutes
	system time =      15.25 seconds =       0.25 minutes
	total time  =        307 seconds =       5.12 minutes
Total time:
	user time   =    4403.80 seconds =      73.40 minutes
	system time =      47.60 seconds =       0.79 minutes
	total time  =        775 seconds =      12.92 minutes

*** tstart() called on node156.bme.utexas.edu
*** at Wed Jan 17 11:12:07 2024


  //>>>>>>>>>>>>>>>>>>>>>>>>>>>>>>>>>>>//
  //               DFMP2               //
  //<<<<<<<<<<<<<<<<<<<<<<<<<<<<<<<<<<<//

   => Loading Basis Set <=

    Name: (AUG-CC-PVTZ AUX)
    Role: RIFIT
    Keyword: DF_BASIS_MP2
    atoms 1, 4, 11, 14-15, 17, 19, 29-31    entry H          line    30 file /opt/anaconda/envs/psi4v1.5/share/psi4/basis/aug-cc-pvtz-ri.gbs 
    atoms 2, 5, 8-9, 12, 16, 20, 24, 26-27  entry N          line   206 file /opt/anaconda/envs/psi4v1.5/share/psi4/basis/aug-cc-pvtz-ri.gbs 
    atoms 3, 6-7, 10, 13, 18, 21-22, 25, 28 entry C          line   148 file /opt/anaconda/envs/psi4v1.5/share/psi4/basis/aug-cc-pvtz-ri.gbs 
    atoms 23                                entry O          line   264 file /opt/anaconda/envs/psi4v1.5/share/psi4/basis/aug-cc-pvtz-ri.gbs 

	 --------------------------------------------------------
	                          DF-MP2                         
	      2nd-Order Density-Fitted Moller-Plesset Theory     
	              RMP2 Wavefunction,   8 Threads             
	                                                         
	        Rob Parrish, Justin Turney, Andy Simmonett,      
	           Ed Hohenstein, and C. David Sherrill          
	 --------------------------------------------------------

   => Auxiliary Basis Set <=

  Basis Set: (AUG-CC-PVTZ AUX)
    Blend: AUG-CC-PVTZ-RI
    Number of shells: 728
    Number of basis functions: 2686
    Number of Cartesian functions: 3406
    Spherical Harmonics?: true
    Max angular momentum: 4

	 --------------------------------------------------------
	                 NBF =  1196, NAUX =  2686
	 --------------------------------------------------------
	   CLASS    FOCC     OCC    AOCC    AVIR     VIR    FVIR
	   PAIRS      10      35      25    1161    1161       0
	 --------------------------------------------------------

	 Will attempt to load fitting metric from file 97.

	-----------------------------------------------------------
	 ==================> DF-MP2 Energies <==================== 
	-----------------------------------------------------------
	 Reference Energy          =    -464.6802315498147209 [Eh]
	 Singles Energy            =      -0.0000000000000000 [Eh]
	 Same-Spin Energy          =      -0.4788833888445031 [Eh]
	 Opposite-Spin Energy      =      -1.3252939653992133 [Eh]
	 Correlation Energy        =      -1.8041773542437163 [Eh]
	 Total Energy              =    -466.4844089040584549 [Eh]
	-----------------------------------------------------------
	 ================> DF-SCS-MP2 Energies <================== 
	-----------------------------------------------------------
	 SCS Same-Spin Scale       =       0.3333333333333333 [-]
	 SCS Opposite-Spin Scale   =       1.2000000000000000 [-]
	 SCS Same-Spin Energy      =      -0.1596277962815010 [Eh]
	 SCS Opposite-Spin Energy  =      -1.5903527584790560 [Eh]
	 SCS Correlation Energy    =      -1.7499805547605569 [Eh]
	 SCS Total Energy          =    -466.4302121045752756 [Eh]
	-----------------------------------------------------------


*** tstop() called on node156.bme.utexas.edu at Wed Jan 17 11:12:48 2024
Module time:
	user time   =     223.71 seconds =       3.73 minutes
	system time =       4.67 seconds =       0.08 minutes
	total time  =         41 seconds =       0.68 minutes
Total time:
	user time   =    4627.52 seconds =      77.13 minutes
	system time =      52.27 seconds =       0.87 minutes
	total time  =        816 seconds =      13.60 minutes

  //>>>>>>>>>>>>>>>>>>>>>>>>>>>>>>>>>>>//
  //            Monomer B HF           //
  //<<<<<<<<<<<<<<<<<<<<<<<<<<<<<<<<<<<//


*** tstart() called on node156.bme.utexas.edu
*** at Wed Jan 17 11:12:48 2024

   => Loading Basis Set <=

    Name: AUG-CC-PVTZ
    Role: ORBITAL
    Keyword: BASIS
    atoms 1, 4, 11, 14-15, 17, 19, 29-31    entry H          line    40 file /opt/anaconda/envs/psi4v1.5/share/psi4/basis/aug-cc-pvtz.gbs 
    atoms 2, 5, 8-9, 12, 16, 20, 24, 26-27  entry N          line   285 file /opt/anaconda/envs/psi4v1.5/share/psi4/basis/aug-cc-pvtz.gbs 
    atoms 3, 6-7, 10, 13, 18, 21-22, 25, 28 entry C          line   239 file /opt/anaconda/envs/psi4v1.5/share/psi4/basis/aug-cc-pvtz.gbs 
    atoms 23                                entry O          line   331 file /opt/anaconda/envs/psi4v1.5/share/psi4/basis/aug-cc-pvtz.gbs 


         ---------------------------------------------------------
                                   SCF
               by Justin Turney, Rob Parrish, Andy Simmonett
                          and Daniel G. A. Smith
                              RHF Reference
                        8 Threads,  95367 MiB Core
         ---------------------------------------------------------

  ==> Geometry <==

    Molecular point group: c1
    Full point group: C1

    Geometry (in Angstrom), charge = 0, multiplicity = 1:

       Center              X                  Y                   Z               Mass       
    ------------   -----------------  -----------------  -----------------  -----------------
      Gh(H)          -3.937312322257     2.282242622027    -0.666700883124     1.007825032230
      Gh(N)          -3.570992322257     1.429732622027    -0.259170883124    14.003074004430
      Gh(C)          -4.133122322257     0.177242622027    -0.295170883124    12.000000000000
      Gh(H)          -5.041532322257    -0.023627377973    -0.850340883124     1.007825032230
      Gh(N)          -3.461722322257    -0.725107377973     0.406159116876    14.003074004430
      Gh(C)          -2.411382322257    -0.001017377973     0.939509116876    12.000000000000
      Gh(C)          -1.323622322257    -0.376127377973     1.757389116876    12.000000000000
      Gh(N)          -1.169412322257    -1.643547377973     2.229719116876    14.003074004430
      Gh(N)          -0.441772322257     0.575832622027     2.121099116876    14.003074004430
      Gh(C)          -0.628422322257     1.835592622027     1.671949116876    12.000000000000
      Gh(H)           0.112657677743     2.560402622027     2.006789116876     1.007825032230
      Gh(N)          -1.594962322257     2.317392622027     0.879129116876    14.003074004430
      Gh(C)          -2.454522322257     1.342252622027     0.545529116876    12.000000000000
      Gh(H)          -0.212022322257    -1.872587377973     2.490339116876     1.007825032230
      Gh(H)          -1.600322322257    -2.354807377973     1.646009116876     1.007825032230
         N            0.188634465243    -0.369161977973    -2.438711258124    14.003074004430
         H           -0.227395534757     0.281048022027    -3.095581258124     1.007825032230
         C           -0.240115534757    -1.636641977973    -2.126961258124    12.000000000000
         H           -1.103555534757    -2.084051977973    -2.601151258124     1.007825032230
         N            0.506214465243    -2.218521977973    -1.199241258124    14.003074004430
         C            1.463374465243    -1.272831977973    -0.905781258124    12.000000000000
         C            2.481254465243    -1.285911977973     0.110208741876    12.000000000000
         O            2.749784465243    -2.139611977973     0.955708741876    15.994914619570
         N            3.240454465243    -0.090691977973     0.033388741876    14.003074004430
         C            2.946214465243     1.014268022027    -0.725601258124    12.000000000000
         N            3.806824465243     2.092028022027    -0.591941258124    14.003074004430
         N            1.977874465243     1.059488022027    -1.609801258124    14.003074004430
         C            1.282264465243    -0.110081977973    -1.653951258124    12.000000000000
         H            3.997524465243    -0.045521977973     0.711788741876     1.007825032230
         H            4.077974465243     2.310098022027     0.361848741876     1.007825032230
         H            3.437874465243     2.906148022027    -1.074021258124     1.007825032230

  Running in c1 symmetry.

  Rotational constants: A =      0.01639  B =      0.00783  C =      0.00753 [cm^-1]
  Rotational constants: A =    491.32758  B =    234.73927  C =    225.67912 [MHz]
  Nuclear repulsion =  594.253029831856907

  Charge       = 0
  Multiplicity = 1
  Electrons    = 78
  Nalpha       = 39
  Nbeta        = 39

  ==> Algorithm <==

  SCF Algorithm Type is DF.
  DIIS enabled.
  MOM disabled.
  Fractional occupation disabled.
  Guess Type is SAD.
  Energy threshold   = 1.00e-08
  Density threshold  = 1.00e-08
  Integral threshold = 1.00e-12

  ==> Primary Basis <==

  Basis Set: AUG-CC-PVTZ
    Blend: AUG-CC-PVTZ
    Number of shells: 384
    Number of basis functions: 1196
    Number of Cartesian functions: 1405
    Spherical Harmonics?: true
    Max angular momentum: 3

   => Loading Basis Set <=

    Name: (AUG-CC-PVTZ AUX)
    Role: JKFIT
    Keyword: DF_BASIS_SCF
    atoms 1, 4, 11, 14-15, 17, 19, 29-31    entry H          line    70 file /opt/anaconda/envs/psi4v1.5/share/psi4/basis/aug-cc-pvtz-jkfit.gbs 
    atoms 2, 5, 8-9, 12, 16, 20, 24, 26-27  entry N          line   224 file /opt/anaconda/envs/psi4v1.5/share/psi4/basis/aug-cc-pvtz-jkfit.gbs 
    atoms 3, 6-7, 10, 13, 18, 21-22, 25, 28 entry C          line   162 file /opt/anaconda/envs/psi4v1.5/share/psi4/basis/aug-cc-pvtz-jkfit.gbs 
    atoms 23                                entry O          line   286 file /opt/anaconda/envs/psi4v1.5/share/psi4/basis/aug-cc-pvtz-jkfit.gbs 

  ==> Integral Setup <==

  ==> DiskDFJK: Density-Fitted J/K Matrices <==

    J tasked:                  Yes
    K tasked:                  Yes
    wK tasked:                  No
    OpenMP threads:              8
    Integrals threads:           8
    Memory [MiB]:            71525
    Algorithm:                Core
    Integral Cache:           LOAD
    Schwarz Cutoff:          1E-12
    Fitting Condition:       1E-10

   => Auxiliary Basis Set <=

  Basis Set: (AUG-CC-PVTZ AUX)
    Blend: AUG-CC-PVTZ-JKFIT
    Number of shells: 770
    Number of basis functions: 2644
    Number of Cartesian functions: 3301
    Spherical Harmonics?: true
    Max angular momentum: 4

  Minimum eigenvalue in the overlap matrix is 7.8532402406E-07.
  Reciprocal condition number of the overlap matrix is 3.6962961384E-08.
    Using symmetric orthogonalization.

  ==> Pre-Iterations <==

  SCF Guess: Superposition of Atomic Densities via on-the-fly atomic UHF (no occupation information).

   -------------------------
    Irrep   Nso     Nmo    
   -------------------------
     A       1196    1196 
   -------------------------
    Total    1196    1196
   -------------------------

  ==> Iterations <==

                           Total Energy        Delta E     RMS |[F,P]|

   @DF-RHF iter SAD:  -539.32768857559415   -5.39328e+02   0.00000e+00 
   @DF-RHF iter   1:  -539.27696873825482    5.07198e-02   6.64848e-04 DIIS
   @DF-RHF iter   2:  -539.50037898647463   -2.23410e-01   3.95662e-04 DIIS
   @DF-RHF iter   3:  -539.58021905334067   -7.98401e-02   8.22868e-05 DIIS
   @DF-RHF iter   4:  -539.58534880660852   -5.12975e-03   3.38656e-05 DIIS
   @DF-RHF iter   5:  -539.58632891525463   -9.80109e-04   7.11818e-06 DIIS
   @DF-RHF iter   6:  -539.58643026182131   -1.01347e-04   3.71209e-06 DIIS
   @DF-RHF iter   7:  -539.58645656228202   -2.63005e-05   1.54222e-06 DIIS
   @DF-RHF iter   8:  -539.58646157194016   -5.00966e-06   5.43902e-07 DIIS
   @DF-RHF iter   9:  -539.58646216678483   -5.94845e-07   2.16314e-07 DIIS
   @DF-RHF iter  10:  -539.58646227300869   -1.06224e-07   8.55258e-08 DIIS
   @DF-RHF iter  11:  -539.58646228799228   -1.49836e-08   3.32314e-08 DIIS
   @DF-RHF iter  12:  -539.58646228999589   -2.00362e-09   1.22595e-08 DIIS
   @DF-RHF iter  13:  -539.58646229027374   -2.77851e-10   5.23586e-09 DIIS
  Energy and wave function converged.


  ==> Post-Iterations <==

    Orbital Energies [Eh]
    ---------------------

    Doubly Occupied:                                                      

       1A    -20.521823     2A    -15.636342     3A    -15.634137  
       4A    -15.613629     5A    -15.574317     6A    -15.565004  
       7A    -11.399807     8A    -11.366177     9A    -11.327491  
      10A    -11.314335    11A    -11.250480    12A     -1.393014  
      13A     -1.359176    14A     -1.335900    15A     -1.223378  
      16A     -1.219859    17A     -1.178382    18A     -1.031603  
      19A     -0.908229    20A     -0.887792    21A     -0.844902  
      22A     -0.800729    23A     -0.742588    24A     -0.730413  
      25A     -0.700660    26A     -0.673381    27A     -0.658397  
      28A     -0.633990    29A     -0.612002    30A     -0.602617  
      31A     -0.596190    32A     -0.546834    33A     -0.500536  
      34A     -0.463366    35A     -0.442385    36A     -0.433928  
      37A     -0.430520    38A     -0.412023    39A     -0.302214  

    Virtual:                                                              

      40A      0.011673    41A      0.017479    42A      0.028178  
      43A      0.031618    44A      0.036223    45A      0.040718  
      46A      0.045051    47A      0.053072    48A      0.056130  
      49A      0.061693    50A      0.062478    51A      0.066998  
      52A      0.071344    53A      0.076582    54A      0.082363  
      55A      0.084245    56A      0.090818    57A      0.092428  
      58A      0.094713    59A      0.098595    60A      0.100559  
      61A      0.105375    62A      0.109280    63A      0.110145  
      64A      0.112080    65A      0.115858    66A      0.120757  
      67A      0.123049    68A      0.125062    69A      0.129268  
      70A      0.130603    71A      0.133255    72A      0.134320  
      73A      0.135841    74A      0.138999    75A      0.139535  
      76A      0.145642    77A      0.148273    78A      0.151711  
      79A      0.154672    80A      0.155065    81A      0.158994  
      82A      0.160370    83A      0.166361    84A      0.168368  
      85A      0.174165    86A      0.177478    87A      0.179901  
      88A      0.181353    89A      0.189108    90A      0.190375  
      91A      0.193103    92A      0.198061    93A      0.204380  
      94A      0.205988    95A      0.207921    96A      0.212993  
      97A      0.213744    98A      0.215684    99A      0.216361  
     100A      0.218541   101A      0.221285   102A      0.222084  
     103A      0.225299   104A      0.229013   105A      0.233273  
     106A      0.235422   107A      0.238612   108A      0.243541  
     109A      0.245155   110A      0.248815   111A      0.254574  
     112A      0.256074   113A      0.259447   114A      0.263205  
     115A      0.264167   116A      0.270305   117A      0.273462  
     118A      0.277065   119A      0.280089   120A      0.282540  
     121A      0.286359   122A      0.287946   123A      0.289501  
     124A      0.292946   125A      0.293628   126A      0.297219  
     127A      0.300633   128A      0.306974   129A      0.309253  
     130A      0.311697   131A      0.315436   132A      0.316245  
     133A      0.319818   134A      0.325286   135A      0.328933  
     136A      0.337213   137A      0.340106   138A      0.342264  
     139A      0.344096   140A      0.347816   141A      0.352227  
     142A      0.355596   143A      0.355867   144A      0.363798  
     145A      0.364185   146A      0.370856   147A      0.373311  
     148A      0.376485   149A      0.378643   150A      0.383230  
     151A      0.385565   152A      0.388372   153A      0.390510  
     154A      0.394142   155A      0.395875   156A      0.403287  
     157A      0.404871   158A      0.406465   159A      0.409627  
     160A      0.412326   161A      0.416049   162A      0.417598  
     163A      0.418753   164A      0.424300   165A      0.428076  
     166A      0.433225   167A      0.433743   168A      0.437301  
     169A      0.439879   170A      0.443880   171A      0.445080  
     172A      0.450676   173A      0.451618   174A      0.454949  
     175A      0.457157   176A      0.460036   177A      0.463578  
     178A      0.466926   179A      0.468709   180A      0.469720  
     181A      0.475472   182A      0.476563   183A      0.479764  
     184A      0.481318   185A      0.487009   186A      0.488000  
     187A      0.491962   188A      0.493673   189A      0.496781  
     190A      0.501935   191A      0.504852   192A      0.506689  
     193A      0.509403   194A      0.511121   195A      0.515214  
     196A      0.519638   197A      0.521451   198A      0.527509  
     199A      0.529244   200A      0.530457   201A      0.535743  
     202A      0.539314   203A      0.540372   204A      0.542161  
     205A      0.546708   206A      0.551081   207A      0.558700  
     208A      0.561842   209A      0.564114   210A      0.568991  
     211A      0.570879   212A      0.574756   213A      0.579558  
     214A      0.581951   215A      0.586290   216A      0.590612  
     217A      0.592430   218A      0.598892   219A      0.601251  
     220A      0.603395   221A      0.607863   222A      0.614100  
     223A      0.615541   224A      0.623107   225A      0.627265  
     226A      0.630802   227A      0.634063   228A      0.637299  
     229A      0.640425   230A      0.642641   231A      0.650536  
     232A      0.652636   233A      0.656437   234A      0.661954  
     235A      0.663524   236A      0.666269   237A      0.674584  
     238A      0.679022   239A      0.687876   240A      0.689461  
     241A      0.693677   242A      0.695419   243A      0.698335  
     244A      0.700715   245A      0.705538   246A      0.707167  
     247A      0.713538   248A      0.716206   249A      0.723405  
     250A      0.729590   251A      0.732119   252A      0.736595  
     253A      0.740805   254A      0.741468   255A      0.748124  
     256A      0.754643   257A      0.755802   258A      0.759818  
     259A      0.762238   260A      0.768920   261A      0.770549  
     262A      0.775215   263A      0.779820   264A      0.784598  
     265A      0.785550   266A      0.788805   267A      0.795249  
     268A      0.798242   269A      0.801419   270A      0.803870  
     271A      0.808194   272A      0.813562   273A      0.821918  
     274A      0.824623   275A      0.827869   276A      0.831768  
     277A      0.837025   278A      0.837348   279A      0.842378  
     280A      0.843718   281A      0.846886   282A      0.851958  
     283A      0.857410   284A      0.858814   285A      0.860459  
     286A      0.863624   287A      0.868097   288A      0.879175  
     289A      0.880101   290A      0.881267   291A      0.883048  
     292A      0.887770   293A      0.889666   294A      0.891546  
     295A      0.900076   296A      0.903736   297A      0.906888  
     298A      0.909092   299A      0.915101   300A      0.917370  
     301A      0.922002   302A      0.926058   303A      0.931646  
     304A      0.935156   305A      0.940676   306A      0.942601  
     307A      0.946538   308A      0.948642   309A      0.951306  
     310A      0.953938   311A      0.956560   312A      0.961988  
     313A      0.968120   314A      0.969426   315A      0.972951  
     316A      0.979841   317A      0.980693   318A      0.984065  
     319A      0.984806   320A      0.988488   321A      0.991437  
     322A      0.997591   323A      1.001249   324A      1.006055  
     325A      1.007540   326A      1.010517   327A      1.016055  
     328A      1.018721   329A      1.022452   330A      1.031976  
     331A      1.034814   332A      1.036821   333A      1.040013  
     334A      1.044250   335A      1.049637   336A      1.052431  
     337A      1.057714   338A      1.061483   339A      1.065014  
     340A      1.066641   341A      1.069561   342A      1.074004  
     343A      1.077088   344A      1.079200   345A      1.088895  
     346A      1.089843   347A      1.095005   348A      1.100034  
     349A      1.100491   350A      1.102154   351A      1.106270  
     352A      1.112081   353A      1.117693   354A      1.119845  
     355A      1.126352   356A      1.130432   357A      1.130934  
     358A      1.141047   359A      1.143655   360A      1.144500  
     361A      1.152906   362A      1.156945   363A      1.159761  
     364A      1.162881   365A      1.167092   366A      1.172750  
     367A      1.174192   368A      1.179349   369A      1.181742  
     370A      1.182781   371A      1.188832   372A      1.194939  
     373A      1.197203   374A      1.202407   375A      1.206528  
     376A      1.211087   377A      1.212800   378A      1.217620  
     379A      1.223693   380A      1.226236   381A      1.234060  
     382A      1.237536   383A      1.240647   384A      1.244034  
     385A      1.251376   386A      1.253406   387A      1.257970  
     388A      1.261003   389A      1.268020   390A      1.272535  
     391A      1.279481   392A      1.284874   393A      1.287605  
     394A      1.291399   395A      1.296833   396A      1.298101  
     397A      1.302839   398A      1.306633   399A      1.313148  
     400A      1.317050   401A      1.320157   402A      1.322860  
     403A      1.328286   404A      1.332953   405A      1.338645  
     406A      1.341302   407A      1.344505   408A      1.346210  
     409A      1.351223   410A      1.358499   411A      1.365070  
     412A      1.367038   413A      1.367965   414A      1.371075  
     415A      1.377158   416A      1.390221   417A      1.394882  
     418A      1.400025   419A      1.402741   420A      1.405430  
     421A      1.414437   422A      1.419234   423A      1.420168  
     424A      1.421593   425A      1.433133   426A      1.433850  
     427A      1.440862   428A      1.447028   429A      1.452756  
     430A      1.458090   431A      1.466177   432A      1.468722  
     433A      1.472953   434A      1.475371   435A      1.479782  
     436A      1.484807   437A      1.490099   438A      1.498063  
     439A      1.505354   440A      1.509577   441A      1.514837  
     442A      1.519806   443A      1.522233   444A      1.532776  
     445A      1.534400   446A      1.537312   447A      1.549350  
     448A      1.551465   449A      1.553361   450A      1.556572  
     451A      1.561728   452A      1.563673   453A      1.565687  
     454A      1.571242   455A      1.574885   456A      1.582027  
     457A      1.583824   458A      1.591899   459A      1.596611  
     460A      1.600822   461A      1.605756   462A      1.612543  
     463A      1.621049   464A      1.626489   465A      1.627260  
     466A      1.630695   467A      1.633361   468A      1.640939  
     469A      1.648385   470A      1.654800   471A      1.660451  
     472A      1.664186   473A      1.667251   474A      1.670804  
     475A      1.678054   476A      1.684047   477A      1.691196  
     478A      1.691335   479A      1.695557   480A      1.702526  
     481A      1.705487   482A      1.709834   483A      1.712118  
     484A      1.716585   485A      1.724306   486A      1.727653  
     487A      1.731746   488A      1.735101   489A      1.739679  
     490A      1.741956   491A      1.750762   492A      1.760499  
     493A      1.765128   494A      1.771045   495A      1.774502  
     496A      1.778762   497A      1.784510   498A      1.787617  
     499A      1.791612   500A      1.797438   501A      1.806303  
     502A      1.808070   503A      1.812318   504A      1.814472  
     505A      1.820475   506A      1.824446   507A      1.830086  
     508A      1.833662   509A      1.840246   510A      1.845682  
     511A      1.852996   512A      1.856584   513A      1.861960  
     514A      1.863732   515A      1.866036   516A      1.871538  
     517A      1.880413   518A      1.891099   519A      1.895498  
     520A      1.898789   521A      1.904682   522A      1.905974  
     523A      1.912542   524A      1.914435   525A      1.925187  
     526A      1.932068   527A      1.942187   528A      1.945359  
     529A      1.951698   530A      1.958714   531A      1.962232  
     532A      1.970107   533A      1.978480   534A      1.980862  
     535A      1.987960   536A      1.991532   537A      1.996199  
     538A      2.004930   539A      2.009761   540A      2.011156  
     541A      2.024100   542A      2.028059   543A      2.032214  
     544A      2.034642   545A      2.038210   546A      2.053185  
     547A      2.056999   548A      2.063235   549A      2.069160  
     550A      2.071355   551A      2.076618   552A      2.082531  
     553A      2.085632   554A      2.093527   555A      2.097367  
     556A      2.101479   557A      2.108802   558A      2.116249  
     559A      2.116971   560A      2.125870   561A      2.127054  
     562A      2.133213   563A      2.136026   564A      2.141023  
     565A      2.149192   566A      2.160478   567A      2.162778  
     568A      2.164364   569A      2.173181   570A      2.173470  
     571A      2.176715   572A      2.180338   573A      2.191252  
     574A      2.196619   575A      2.198970   576A      2.206555  
     577A      2.218417   578A      2.224637   579A      2.234382  
     580A      2.236157   581A      2.242187   582A      2.248059  
     583A      2.258125   584A      2.262011   585A      2.268303  
     586A      2.269340   587A      2.276655   588A      2.280016  
     589A      2.289812   590A      2.298161   591A      2.306600  
     592A      2.307858   593A      2.310867   594A      2.317089  
     595A      2.326489   596A      2.335917   597A      2.337010  
     598A      2.341222   599A      2.344864   600A      2.357843  
     601A      2.363716   602A      2.368287   603A      2.369833  
     604A      2.374522   605A      2.380880   606A      2.386197  
     607A      2.394402   608A      2.397825   609A      2.402074  
     610A      2.406560   611A      2.418885   612A      2.420737  
     613A      2.425887   614A      2.427459   615A      2.434931  
     616A      2.447539   617A      2.451698   618A      2.454797  
     619A      2.460765   620A      2.467716   621A      2.479462  
     622A      2.485345   623A      2.490235   624A      2.494088  
     625A      2.501635   626A      2.508345   627A      2.510570  
     628A      2.512559   629A      2.528166   630A      2.528876  
     631A      2.536236   632A      2.539643   633A      2.544262  
     634A      2.550527   635A      2.558568   636A      2.564365  
     637A      2.571487   638A      2.583493   639A      2.586081  
     640A      2.589127   641A      2.597793   642A      2.606609  
     643A      2.608309   644A      2.616758   645A      2.626453  
     646A      2.630825   647A      2.639440   648A      2.644874  
     649A      2.651608   650A      2.657258   651A      2.669225  
     652A      2.671549   653A      2.690510   654A      2.691847  
     655A      2.698721   656A      2.710455   657A      2.713931  
     658A      2.720704   659A      2.725322   660A      2.731450  
     661A      2.743036   662A      2.748742   663A      2.755411  
     664A      2.767073   665A      2.771364   666A      2.776353  
     667A      2.778804   668A      2.787411   669A      2.793737  
     670A      2.805226   671A      2.813819   672A      2.818869  
     673A      2.833861   674A      2.842259   675A      2.847138  
     676A      2.864057   677A      2.865751   678A      2.873999  
     679A      2.880302   680A      2.883668   681A      2.889451  
     682A      2.897209   683A      2.898189   684A      2.905718  
     685A      2.913615   686A      2.926287   687A      2.931760  
     688A      2.937442   689A      2.953090   690A      2.958488  
     691A      2.970433   692A      2.981635   693A      2.991191  
     694A      2.997309   695A      3.006716   696A      3.012142  
     697A      3.022372   698A      3.035961   699A      3.048648  
     700A      3.065927   701A      3.069107   702A      3.071885  
     703A      3.080884   704A      3.092115   705A      3.096315  
     706A      3.105589   707A      3.112655   708A      3.116182  
     709A      3.123111   710A      3.127037   711A      3.140651  
     712A      3.143263   713A      3.151832   714A      3.153790  
     715A      3.168504   716A      3.180487   717A      3.194165  
     718A      3.210728   719A      3.216757   720A      3.225970  
     721A      3.242934   722A      3.259222   723A      3.274117  
     724A      3.279157   725A      3.294936   726A      3.306492  
     727A      3.320055   728A      3.331220   729A      3.340235  
     730A      3.352596   731A      3.354820   732A      3.365550  
     733A      3.375997   734A      3.400539   735A      3.410618  
     736A      3.416361   737A      3.426964   738A      3.435980  
     739A      3.438865   740A      3.440375   741A      3.452086  
     742A      3.499680   743A      3.501249   744A      3.509976  
     745A      3.527287   746A      3.542090   747A      3.544390  
     748A      3.555766   749A      3.567874   750A      3.593390  
     751A      3.598818   752A      3.614231   753A      3.624239  
     754A      3.630352   755A      3.649424   756A      3.666997  
     757A      3.680438   758A      3.686229   759A      3.701190  
     760A      3.706764   761A      3.711628   762A      3.718035  
     763A      3.726179   764A      3.734657   765A      3.749673  
     766A      3.761285   767A      3.765817   768A      3.771282  
     769A      3.786578   770A      3.792936   771A      3.807111  
     772A      3.814640   773A      3.835877   774A      3.848528  
     775A      3.850262   776A      3.860006   777A      3.878365  
     778A      3.883389   779A      3.896425   780A      3.902230  
     781A      3.908058   782A      3.914396   783A      3.917734  
     784A      3.933746   785A      3.944269   786A      3.954843  
     787A      3.971995   788A      3.981300   789A      3.987886  
     790A      4.000658   791A      4.017121   792A      4.025856  
     793A      4.034497   794A      4.050941   795A      4.073736  
     796A      4.078556   797A      4.088894   798A      4.093359  
     799A      4.099001   800A      4.101927   801A      4.120330  
     802A      4.124098   803A      4.149907   804A      4.154529  
     805A      4.157478   806A      4.160432   807A      4.168262  
     808A      4.182591   809A      4.184215   810A      4.192068  
     811A      4.195792   812A      4.199728   813A      4.211250  
     814A      4.217764   815A      4.227468   816A      4.234783  
     817A      4.242392   818A      4.251085   819A      4.257241  
     820A      4.265320   821A      4.274713   822A      4.276492  
     823A      4.288293   824A      4.293024   825A      4.302781  
     826A      4.316055   827A      4.319043   828A      4.324353  
     829A      4.331559   830A      4.332582   831A      4.343924  
     832A      4.357443   833A      4.361141   834A      4.377961  
     835A      4.390649   836A      4.393446   837A      4.394837  
     838A      4.403575   839A      4.415640   840A      4.426611  
     841A      4.453128   842A      4.461444   843A      4.468149  
     844A      4.475194   845A      4.488599   846A      4.494613  
     847A      4.506275   848A      4.510818   849A      4.520899  
     850A      4.532399   851A      4.539435   852A      4.544353  
     853A      4.562515   854A      4.568817   855A      4.575717  
     856A      4.581709   857A      4.587151   858A      4.593636  
     859A      4.602352   860A      4.607097   861A      4.611457  
     862A      4.617660   863A      4.622204   864A      4.627645  
     865A      4.639798   866A      4.653150   867A      4.657893  
     868A      4.669652   869A      4.677631   870A      4.683401  
     871A      4.692893   872A      4.701566   873A      4.707932  
     874A      4.722056   875A      4.726393   876A      4.728268  
     877A      4.738057   878A      4.748665   879A      4.753562  
     880A      4.757973   881A      4.774140   882A      4.791382  
     883A      4.810231   884A      4.812258   885A      4.827060  
     886A      4.838222   887A      4.844830   888A      4.855196  
     889A      4.861853   890A      4.875730   891A      4.886411  
     892A      4.892539   893A      4.897669   894A      4.904885  
     895A      4.910570   896A      4.922595   897A      4.935359  
     898A      4.944858   899A      4.949300   900A      4.953446  
     901A      4.959596   902A      4.963949   903A      4.974586  
     904A      4.986113   905A      4.999428   906A      4.999973  
     907A      5.005217   908A      5.012042   909A      5.026505  
     910A      5.031127   911A      5.034474   912A      5.041645  
     913A      5.051492   914A      5.059640   915A      5.070533  
     916A      5.076479   917A      5.085761   918A      5.093893  
     919A      5.109439   920A      5.112018   921A      5.116148  
     922A      5.132699   923A      5.146553   924A      5.156867  
     925A      5.162223   926A      5.164755   927A      5.174721  
     928A      5.189024   929A      5.198323   930A      5.207032  
     931A      5.213984   932A      5.215329   933A      5.231422  
     934A      5.243004   935A      5.246798   936A      5.260148  
     937A      5.268732   938A      5.278117   939A      5.283341  
     940A      5.294498   941A      5.305714   942A      5.307789  
     943A      5.324514   944A      5.338969   945A      5.349807  
     946A      5.353384   947A      5.356785   948A      5.381671  
     949A      5.396691   950A      5.400696   951A      5.407789  
     952A      5.425417   953A      5.436534   954A      5.446565  
     955A      5.457835   956A      5.467276   957A      5.474283  
     958A      5.488049   959A      5.502300   960A      5.505657  
     961A      5.517915   962A      5.532485   963A      5.536010  
     964A      5.538750   965A      5.551891   966A      5.559243  
     967A      5.567969   968A      5.572805   969A      5.574966  
     970A      5.600881   971A      5.603428   972A      5.614753  
     973A      5.635384   974A      5.640938   975A      5.656208  
     976A      5.666091   977A      5.670180   978A      5.694014  
     979A      5.705291   980A      5.708691   981A      5.726429  
     982A      5.738138   983A      5.759592   984A      5.763186  
     985A      5.773491   986A      5.781205   987A      5.789079  
     988A      5.804215   989A      5.817445   990A      5.828737  
     991A      5.838122   992A      5.850200   993A      5.857505  
     994A      5.870947   995A      5.884277   996A      5.892550  
     997A      5.904264   998A      5.917080   999A      5.932474  
    1000A      5.942765  1001A      5.950705  1002A      5.953264  
    1003A      5.974188  1004A      5.983812  1005A      5.997599  
    1006A      6.002151  1007A      6.008517  1008A      6.019885  
    1009A      6.039948  1010A      6.059058  1011A      6.065432  
    1012A      6.081170  1013A      6.083928  1014A      6.098496  
    1015A      6.100685  1016A      6.123900  1017A      6.144411  
    1018A      6.158381  1019A      6.164649  1020A      6.168446  
    1021A      6.171152  1022A      6.180437  1023A      6.192350  
    1024A      6.208517  1025A      6.212082  1026A      6.237546  
    1027A      6.247160  1028A      6.256424  1029A      6.288223  
    1030A      6.316398  1031A      6.323040  1032A      6.336782  
    1033A      6.354456  1034A      6.366139  1035A      6.437539  
    1036A      6.448179  1037A      6.463392  1038A      6.482708  
    1039A      6.486543  1040A      6.495117  1041A      6.510776  
    1042A      6.515000  1043A      6.527225  1044A      6.540053  
    1045A      6.558294  1046A      6.564682  1047A      6.576890  
    1048A      6.585859  1049A      6.594808  1050A      6.600940  
    1051A      6.618309  1052A      6.636316  1053A      6.680359  
    1054A      6.687393  1055A      6.692891  1056A      6.719697  
    1057A      6.735855  1058A      6.751770  1059A      6.758722  
    1060A      6.766053  1061A      6.781538  1062A      6.790156  
    1063A      6.801947  1064A      6.825044  1065A      6.835037  
    1066A      6.849492  1067A      6.861309  1068A      6.867802  
    1069A      6.869343  1070A      6.905820  1071A      6.941962  
    1072A      6.944320  1073A      6.949134  1074A      6.976938  
    1075A      6.983918  1076A      6.997633  1077A      7.007630  
    1078A      7.020580  1079A      7.039091  1080A      7.051340  
    1081A      7.054276  1082A      7.079318  1083A      7.085757  
    1084A      7.128730  1085A      7.135527  1086A      7.205329  
    1087A      7.221415  1088A      7.229718  1089A      7.257199  
    1090A      7.260627  1091A      7.292540  1092A      7.310619  
    1093A      7.352694  1094A      7.381734  1095A      7.398801  
    1096A      7.425364  1097A      7.449239  1098A      7.458246  
    1099A      7.465886  1100A      7.472240  1101A      7.476578  
    1102A      7.502345  1103A      7.504206  1104A      7.546582  
    1105A      7.582179  1106A      7.616638  1107A      7.630040  
    1108A      7.645498  1109A      7.666275  1110A      7.670559  
    1111A      7.680006  1112A      7.694571  1113A      7.720395  
    1114A      7.760655  1115A      7.768324  1116A      7.812002  
    1117A      7.835069  1118A      7.838551  1119A      7.850913  
    1120A      7.861109  1121A      7.886810  1122A      7.932613  
    1123A      7.945019  1124A      7.950435  1125A      7.969938  
    1126A      7.987964  1127A      7.993342  1128A      7.998618  
    1129A      8.039505  1130A      8.067436  1131A      8.070544  
    1132A      8.122979  1133A      8.188196  1134A      8.242928  
    1135A      8.307721  1136A      8.341899  1137A      8.385766  
    1138A      8.443012  1139A      8.456520  1140A      8.544605  
    1141A      8.682204  1142A      8.800708  1143A      8.831840  
    1144A      8.939176  1145A      9.011870  1146A      9.037319  
    1147A      9.230543  1148A      9.322576  1149A      9.372597  
    1150A      9.566824  1151A      9.622173  1152A      9.639193  
    1153A      9.726036  1154A      9.782458  1155A      9.957105  
    1156A     10.155414  1157A     10.258066  1158A     10.422936  
    1159A     10.725405  1160A     11.035887  1161A     11.053078  
    1162A     11.195253  1163A     11.238346  1164A     11.542447  
    1165A     11.646800  1166A     11.726941  1167A     11.855650  
    1168A     12.034090  1169A     12.062187  1170A     12.188289  
    1171A     12.318046  1172A     12.432982  1173A     12.550336  
    1174A     12.858276  1175A     12.978326  1176A     16.090584  
    1177A     16.344031  1178A     16.583844  1179A     17.065409  
    1180A     17.792655  1181A     18.415851  1182A     19.220797  
    1183A     19.553013  1184A     20.015000  1185A     20.854292  
    1186A     21.247547  1187A     51.628467  1188A     51.791656  
    1189A     52.592852  1190A     54.251010  1191A     56.712724  
    1192A     60.161627  1193A     61.524292  1194A     62.158320  
    1195A     62.539962  1196A     64.772152  

    Final Occupation by Irrep:
              A 
    DOCC [    39 ]

  @DF-RHF Final Energy:  -539.58646229027374

   => Energetics <=

    Nuclear Repulsion Energy =            594.2530298318569066
    One-Electron Energy =               -1913.9418767180300165
    Two-Electron Energy =                 780.1023845958992524
    Total Energy =                       -539.5864622902737437

Computation Completed


Properties will be evaluated at   0.000000,   0.000000,   0.000000 [a0]

Properties computed using the SCF density matrix

  Nuclear Dipole Moment: [e a0]
     X:   279.3368      Y:   -57.0402      Z:  -133.2410

  Electronic Dipole Moment: [e a0]
     X:  -279.4584      Y:    59.6974      Z:   132.3236

  Dipole Moment: [e a0]
     X:    -0.1216      Y:     2.6572      Z:    -0.9174     Total:     2.8137

  Dipole Moment: [D]
     X:    -0.3091      Y:     6.7539      Z:    -2.3319     Total:     7.1518


*** tstop() called on node156.bme.utexas.edu at Wed Jan 17 11:15:43 2024
Module time:
	user time   =    1241.47 seconds =      20.69 minutes
	system time =       5.69 seconds =       0.09 minutes
	total time  =        175 seconds =       2.92 minutes
Total time:
	user time   =    5869.01 seconds =      97.82 minutes
	system time =      57.96 seconds =       0.97 minutes
	total time  =        991 seconds =      16.52 minutes

*** tstart() called on node156.bme.utexas.edu
*** at Wed Jan 17 11:15:43 2024


  //>>>>>>>>>>>>>>>>>>>>>>>>>>>>>>>>>>>//
  //               DFMP2               //
  //<<<<<<<<<<<<<<<<<<<<<<<<<<<<<<<<<<<//

   => Loading Basis Set <=

    Name: (AUG-CC-PVTZ AUX)
    Role: RIFIT
    Keyword: DF_BASIS_MP2
    atoms 1, 4, 11, 14-15, 17, 19, 29-31    entry H          line    30 file /opt/anaconda/envs/psi4v1.5/share/psi4/basis/aug-cc-pvtz-ri.gbs 
    atoms 2, 5, 8-9, 12, 16, 20, 24, 26-27  entry N          line   206 file /opt/anaconda/envs/psi4v1.5/share/psi4/basis/aug-cc-pvtz-ri.gbs 
    atoms 3, 6-7, 10, 13, 18, 21-22, 25, 28 entry C          line   148 file /opt/anaconda/envs/psi4v1.5/share/psi4/basis/aug-cc-pvtz-ri.gbs 
    atoms 23                                entry O          line   264 file /opt/anaconda/envs/psi4v1.5/share/psi4/basis/aug-cc-pvtz-ri.gbs 

	 --------------------------------------------------------
	                          DF-MP2                         
	      2nd-Order Density-Fitted Moller-Plesset Theory     
	              RMP2 Wavefunction,   8 Threads             
	                                                         
	        Rob Parrish, Justin Turney, Andy Simmonett,      
	           Ed Hohenstein, and C. David Sherrill          
	 --------------------------------------------------------

   => Auxiliary Basis Set <=

  Basis Set: (AUG-CC-PVTZ AUX)
    Blend: AUG-CC-PVTZ-RI
    Number of shells: 728
    Number of basis functions: 2686
    Number of Cartesian functions: 3406
    Spherical Harmonics?: true
    Max angular momentum: 4

	 --------------------------------------------------------
	                 NBF =  1196, NAUX =  2686
	 --------------------------------------------------------
	   CLASS    FOCC     OCC    AOCC    AVIR     VIR    FVIR
	   PAIRS      11      39      28    1157    1157       0
	 --------------------------------------------------------

	 Will attempt to load fitting metric from file 97.

	-----------------------------------------------------------
	 ==================> DF-MP2 Energies <==================== 
	-----------------------------------------------------------
	 Reference Energy          =    -539.5864622902737437 [Eh]
	 Singles Energy            =      -0.0000000000000000 [Eh]
	 Same-Spin Energy          =      -0.5424730737972911 [Eh]
	 Opposite-Spin Energy      =      -1.4984646416657390 [Eh]
	 Correlation Energy        =      -2.0409377154630302 [Eh]
	 Total Energy              =    -541.6274000057367175 [Eh]
	-----------------------------------------------------------
	 ================> DF-SCS-MP2 Energies <================== 
	-----------------------------------------------------------
	 SCS Same-Spin Scale       =       0.3333333333333333 [-]
	 SCS Opposite-Spin Scale   =       1.2000000000000000 [-]
	 SCS Same-Spin Energy      =      -0.1808243579324304 [Eh]
	 SCS Opposite-Spin Energy  =      -1.7981575699988868 [Eh]
	 SCS Correlation Energy    =      -1.9789819279313172 [Eh]
	 SCS Total Energy          =    -541.5654442182050161 [Eh]
	-----------------------------------------------------------


*** tstop() called on node156.bme.utexas.edu at Wed Jan 17 11:16:21 2024
Module time:
	user time   =     206.60 seconds =       3.44 minutes
	system time =       4.58 seconds =       0.08 minutes
	total time  =         38 seconds =       0.63 minutes
Total time:
	user time   =    6075.61 seconds =     101.26 minutes
	system time =      62.54 seconds =       1.04 minutes
	total time  =       1029 seconds =      17.15 minutes
  Constructing Basis Sets for SAPT...

   => Loading Basis Set <=

    Name: (AUG-CC-PVTZ AUX)
    Role: RIFIT
    Keyword: DF_BASIS_SAPT
    atoms 1, 4, 11, 14-15, 17, 19, 29-31    entry H          line    30 file /opt/anaconda/envs/psi4v1.5/share/psi4/basis/aug-cc-pvtz-ri.gbs 
    atoms 2, 5, 8-9, 12, 16, 20, 24, 26-27  entry N          line   206 file /opt/anaconda/envs/psi4v1.5/share/psi4/basis/aug-cc-pvtz-ri.gbs 
    atoms 3, 6-7, 10, 13, 18, 21-22, 25, 28 entry C          line   148 file /opt/anaconda/envs/psi4v1.5/share/psi4/basis/aug-cc-pvtz-ri.gbs 
    atoms 23                                entry O          line   264 file /opt/anaconda/envs/psi4v1.5/share/psi4/basis/aug-cc-pvtz-ri.gbs 


  //>>>>>>>>>>>>>>>>>>>>>>>>>>>>>>>>>>>//
  //           SAPT2+(3)DMP2           //
  //<<<<<<<<<<<<<<<<<<<<<<<<<<<<<<<<<<<//


*** tstart() called on node156.bme.utexas.edu
*** at Wed Jan 17 11:16:21 2024

      SAPT2+(3)  
    Ed Hohenstein
     6 June 2009

      Orbital Information
  --------------------------
    NSO        =      1196
    NMO        =      1196
    NRI        =      2686
    NOCC A     =        35
    NOCC B     =        39
    FOCC A     =        10
    FOCC B     =        11
    NVIR A     =      1161
    NVIR B     =      1157

    Estimated memory usage: 78168.6 MB

    Natural Orbital Cutoff:   1.000E-06
    Disp(T3) Truncation:            Yes
    CCD (vv|vv) Truncation:         Yes
    MBPT T2 Truncation:             Yes

    Monomer A: 672 virtual orbitals dropped
    Monomer B: 625 virtual orbitals dropped

    Elst10,r            =    -0.004056985535 [Eh]
    Exch10 (S^2)        =     0.001675176326 [Eh]
    Exch10              =     0.001675299302 [Eh]
    Ind20,r (A<-B)      =    -0.000881597357 [Eh]
    Ind20,r (B<-A)      =    -0.000430913903 [Eh]
    Ind20,r             =    -0.001312511260 [Eh]
    Exch-Ind20,r (A<-B) =     0.000277956357 [Eh]
    Exch-Ind20,r (B<-A) =     0.000287182536 [Eh]
    Exch-Ind20,r        =     0.000565138893 [Eh]
    Disp20              =    -0.009414462370 [Eh]
    Disp20 (NO)         =    -0.008956507616 [Eh]
    Exch-Disp20         =     0.000377949731 [Eh]
    Elst12,r            =     0.000449851393 [Eh]
    Exch11              =     0.000028393498 [Eh]
    Exch12              =     0.000200573541 [Eh]
    Ind22               =    -0.000035936646 [Eh]
    Disp21              =     0.003585067691 [Eh]
    Disp22 (SDQ)        =    -0.000657483932 [Eh]

    (i =   1 of  28)       3443 seconds
    (i =   2 of  28)       6913 seconds
    (i =   3 of  28)      10376 seconds
    (i =   4 of  28)      13837 seconds
    (i =   5 of  28)      17321 seconds
    (i =   6 of  28)      20826 seconds
    (i =   7 of  28)      24314 seconds
    (i =   8 of  28)      27787 seconds
    (i =   9 of  28)      31270 seconds
    (i =  10 of  28)      34756 seconds
    (i =  11 of  28)      38265 seconds
    (i =  12 of  28)      41779 seconds
    (i =  13 of  28)      45257 seconds
    (i =  14 of  28)      48743 seconds
    (i =  15 of  28)      52246 seconds
    (i =  16 of  28)      55740 seconds
    (i =  17 of  28)      59242 seconds
    (i =  18 of  28)      62754 seconds
    (i =  19 of  28)      66257 seconds
    (i =  20 of  28)      69777 seconds
    (i =  21 of  28)      73239 seconds
    (i =  22 of  28)      76745 seconds
    (i =  23 of  28)      80245 seconds
    (i =  24 of  28)      83754 seconds
    (i =  25 of  28)      87261 seconds
    (i =  26 of  28)      90763 seconds
    (i =  27 of  28)      94237 seconds
    (i =  28 of  28)      97512 seconds

    Disp220 (T)         =    -0.001186526728 [Eh]

    (i =   1 of  25)       4160 seconds
    (i =   2 of  25)       8334 seconds
    (i =   3 of  25)      12527 seconds
    (i =   4 of  25)      16695 seconds
    (i =   5 of  25)      20860 seconds
    (i =   6 of  25)      25030 seconds
    (i =   7 of  25)      29222 seconds
    (i =   8 of  25)      33400 seconds
    (i =   9 of  25)      37580 seconds
    (i =  10 of  25)      41763 seconds
    (i =  11 of  25)      45948 seconds
    (i =  12 of  25)      50132 seconds
    (i =  13 of  25)      54328 seconds
    (i =  14 of  25)      58504 seconds
    (i =  15 of  25)      62673 seconds
    (i =  16 of  25)      66848 seconds
    (i =  17 of  25)      71011 seconds
    (i =  18 of  25)      74957 seconds
    (i =  19 of  25)      78716 seconds
    (i =  20 of  25)      82538 seconds
    (i =  21 of  25)      85834 seconds
    (i =  22 of  25)      88379 seconds
    (i =  23 of  25)      90930 seconds
    (i =  24 of  25)      93486 seconds
    (i =  25 of  25)      96019 seconds

    Disp202 (T)         =    -0.001188530769 [Eh]

    Disp22 (T)          =    -0.002375057497 [Eh]

    Est. Disp220 (T)    =    -0.001247194968 [Eh]
    Est. Disp202 (T)    =    -0.001249301478 [Eh]

    Est. Disp22 (T)     =    -0.002496496446 [Eh]
    Elst13,r            =    -0.000069122045 [Eh]
    Disp30              =     0.000137664801 [Eh]

    SAPT Results 
  --------------------------------------------------------------------------------------------------------
    Electrostatics                 -3.67625619 [mEh]      -2.30688559 [kcal/mol]      -9.65200929 [kJ/mol]
      Elst10,r                     -4.05698554 [mEh]      -2.54579686 [kcal/mol]     -10.65161405 [kJ/mol]
      Elst12,r                      0.44985139 [mEh]       0.28228601 [kcal/mol]       1.18108467 [kJ/mol]
      Elst13,r                     -0.06912205 [mEh]      -0.04337474 [kcal/mol]      -0.18147990 [kJ/mol]

    Exchange                        1.90426634 [mEh]       1.19494517 [kcal/mol]       4.99965059 [kJ/mol]
      Exch10                        1.67529930 [mEh]       1.05126618 [kcal/mol]       4.39849771 [kJ/mol]
      Exch10(S^2)                   1.67517633 [mEh]       1.05118901 [kcal/mol]       4.39817484 [kJ/mol]
      Exch11(S^2)                   0.02839350 [mEh]       0.01781719 [kcal/mol]       0.07454712 [kJ/mol]
      Exch12(S^2)                   0.20057354 [mEh]       0.12586180 [kcal/mol]       0.52660576 [kJ/mol]

    Induction                      -0.76599455 [mEh]      -0.48066884 [kcal/mol]      -2.01111842 [kJ/mol]
      Ind20,r                      -1.31251126 [mEh]      -0.82361325 [kcal/mol]      -3.44599784 [kJ/mol]
      Ind22                        -0.03593665 [mEh]      -0.02255059 [kcal/mol]      -0.09435165 [kJ/mol]
      Exch-Ind20,r                  0.56513889 [mEh]       0.35463001 [kcal/mol]       1.48377196 [kJ/mol]
      Exch-Ind22                    0.01547354 [mEh]       0.00970979 [kcal/mol]       0.04062578 [kJ/mol]
      delta HF,r (2)               -0.14216345 [mEh]      -0.08920891 [kcal/mol]      -0.37325009 [kJ/mol]
      delta MP2,r (2)               0.14400437 [mEh]       0.09036411 [kcal/mol]       0.37808342 [kJ/mol]

    Dispersion                     -8.46776053 [mEh]      -5.31359995 [kcal/mol]     -22.23210220 [kJ/mol]
      Disp20                       -9.41446237 [mEh]      -5.90766433 [kcal/mol]     -24.71766755 [kJ/mol]
      Disp30                        0.13766480 [mEh]       0.08638597 [kcal/mol]       0.36143888 [kJ/mol]
      Disp21                        3.58506769 [mEh]       2.24966394 [kcal/mol]       9.41259393 [kJ/mol]
      Disp22 (SDQ)                 -0.65748393 [mEh]      -0.41257740 [kcal/mol]      -1.72622383 [kJ/mol]
      Disp22 (T)                   -2.37505750 [mEh]      -1.49037108 [kcal/mol]      -6.23571260 [kJ/mol]
      Est. Disp22 (T)              -2.49649645 [mEh]      -1.56657517 [kcal/mol]      -6.55455052 [kJ/mol]
      Exch-Disp20                   0.37794973 [mEh]       0.23716704 [kcal/mol]       0.99230688 [kJ/mol]

  Total HF                         -3.27122205 [mEh]      -2.05272283 [kcal/mol]      -8.58859231 [kJ/mol]
  Total SAPT0                     -12.30773469 [mEh]      -7.72322012 [kcal/mol]     -32.31395298 [kJ/mol]
  Total SAPT2                     -11.64937937 [mEh]      -7.31009592 [kcal/mol]     -30.58544131 [kJ/mol]
  Total SAPT2+                    -11.21829205 [mEh]      -7.03958454 [kcal/mol]     -29.45362173 [kJ/mol]
  Total SAPT2+(3)                 -11.14974930 [mEh]      -6.99657331 [kcal/mol]     -29.27366275 [kJ/mol]
  Total SAPT2+dMP2                -11.07428768 [mEh]      -6.94922044 [kcal/mol]     -29.07553831 [kJ/mol]
  Total SAPT2+(3)dMP2             -11.00574493 [mEh]      -6.90620921 [kcal/mol]     -28.89557933 [kJ/mol]

  Special recipe for scaled SAPT0 (see Manual):
    Electrostatics sSAPT0          -4.05698554 [mEh]      -2.54579686 [kcal/mol]     -10.65161405 [kJ/mol]
    Exchange sSAPT0                 1.67529930 [mEh]       1.05126618 [kcal/mol]       4.39849771 [kJ/mol]
    Induction sSAPT0               -0.88941135 [mEh]      -0.55811405 [kcal/mol]      -2.33514917 [kJ/mol]
    Dispersion sSAPT0              -9.03642940 [mEh]      -5.67044506 [kcal/mol]     -23.72514211 [kJ/mol]
  Total sSAPT0                    -12.30752698 [mEh]      -7.72308978 [kcal/mol]     -32.31340763 [kJ/mol]
  --------------------------------------------------------------------------------------------------------

*** tstop() called on node156.bme.utexas.edu at Sat Jan 20 00:28:56 2024
Module time:
	user time   = 1368317.51 seconds =   22805.29 minutes
	system time =    2807.47 seconds =      46.79 minutes
	total time  =     220355 seconds =    3672.58 minutes
Total time:
	user time   = 1374393.63 seconds =   22906.56 minutes
	system time =    2870.02 seconds =      47.83 minutes
	total time  =     221384 seconds =    3689.73 minutes

    Psi4 stopped on: Saturday, 20 January 2024 12:28AM
    Psi4 wall time for execution: 2 days, 13:29:44.22

*** Psi4 exiting successfully. Buy a developer a beer!
