
    -----------------------------------------------------------------------
          Psi4: An Open-Source Ab Initio Electronic Structure Package
                               Psi4 1.5 release

                         Git: Rev {HEAD} e9f4d6d 


    D. G. A. Smith, L. A. Burns, A. C. Simmonett, R. M. Parrish,
    M. C. Schieber, R. Galvelis, P. Kraus, H. Kruse, R. Di Remigio,
    A. Alenaizan, A. M. James, S. Lehtola, J. P. Misiewicz, M. Scheurer,
    R. A. Shaw, J. B. Schriber, Y. Xie, Z. L. Glick, D. A. Sirianni,
    J. S. O'Brien, J. M. Waldrop, A. Kumar, E. G. Hohenstein,
    B. P. Pritchard, B. R. Brooks, H. F. Schaefer III, A. Yu. Sokolov,
    K. Patkowski, A. E. DePrince III, U. Bozkaya, R. A. King,
    F. A. Evangelista, J. M. Turney, T. D. Crawford, C. D. Sherrill,
    J. Chem. Phys. 152(18) 184108 (2020). https://doi.org/10.1063/5.0006002

                            Additional Code Authors
    E. T. Seidl, C. L. Janssen, E. F. Valeev, M. L. Leininger,
    J. F. Gonthier, R. M. Richard, H. R. McAlexander, M. Saitow, X. Wang,
    P. Verma, M. H. Lechner, and A. Jiang

             Previous Authors, Complete List of Code Contributors,
                       and Citations for Specific Modules
    https://github.com/psi4/psi4/blob/master/codemeta.json
    https://github.com/psi4/psi4/graphs/contributors
    http://psicode.org/psi4manual/master/introduction.html#citing-psifour

    -----------------------------------------------------------------------


    Psi4 started on: Wednesday, 17 January 2024 10:59AM

    Process ID: 75856
    Host:       node155.bme.utexas.edu
    PSIDATADIR: /opt/anaconda/envs/psi4v1.5/share/psi4
    Memory:     500.0 MiB
    Threads:    8
    
  ==> Input File <==

--------------------------------------------------------------------------
memory 100GB

molecule {
0 1
H -3.44482 2.21216 -0.90217
N -3.0785 1.35965 -0.49464
C -3.64063 0.10716 -0.53064
H -4.54904 -0.09371 -1.08581
N -2.96923 -0.79519 0.17069
C -1.91889 -0.0711 0.70404
C -0.83113 -0.44621 1.52192
N -0.67692 -1.71363 1.99425
N 0.05072 0.50575 1.88563
C -0.13593 1.76551 1.43648
H 0.60515 2.49032 1.77132
N -1.10247 2.24731 0.64366
C -1.96203 1.27217 0.31006
H 0.28047 -1.94267 2.25487
H -1.10783 -2.42489 1.41054
--
0 1
N 0.06018226250000003 -0.3673015333333334 -2.3718067916666663
H -0.3558477375 0.28290846666666664 -3.0286767916666664
C -0.36856773749999994 -1.6347815333333333 -2.0600567916666668
H -1.2320077375 -2.0821915333333334 -2.5342467916666664
N 0.37776226250000006 -2.2166615333333333 -1.1323367916666667
C 1.3349222625000001 -1.2709715333333333 -0.8388767916666667
C 2.3528022625 -1.2840515333333333 0.1771132083333333
O 2.6213322625 -2.1377515333333337 1.0226132083333332
N 3.1120022625 -0.08883153333333335 0.1002932083333333
C 2.8177622624999996 1.0161284666666668 -0.6586967916666667
N 3.6783722625 2.0938884666666664 -0.5250367916666667
N 1.8494222625 1.0613484666666668 -1.5428967916666667
C 1.1538122625 -0.10822153333333334 -1.5870467916666666
H 3.8690722625000005 -0.043661533333333356 0.7786932083333333
H 3.9495222625000004 2.3119584666666664 0.4287532083333333
H 3.3094222625 2.9080084666666663 -1.0071167916666666
 units angstrom
 no_reorient
 symmetry c1
}
set
 {scf_type DF
 basis aug-cc-pvtz
 freeze_core True
 guess SAD
}
energy('sapt2+(3)dmp2')
--------------------------------------------------------------------------

  Memory set to  93.132 GiB by Python driver.

Scratch directory: /tmp/
   => Loading Basis Set <=

    Name: AUG-CC-PVTZ
    Role: ORBITAL
    Keyword: BASIS
    atoms 1, 4, 11, 14-15, 17, 19, 29-31    entry H          line    40 file /opt/anaconda/envs/psi4v1.5/share/psi4/basis/aug-cc-pvtz.gbs 
    atoms 2, 5, 8-9, 12, 16, 20, 24, 26-27  entry N          line   285 file /opt/anaconda/envs/psi4v1.5/share/psi4/basis/aug-cc-pvtz.gbs 
    atoms 3, 6-7, 10, 13, 18, 21-22, 25, 28 entry C          line   239 file /opt/anaconda/envs/psi4v1.5/share/psi4/basis/aug-cc-pvtz.gbs 
    atoms 23                                entry O          line   331 file /opt/anaconda/envs/psi4v1.5/share/psi4/basis/aug-cc-pvtz.gbs 

   => Loading Basis Set <=

    Name: AUG-CC-PVTZ
    Role: ORBITAL
    Keyword: BASIS
    atoms 1, 4, 11, 14-15, 17, 19, 29-31    entry H          line    40 file /opt/anaconda/envs/psi4v1.5/share/psi4/basis/aug-cc-pvtz.gbs 
    atoms 2, 5, 8-9, 12, 16, 20, 24, 26-27  entry N          line   285 file /opt/anaconda/envs/psi4v1.5/share/psi4/basis/aug-cc-pvtz.gbs 
    atoms 3, 6-7, 10, 13, 18, 21-22, 25, 28 entry C          line   239 file /opt/anaconda/envs/psi4v1.5/share/psi4/basis/aug-cc-pvtz.gbs 
    atoms 23                                entry O          line   331 file /opt/anaconda/envs/psi4v1.5/share/psi4/basis/aug-cc-pvtz.gbs 


  //>>>>>>>>>>>>>>>>>>>>>>>>>>>>>>>>>>>//
  //              Dimer HF             //
  //<<<<<<<<<<<<<<<<<<<<<<<<<<<<<<<<<<<//


*** tstart() called on node155.bme.utexas.edu
*** at Wed Jan 17 10:59:12 2024

   => Loading Basis Set <=

    Name: AUG-CC-PVTZ
    Role: ORBITAL
    Keyword: BASIS
    atoms 1, 4, 11, 14-15, 17, 19, 29-31    entry H          line    40 file /opt/anaconda/envs/psi4v1.5/share/psi4/basis/aug-cc-pvtz.gbs 
    atoms 2, 5, 8-9, 12, 16, 20, 24, 26-27  entry N          line   285 file /opt/anaconda/envs/psi4v1.5/share/psi4/basis/aug-cc-pvtz.gbs 
    atoms 3, 6-7, 10, 13, 18, 21-22, 25, 28 entry C          line   239 file /opt/anaconda/envs/psi4v1.5/share/psi4/basis/aug-cc-pvtz.gbs 
    atoms 23                                entry O          line   331 file /opt/anaconda/envs/psi4v1.5/share/psi4/basis/aug-cc-pvtz.gbs 


         ---------------------------------------------------------
                                   SCF
               by Justin Turney, Rob Parrish, Andy Simmonett
                          and Daniel G. A. Smith
                              RHF Reference
                        8 Threads,  95367 MiB Core
         ---------------------------------------------------------

  ==> Geometry <==

    Molecular point group: c1
    Full point group: C1

    Geometry (in Angstrom), charge = 0, multiplicity = 1:

       Center              X                  Y                   Z               Mass       
    ------------   -----------------  -----------------  -----------------  -----------------
         H           -3.609482808619     2.244260065445    -0.826339918127     1.007825032230
         N           -3.243162808619     1.391750065445    -0.418809918127    14.003074004430
         C           -3.805292808619     0.139260065445    -0.454809918127    12.000000000000
         H           -4.713702808619    -0.061609934555    -1.009979918127     1.007825032230
         N           -3.133892808619    -0.763089934555     0.246520081873    14.003074004430
         C           -2.083552808619    -0.038999934555     0.779870081873    12.000000000000
         C           -0.995792808619    -0.414109934555     1.597750081873    12.000000000000
         N           -0.841582808619    -1.681529934555     2.070080081873    14.003074004430
         N           -0.113942808619     0.537850065445     1.961460081873    14.003074004430
         C           -0.300592808619     1.797610065445     1.512310081873    12.000000000000
         H            0.440487191381     2.522420065445     1.847150081873     1.007825032230
         N           -1.267132808619     2.279410065445     0.719490081873    14.003074004430
         C           -2.126692808619     1.304270065445     0.385890081873    12.000000000000
         H            0.115807191381    -1.910569934555     2.330700081873     1.007825032230
         H           -1.272492808619    -2.392789934555     1.486370081873     1.007825032230
         N           -0.104480546119    -0.335201467889    -2.295976709793    14.003074004430
         H           -0.520510546119     0.315008532111    -2.952846709793     1.007825032230
         C           -0.533230546119    -1.602681467889    -1.984226709793    12.000000000000
         H           -1.396670546119    -2.050091467889    -2.458416709793     1.007825032230
         N            0.213099453881    -2.184561467889    -1.056506709793    14.003074004430
         C            1.170259453881    -1.238871467889    -0.763046709793    12.000000000000
         C            2.188139453881    -1.251951467889     0.252943290207    12.000000000000
         O            2.456669453881    -2.105651467889     1.098443290207    15.994914619570
         N            2.947339453881    -0.056731467889     0.176123290207    14.003074004430
         C            2.653099453881     1.048228532111    -0.582866709793    12.000000000000
         N            3.513709453881     2.125988532111    -0.449206709793    14.003074004430
         N            1.684759453881     1.093448532111    -1.467066709793    14.003074004430
         C            0.989149453881    -0.076121467889    -1.511216709793    12.000000000000
         H            3.704409453881    -0.011561467889     0.854523290207     1.007825032230
         H            3.784859453881     2.344058532111     0.504583290207     1.007825032230
         H            3.144759453881     2.940108532111    -0.931286709793     1.007825032230

  Running in c1 symmetry.

  Rotational constants: A =      0.01695  B =      0.00965  C =      0.00908 [cm^-1]
  Rotational constants: A =    508.09938  B =    289.23900  C =    272.23219 [MHz]
  Nuclear repulsion = 1729.609629225165691

  Charge       = 0
  Multiplicity = 1
  Electrons    = 148
  Nalpha       = 74
  Nbeta        = 74

  ==> Algorithm <==

  SCF Algorithm Type is DF.
  DIIS enabled.
  MOM disabled.
  Fractional occupation disabled.
  Guess Type is SAD.
  Energy threshold   = 1.00e-08
  Density threshold  = 1.00e-08
  Integral threshold = 1.00e-12

  ==> Primary Basis <==

  Basis Set: AUG-CC-PVTZ
    Blend: AUG-CC-PVTZ
    Number of shells: 384
    Number of basis functions: 1196
    Number of Cartesian functions: 1405
    Spherical Harmonics?: true
    Max angular momentum: 3

   => Loading Basis Set <=

    Name: (AUG-CC-PVTZ AUX)
    Role: JKFIT
    Keyword: DF_BASIS_SCF
    atoms 1, 4, 11, 14-15, 17, 19, 29-31    entry H          line    70 file /opt/anaconda/envs/psi4v1.5/share/psi4/basis/aug-cc-pvtz-jkfit.gbs 
    atoms 2, 5, 8-9, 12, 16, 20, 24, 26-27  entry N          line   224 file /opt/anaconda/envs/psi4v1.5/share/psi4/basis/aug-cc-pvtz-jkfit.gbs 
    atoms 3, 6-7, 10, 13, 18, 21-22, 25, 28 entry C          line   162 file /opt/anaconda/envs/psi4v1.5/share/psi4/basis/aug-cc-pvtz-jkfit.gbs 
    atoms 23                                entry O          line   286 file /opt/anaconda/envs/psi4v1.5/share/psi4/basis/aug-cc-pvtz-jkfit.gbs 

  ==> Integral Setup <==

  ==> DiskDFJK: Density-Fitted J/K Matrices <==

    J tasked:                  Yes
    K tasked:                  Yes
    wK tasked:                  No
    OpenMP threads:              8
    Integrals threads:           8
    Memory [MiB]:            71525
    Algorithm:                Core
    Integral Cache:           SAVE
    Schwarz Cutoff:          1E-12
    Fitting Condition:       1E-10

   => Auxiliary Basis Set <=

  Basis Set: (AUG-CC-PVTZ AUX)
    Blend: AUG-CC-PVTZ-JKFIT
    Number of shells: 770
    Number of basis functions: 2644
    Number of Cartesian functions: 3301
    Spherical Harmonics?: true
    Max angular momentum: 4

  Minimum eigenvalue in the overlap matrix is 6.7668490433E-07.
  Reciprocal condition number of the overlap matrix is 2.8687219061E-08.
    Using symmetric orthogonalization.

  ==> Pre-Iterations <==

  SCF Guess: Superposition of Atomic Densities via on-the-fly atomic UHF (no occupation information).

   -------------------------
    Irrep   Nso     Nmo    
   -------------------------
     A       1196    1196 
   -------------------------
    Total    1196    1196
   -------------------------

  ==> Iterations <==

                           Total Energy        Delta E     RMS |[F,P]|

   @DF-RHF iter SAD: -1004.01653662742251   -1.00402e+03   0.00000e+00 
   @DF-RHF iter   1: -1003.72783795021041    2.88699e-01   8.62071e-04 DIIS
   @DF-RHF iter   2: -1004.13269273294713   -4.04855e-01   4.79562e-04 DIIS
   @DF-RHF iter   3: -1004.25635511002417   -1.23662e-01   1.11384e-04 DIIS
   @DF-RHF iter   4: -1004.26559585346376   -9.24074e-03   4.91690e-05 DIIS
   @DF-RHF iter   5: -1004.26750429243248   -1.90844e-03   1.00860e-05 DIIS
   @DF-RHF iter   6: -1004.26766969185769   -1.65399e-04   5.37540e-06 DIIS
   @DF-RHF iter   7: -1004.26771874209169   -4.90502e-05   2.24654e-06 DIIS
   @DF-RHF iter   8: -1004.26772863754240   -9.89545e-06   8.96964e-07 DIIS
   @DF-RHF iter   9: -1004.26773033894767   -1.70141e-06   3.69881e-07 DIIS
   @DF-RHF iter  10: -1004.26773065077464   -3.11827e-07   1.52535e-07 DIIS
   @DF-RHF iter  11: -1004.26773070931915   -5.85445e-08   6.88531e-08 DIIS
   @DF-RHF iter  12: -1004.26773072112644   -1.18073e-08   2.49843e-08 DIIS
   @DF-RHF iter  13: -1004.26773072298283   -1.85639e-09   1.03338e-08 DIIS
   @DF-RHF iter  14: -1004.26773072324966   -2.66823e-10   4.28891e-09 DIIS
  Energy and wave function converged.


  ==> Post-Iterations <==

    Orbital Energies [Eh]
    ---------------------

    Doubly Occupied:                                                      

       1A    -20.523070     2A    -15.637222     3A    -15.635416  
       4A    -15.630574     5A    -15.610008     6A    -15.573033  
       7A    -15.570756     8A    -15.566983     9A    -15.564439  
      10A    -15.562391    11A    -15.552129    12A    -11.396335  
      13A    -11.366718    14A    -11.333473    15A    -11.328338  
      16A    -11.326288    17A    -11.320214    18A    -11.315175  
      19A    -11.314866    20A    -11.253839    21A    -11.248893  
      22A     -1.392439    23A     -1.367721    24A     -1.359382  
      25A     -1.334154    26A     -1.294899    27A     -1.240563  
      28A     -1.220302    29A     -1.217224    30A     -1.184532  
      31A     -1.177917    32A     -1.148869    33A     -1.031447  
      34A     -1.030377    35A     -0.906730    36A     -0.891454  
      37A     -0.885218    38A     -0.874860    39A     -0.847246  
      40A     -0.844568    41A     -0.798366    42A     -0.770903  
      43A     -0.740385    44A     -0.728209    45A     -0.726959  
      46A     -0.698638    47A     -0.691977    48A     -0.672002  
      49A     -0.664738    50A     -0.661287    51A     -0.638148  
      52A     -0.631254    53A     -0.628192    54A     -0.613732  
      55A     -0.602913    56A     -0.601782    57A     -0.594467  
      58A     -0.589823    59A     -0.556223    60A     -0.544764  
      61A     -0.500857    62A     -0.498345    63A     -0.495076  
      64A     -0.459513    65A     -0.452763    66A     -0.443237  
      67A     -0.435042    68A     -0.430607    69A     -0.424550  
      70A     -0.412251    71A     -0.410060    72A     -0.375071  
      73A     -0.312526    74A     -0.298162  

    Virtual:                                                              

      75A      0.013415    76A      0.020139    77A      0.030036  
      78A      0.032996    79A      0.041282    80A      0.042785  
      81A      0.051059    82A      0.052988    83A      0.060131  
      84A      0.065776    85A      0.071198    86A      0.074037  
      87A      0.080311    88A      0.085176    89A      0.091953  
      90A      0.093614    91A      0.094464    92A      0.096011  
      93A      0.098814    94A      0.100395    95A      0.107093  
      96A      0.111242    97A      0.114426    98A      0.115921  
      99A      0.118515   100A      0.119487   101A      0.125414  
     102A      0.127698   103A      0.128836   104A      0.130999  
     105A      0.132468   106A      0.134469   107A      0.137815  
     108A      0.138495   109A      0.141758   110A      0.142802  
     111A      0.148046   112A      0.150337   113A      0.151579  
     114A      0.155376   115A      0.159234   116A      0.162194  
     117A      0.169115   118A      0.171710   119A      0.175384  
     120A      0.179487   121A      0.183283   122A      0.187224  
     123A      0.190033   124A      0.190430   125A      0.194992  
     126A      0.197037   127A      0.207452   128A      0.209941  
     129A      0.211644   130A      0.214177   131A      0.215887  
     132A      0.217763   133A      0.222131   134A      0.224008  
     135A      0.224404   136A      0.225849   137A      0.231295  
     138A      0.233972   139A      0.239972   140A      0.241859  
     141A      0.242871   142A      0.245242   143A      0.247199  
     144A      0.252962   145A      0.254269   146A      0.257281  
     147A      0.262090   148A      0.264001   149A      0.268023  
     150A      0.268880   151A      0.276779   152A      0.281500  
     153A      0.282711   154A      0.285338   155A      0.288544  
     156A      0.292706   157A      0.295455   158A      0.297206  
     159A      0.300380   160A      0.305360   161A      0.308812  
     162A      0.310406   163A      0.311975   164A      0.314380  
     165A      0.316492   166A      0.320103   167A      0.322225  
     168A      0.326065   169A      0.329199   170A      0.330439  
     171A      0.337774   172A      0.341198   173A      0.344593  
     174A      0.350479   175A      0.354046   176A      0.357917  
     177A      0.360404   178A      0.363099   179A      0.364569  
     180A      0.369988   181A      0.372342   182A      0.375921  
     183A      0.380506   184A      0.382841   185A      0.385053  
     186A      0.386590   187A      0.389052   188A      0.393061  
     189A      0.395970   190A      0.399601   191A      0.402628  
     192A      0.408305   193A      0.412118   194A      0.413104  
     195A      0.417085   196A      0.419377   197A      0.421706  
     198A      0.425253   199A      0.428384   200A      0.431761  
     201A      0.431995   202A      0.435672   203A      0.440661  
     204A      0.443758   205A      0.446863   206A      0.451903  
     207A      0.453764   208A      0.455836   209A      0.456769  
     210A      0.462904   211A      0.465421   212A      0.468606  
     213A      0.469616   214A      0.472351   215A      0.476968  
     216A      0.482838   217A      0.484798   218A      0.489153  
     219A      0.490201   220A      0.492268   221A      0.496324  
     222A      0.498398   223A      0.501426   224A      0.502897  
     225A      0.507731   226A      0.508863   227A      0.511600  
     228A      0.514888   229A      0.519898   230A      0.520951  
     231A      0.524699   232A      0.525007   233A      0.531890  
     234A      0.533222   235A      0.535819   236A      0.540973  
     237A      0.542329   238A      0.545020   239A      0.549437  
     240A      0.555549   241A      0.557184   242A      0.560274  
     243A      0.563288   244A      0.567181   245A      0.573382  
     246A      0.574683   247A      0.577393   248A      0.582604  
     249A      0.584337   250A      0.585494   251A      0.588737  
     252A      0.594341   253A      0.594906   254A      0.603427  
     255A      0.605884   256A      0.609879   257A      0.612811  
     258A      0.614500   259A      0.618961   260A      0.622150  
     261A      0.623146   262A      0.630638   263A      0.631629  
     264A      0.638880   265A      0.639382   266A      0.642696  
     267A      0.645490   268A      0.650376   269A      0.655752  
     270A      0.662835   271A      0.666940   272A      0.671339  
     273A      0.672287   274A      0.676991   275A      0.680851  
     276A      0.686603   277A      0.688067   278A      0.692568  
     279A      0.697665   280A      0.701051   281A      0.705829  
     282A      0.707696   283A      0.714070   284A      0.718060  
     285A      0.721189   286A      0.726126   287A      0.727135  
     288A      0.731126   289A      0.737337   290A      0.737816  
     291A      0.744033   292A      0.748105   293A      0.749524  
     294A      0.752631   295A      0.764942   296A      0.765973  
     297A      0.767720   298A      0.772057   299A      0.778311  
     300A      0.780472   301A      0.781565   302A      0.787291  
     303A      0.791094   304A      0.796245   305A      0.798975  
     306A      0.805093   307A      0.806733   308A      0.809998  
     309A      0.818141   310A      0.821614   311A      0.823890  
     312A      0.826155   313A      0.831776   314A      0.835474  
     315A      0.838781   316A      0.841828   317A      0.844275  
     318A      0.855763   319A      0.857024   320A      0.865533  
     321A      0.866669   322A      0.866694   323A      0.873694  
     324A      0.876508   325A      0.877497   326A      0.879538  
     327A      0.885551   328A      0.889127   329A      0.894878  
     330A      0.895645   331A      0.899408   332A      0.903646  
     333A      0.910976   334A      0.914691   335A      0.915586  
     336A      0.920888   337A      0.928413   338A      0.933145  
     339A      0.933802   340A      0.938118   341A      0.939502  
     342A      0.943219   343A      0.945590   344A      0.947909  
     345A      0.957400   346A      0.965670   347A      0.968448  
     348A      0.971783   349A      0.976126   350A      0.977630  
     351A      0.981856   352A      0.985236   353A      0.991001  
     354A      0.991928   355A      0.993881   356A      0.999296  
     357A      1.000786   358A      1.006553   359A      1.008351  
     360A      1.010977   361A      1.016197   362A      1.016495  
     363A      1.019894   364A      1.026081   365A      1.027497  
     366A      1.030050   367A      1.036805   368A      1.044323  
     369A      1.047890   370A      1.053509   371A      1.056470  
     372A      1.057562   373A      1.064549   374A      1.065070  
     375A      1.067654   376A      1.072990   377A      1.075407  
     378A      1.081532   379A      1.085823   380A      1.086736  
     381A      1.092565   382A      1.096229   383A      1.101890  
     384A      1.104244   385A      1.106242   386A      1.109744  
     387A      1.112262   388A      1.117504   389A      1.121378  
     390A      1.124494   391A      1.127674   392A      1.130387  
     393A      1.136956   394A      1.140932   395A      1.142554  
     396A      1.147292   397A      1.148323   398A      1.153505  
     399A      1.160305   400A      1.162762   401A      1.163930  
     402A      1.172038   403A      1.173051   404A      1.178301  
     405A      1.181853   406A      1.186195   407A      1.187735  
     408A      1.191698   409A      1.202181   410A      1.203619  
     411A      1.209418   412A      1.214047   413A      1.214953  
     414A      1.220242   415A      1.223728   416A      1.229167  
     417A      1.235105   418A      1.239590   419A      1.241311  
     420A      1.245995   421A      1.248489   422A      1.250972  
     423A      1.254310   424A      1.259986   425A      1.267236  
     426A      1.270912   427A      1.277921   428A      1.281905  
     429A      1.285880   430A      1.288665   431A      1.292261  
     432A      1.296998   433A      1.300159   434A      1.305458  
     435A      1.310780   436A      1.311750   437A      1.317711  
     438A      1.318503   439A      1.321239   440A      1.323555  
     441A      1.328331   442A      1.330342   443A      1.336725  
     444A      1.340963   445A      1.346992   446A      1.351438  
     447A      1.357914   448A      1.359037   449A      1.366525  
     450A      1.369972   451A      1.371222   452A      1.372027  
     453A      1.381115   454A      1.386646   455A      1.394654  
     456A      1.397808   457A      1.402910   458A      1.404057  
     459A      1.404950   460A      1.418556   461A      1.422844  
     462A      1.423522   463A      1.428128   464A      1.431673  
     465A      1.441402   466A      1.444627   467A      1.456053  
     468A      1.458250   469A      1.461041   470A      1.463060  
     471A      1.468841   472A      1.472799   473A      1.477214  
     474A      1.479719   475A      1.485965   476A      1.492160  
     477A      1.493829   478A      1.499440   479A      1.503288  
     480A      1.507777   481A      1.509748   482A      1.520230  
     483A      1.526220   484A      1.527207   485A      1.532793  
     486A      1.535928   487A      1.538533   488A      1.539667  
     489A      1.547985   490A      1.553703   491A      1.558770  
     492A      1.565948   493A      1.568713   494A      1.570880  
     495A      1.578945   496A      1.584108   497A      1.585973  
     498A      1.589985   499A      1.594075   500A      1.597551  
     501A      1.600598   502A      1.610024   503A      1.612081  
     504A      1.618377   505A      1.623911   506A      1.630163  
     507A      1.633429   508A      1.635677   509A      1.640718  
     510A      1.645909   511A      1.652129   512A      1.660633  
     513A      1.667739   514A      1.671308   515A      1.674291  
     516A      1.677732   517A      1.685925   518A      1.693608  
     519A      1.694204   520A      1.700649   521A      1.707672  
     522A      1.709708   523A      1.713935   524A      1.718620  
     525A      1.723635   526A      1.730553   527A      1.737517  
     528A      1.744577   529A      1.748311   530A      1.754074  
     531A      1.756246   532A      1.763653   533A      1.764428  
     534A      1.771330   535A      1.774773   536A      1.782588  
     537A      1.786470   538A      1.789147   539A      1.796605  
     540A      1.800053   541A      1.808004   542A      1.808794  
     543A      1.816551   544A      1.825219   545A      1.828388  
     546A      1.839628   547A      1.842615   548A      1.849686  
     549A      1.851116   550A      1.856888   551A      1.860695  
     552A      1.862177   553A      1.869797   554A      1.878730  
     555A      1.881331   556A      1.889678   557A      1.894637  
     558A      1.901451   559A      1.902968   560A      1.906808  
     561A      1.915078   562A      1.921203   563A      1.923120  
     564A      1.938896   565A      1.941287   566A      1.946860  
     567A      1.954034   568A      1.962922   569A      1.967379  
     570A      1.972288   571A      1.975181   572A      1.979464  
     573A      1.985660   574A      1.996104   575A      1.999107  
     576A      2.010689   577A      2.013853   578A      2.019569  
     579A      2.023640   580A      2.032047   581A      2.037856  
     582A      2.046366   583A      2.049053   584A      2.055849  
     585A      2.071534   586A      2.074082   587A      2.080645  
     588A      2.081477   589A      2.085022   590A      2.090576  
     591A      2.098830   592A      2.106686   593A      2.109541  
     594A      2.114203   595A      2.119340   596A      2.124661  
     597A      2.127383   598A      2.133650   599A      2.139080  
     600A      2.148016   601A      2.152591   602A      2.155943  
     603A      2.163725   604A      2.167938   605A      2.170677  
     606A      2.182214   607A      2.186783   608A      2.195562  
     609A      2.197713   610A      2.203202   611A      2.209094  
     612A      2.216143   613A      2.220106   614A      2.221243  
     615A      2.235067   616A      2.240927   617A      2.244446  
     618A      2.245720   619A      2.249554   620A      2.258543  
     621A      2.260519   622A      2.272819   623A      2.276005  
     624A      2.279140   625A      2.286419   626A      2.292169  
     627A      2.304056   628A      2.308738   629A      2.313475  
     630A      2.315029   631A      2.324294   632A      2.326691  
     633A      2.334392   634A      2.339761   635A      2.344459  
     636A      2.349164   637A      2.360791   638A      2.363807  
     639A      2.366089   640A      2.375360   641A      2.377316  
     642A      2.385089   643A      2.387254   644A      2.391988  
     645A      2.395281   646A      2.402785   647A      2.409302  
     648A      2.416333   649A      2.420984   650A      2.425029  
     651A      2.427355   652A      2.435557   653A      2.441400  
     654A      2.446631   655A      2.453601   656A      2.456415  
     657A      2.462226   658A      2.467666   659A      2.473978  
     660A      2.483647   661A      2.485923   662A      2.491690  
     663A      2.494945   664A      2.500746   665A      2.508387  
     666A      2.514836   667A      2.524287   668A      2.529232  
     669A      2.529968   670A      2.537441   671A      2.543812  
     672A      2.548411   673A      2.554594   674A      2.558914  
     675A      2.563377   676A      2.572210   677A      2.582801  
     678A      2.585825   679A      2.594397   680A      2.597834  
     681A      2.605703   682A      2.613839   683A      2.622927  
     684A      2.627606   685A      2.634990   686A      2.648850  
     687A      2.654047   688A      2.656579   689A      2.660014  
     690A      2.668722   691A      2.674112   692A      2.680118  
     693A      2.700039   694A      2.704732   695A      2.709496  
     696A      2.713356   697A      2.720219   698A      2.725929  
     699A      2.733875   700A      2.738206   701A      2.744850  
     702A      2.749371   703A      2.754457   704A      2.769556  
     705A      2.770024   706A      2.785642   707A      2.787280  
     708A      2.797192   709A      2.802005   710A      2.811252  
     711A      2.817076   712A      2.822006   713A      2.826246  
     714A      2.835752   715A      2.854356   716A      2.857151  
     717A      2.859830   718A      2.868393   719A      2.870446  
     720A      2.881121   721A      2.888891   722A      2.901210  
     723A      2.909189   724A      2.911237   725A      2.924142  
     726A      2.932455   727A      2.947124   728A      2.950330  
     729A      2.957137   730A      2.963775   731A      2.974921  
     732A      2.978942   733A      2.988149   734A      3.014319  
     735A      3.023344   736A      3.032259   737A      3.036252  
     738A      3.055587   739A      3.071727   740A      3.092158  
     741A      3.104872   742A      3.112973   743A      3.127501  
     744A      3.136555   745A      3.152319   746A      3.166532  
     747A      3.170139   748A      3.185629   749A      3.193649  
     750A      3.214702   751A      3.243930   752A      3.261056  
     753A      3.270747   754A      3.278922   755A      3.286604  
     756A      3.299978   757A      3.302467   758A      3.327294  
     759A      3.329812   760A      3.353208   761A      3.365639  
     762A      3.378908   763A      3.388529   764A      3.413885  
     765A      3.421354   766A      3.434205   767A      3.439048  
     768A      3.450316   769A      3.454252   770A      3.462761  
     771A      3.474217   772A      3.483801   773A      3.490617  
     774A      3.505138   775A      3.513477   776A      3.535545  
     777A      3.541479   778A      3.547672   779A      3.551732  
     780A      3.564125   781A      3.580973   782A      3.587132  
     783A      3.591689   784A      3.601042   785A      3.607744  
     786A      3.617841   787A      3.622177   788A      3.622391  
     789A      3.642022   790A      3.648809   791A      3.655898  
     792A      3.660917   793A      3.673939   794A      3.680385  
     795A      3.686828   796A      3.697160   797A      3.702673  
     798A      3.708676   799A      3.718777   800A      3.726803  
     801A      3.734459   802A      3.741986   803A      3.753598  
     804A      3.764747   805A      3.765313   806A      3.774179  
     807A      3.783481   808A      3.790470   809A      3.793745  
     810A      3.800187   811A      3.806633   812A      3.807751  
     813A      3.818486   814A      3.826687   815A      3.831432  
     816A      3.841783   817A      3.849693   818A      3.851117  
     819A      3.852251   820A      3.857835   821A      3.866949  
     822A      3.882421   823A      3.892797   824A      3.900092  
     825A      3.905787   826A      3.916762   827A      3.922024  
     828A      3.925750   829A      3.940274   830A      3.942002  
     831A      3.948622   832A      3.952900   833A      3.962331  
     834A      3.974876   835A      3.977085   836A      3.981294  
     837A      3.987822   838A      3.999225   839A      4.003950  
     840A      4.009544   841A      4.019420   842A      4.031971  
     843A      4.034374   844A      4.040696   845A      4.046386  
     846A      4.048796   847A      4.061706   848A      4.066359  
     849A      4.073145   850A      4.081480   851A      4.086176  
     852A      4.097132   853A      4.102060   854A      4.103197  
     855A      4.115572   856A      4.120956   857A      4.126313  
     858A      4.132871   859A      4.134752   860A      4.146428  
     861A      4.157055   862A      4.160364   863A      4.167551  
     864A      4.184351   865A      4.187632   866A      4.193395  
     867A      4.197483   868A      4.201533   869A      4.202455  
     870A      4.209551   871A      4.220003   872A      4.227870  
     873A      4.233411   874A      4.238688   875A      4.250558  
     876A      4.260792   877A      4.264321   878A      4.271786  
     879A      4.273511   880A      4.275355   881A      4.283368  
     882A      4.295895   883A      4.299472   884A      4.308534  
     885A      4.311284   886A      4.315878   887A      4.326926  
     888A      4.330061   889A      4.337189   890A      4.342988  
     891A      4.347758   892A      4.354354   893A      4.362337  
     894A      4.373965   895A      4.381720   896A      4.383915  
     897A      4.390751   898A      4.392679   899A      4.400160  
     900A      4.403779   901A      4.415894   902A      4.422246  
     903A      4.426700   904A      4.436090   905A      4.442810  
     906A      4.447022   907A      4.454210   908A      4.463594  
     909A      4.466080   910A      4.473503   911A      4.482859  
     912A      4.492356   913A      4.500653   914A      4.508154  
     915A      4.513527   916A      4.523862   917A      4.534387  
     918A      4.540982   919A      4.545659   920A      4.555829  
     921A      4.559432   922A      4.572683   923A      4.588066  
     924A      4.593478   925A      4.599506   926A      4.605498  
     927A      4.611911   928A      4.618605   929A      4.619443  
     930A      4.630396   931A      4.645115   932A      4.658012  
     933A      4.664114   934A      4.669967   935A      4.679719  
     936A      4.685458   937A      4.692462   938A      4.698764  
     939A      4.703880   940A      4.710365   941A      4.730577  
     942A      4.735522   943A      4.742452   944A      4.748915  
     945A      4.755086   946A      4.758767   947A      4.767980  
     948A      4.774772   949A      4.783790   950A      4.803068  
     951A      4.804936   952A      4.823422   953A      4.833758  
     954A      4.837806   955A      4.851152   956A      4.861912  
     957A      4.873158   958A      4.877168   959A      4.887199  
     960A      4.892488   961A      4.899353   962A      4.908646  
     963A      4.922698   964A      4.934036   965A      4.940217  
     966A      4.958756   967A      4.960380   968A      4.973038  
     969A      4.989039   970A      4.997157   971A      5.011403  
     972A      5.014144   973A      5.019648   974A      5.040452  
     975A      5.050556   976A      5.062773   977A      5.075935  
     978A      5.078954   979A      5.086979   980A      5.095361  
     981A      5.116446   982A      5.124992   983A      5.140577  
     984A      5.143355   985A      5.150480   986A      5.158372  
     987A      5.180460   988A      5.184564   989A      5.197036  
     990A      5.207347   991A      5.224280   992A      5.226979  
     993A      5.236233   994A      5.241994   995A      5.254014  
     996A      5.263550   997A      5.279002   998A      5.289381  
     999A      5.292560  1000A      5.309529  1001A      5.312850  
    1002A      5.321362  1003A      5.321799  1004A      5.333485  
    1005A      5.351739  1006A      5.361534  1007A      5.372913  
    1008A      5.378945  1009A      5.392054  1010A      5.404293  
    1011A      5.420972  1012A      5.426839  1013A      5.432187  
    1014A      5.435729  1015A      5.454022  1016A      5.465494  
    1017A      5.476721  1018A      5.481434  1019A      5.491388  
    1020A      5.499805  1021A      5.502250  1022A      5.520617  
    1023A      5.524860  1024A      5.548326  1025A      5.550869  
    1026A      5.557221  1027A      5.559905  1028A      5.572819  
    1029A      5.579332  1030A      5.583528  1031A      5.601228  
    1032A      5.611282  1033A      5.624141  1034A      5.629192  
    1035A      5.642932  1036A      5.650670  1037A      5.664477  
    1038A      5.666091  1039A      5.685025  1040A      5.686382  
    1041A      5.691307  1042A      5.704292  1043A      5.707588  
    1044A      5.713133  1045A      5.723498  1046A      5.734461  
    1047A      5.740050  1048A      5.753784  1049A      5.755999  
    1050A      5.766558  1051A      5.773634  1052A      5.786527  
    1053A      5.788312  1054A      5.790820  1055A      5.806236  
    1056A      5.818852  1057A      5.824509  1058A      5.843920  
    1059A      5.846595  1060A      5.853676  1061A      5.861641  
    1062A      5.866252  1063A      5.877296  1064A      5.888904  
    1065A      5.895726  1066A      5.913228  1067A      5.926068  
    1068A      5.931468  1069A      5.939335  1070A      5.949272  
    1071A      5.962572  1072A      5.964379  1073A      5.975644  
    1074A      5.984186  1075A      5.996567  1076A      5.999357  
    1077A      6.002141  1078A      6.014773  1079A      6.019628  
    1080A      6.030787  1081A      6.043653  1082A      6.050389  
    1083A      6.058360  1084A      6.067634  1085A      6.087635  
    1086A      6.095764  1087A      6.115595  1088A      6.132769  
    1089A      6.138821  1090A      6.147960  1091A      6.167925  
    1092A      6.174860  1093A      6.191418  1094A      6.194422  
    1095A      6.202414  1096A      6.212860  1097A      6.219002  
    1098A      6.227727  1099A      6.232739  1100A      6.253118  
    1101A      6.262502  1102A      6.270659  1103A      6.287954  
    1104A      6.297122  1105A      6.311814  1106A      6.314363  
    1107A      6.338957  1108A      6.361728  1109A      6.391622  
    1110A      6.414808  1111A      6.468309  1112A      6.503943  
    1113A      6.511688  1114A      6.543546  1115A      6.546430  
    1116A      6.552069  1117A      6.556635  1118A      6.585379  
    1119A      6.613062  1120A      6.625726  1121A      6.638929  
    1122A      6.669649  1123A      6.699813  1124A      6.713771  
    1125A      6.717046  1126A      6.735465  1127A      6.755267  
    1128A      6.767362  1129A      6.777394  1130A      6.787313  
    1131A      6.812535  1132A      6.822897  1133A      6.854597  
    1134A      6.868339  1135A      6.874282  1136A      6.896562  
    1137A      6.910938  1138A      6.914144  1139A      6.966391  
    1140A      6.998840  1141A      7.019634  1142A      7.035723  
    1143A      7.043118  1144A      7.063291  1145A      7.073439  
    1146A      7.076938  1147A      7.106331  1148A      7.112085  
    1149A      7.136359  1150A      7.148821  1151A      7.221137  
    1152A      7.239200  1153A      7.250360  1154A      7.284077  
    1155A      7.309413  1156A      7.317471  1157A      7.391276  
    1158A      7.395093  1159A      7.431305  1160A      7.443006  
    1161A      7.483867  1162A      7.485509  1163A      7.516926  
    1164A      7.535624  1165A      7.601164  1166A      7.687375  
    1167A      7.782059  1168A      7.827571  1169A      7.851899  
    1170A      7.873256  1171A      7.880014  1172A      7.891441  
    1173A      7.974866  1174A      8.013890  1175A      8.088181  
    1176A     16.159982  1177A     16.237414  1178A     16.334692  
    1179A     16.444816  1180A     16.537820  1181A     16.690385  
    1182A     17.253362  1183A     17.887264  1184A     17.943528  
    1185A     18.373276  1186A     18.729947  1187A     19.230705  
    1188A     19.329976  1189A     19.463839  1190A     19.537610  
    1191A     19.797580  1192A     20.300827  1193A     20.487800  
    1194A     21.045750  1195A     21.414874  1196A     21.620436  

    Final Occupation by Irrep:
              A 
    DOCC [    74 ]

  @DF-RHF Final Energy: -1004.26773072324966

   => Energetics <=

    Nuclear Repulsion Energy =           1729.6096292251656905
    One-Electron Energy =               -4807.7889564976594556
    Two-Electron Energy =                2073.9115965492437681
    Total Energy =                      -1004.2677307232497697

Computation Completed


Properties will be evaluated at   0.000000,   0.000000,   0.000000 [a0]

Properties computed using the SCF density matrix

  Nuclear Dipole Moment: [e a0]
     X:    -0.2896      Y:     3.6758      Z:    -1.0765

  Electronic Dipole Moment: [e a0]
     X:    -0.3929      Y:    -1.2836      Z:    -0.6687

  Dipole Moment: [e a0]
     X:    -0.6825      Y:     2.3922      Z:    -1.7452     Total:     3.0388

  Dipole Moment: [D]
     X:    -1.7348      Y:     6.0804      Z:    -4.4358     Total:     7.7238


*** tstop() called on node155.bme.utexas.edu at Wed Jan 17 11:04:05 2024
Module time:
	user time   =    1783.02 seconds =      29.72 minutes
	system time =      19.83 seconds =       0.33 minutes
	total time  =        293 seconds =       4.88 minutes
Total time:
	user time   =    1783.02 seconds =      29.72 minutes
	system time =      19.83 seconds =       0.33 minutes
	total time  =        293 seconds =       4.88 minutes

*** tstart() called on node155.bme.utexas.edu
*** at Wed Jan 17 11:04:05 2024


  //>>>>>>>>>>>>>>>>>>>>>>>>>>>>>>>>>>>//
  //               DFMP2               //
  //<<<<<<<<<<<<<<<<<<<<<<<<<<<<<<<<<<<//

   => Loading Basis Set <=

    Name: (AUG-CC-PVTZ AUX)
    Role: RIFIT
    Keyword: DF_BASIS_MP2
    atoms 1, 4, 11, 14-15, 17, 19, 29-31    entry H          line    30 file /opt/anaconda/envs/psi4v1.5/share/psi4/basis/aug-cc-pvtz-ri.gbs 
    atoms 2, 5, 8-9, 12, 16, 20, 24, 26-27  entry N          line   206 file /opt/anaconda/envs/psi4v1.5/share/psi4/basis/aug-cc-pvtz-ri.gbs 
    atoms 3, 6-7, 10, 13, 18, 21-22, 25, 28 entry C          line   148 file /opt/anaconda/envs/psi4v1.5/share/psi4/basis/aug-cc-pvtz-ri.gbs 
    atoms 23                                entry O          line   264 file /opt/anaconda/envs/psi4v1.5/share/psi4/basis/aug-cc-pvtz-ri.gbs 

	 --------------------------------------------------------
	                          DF-MP2                         
	      2nd-Order Density-Fitted Moller-Plesset Theory     
	              RMP2 Wavefunction,   8 Threads             
	                                                         
	        Rob Parrish, Justin Turney, Andy Simmonett,      
	           Ed Hohenstein, and C. David Sherrill          
	 --------------------------------------------------------

   => Auxiliary Basis Set <=

  Basis Set: (AUG-CC-PVTZ AUX)
    Blend: AUG-CC-PVTZ-RI
    Number of shells: 728
    Number of basis functions: 2686
    Number of Cartesian functions: 3406
    Spherical Harmonics?: true
    Max angular momentum: 4

	 --------------------------------------------------------
	                 NBF =  1196, NAUX =  2686
	 --------------------------------------------------------
	   CLASS    FOCC     OCC    AOCC    AVIR     VIR    FVIR
	   PAIRS      21      74      53    1122    1122       0
	 --------------------------------------------------------

	 Will save fitting metric to file 97.

	-----------------------------------------------------------
	 ==================> DF-MP2 Energies <==================== 
	-----------------------------------------------------------
	 Reference Energy          =   -1004.2677307232496560 [Eh]
	 Singles Energy            =      -0.0000000000000000 [Eh]
	 Same-Spin Energy          =      -1.0316473151883159 [Eh]
	 Opposite-Spin Energy      =      -2.8352356544183803 [Eh]
	 Correlation Energy        =      -3.8668829696066962 [Eh]
	 Total Energy              =   -1008.1346136928563055 [Eh]
	-----------------------------------------------------------
	 ================> DF-SCS-MP2 Energies <================== 
	-----------------------------------------------------------
	 SCS Same-Spin Scale       =       0.3333333333333333 [-]
	 SCS Opposite-Spin Scale   =       1.2000000000000000 [-]
	 SCS Same-Spin Energy      =      -0.3438824383961053 [Eh]
	 SCS Opposite-Spin Energy  =      -3.4022827853020563 [Eh]
	 SCS Correlation Energy    =      -3.7461652236981617 [Eh]
	 SCS Total Energy          =   -1008.0138959469478550 [Eh]
	-----------------------------------------------------------


*** tstop() called on node155.bme.utexas.edu at Wed Jan 17 11:05:16 2024
Module time:
	user time   =     416.20 seconds =       6.94 minutes
	system time =       7.53 seconds =       0.13 minutes
	total time  =         71 seconds =       1.18 minutes
Total time:
	user time   =    2199.23 seconds =      36.65 minutes
	system time =      27.36 seconds =       0.46 minutes
	total time  =        364 seconds =       6.07 minutes

  //>>>>>>>>>>>>>>>>>>>>>>>>>>>>>>>>>>>//
  //            Monomer A HF           //
  //<<<<<<<<<<<<<<<<<<<<<<<<<<<<<<<<<<<//


*** tstart() called on node155.bme.utexas.edu
*** at Wed Jan 17 11:05:16 2024

   => Loading Basis Set <=

    Name: AUG-CC-PVTZ
    Role: ORBITAL
    Keyword: BASIS
    atoms 1, 4, 11, 14-15, 17, 19, 29-31    entry H          line    40 file /opt/anaconda/envs/psi4v1.5/share/psi4/basis/aug-cc-pvtz.gbs 
    atoms 2, 5, 8-9, 12, 16, 20, 24, 26-27  entry N          line   285 file /opt/anaconda/envs/psi4v1.5/share/psi4/basis/aug-cc-pvtz.gbs 
    atoms 3, 6-7, 10, 13, 18, 21-22, 25, 28 entry C          line   239 file /opt/anaconda/envs/psi4v1.5/share/psi4/basis/aug-cc-pvtz.gbs 
    atoms 23                                entry O          line   331 file /opt/anaconda/envs/psi4v1.5/share/psi4/basis/aug-cc-pvtz.gbs 


         ---------------------------------------------------------
                                   SCF
               by Justin Turney, Rob Parrish, Andy Simmonett
                          and Daniel G. A. Smith
                              RHF Reference
                        8 Threads,  95367 MiB Core
         ---------------------------------------------------------

  ==> Geometry <==

    Molecular point group: c1
    Full point group: C1

    Geometry (in Angstrom), charge = 0, multiplicity = 1:

       Center              X                  Y                   Z               Mass       
    ------------   -----------------  -----------------  -----------------  -----------------
         H           -3.609482808619     2.244260065445    -0.826339918127     1.007825032230
         N           -3.243162808619     1.391750065445    -0.418809918127    14.003074004430
         C           -3.805292808619     0.139260065445    -0.454809918127    12.000000000000
         H           -4.713702808619    -0.061609934555    -1.009979918127     1.007825032230
         N           -3.133892808619    -0.763089934555     0.246520081873    14.003074004430
         C           -2.083552808619    -0.038999934555     0.779870081873    12.000000000000
         C           -0.995792808619    -0.414109934555     1.597750081873    12.000000000000
         N           -0.841582808619    -1.681529934555     2.070080081873    14.003074004430
         N           -0.113942808619     0.537850065445     1.961460081873    14.003074004430
         C           -0.300592808619     1.797610065445     1.512310081873    12.000000000000
         H            0.440487191381     2.522420065445     1.847150081873     1.007825032230
         N           -1.267132808619     2.279410065445     0.719490081873    14.003074004430
         C           -2.126692808619     1.304270065445     0.385890081873    12.000000000000
         H            0.115807191381    -1.910569934555     2.330700081873     1.007825032230
         H           -1.272492808619    -2.392789934555     1.486370081873     1.007825032230
      Gh(N)          -0.104480546119    -0.335201467889    -2.295976709793    14.003074004430
      Gh(H)          -0.520510546119     0.315008532111    -2.952846709793     1.007825032230
      Gh(C)          -0.533230546119    -1.602681467889    -1.984226709793    12.000000000000
      Gh(H)          -1.396670546119    -2.050091467889    -2.458416709793     1.007825032230
      Gh(N)           0.213099453881    -2.184561467889    -1.056506709793    14.003074004430
      Gh(C)           1.170259453881    -1.238871467889    -0.763046709793    12.000000000000
      Gh(C)           2.188139453881    -1.251951467889     0.252943290207    12.000000000000
      Gh(O)           2.456669453881    -2.105651467889     1.098443290207    15.994914619570
      Gh(N)           2.947339453881    -0.056731467889     0.176123290207    14.003074004430
      Gh(C)           2.653099453881     1.048228532111    -0.582866709793    12.000000000000
      Gh(N)           3.513709453881     2.125988532111    -0.449206709793    14.003074004430
      Gh(N)           1.684759453881     1.093448532111    -1.467066709793    14.003074004430
      Gh(C)           0.989149453881    -0.076121467889    -1.511216709793    12.000000000000
      Gh(H)           3.704409453881    -0.011561467889     0.854523290207     1.007825032230
      Gh(H)           3.784859453881     2.344058532111     0.504583290207     1.007825032230
      Gh(H)           3.144759453881     2.940108532111    -0.931286709793     1.007825032230

  Running in c1 symmetry.

  Rotational constants: A =      0.01695  B =      0.00965  C =      0.00908 [cm^-1]
  Rotational constants: A =    508.09938  B =    289.23900  C =    272.23219 [MHz]
  Nuclear repulsion =  501.381185017474309

  Charge       = 0
  Multiplicity = 1
  Electrons    = 70
  Nalpha       = 35
  Nbeta        = 35

  ==> Algorithm <==

  SCF Algorithm Type is DF.
  DIIS enabled.
  MOM disabled.
  Fractional occupation disabled.
  Guess Type is SAD.
  Energy threshold   = 1.00e-08
  Density threshold  = 1.00e-08
  Integral threshold = 1.00e-12

  ==> Primary Basis <==

  Basis Set: AUG-CC-PVTZ
    Blend: AUG-CC-PVTZ
    Number of shells: 384
    Number of basis functions: 1196
    Number of Cartesian functions: 1405
    Spherical Harmonics?: true
    Max angular momentum: 3

   => Loading Basis Set <=

    Name: (AUG-CC-PVTZ AUX)
    Role: JKFIT
    Keyword: DF_BASIS_SCF
    atoms 1, 4, 11, 14-15, 17, 19, 29-31    entry H          line    70 file /opt/anaconda/envs/psi4v1.5/share/psi4/basis/aug-cc-pvtz-jkfit.gbs 
    atoms 2, 5, 8-9, 12, 16, 20, 24, 26-27  entry N          line   224 file /opt/anaconda/envs/psi4v1.5/share/psi4/basis/aug-cc-pvtz-jkfit.gbs 
    atoms 3, 6-7, 10, 13, 18, 21-22, 25, 28 entry C          line   162 file /opt/anaconda/envs/psi4v1.5/share/psi4/basis/aug-cc-pvtz-jkfit.gbs 
    atoms 23                                entry O          line   286 file /opt/anaconda/envs/psi4v1.5/share/psi4/basis/aug-cc-pvtz-jkfit.gbs 

  ==> Integral Setup <==

  ==> DiskDFJK: Density-Fitted J/K Matrices <==

    J tasked:                  Yes
    K tasked:                  Yes
    wK tasked:                  No
    OpenMP threads:              8
    Integrals threads:           8
    Memory [MiB]:            71525
    Algorithm:                Core
    Integral Cache:           LOAD
    Schwarz Cutoff:          1E-12
    Fitting Condition:       1E-10

   => Auxiliary Basis Set <=

  Basis Set: (AUG-CC-PVTZ AUX)
    Blend: AUG-CC-PVTZ-JKFIT
    Number of shells: 770
    Number of basis functions: 2644
    Number of Cartesian functions: 3301
    Spherical Harmonics?: true
    Max angular momentum: 4

  Minimum eigenvalue in the overlap matrix is 6.7668490433E-07.
  Reciprocal condition number of the overlap matrix is 2.8687219061E-08.
    Using symmetric orthogonalization.

  ==> Pre-Iterations <==

  SCF Guess: Superposition of Atomic Densities via on-the-fly atomic UHF (no occupation information).

   -------------------------
    Irrep   Nso     Nmo    
   -------------------------
     A       1196    1196 
   -------------------------
    Total    1196    1196
   -------------------------

  ==> Iterations <==

                           Total Energy        Delta E     RMS |[F,P]|

   @DF-RHF iter SAD:  -464.44235555054809   -4.64442e+02   0.00000e+00 
   @DF-RHF iter   1:  -464.44232806902824    2.74815e-05   5.58246e-04 DIIS
   @DF-RHF iter   2:  -464.63251227302885   -1.90184e-01   2.75998e-04 DIIS
   @DF-RHF iter   3:  -464.67623956560681   -4.37273e-02   6.33949e-05 DIIS
   @DF-RHF iter   4:  -464.67960270544245   -3.36314e-03   2.98699e-05 DIIS
   @DF-RHF iter   5:  -464.68027358224720   -6.70877e-04   6.06258e-06 DIIS
   @DF-RHF iter   6:  -464.68033159081705   -5.80086e-05   2.84627e-06 DIIS
   @DF-RHF iter   7:  -464.68034585758966   -1.42668e-05   1.12461e-06 DIIS
   @DF-RHF iter   8:  -464.68034878910709   -2.93152e-06   4.19370e-07 DIIS
   @DF-RHF iter   9:  -464.68034923902599   -4.49919e-07   2.23809e-07 DIIS
   @DF-RHF iter  10:  -464.68034935844167   -1.19416e-07   8.37161e-08 DIIS
   @DF-RHF iter  11:  -464.68034938388087   -2.54392e-08   3.53187e-08 DIIS
   @DF-RHF iter  12:  -464.68034938768398   -3.80311e-09   1.42697e-08 DIIS
   @DF-RHF iter  13:  -464.68034938826497   -5.80997e-10   5.12377e-09 DIIS
  Energy and wave function converged.


  ==> Post-Iterations <==

    Orbital Energies [Eh]
    ---------------------

    Doubly Occupied:                                                      

       1A    -15.636299     2A    -15.586021     3A    -15.573238  
       4A    -15.563947     5A    -15.555904     6A    -11.339223  
       7A    -11.329445     8A    -11.321625     9A    -11.314330  
      10A    -11.257154    11A     -1.368013    12A     -1.298935  
      13A     -1.248164    14A     -1.187682    15A     -1.153444  
      16A     -1.033647    17A     -0.894623    18A     -0.876596  
      19A     -0.847665    20A     -0.775668    21A     -0.733744  
      22A     -0.695728    23A     -0.671908    24A     -0.641453  
      25A     -0.631475    26A     -0.609746    27A     -0.590824  
      28A     -0.558686    29A     -0.501258    30A     -0.498922  
      31A     -0.453957    32A     -0.430261    33A     -0.413186  
      34A     -0.376476    35A     -0.313148  

    Virtual:                                                              

      36A      0.017893    37A      0.024368    38A      0.030178  
      39A      0.034209    40A      0.040598    41A      0.044625  
      42A      0.048749    43A      0.051951    44A      0.055941  
      45A      0.063881    46A      0.068218    47A      0.069829  
      48A      0.076359    49A      0.077470    50A      0.083103  
      51A      0.085357    52A      0.090492    53A      0.091601  
      54A      0.097426    55A      0.100023    56A      0.101373  
      57A      0.102679    58A      0.109158    59A      0.110389  
      60A      0.115339    61A      0.119470    62A      0.120280  
      63A      0.123342    64A      0.126794    65A      0.128065  
      66A      0.133287    67A      0.134276    68A      0.135590  
      69A      0.138368    70A      0.140661    71A      0.141099  
      72A      0.148971    73A      0.151862    74A      0.153999  
      75A      0.154708    76A      0.159068    77A      0.162738  
      78A      0.168194    79A      0.171429    80A      0.174670  
      81A      0.175218    82A      0.179417    83A      0.184143  
      84A      0.189230    85A      0.193797    86A      0.199604  
      87A      0.200673    88A      0.201288    89A      0.206351  
      90A      0.212175    91A      0.213982    92A      0.214400  
      93A      0.215956    94A      0.219903    95A      0.222600  
      96A      0.224757    97A      0.229474    98A      0.231451  
      99A      0.231807   100A      0.233714   101A      0.238194  
     102A      0.239431   103A      0.244635   104A      0.246102  
     105A      0.252760   106A      0.253375   107A      0.257539  
     108A      0.262723   109A      0.264496   110A      0.266762  
     111A      0.270005   112A      0.271663   113A      0.276372  
     114A      0.278231   115A      0.282035   116A      0.282813  
     117A      0.285864   118A      0.286685   119A      0.288286  
     120A      0.295424   121A      0.299990   122A      0.303642  
     123A      0.305465   124A      0.306091   125A      0.308183  
     126A      0.312421   127A      0.321267   128A      0.324006  
     129A      0.327150   130A      0.329255   131A      0.330107  
     132A      0.338467   133A      0.341368   134A      0.344136  
     135A      0.348137   136A      0.354537   137A      0.358654  
     138A      0.365588   139A      0.367650   140A      0.371321  
     141A      0.373469   142A      0.375457   143A      0.377505  
     144A      0.385085   145A      0.387321   146A      0.389058  
     147A      0.395040   148A      0.396708   149A      0.401664  
     150A      0.404264   151A      0.408025   152A      0.409705  
     153A      0.412934   154A      0.416230   155A      0.420276  
     156A      0.426249   157A      0.428035   158A      0.433588  
     159A      0.435865   160A      0.436992   161A      0.439149  
     162A      0.439766   163A      0.445702   164A      0.449366  
     165A      0.451222   166A      0.452233   167A      0.458944  
     168A      0.464369   169A      0.465043   170A      0.469562  
     171A      0.471583   172A      0.474678   173A      0.478230  
     174A      0.479021   175A      0.483493   176A      0.487839  
     177A      0.488820   178A      0.490732   179A      0.493089  
     180A      0.494988   181A      0.496701   182A      0.502221  
     183A      0.505678   184A      0.506541   185A      0.511477  
     186A      0.512592   187A      0.516074   188A      0.516955  
     189A      0.521425   190A      0.525886   191A      0.527238  
     192A      0.530175   193A      0.533017   194A      0.538847  
     195A      0.542667   196A      0.545305   197A      0.547858  
     198A      0.553758   199A      0.554941   200A      0.558461  
     201A      0.566361   202A      0.569201   203A      0.572724  
     204A      0.578597   205A      0.579438   206A      0.583706  
     207A      0.585575   208A      0.587134   209A      0.594645  
     210A      0.596026   211A      0.598711   212A      0.601828  
     213A      0.607569   214A      0.614078   215A      0.618039  
     216A      0.618969   217A      0.623336   218A      0.628069  
     219A      0.630997   220A      0.634039   221A      0.638126  
     222A      0.643684   223A      0.647934   224A      0.650409  
     225A      0.652215   226A      0.662493   227A      0.665160  
     228A      0.669648   229A      0.675897   230A      0.677145  
     231A      0.684111   232A      0.685922   233A      0.691554  
     234A      0.692633   235A      0.697652   236A      0.701508  
     237A      0.707942   238A      0.713262   239A      0.714775  
     240A      0.718163   241A      0.722947   242A      0.726653  
     243A      0.731428   244A      0.737049   245A      0.739244  
     246A      0.743874   247A      0.752128   248A      0.752630  
     249A      0.754476   250A      0.758050   251A      0.764872  
     252A      0.771238   253A      0.773058   254A      0.775131  
     255A      0.778828   256A      0.785688   257A      0.789210  
     258A      0.792757   259A      0.797495   260A      0.803373  
     261A      0.808394   262A      0.812673   263A      0.815982  
     264A      0.817631   265A      0.822467   266A      0.825868  
     267A      0.827318   268A      0.833571   269A      0.837533  
     270A      0.847096   271A      0.852711   272A      0.855135  
     273A      0.858618   274A      0.862126   275A      0.863093  
     276A      0.867759   277A      0.869656   278A      0.874492  
     279A      0.875783   280A      0.880505   281A      0.883565  
     282A      0.891202   283A      0.891361   284A      0.893302  
     285A      0.895950   286A      0.904313   287A      0.904916  
     288A      0.907927   289A      0.914725   290A      0.918737  
     291A      0.923630   292A      0.928348   293A      0.937623  
     294A      0.939643   295A      0.941111   296A      0.945226  
     297A      0.946105   298A      0.948869   299A      0.954012  
     300A      0.956871   301A      0.963566   302A      0.965301  
     303A      0.968757   304A      0.971400   305A      0.973545  
     306A      0.979178   307A      0.982961   308A      0.984367  
     309A      0.991278   310A      0.994868   311A      1.003262  
     312A      1.005074   313A      1.007965   314A      1.009251  
     315A      1.012847   316A      1.014605   317A      1.018663  
     318A      1.022848   319A      1.025129   320A      1.031254  
     321A      1.035343   322A      1.037777   323A      1.041760  
     324A      1.047251   325A      1.052764   326A      1.056320  
     327A      1.060874   328A      1.063954   329A      1.065457  
     330A      1.066698   331A      1.070688   332A      1.074623  
     333A      1.075811   334A      1.079925   335A      1.092844  
     336A      1.094138   337A      1.101023   338A      1.102027  
     339A      1.109446   340A      1.115239   341A      1.115402  
     342A      1.118788   343A      1.122010   344A      1.126954  
     345A      1.128132   346A      1.136893   347A      1.139052  
     348A      1.144971   349A      1.147603   350A      1.148206  
     351A      1.149740   352A      1.153553   353A      1.161768  
     354A      1.166112   355A      1.166891   356A      1.175068  
     357A      1.176560   358A      1.183241   359A      1.187690  
     360A      1.194225   361A      1.196498   362A      1.206109  
     363A      1.210183   364A      1.212338   365A      1.214140  
     366A      1.219789   367A      1.221523   368A      1.225667  
     369A      1.229683   370A      1.236121   371A      1.238285  
     372A      1.242613   373A      1.246023   374A      1.252866  
     375A      1.257750   376A      1.264722   377A      1.268556  
     378A      1.272459   379A      1.278214   380A      1.280037  
     381A      1.287303   382A      1.293052   383A      1.295524  
     384A      1.297178   385A      1.300784   386A      1.306382  
     387A      1.312393   388A      1.314762   389A      1.318687  
     390A      1.321744   391A      1.330645   392A      1.331045  
     393A      1.334149   394A      1.338716   395A      1.345416  
     396A      1.351467   397A      1.356506   398A      1.358940  
     399A      1.361997   400A      1.367680   401A      1.371676  
     402A      1.373225   403A      1.382238   404A      1.384714  
     405A      1.390702   406A      1.397356   407A      1.399168  
     408A      1.405249   409A      1.409735   410A      1.415439  
     411A      1.417862   412A      1.423556   413A      1.429111  
     414A      1.431565   415A      1.441300   416A      1.449491  
     417A      1.450399   418A      1.453347   419A      1.457128  
     420A      1.461279   421A      1.467894   422A      1.471378  
     423A      1.476205   424A      1.481778   425A      1.491471  
     426A      1.494372   427A      1.497797   428A      1.501317  
     429A      1.507594   430A      1.513821   431A      1.519643  
     432A      1.522781   433A      1.527705   434A      1.533619  
     435A      1.539396   436A      1.543608   437A      1.548192  
     438A      1.552336   439A      1.556895   440A      1.558503  
     441A      1.570246   442A      1.571352   443A      1.575510  
     444A      1.578249   445A      1.585747   446A      1.593108  
     447A      1.593510   448A      1.596694   449A      1.599291  
     450A      1.606073   451A      1.611204   452A      1.622969  
     453A      1.627810   454A      1.629599   455A      1.631900  
     456A      1.639369   457A      1.642951   458A      1.649629  
     459A      1.653780   460A      1.658675   461A      1.664084  
     462A      1.672471   463A      1.679098   464A      1.685674  
     465A      1.690755   466A      1.698788   467A      1.701170  
     468A      1.707386   469A      1.714330   470A      1.715598  
     471A      1.720067   472A      1.723721   473A      1.728477  
     474A      1.733553   475A      1.740657   476A      1.748879  
     477A      1.752878   478A      1.756910   479A      1.760254  
     480A      1.763259   481A      1.767487   482A      1.769413  
     483A      1.777579   484A      1.784183   485A      1.789013  
     486A      1.790226   487A      1.793400   488A      1.804768  
     489A      1.807857   490A      1.813061   491A      1.814198  
     492A      1.822930   493A      1.831968   494A      1.834477  
     495A      1.836045   496A      1.842436   497A      1.849723  
     498A      1.851474   499A      1.854701   500A      1.859836  
     501A      1.865232   502A      1.871211   503A      1.879997  
     504A      1.888113   505A      1.890355   506A      1.894810  
     507A      1.897904   508A      1.900106   509A      1.910804  
     510A      1.917392   511A      1.922373   512A      1.927231  
     513A      1.931246   514A      1.934269   515A      1.936515  
     516A      1.952706   517A      1.957307   518A      1.960092  
     519A      1.970771   520A      1.971954   521A      1.980224  
     522A      1.983774   523A      1.989324   524A      1.993568  
     525A      1.999062   526A      2.001654   527A      2.009430  
     528A      2.018369   529A      2.022168   530A      2.022489  
     531A      2.036789   532A      2.040624   533A      2.048288  
     534A      2.053219   535A      2.056530   536A      2.063661  
     537A      2.067597   538A      2.070531   539A      2.079512  
     540A      2.085700   541A      2.090012   542A      2.091796  
     543A      2.094489   544A      2.106308   545A      2.107817  
     546A      2.110840   547A      2.118972   548A      2.122540  
     549A      2.129620   550A      2.135437   551A      2.136202  
     552A      2.142564   553A      2.147246   554A      2.147685  
     555A      2.156039   556A      2.159444   557A      2.171734  
     558A      2.178292   559A      2.182504   560A      2.183572  
     561A      2.190744   562A      2.194297   563A      2.208959  
     564A      2.212771   565A      2.215710   566A      2.223663  
     567A      2.227611   568A      2.235841   569A      2.238038  
     570A      2.241431   571A      2.250176   572A      2.252202  
     573A      2.260405   574A      2.269205   575A      2.270634  
     576A      2.284190   577A      2.286102   578A      2.298865  
     579A      2.301702   580A      2.307278   581A      2.312176  
     582A      2.318804   583A      2.319408   584A      2.327226  
     585A      2.338530   586A      2.344794   587A      2.347066  
     588A      2.355448   589A      2.357754   590A      2.367015  
     591A      2.374403   592A      2.381540   593A      2.387047  
     594A      2.393320   595A      2.400653   596A      2.406574  
     597A      2.410790   598A      2.413452   599A      2.418557  
     600A      2.431452   601A      2.436616   602A      2.440858  
     603A      2.442067   604A      2.451133   605A      2.458459  
     606A      2.463307   607A      2.467458   608A      2.474428  
     609A      2.478116   610A      2.493359   611A      2.494462  
     612A      2.500702   613A      2.508027   614A      2.511745  
     615A      2.516085   616A      2.519547   617A      2.527860  
     618A      2.536635   619A      2.540534   620A      2.552471  
     621A      2.555572   622A      2.556625   623A      2.563380  
     624A      2.566863   625A      2.575042   626A      2.587051  
     627A      2.596885   628A      2.598879   629A      2.605390  
     630A      2.609053   631A      2.614406   632A      2.619299  
     633A      2.629355   634A      2.632326   635A      2.646278  
     636A      2.654712   637A      2.660024   638A      2.664088  
     639A      2.670398   640A      2.681118   641A      2.687581  
     642A      2.691857   643A      2.707266   644A      2.708008  
     645A      2.715029   646A      2.720598   647A      2.722221  
     648A      2.729612   649A      2.735804   650A      2.740261  
     651A      2.745830   652A      2.762339   653A      2.767663  
     654A      2.773527   655A      2.777928   656A      2.794025  
     657A      2.799798   658A      2.803077   659A      2.812278  
     660A      2.825665   661A      2.833601   662A      2.843511  
     663A      2.844421   664A      2.850975   665A      2.860332  
     666A      2.871708   667A      2.873726   668A      2.885084  
     669A      2.894959   670A      2.896747   671A      2.897441  
     672A      2.905490   673A      2.910387   674A      2.911784  
     675A      2.926135   676A      2.929777   677A      2.940495  
     678A      2.943581   679A      2.953244   680A      2.963705  
     681A      2.973804   682A      2.979564   683A      2.982828  
     684A      2.993061   685A      3.002936   686A      3.012348  
     687A      3.022390   688A      3.030779   689A      3.041096  
     690A      3.047467   691A      3.056155   692A      3.066913  
     693A      3.072382   694A      3.083912   695A      3.087066  
     696A      3.098762   697A      3.103800   698A      3.106668  
     699A      3.117201   700A      3.129770   701A      3.138782  
     702A      3.153149   703A      3.166684   704A      3.175269  
     705A      3.188956   706A      3.196867   707A      3.212960  
     708A      3.217627   709A      3.224123   710A      3.244518  
     711A      3.251328   712A      3.268834   713A      3.273111  
     714A      3.280931   715A      3.287624   716A      3.300475  
     717A      3.301862   718A      3.316181   719A      3.320782  
     720A      3.336029   721A      3.338399   722A      3.356320  
     723A      3.365640   724A      3.377968   725A      3.386981  
     726A      3.406683   727A      3.426030   728A      3.428314  
     729A      3.442863   730A      3.462884   731A      3.468578  
     732A      3.475014   733A      3.483100   734A      3.488517  
     735A      3.491233   736A      3.500759   737A      3.512490  
     738A      3.522861   739A      3.536066   740A      3.538513  
     741A      3.548153   742A      3.567506   743A      3.577023  
     744A      3.591763   745A      3.606398   746A      3.610711  
     747A      3.626621   748A      3.632723   749A      3.641101  
     750A      3.652507   751A      3.658738   752A      3.675608  
     753A      3.680637   754A      3.692419   755A      3.706784  
     756A      3.717593   757A      3.720271   758A      3.733655  
     759A      3.755259   760A      3.762085   761A      3.767932  
     762A      3.779040   763A      3.789705   764A      3.797556  
     765A      3.808011   766A      3.823743   767A      3.828090  
     768A      3.834752   769A      3.840551   770A      3.856572  
     771A      3.869020   772A      3.870932   773A      3.884139  
     774A      3.895717   775A      3.903561   776A      3.919318  
     777A      3.922320   778A      3.931902   779A      3.939625  
     780A      3.962235   781A      3.970069   782A      3.974995  
     783A      3.985104   784A      3.993672   785A      4.001818  
     786A      4.009533   787A      4.017071   788A      4.029417  
     789A      4.031524   790A      4.047277   791A      4.066156  
     792A      4.067746   793A      4.083482   794A      4.092150  
     795A      4.096747   796A      4.112404   797A      4.128030  
     798A      4.135158   799A      4.145359   800A      4.151459  
     801A      4.177767   802A      4.183485   803A      4.193023  
     804A      4.204095   805A      4.209242   806A      4.213168  
     807A      4.228733   808A      4.234451   809A      4.249522  
     810A      4.251484   811A      4.259743   812A      4.264634  
     813A      4.269958   814A      4.272526   815A      4.286459  
     816A      4.288646   817A      4.296942   818A      4.308022  
     819A      4.320596   820A      4.332368   821A      4.338577  
     822A      4.349457   823A      4.364131   824A      4.371366  
     825A      4.376139   826A      4.381187   827A      4.391971  
     828A      4.398194   829A      4.404997   830A      4.416537  
     831A      4.421196   832A      4.429501   833A      4.437778  
     834A      4.458237   835A      4.460839   836A      4.474754  
     837A      4.485779   838A      4.505956   839A      4.513383  
     840A      4.516179   841A      4.524263   842A      4.526886  
     843A      4.537582   844A      4.551938   845A      4.565644  
     846A      4.572416   847A      4.573837   848A      4.579383  
     849A      4.586925   850A      4.595067   851A      4.595967  
     852A      4.614576   853A      4.618701   854A      4.620656  
     855A      4.641543   856A      4.649276   857A      4.655650  
     858A      4.660209   859A      4.668795   860A      4.681722  
     861A      4.689172   862A      4.696013   863A      4.702916  
     864A      4.713233   865A      4.721608   866A      4.730754  
     867A      4.737204   868A      4.742528   869A      4.750158  
     870A      4.764039   871A      4.779779   872A      4.790774  
     873A      4.798808   874A      4.801816   875A      4.807727  
     876A      4.809386   877A      4.827092   878A      4.828613  
     879A      4.839819   880A      4.857948   881A      4.860746  
     882A      4.863083   883A      4.877305   884A      4.886386  
     885A      4.898530   886A      4.912631   887A      4.917837  
     888A      4.925685   889A      4.938008   890A      4.943244  
     891A      4.968897   892A      4.975037   893A      4.980199  
     894A      4.985277   895A      4.987064   896A      4.997357  
     897A      5.005713   898A      5.017180   899A      5.021399  
     900A      5.033811   901A      5.036846   902A      5.040394  
     903A      5.046629   904A      5.048403   905A      5.057913  
     906A      5.072723   907A      5.080693   908A      5.084319  
     909A      5.097137   910A      5.105555   911A      5.113055  
     912A      5.124516   913A      5.130674   914A      5.147660  
     915A      5.151804   916A      5.159969   917A      5.165636  
     918A      5.180659   919A      5.185618   920A      5.205960  
     921A      5.210382   922A      5.218103   923A      5.225371  
     924A      5.228538   925A      5.240551   926A      5.247343  
     927A      5.261271   928A      5.271829   929A      5.283455  
     930A      5.286934   931A      5.292935   932A      5.294689  
     933A      5.315440   934A      5.329391   935A      5.332300  
     936A      5.340430   937A      5.343795   938A      5.349064  
     939A      5.361653   940A      5.362617   941A      5.385686  
     942A      5.387492   943A      5.402636   944A      5.406388  
     945A      5.423819   946A      5.432274   947A      5.441446  
     948A      5.451559   949A      5.461202   950A      5.472576  
     951A      5.481572   952A      5.485283   953A      5.492080  
     954A      5.502255   955A      5.507560   956A      5.533705  
     957A      5.546860   958A      5.550508   959A      5.553593  
     960A      5.563668   961A      5.574753   962A      5.594605  
     963A      5.602118   964A      5.617618   965A      5.619864  
     966A      5.629552   967A      5.642442   968A      5.660164  
     969A      5.669229   970A      5.681231   971A      5.693708  
     972A      5.699839   973A      5.705207   974A      5.714300  
     975A      5.718355   976A      5.725622   977A      5.738558  
     978A      5.745663   979A      5.760715   980A      5.779611  
     981A      5.781966   982A      5.793438   983A      5.808713  
     984A      5.814331   985A      5.820628   986A      5.836802  
     987A      5.844037   988A      5.848813   989A      5.856690  
     990A      5.860756   991A      5.883793   992A      5.895549  
     993A      5.919419   994A      5.937331   995A      5.942087  
     996A      5.957404   997A      5.972748   998A      5.980953  
     999A      5.989236  1000A      5.995784  1001A      6.010713  
    1002A      6.030858  1003A      6.033311  1004A      6.038324  
    1005A      6.054936  1006A      6.060778  1007A      6.076435  
    1008A      6.096121  1009A      6.125761  1010A      6.130713  
    1011A      6.134169  1012A      6.173908  1013A      6.174966  
    1014A      6.184477  1015A      6.195129  1016A      6.202782  
    1017A      6.214707  1018A      6.232669  1019A      6.242075  
    1020A      6.253796  1021A      6.265306  1022A      6.273254  
    1023A      6.283257  1024A      6.290355  1025A      6.317833  
    1026A      6.343761  1027A      6.352803  1028A      6.380042  
    1029A      6.391298  1030A      6.407322  1031A      6.440311  
    1032A      6.472010  1033A      6.502890  1034A      6.505818  
    1035A      6.516873  1036A      6.526602  1037A      6.539759  
    1038A      6.545324  1039A      6.552225  1040A      6.556870  
    1041A      6.564130  1042A      6.582358  1043A      6.604514  
    1044A      6.622049  1045A      6.637767  1046A      6.646663  
    1047A      6.653355  1048A      6.666259  1049A      6.712164  
    1050A      6.713676  1051A      6.738959  1052A      6.746279  
    1053A      6.761798  1054A      6.789541  1055A      6.796052  
    1056A      6.804927  1057A      6.809900  1058A      6.851331  
    1059A      6.860573  1060A      6.881993  1061A      6.889413  
    1062A      6.906333  1063A      6.916331  1064A      6.949728  
    1065A      6.973145  1066A      6.988257  1067A      6.992747  
    1068A      7.006297  1069A      7.031586  1070A      7.035107  
    1071A      7.055194  1072A      7.062936  1073A      7.090171  
    1074A      7.108168  1075A      7.128887  1076A      7.155632  
    1077A      7.201514  1078A      7.219113  1079A      7.242556  
    1080A      7.297190  1081A      7.308426  1082A      7.336736  
    1083A      7.373732  1084A      7.385213  1085A      7.389785  
    1086A      7.422056  1087A      7.456997  1088A      7.461851  
    1089A      7.484697  1090A      7.511831  1091A      7.549421  
    1092A      7.583831  1093A      7.596098  1094A      7.600229  
    1095A      7.623258  1096A      7.643876  1097A      7.668536  
    1098A      7.685803  1099A      7.701494  1100A      7.730641  
    1101A      7.734721  1102A      7.750287  1103A      7.776786  
    1104A      7.796378  1105A      7.814434  1106A      7.840801  
    1107A      7.852952  1108A      7.863402  1109A      7.878425  
    1110A      7.891538  1111A      7.934153  1112A      7.973227  
    1113A      7.977162  1114A      7.996416  1115A      8.011809  
    1116A      8.031076  1117A      8.070351  1118A      8.073747  
    1119A      8.141117  1120A      8.199947  1121A      8.206102  
    1122A      8.278605  1123A      8.306302  1124A      8.313350  
    1125A      8.357235  1126A      8.412790  1127A      8.536209  
    1128A      8.569788  1129A      8.597020  1130A      8.711019  
    1131A      8.771284  1132A      8.817699  1133A      8.852203  
    1134A      8.894663  1135A      9.053858  1136A      9.086892  
    1137A      9.157761  1138A      9.299724  1139A      9.355155  
    1140A      9.399618  1141A      9.583234  1142A      9.680265  
    1143A      9.735287  1144A      9.783233  1145A      9.845077  
    1146A      9.882117  1147A      9.965767  1148A     10.057768  
    1149A     10.178870  1150A     10.331538  1151A     10.365639  
    1152A     10.459018  1153A     10.519512  1154A     10.612818  
    1155A     10.753046  1156A     11.131353  1157A     11.182613  
    1158A     11.307921  1159A     11.417120  1160A     11.501612  
    1161A     11.597707  1162A     11.747745  1163A     12.023476  
    1164A     12.046643  1165A     12.095935  1166A     12.145073  
    1167A     12.277476  1168A     12.305854  1169A     12.407833  
    1170A     12.550587  1171A     12.818379  1172A     13.014958  
    1173A     13.358358  1174A     13.569362  1175A     14.252632  
    1176A     16.171886  1177A     16.340830  1178A     16.532232  
    1179A     17.902193  1180A     18.366428  1181A     19.223369  
    1182A     19.475998  1183A     19.539947  1184A     20.488131  
    1185A     21.501716  1186A     52.431925  1187A     52.803984  
    1188A     53.273534  1189A     54.188822  1190A     57.416840  
    1191A     59.885635  1192A     62.319236  1193A     62.862759  
    1194A     63.898349  1195A     65.949878  1196A     70.235920  

    Final Occupation by Irrep:
              A 
    DOCC [    35 ]

  @DF-RHF Final Energy:  -464.68034938826497

   => Energetics <=

    Nuclear Repulsion Energy =            501.3811850174743086
    One-Electron Energy =               -1625.5582798170667047
    Two-Electron Energy =                 659.4967454113274243
    Total Energy =                       -464.6803493882649718

Computation Completed


Properties will be evaluated at   0.000000,   0.000000,   0.000000 [a0]

Properties computed using the SCF density matrix

  Nuclear Dipole Moment: [e a0]
     X:  -236.4216      Y:    55.7103      Z:   111.1256

  Electronic Dipole Moment: [e a0]
     X:   235.7756      Y:   -55.8018      Z:  -112.0272

  Dipole Moment: [e a0]
     X:    -0.6460      Y:    -0.0915      Z:    -0.9016     Total:     1.1129

  Dipole Moment: [D]
     X:    -1.6420      Y:    -0.2325      Z:    -2.2917     Total:     2.8288


*** tstop() called on node155.bme.utexas.edu at Wed Jan 17 11:08:35 2024
Module time:
	user time   =    1185.56 seconds =      19.76 minutes
	system time =       9.62 seconds =       0.16 minutes
	total time  =        199 seconds =       3.32 minutes
Total time:
	user time   =    3384.80 seconds =      56.41 minutes
	system time =      36.98 seconds =       0.62 minutes
	total time  =        563 seconds =       9.38 minutes

*** tstart() called on node155.bme.utexas.edu
*** at Wed Jan 17 11:08:35 2024


  //>>>>>>>>>>>>>>>>>>>>>>>>>>>>>>>>>>>//
  //               DFMP2               //
  //<<<<<<<<<<<<<<<<<<<<<<<<<<<<<<<<<<<//

   => Loading Basis Set <=

    Name: (AUG-CC-PVTZ AUX)
    Role: RIFIT
    Keyword: DF_BASIS_MP2
    atoms 1, 4, 11, 14-15, 17, 19, 29-31    entry H          line    30 file /opt/anaconda/envs/psi4v1.5/share/psi4/basis/aug-cc-pvtz-ri.gbs 
    atoms 2, 5, 8-9, 12, 16, 20, 24, 26-27  entry N          line   206 file /opt/anaconda/envs/psi4v1.5/share/psi4/basis/aug-cc-pvtz-ri.gbs 
    atoms 3, 6-7, 10, 13, 18, 21-22, 25, 28 entry C          line   148 file /opt/anaconda/envs/psi4v1.5/share/psi4/basis/aug-cc-pvtz-ri.gbs 
    atoms 23                                entry O          line   264 file /opt/anaconda/envs/psi4v1.5/share/psi4/basis/aug-cc-pvtz-ri.gbs 

	 --------------------------------------------------------
	                          DF-MP2                         
	      2nd-Order Density-Fitted Moller-Plesset Theory     
	              RMP2 Wavefunction,   8 Threads             
	                                                         
	        Rob Parrish, Justin Turney, Andy Simmonett,      
	           Ed Hohenstein, and C. David Sherrill          
	 --------------------------------------------------------

   => Auxiliary Basis Set <=

  Basis Set: (AUG-CC-PVTZ AUX)
    Blend: AUG-CC-PVTZ-RI
    Number of shells: 728
    Number of basis functions: 2686
    Number of Cartesian functions: 3406
    Spherical Harmonics?: true
    Max angular momentum: 4

	 --------------------------------------------------------
	                 NBF =  1196, NAUX =  2686
	 --------------------------------------------------------
	   CLASS    FOCC     OCC    AOCC    AVIR     VIR    FVIR
	   PAIRS      10      35      25    1161    1161       0
	 --------------------------------------------------------

	 Will attempt to load fitting metric from file 97.

	-----------------------------------------------------------
	 ==================> DF-MP2 Energies <==================== 
	-----------------------------------------------------------
	 Reference Energy          =    -464.6803493882649718 [Eh]
	 Singles Energy            =      -0.0000000000000000 [Eh]
	 Same-Spin Energy          =      -0.4789961021465965 [Eh]
	 Opposite-Spin Energy      =      -1.3260201955864472 [Eh]
	 Correlation Energy        =      -1.8050162977330437 [Eh]
	 Total Energy              =    -466.4853656859980333 [Eh]
	-----------------------------------------------------------
	 ================> DF-SCS-MP2 Energies <================== 
	-----------------------------------------------------------
	 SCS Same-Spin Scale       =       0.3333333333333333 [-]
	 SCS Opposite-Spin Scale   =       1.2000000000000000 [-]
	 SCS Same-Spin Energy      =      -0.1596653673821988 [Eh]
	 SCS Opposite-Spin Energy  =      -1.5912242347037366 [Eh]
	 SCS Correlation Energy    =      -1.7508896020859355 [Eh]
	 SCS Total Energy          =    -466.4312389903508915 [Eh]
	-----------------------------------------------------------


*** tstop() called on node155.bme.utexas.edu at Wed Jan 17 11:09:37 2024
Module time:
	user time   =     306.86 seconds =       5.11 minutes
	system time =       9.88 seconds =       0.16 minutes
	total time  =         62 seconds =       1.03 minutes
Total time:
	user time   =    3691.66 seconds =      61.53 minutes
	system time =      46.86 seconds =       0.78 minutes
	total time  =        625 seconds =      10.42 minutes

  //>>>>>>>>>>>>>>>>>>>>>>>>>>>>>>>>>>>//
  //            Monomer B HF           //
  //<<<<<<<<<<<<<<<<<<<<<<<<<<<<<<<<<<<//


*** tstart() called on node155.bme.utexas.edu
*** at Wed Jan 17 11:09:37 2024

   => Loading Basis Set <=

    Name: AUG-CC-PVTZ
    Role: ORBITAL
    Keyword: BASIS
    atoms 1, 4, 11, 14-15, 17, 19, 29-31    entry H          line    40 file /opt/anaconda/envs/psi4v1.5/share/psi4/basis/aug-cc-pvtz.gbs 
    atoms 2, 5, 8-9, 12, 16, 20, 24, 26-27  entry N          line   285 file /opt/anaconda/envs/psi4v1.5/share/psi4/basis/aug-cc-pvtz.gbs 
    atoms 3, 6-7, 10, 13, 18, 21-22, 25, 28 entry C          line   239 file /opt/anaconda/envs/psi4v1.5/share/psi4/basis/aug-cc-pvtz.gbs 
    atoms 23                                entry O          line   331 file /opt/anaconda/envs/psi4v1.5/share/psi4/basis/aug-cc-pvtz.gbs 


         ---------------------------------------------------------
                                   SCF
               by Justin Turney, Rob Parrish, Andy Simmonett
                          and Daniel G. A. Smith
                              RHF Reference
                        8 Threads,  95367 MiB Core
         ---------------------------------------------------------

  ==> Geometry <==

    Molecular point group: c1
    Full point group: C1

    Geometry (in Angstrom), charge = 0, multiplicity = 1:

       Center              X                  Y                   Z               Mass       
    ------------   -----------------  -----------------  -----------------  -----------------
      Gh(H)          -3.609482808619     2.244260065445    -0.826339918127     1.007825032230
      Gh(N)          -3.243162808619     1.391750065445    -0.418809918127    14.003074004430
      Gh(C)          -3.805292808619     0.139260065445    -0.454809918127    12.000000000000
      Gh(H)          -4.713702808619    -0.061609934555    -1.009979918127     1.007825032230
      Gh(N)          -3.133892808619    -0.763089934555     0.246520081873    14.003074004430
      Gh(C)          -2.083552808619    -0.038999934555     0.779870081873    12.000000000000
      Gh(C)          -0.995792808619    -0.414109934555     1.597750081873    12.000000000000
      Gh(N)          -0.841582808619    -1.681529934555     2.070080081873    14.003074004430
      Gh(N)          -0.113942808619     0.537850065445     1.961460081873    14.003074004430
      Gh(C)          -0.300592808619     1.797610065445     1.512310081873    12.000000000000
      Gh(H)           0.440487191381     2.522420065445     1.847150081873     1.007825032230
      Gh(N)          -1.267132808619     2.279410065445     0.719490081873    14.003074004430
      Gh(C)          -2.126692808619     1.304270065445     0.385890081873    12.000000000000
      Gh(H)           0.115807191381    -1.910569934555     2.330700081873     1.007825032230
      Gh(H)          -1.272492808619    -2.392789934555     1.486370081873     1.007825032230
         N           -0.104480546119    -0.335201467889    -2.295976709793    14.003074004430
         H           -0.520510546119     0.315008532111    -2.952846709793     1.007825032230
         C           -0.533230546119    -1.602681467889    -1.984226709793    12.000000000000
         H           -1.396670546119    -2.050091467889    -2.458416709793     1.007825032230
         N            0.213099453881    -2.184561467889    -1.056506709793    14.003074004430
         C            1.170259453881    -1.238871467889    -0.763046709793    12.000000000000
         C            2.188139453881    -1.251951467889     0.252943290207    12.000000000000
         O            2.456669453881    -2.105651467889     1.098443290207    15.994914619570
         N            2.947339453881    -0.056731467889     0.176123290207    14.003074004430
         C            2.653099453881     1.048228532111    -0.582866709793    12.000000000000
         N            3.513709453881     2.125988532111    -0.449206709793    14.003074004430
         N            1.684759453881     1.093448532111    -1.467066709793    14.003074004430
         C            0.989149453881    -0.076121467889    -1.511216709793    12.000000000000
         H            3.704409453881    -0.011561467889     0.854523290207     1.007825032230
         H            3.784859453881     2.344058532111     0.504583290207     1.007825032230
         H            3.144759453881     2.940108532111    -0.931286709793     1.007825032230

  Running in c1 symmetry.

  Rotational constants: A =      0.01695  B =      0.00965  C =      0.00908 [cm^-1]
  Rotational constants: A =    508.09938  B =    289.23900  C =    272.23219 [MHz]
  Nuclear repulsion =  594.253029831856907

  Charge       = 0
  Multiplicity = 1
  Electrons    = 78
  Nalpha       = 39
  Nbeta        = 39

  ==> Algorithm <==

  SCF Algorithm Type is DF.
  DIIS enabled.
  MOM disabled.
  Fractional occupation disabled.
  Guess Type is SAD.
  Energy threshold   = 1.00e-08
  Density threshold  = 1.00e-08
  Integral threshold = 1.00e-12

  ==> Primary Basis <==

  Basis Set: AUG-CC-PVTZ
    Blend: AUG-CC-PVTZ
    Number of shells: 384
    Number of basis functions: 1196
    Number of Cartesian functions: 1405
    Spherical Harmonics?: true
    Max angular momentum: 3

   => Loading Basis Set <=

    Name: (AUG-CC-PVTZ AUX)
    Role: JKFIT
    Keyword: DF_BASIS_SCF
    atoms 1, 4, 11, 14-15, 17, 19, 29-31    entry H          line    70 file /opt/anaconda/envs/psi4v1.5/share/psi4/basis/aug-cc-pvtz-jkfit.gbs 
    atoms 2, 5, 8-9, 12, 16, 20, 24, 26-27  entry N          line   224 file /opt/anaconda/envs/psi4v1.5/share/psi4/basis/aug-cc-pvtz-jkfit.gbs 
    atoms 3, 6-7, 10, 13, 18, 21-22, 25, 28 entry C          line   162 file /opt/anaconda/envs/psi4v1.5/share/psi4/basis/aug-cc-pvtz-jkfit.gbs 
    atoms 23                                entry O          line   286 file /opt/anaconda/envs/psi4v1.5/share/psi4/basis/aug-cc-pvtz-jkfit.gbs 

  ==> Integral Setup <==

  ==> DiskDFJK: Density-Fitted J/K Matrices <==

    J tasked:                  Yes
    K tasked:                  Yes
    wK tasked:                  No
    OpenMP threads:              8
    Integrals threads:           8
    Memory [MiB]:            71525
    Algorithm:                Core
    Integral Cache:           LOAD
    Schwarz Cutoff:          1E-12
    Fitting Condition:       1E-10

   => Auxiliary Basis Set <=

  Basis Set: (AUG-CC-PVTZ AUX)
    Blend: AUG-CC-PVTZ-JKFIT
    Number of shells: 770
    Number of basis functions: 2644
    Number of Cartesian functions: 3301
    Spherical Harmonics?: true
    Max angular momentum: 4

  Minimum eigenvalue in the overlap matrix is 6.7668490433E-07.
  Reciprocal condition number of the overlap matrix is 2.8687219061E-08.
    Using symmetric orthogonalization.

  ==> Pre-Iterations <==

  SCF Guess: Superposition of Atomic Densities via on-the-fly atomic UHF (no occupation information).

   -------------------------
    Irrep   Nso     Nmo    
   -------------------------
     A       1196    1196 
   -------------------------
    Total    1196    1196
   -------------------------

  ==> Iterations <==

                           Total Energy        Delta E     RMS |[F,P]|

   @DF-RHF iter SAD:  -539.32768996296670   -5.39328e+02   0.00000e+00 
   @DF-RHF iter   1:  -539.27709734016219    5.05926e-02   6.64861e-04 DIIS
   @DF-RHF iter   2:  -539.50052832981248   -2.23431e-01   3.95661e-04 DIIS
   @DF-RHF iter   3:  -539.58036733846745   -7.98390e-02   8.22860e-05 DIIS
   @DF-RHF iter   4:  -539.58549711123737   -5.12977e-03   3.38684e-05 DIIS
   @DF-RHF iter   5:  -539.58647732253633   -9.80211e-04   7.11865e-06 DIIS
   @DF-RHF iter   6:  -539.58657868684088   -1.01364e-04   3.71249e-06 DIIS
   @DF-RHF iter   7:  -539.58660499069504   -2.63039e-05   1.54242e-06 DIIS
   @DF-RHF iter   8:  -539.58661000215488   -5.01146e-06   5.43974e-07 DIIS
   @DF-RHF iter   9:  -539.58661059721885   -5.95064e-07   2.16354e-07 DIIS
   @DF-RHF iter  10:  -539.58661070347819   -1.06259e-07   8.55309e-08 DIIS
   @DF-RHF iter  11:  -539.58661071846518   -1.49870e-08   3.32219e-08 DIIS
   @DF-RHF iter  12:  -539.58661072046857   -2.00339e-09   1.22577e-08 DIIS
   @DF-RHF iter  13:  -539.58661072074642   -2.77851e-10   5.23485e-09 DIIS
  Energy and wave function converged.


  ==> Post-Iterations <==

    Orbital Energies [Eh]
    ---------------------

    Doubly Occupied:                                                      

       1A    -20.521796     2A    -15.636332     3A    -15.634124  
       4A    -15.613622     5A    -15.574305     6A    -15.564987  
       7A    -11.399800     8A    -11.366166     9A    -11.327485  
      10A    -11.314330    11A    -11.250476    12A     -1.393003  
      13A     -1.359164    14A     -1.335890    15A     -1.223369  
      16A     -1.219849    17A     -1.178373    18A     -1.031596  
      19A     -0.908219    20A     -0.887784    21A     -0.844893  
      22A     -0.800721    23A     -0.742578    24A     -0.730405  
      25A     -0.700652    26A     -0.673371    27A     -0.658393  
      28A     -0.633982    29A     -0.611990    30A     -0.602608  
      31A     -0.596184    32A     -0.546832    33A     -0.500528  
      34A     -0.463364    35A     -0.442374    36A     -0.433923  
      37A     -0.430511    38A     -0.412021    39A     -0.302211  

    Virtual:                                                              

      40A      0.011844    41A      0.017644    42A      0.029126  
      43A      0.031935    44A      0.037188    45A      0.041124  
      46A      0.045579    47A      0.053618    48A      0.057559  
      49A      0.061765    50A      0.065257    51A      0.068473  
      52A      0.073640    53A      0.077134    54A      0.082428  
      55A      0.083808    56A      0.091096    57A      0.093884  
      58A      0.095557    59A      0.099927    60A      0.103045  
      61A      0.106199    62A      0.111297    63A      0.111913  
      64A      0.115199    65A      0.116264    66A      0.121971  
      67A      0.124193    68A      0.125829    69A      0.129513  
      70A      0.131092    71A      0.132903    72A      0.135984  
      73A      0.137194    74A      0.140443    75A      0.141750  
      76A      0.147089    77A      0.150209    78A      0.153326  
      79A      0.157711    80A      0.160192    81A      0.161988  
      82A      0.162363    83A      0.170287    84A      0.172399  
      85A      0.176804    86A      0.178818    87A      0.180287  
      88A      0.185214    89A      0.190656    90A      0.193128  
      91A      0.195818    92A      0.203554    93A      0.208351  
      94A      0.208989    95A      0.211827    96A      0.214927  
      97A      0.217066    98A      0.219494    99A      0.220068  
     100A      0.222521   101A      0.223218   102A      0.226192  
     103A      0.228606   104A      0.233621   105A      0.236374  
     106A      0.241591   107A      0.243489   108A      0.246196  
     109A      0.247787   110A      0.252186   111A      0.257332  
     112A      0.262130   113A      0.265749   114A      0.268686  
     115A      0.272085   116A      0.272982   117A      0.276974  
     118A      0.282557   119A      0.284974   120A      0.285629  
     121A      0.287746   122A      0.290216   123A      0.292491  
     124A      0.296011   125A      0.298428   126A      0.301469  
     127A      0.303779   128A      0.310380   129A      0.315303  
     130A      0.317050   131A      0.322428   132A      0.324122  
     133A      0.326775   134A      0.331598   135A      0.333732  
     136A      0.341725   137A      0.344423   138A      0.345929  
     139A      0.349786   140A      0.353259   141A      0.353952  
     142A      0.355115   143A      0.358207   144A      0.365902  
     145A      0.369332   146A      0.372983   147A      0.376290  
     148A      0.382755   149A      0.386087   150A      0.389268  
     151A      0.391998   152A      0.393258   153A      0.398904  
     154A      0.400899   155A      0.405315   156A      0.408895  
     157A      0.409491   158A      0.414125   159A      0.417187  
     160A      0.419154   161A      0.425064   162A      0.426486  
     163A      0.429911   164A      0.432020   165A      0.432649  
     166A      0.438141   167A      0.441597   168A      0.444081  
     169A      0.446086   170A      0.449469   171A      0.454801  
     172A      0.456708   173A      0.462687   174A      0.465523  
     175A      0.467375   176A      0.468980   177A      0.473292  
     178A      0.475181   179A      0.477992   180A      0.481431  
     181A      0.483881   182A      0.486990   183A      0.492638  
     184A      0.492989   185A      0.494348   186A      0.497120  
     187A      0.499313   188A      0.508492   189A      0.508871  
     190A      0.510262   191A      0.514842   192A      0.516114  
     193A      0.521048   194A      0.525498   195A      0.526979  
     196A      0.529063   197A      0.530967   198A      0.536755  
     199A      0.538994   200A      0.541050   201A      0.544688  
     202A      0.549350   203A      0.555468   204A      0.560123  
     205A      0.560933   206A      0.565359   207A      0.567636  
     208A      0.573181   209A      0.575481   210A      0.579223  
     211A      0.582580   212A      0.584769   213A      0.593823  
     214A      0.596293   215A      0.598297   216A      0.600705  
     217A      0.606066   218A      0.609503   219A      0.616161  
     220A      0.616646   221A      0.619861   222A      0.622256  
     223A      0.629914   224A      0.630320   225A      0.640842  
     226A      0.642097   227A      0.644317   228A      0.648276  
     229A      0.648788   230A      0.654833   231A      0.658332  
     232A      0.660433   233A      0.667323   234A      0.673239  
     235A      0.679158   236A      0.684903   237A      0.688368  
     238A      0.688445   239A      0.698426   240A      0.703487  
     241A      0.704206   242A      0.706077   243A      0.714142  
     244A      0.718882   245A      0.721432   246A      0.724213  
     247A      0.732720   248A      0.735225   249A      0.741781  
     250A      0.743883   251A      0.751294   252A      0.752015  
     253A      0.757156   254A      0.759259   255A      0.762587  
     256A      0.767349   257A      0.770220   258A      0.776172  
     259A      0.780082   260A      0.781735   261A      0.784708  
     262A      0.790757   263A      0.794352   264A      0.797351  
     265A      0.804871   266A      0.809910   267A      0.811686  
     268A      0.812941   269A      0.817078   270A      0.825152  
     271A      0.827569   272A      0.830710   273A      0.836095  
     274A      0.839058   275A      0.845197   276A      0.848867  
     277A      0.850850   278A      0.855883   279A      0.859736  
     280A      0.862265   281A      0.865314   282A      0.868552  
     283A      0.872994   284A      0.877908   285A      0.879504  
     286A      0.882083   287A      0.892019   288A      0.892897  
     289A      0.894141   290A      0.900054   291A      0.901308  
     292A      0.909191   293A      0.915401   294A      0.918881  
     295A      0.924525   296A      0.925747   297A      0.927817  
     298A      0.930870   299A      0.935210   300A      0.942290  
     301A      0.944297   302A      0.947472   303A      0.950029  
     304A      0.953496   305A      0.957781   306A      0.960860  
     307A      0.964936   308A      0.967628   309A      0.971393  
     310A      0.977437   311A      0.978179   312A      0.983615  
     313A      0.988679   314A      0.993939   315A      0.996149  
     316A      0.998965   317A      1.001421   318A      1.006097  
     319A      1.007988   320A      1.010835   321A      1.015236  
     322A      1.019438   323A      1.026408   324A      1.027784  
     325A      1.029959   326A      1.033185   327A      1.035661  
     328A      1.043187   329A      1.047055   330A      1.048387  
     331A      1.049240   332A      1.056114   333A      1.064536  
     334A      1.066622   335A      1.069089   336A      1.073889  
     337A      1.078065   338A      1.079306   339A      1.085169  
     340A      1.090327   341A      1.094281   342A      1.099041  
     343A      1.104467   344A      1.108092   345A      1.111081  
     346A      1.118642   347A      1.120356   348A      1.123498  
     349A      1.126578   350A      1.127485   351A      1.132450  
     352A      1.133421   353A      1.136491   354A      1.146872  
     355A      1.153075   356A      1.154647   357A      1.160649  
     358A      1.166321   359A      1.168143   360A      1.175221  
     361A      1.178046   362A      1.181923   363A      1.186861  
     364A      1.189502   365A      1.191967   366A      1.194333  
     367A      1.200605   368A      1.205022   369A      1.210361  
     370A      1.215705   371A      1.224275   372A      1.226317  
     373A      1.229135   374A      1.234384   375A      1.238362  
     376A      1.243765   377A      1.248189   378A      1.251309  
     379A      1.257939   380A      1.262106   381A      1.263852  
     382A      1.268031   383A      1.274572   384A      1.280890  
     385A      1.286653   386A      1.289123   387A      1.291130  
     388A      1.292514   389A      1.297568   390A      1.303039  
     391A      1.304217   392A      1.309095   393A      1.318764  
     394A      1.319716   395A      1.325032   396A      1.328571  
     397A      1.334638   398A      1.337982   399A      1.340499  
     400A      1.347934   401A      1.351298   402A      1.353016  
     403A      1.361301   404A      1.365706   405A      1.367467  
     406A      1.372032   407A      1.383169   408A      1.387740  
     409A      1.388931   410A      1.394076   411A      1.395055  
     412A      1.398799   413A      1.408350   414A      1.410411  
     415A      1.411963   416A      1.423908   417A      1.429467  
     418A      1.431967   419A      1.434895   420A      1.443375  
     421A      1.446616   422A      1.453249   423A      1.456868  
     424A      1.459666   425A      1.467396   426A      1.471345  
     427A      1.474718   428A      1.479325   429A      1.482659  
     430A      1.489273   431A      1.493656   432A      1.504507  
     433A      1.511137   434A      1.513331   435A      1.521180  
     436A      1.525604   437A      1.530475   438A      1.534503  
     439A      1.540806   440A      1.546647   441A      1.549398  
     442A      1.553317   443A      1.555094   444A      1.566869  
     445A      1.568420   446A      1.574068   447A      1.576208  
     448A      1.577602   449A      1.583967   450A      1.585069  
     451A      1.591305   452A      1.601816   453A      1.607910  
     454A      1.612025   455A      1.616323   456A      1.617614  
     457A      1.622796   458A      1.624744   459A      1.632083  
     460A      1.634548   461A      1.639936   462A      1.645019  
     463A      1.648060   464A      1.654547   465A      1.665085  
     466A      1.669112   467A      1.673342   468A      1.679275  
     469A      1.682099   470A      1.683099   471A      1.691689  
     472A      1.694106   473A      1.697916   474A      1.705669  
     475A      1.709045   476A      1.719220   477A      1.723564  
     478A      1.727924   479A      1.731665   480A      1.737330  
     481A      1.744047   482A      1.748812   483A      1.753027  
     484A      1.757813   485A      1.759089   486A      1.763738  
     487A      1.775121   488A      1.776321   489A      1.778363  
     490A      1.782906   491A      1.788617   492A      1.791877  
     493A      1.794935   494A      1.801454   495A      1.804238  
     496A      1.818268   497A      1.821875   498A      1.823329  
     499A      1.830259   500A      1.837434   501A      1.841860  
     502A      1.845311   503A      1.854758   504A      1.856674  
     505A      1.857965   506A      1.868043   507A      1.872892  
     508A      1.877504   509A      1.879307   510A      1.885807  
     511A      1.888865   512A      1.894384   513A      1.899558  
     514A      1.902858   515A      1.910025   516A      1.917844  
     517A      1.919434   518A      1.926351   519A      1.934334  
     520A      1.939994   521A      1.945636   522A      1.949202  
     523A      1.958583   524A      1.963956   525A      1.969011  
     526A      1.976571   527A      1.980250   528A      1.981394  
     529A      1.990225   530A      1.998095   531A      2.006133  
     532A      2.010575   533A      2.017579   534A      2.021862  
     535A      2.025132   536A      2.029770   537A      2.039368  
     538A      2.043362   539A      2.048052   540A      2.056044  
     541A      2.061177   542A      2.066812   543A      2.068859  
     544A      2.079452   545A      2.081942   546A      2.086868  
     547A      2.092787   548A      2.099805   549A      2.106171  
     550A      2.108461   551A      2.111042   552A      2.119742  
     553A      2.127564   554A      2.129399   555A      2.136725  
     556A      2.140335   557A      2.140530   558A      2.150688  
     559A      2.153896   560A      2.159357   561A      2.171403  
     562A      2.175242   563A      2.179263   564A      2.183328  
     565A      2.191248   566A      2.195064   567A      2.201244  
     568A      2.213817   569A      2.215389   570A      2.223927  
     571A      2.227995   572A      2.233211   573A      2.234820  
     574A      2.240362   575A      2.243052   576A      2.253492  
     577A      2.262473   578A      2.266348   579A      2.271975  
     580A      2.278698   581A      2.284675   582A      2.291316  
     583A      2.296396   584A      2.300266   585A      2.304462  
     586A      2.316713   587A      2.326238   588A      2.327070  
     589A      2.329870   590A      2.340040   591A      2.342290  
     592A      2.348949   593A      2.349975   594A      2.360818  
     595A      2.365049   596A      2.368781   597A      2.377789  
     598A      2.380347   599A      2.389344   600A      2.391860  
     601A      2.395266   602A      2.400914   603A      2.408753  
     604A      2.414142   605A      2.418157   606A      2.420303  
     607A      2.429238   608A      2.433677   609A      2.443746  
     610A      2.447857   611A      2.454801   612A      2.459951  
     613A      2.468124   614A      2.469070   615A      2.473147  
     616A      2.476577   617A      2.480197   618A      2.485202  
     619A      2.500685   620A      2.505719   621A      2.508520  
     622A      2.516507   623A      2.524211   624A      2.526771  
     625A      2.536032   626A      2.539998   627A      2.550939  
     628A      2.557953   629A      2.559769   630A      2.567943  
     631A      2.572806   632A      2.580832   633A      2.587315  
     634A      2.598468   635A      2.606882   636A      2.610660  
     637A      2.616304   638A      2.620482   639A      2.630250  
     640A      2.632949   641A      2.639356   642A      2.641828  
     643A      2.660292   644A      2.664205   645A      2.671769  
     646A      2.677934   647A      2.680108   648A      2.684709  
     649A      2.694390   650A      2.702351   651A      2.709039  
     652A      2.721268   653A      2.726205   654A      2.738462  
     655A      2.746844   656A      2.750326   657A      2.754320  
     658A      2.761433   659A      2.773923   660A      2.778048  
     661A      2.781758   662A      2.784844   663A      2.802937  
     664A      2.806995   665A      2.809315   666A      2.815703  
     667A      2.823298   668A      2.827334   669A      2.839824  
     670A      2.847840   671A      2.856365   672A      2.864402  
     673A      2.872026   674A      2.875612   675A      2.886077  
     676A      2.889615   677A      2.897531   678A      2.907093  
     679A      2.914174   680A      2.915938   681A      2.925964  
     682A      2.930744   683A      2.944590   684A      2.951959  
     685A      2.957580   686A      2.964571   687A      2.972752  
     688A      2.982562   689A      2.988106   690A      3.003926  
     691A      3.005799   692A      3.015116   693A      3.025355  
     694A      3.034177   695A      3.042054   696A      3.055536  
     697A      3.063679   698A      3.068476   699A      3.076756  
     700A      3.094999   701A      3.103326   702A      3.106166  
     703A      3.119789   704A      3.121537   705A      3.128689  
     706A      3.135386   707A      3.141984   708A      3.153076  
     709A      3.164595   710A      3.167142   711A      3.181981  
     712A      3.191819   713A      3.200574   714A      3.204915  
     715A      3.209475   716A      3.225979   717A      3.236691  
     718A      3.253926   719A      3.262435   720A      3.279903  
     721A      3.286917   722A      3.292106   723A      3.303182  
     724A      3.309159   725A      3.319098   726A      3.342805  
     727A      3.355084   728A      3.379326   729A      3.382661  
     730A      3.391106   731A      3.403061   732A      3.414544  
     733A      3.425066   734A      3.426599   735A      3.443185  
     736A      3.457968   737A      3.467196   738A      3.473080  
     739A      3.488371   740A      3.504849   741A      3.523171  
     742A      3.530400   743A      3.557323   744A      3.569038  
     745A      3.575077   746A      3.582218   747A      3.599252  
     748A      3.608550   749A      3.614524   750A      3.636581  
     751A      3.641547   752A      3.648233   753A      3.663825  
     754A      3.675163   755A      3.690078   756A      3.698026  
     757A      3.706254   758A      3.714700   759A      3.721818  
     760A      3.738982   761A      3.744152   762A      3.754239  
     763A      3.776615   764A      3.786896   765A      3.793486  
     766A      3.799632   767A      3.809424   768A      3.814181  
     769A      3.818967   770A      3.843318   771A      3.844483  
     772A      3.853083   773A      3.866533   774A      3.874425  
     775A      3.875535   776A      3.897682   777A      3.906187  
     778A      3.913892   779A      3.916664   780A      3.941150  
     781A      3.944614   782A      3.951435   783A      3.964204  
     784A      3.968286   785A      3.977578   786A      3.989626  
     787A      4.006171   788A      4.012724   789A      4.016377  
     790A      4.029293   791A      4.043417   792A      4.065168  
     793A      4.076241   794A      4.080913   795A      4.092826  
     796A      4.102202   797A      4.113435   798A      4.118885  
     799A      4.123473   800A      4.136857   801A      4.148285  
     802A      4.161381   803A      4.166765   804A      4.171494  
     805A      4.180432   806A      4.190516   807A      4.204716  
     808A      4.205719   809A      4.214595   810A      4.221672  
     811A      4.225356   812A      4.226885   813A      4.243138  
     814A      4.249708   815A      4.258013   816A      4.268299  
     817A      4.270994   818A      4.288176   819A      4.294610  
     820A      4.302347   821A      4.307238   822A      4.316763  
     823A      4.324017   824A      4.332785   825A      4.339038  
     826A      4.348716   827A      4.352257   828A      4.363102  
     829A      4.365445   830A      4.376198   831A      4.384746  
     832A      4.394117   833A      4.404694   834A      4.415096  
     835A      4.419036   836A      4.431165   837A      4.443215  
     838A      4.445869   839A      4.461225   840A      4.464902  
     841A      4.484151   842A      4.489771   843A      4.495344  
     844A      4.503529   845A      4.517370   846A      4.524775  
     847A      4.532081   848A      4.537686   849A      4.565096  
     850A      4.565737   851A      4.580038   852A      4.587978  
     853A      4.591492   854A      4.595761   855A      4.611745  
     856A      4.612985   857A      4.624107   858A      4.626857  
     859A      4.629462   860A      4.647922   861A      4.653062  
     862A      4.659155   863A      4.670056   864A      4.672077  
     865A      4.678576   866A      4.691863   867A      4.694244  
     868A      4.703126   869A      4.715887   870A      4.721682  
     871A      4.724725   872A      4.737552   873A      4.742246  
     874A      4.756527   875A      4.758385   876A      4.764025  
     877A      4.770392   878A      4.783955   879A      4.799557  
     880A      4.802957   881A      4.823392   882A      4.838062  
     883A      4.841728   884A      4.854691   885A      4.858087  
     886A      4.866277   887A      4.879607   888A      4.885865  
     889A      4.892980   890A      4.902653   891A      4.914495  
     892A      4.921464   893A      4.927932   894A      4.940355  
     895A      4.951393   896A      4.960909   897A      4.966616  
     898A      4.975160   899A      4.976498   900A      4.986454  
     901A      4.991149   902A      4.997051   903A      5.008793  
     904A      5.015004   905A      5.020887   906A      5.036829  
     907A      5.038269   908A      5.041419   909A      5.056243  
     910A      5.064648   911A      5.077303   912A      5.078048  
     913A      5.090554   914A      5.104644   915A      5.105666  
     916A      5.115873   917A      5.119621   918A      5.127492  
     919A      5.143407   920A      5.151131   921A      5.160100  
     922A      5.170708   923A      5.175456   924A      5.193758  
     925A      5.199104   926A      5.204632   927A      5.211253  
     928A      5.224286   929A      5.224691   930A      5.247223  
     931A      5.252973   932A      5.254639   933A      5.265073  
     934A      5.285468   935A      5.287185   936A      5.298991  
     937A      5.303954   938A      5.309684   939A      5.328524  
     940A      5.331418   941A      5.334732   942A      5.343786  
     943A      5.362383   944A      5.371294   945A      5.375471  
     946A      5.388150   947A      5.404182   948A      5.419986  
     949A      5.429784   950A      5.437854   951A      5.453098  
     952A      5.463883   953A      5.467768   954A      5.473250  
     955A      5.489408   956A      5.504240   957A      5.512308  
     958A      5.521624   959A      5.526180   960A      5.536134  
     961A      5.539611   962A      5.547837   963A      5.557919  
     964A      5.559360   965A      5.572630   966A      5.586874  
     967A      5.591383   968A      5.607767   969A      5.615903  
     970A      5.621360   971A      5.642014   972A      5.648839  
     973A      5.655294   974A      5.676450   975A      5.681903  
     976A      5.695097   977A      5.705731   978A      5.717984  
     979A      5.727462   980A      5.731891   981A      5.758897  
     982A      5.767761   983A      5.773139   984A      5.783181  
     985A      5.796449   986A      5.801099   987A      5.803033  
     988A      5.823483   989A      5.843515   990A      5.846453  
     991A      5.865777   992A      5.880331   993A      5.882952  
     994A      5.902180   995A      5.911426   996A      5.923567  
     997A      5.928021   998A      5.945316   999A      5.950872  
    1000A      5.967446  1001A      5.969555  1002A      5.986282  
    1003A      5.994044  1004A      6.004609  1005A      6.016842  
    1006A      6.019120  1007A      6.035766  1008A      6.046626  
    1009A      6.069479  1010A      6.078281  1011A      6.087524  
    1012A      6.099083  1013A      6.116346  1014A      6.131454  
    1015A      6.139562  1016A      6.152282  1017A      6.163704  
    1018A      6.180316  1019A      6.189709  1020A      6.204506  
    1021A      6.207362  1022A      6.220241  1023A      6.221950  
    1024A      6.245560  1025A      6.248619  1026A      6.264595  
    1027A      6.279928  1028A      6.287488  1029A      6.306154  
    1030A      6.333610  1031A      6.347963  1032A      6.368662  
    1033A      6.381860  1034A      6.391190  1035A      6.458365  
    1036A      6.465169  1037A      6.486400  1038A      6.499903  
    1039A      6.504531  1040A      6.526510  1041A      6.528024  
    1042A      6.537383  1043A      6.540481  1044A      6.559873  
    1045A      6.580171  1046A      6.587849  1047A      6.609011  
    1048A      6.613138  1049A      6.624542  1050A      6.634330  
    1051A      6.642068  1052A      6.671635  1053A      6.696811  
    1054A      6.709896  1055A      6.730659  1056A      6.755632  
    1057A      6.758814  1058A      6.772560  1059A      6.783433  
    1060A      6.793592  1061A      6.804892  1062A      6.818671  
    1063A      6.845778  1064A      6.859758  1065A      6.863363  
    1066A      6.878914  1067A      6.890708  1068A      6.903135  
    1069A      6.919320  1070A      6.954705  1071A      6.961440  
    1072A      6.978651  1073A      6.990061  1074A      7.016361  
    1075A      7.020910  1076A      7.027751  1077A      7.036688  
    1078A      7.051718  1079A      7.077027  1080A      7.090903  
    1081A      7.104574  1082A      7.112215  1083A      7.148368  
    1084A      7.161232  1085A      7.165365  1086A      7.233558  
    1087A      7.236506  1088A      7.252697  1089A      7.280759  
    1090A      7.286338  1091A      7.311488  1092A      7.362126  
    1093A      7.367913  1094A      7.390111  1095A      7.425635  
    1096A      7.439572  1097A      7.480107  1098A      7.484876  
    1099A      7.494820  1100A      7.511306  1101A      7.526551  
    1102A      7.538303  1103A      7.550878  1104A      7.589794  
    1105A      7.615383  1106A      7.647507  1107A      7.662512  
    1108A      7.674347  1109A      7.691023  1110A      7.705449  
    1111A      7.718850  1112A      7.725647  1113A      7.767852  
    1114A      7.774701  1115A      7.786278  1116A      7.831304  
    1117A      7.860392  1118A      7.876395  1119A      7.886154  
    1120A      7.887945  1121A      7.915592  1122A      7.946851  
    1123A      7.967980  1124A      7.981350  1125A      8.001489  
    1126A      8.010814  1127A      8.017673  1128A      8.028137  
    1129A      8.066371  1130A      8.089539  1131A      8.099748  
    1132A      8.138247  1133A      8.202002  1134A      8.284453  
    1135A      8.320457  1136A      8.364904  1137A      8.407691  
    1138A      8.470586  1139A      8.484929  1140A      8.559596  
    1141A      8.712888  1142A      8.818006  1143A      8.861431  
    1144A      8.969550  1145A      9.029923  1146A      9.046988  
    1147A      9.266517  1148A      9.347138  1149A      9.393829  
    1150A      9.604420  1151A      9.674071  1152A      9.699839  
    1153A      9.778684  1154A      9.809875  1155A     10.011271  
    1156A     10.185453  1157A     10.283918  1158A     10.450538  
    1159A     10.766503  1160A     11.074739  1161A     11.092290  
    1162A     11.259552  1163A     11.269744  1164A     11.589707  
    1165A     11.673112  1166A     11.780912  1167A     11.892873  
    1168A     12.057946  1169A     12.087759  1170A     12.225081  
    1171A     12.347116  1172A     12.511590  1173A     12.589018  
    1174A     12.882605  1175A     13.058647  1176A     16.246127  
    1177A     16.460172  1178A     16.693686  1179A     17.250661  
    1180A     17.950553  1181A     18.735162  1182A     19.340653  
    1183A     19.748626  1184A     20.300875  1185A     21.033039  
    1186A     21.511432  1187A     51.901121  1188A     52.000590  
    1189A     53.027080  1190A     54.629794  1191A     57.321290  
    1192A     60.522808  1193A     62.028798  1194A     62.464568  
    1195A     62.744917  1196A     65.622294  

    Final Occupation by Irrep:
              A 
    DOCC [    39 ]

  @DF-RHF Final Energy:  -539.58661072074642

   => Energetics <=

    Nuclear Repulsion Energy =            594.2530298318569066
    One-Electron Energy =               -1913.9428563456774555
    Two-Electron Energy =                 780.1032157930742414
    Total Energy =                       -539.5866107207464211

Computation Completed


Properties will be evaluated at   0.000000,   0.000000,   0.000000 [a0]

Properties computed using the SCF density matrix

  Nuclear Dipole Moment: [e a0]
     X:   236.1320      Y:   -52.0345      Z:  -112.2021

  Electronic Dipole Moment: [e a0]
     X:  -236.2536      Y:    54.6915      Z:   111.2848

  Dipole Moment: [e a0]
     X:    -0.1215      Y:     2.6570      Z:    -0.9173     Total:     2.8135

  Dipole Moment: [D]
     X:    -0.3089      Y:     6.7534      Z:    -2.3316     Total:     7.1512


*** tstop() called on node155.bme.utexas.edu at Wed Jan 17 11:13:07 2024
Module time:
	user time   =    1178.87 seconds =      19.65 minutes
	system time =      12.23 seconds =       0.20 minutes
	total time  =        210 seconds =       3.50 minutes
Total time:
	user time   =    4870.53 seconds =      81.18 minutes
	system time =      59.09 seconds =       0.98 minutes
	total time  =        835 seconds =      13.92 minutes

*** tstart() called on node155.bme.utexas.edu
*** at Wed Jan 17 11:13:07 2024


  //>>>>>>>>>>>>>>>>>>>>>>>>>>>>>>>>>>>//
  //               DFMP2               //
  //<<<<<<<<<<<<<<<<<<<<<<<<<<<<<<<<<<<//

   => Loading Basis Set <=

    Name: (AUG-CC-PVTZ AUX)
    Role: RIFIT
    Keyword: DF_BASIS_MP2
    atoms 1, 4, 11, 14-15, 17, 19, 29-31    entry H          line    30 file /opt/anaconda/envs/psi4v1.5/share/psi4/basis/aug-cc-pvtz-ri.gbs 
    atoms 2, 5, 8-9, 12, 16, 20, 24, 26-27  entry N          line   206 file /opt/anaconda/envs/psi4v1.5/share/psi4/basis/aug-cc-pvtz-ri.gbs 
    atoms 3, 6-7, 10, 13, 18, 21-22, 25, 28 entry C          line   148 file /opt/anaconda/envs/psi4v1.5/share/psi4/basis/aug-cc-pvtz-ri.gbs 
    atoms 23                                entry O          line   264 file /opt/anaconda/envs/psi4v1.5/share/psi4/basis/aug-cc-pvtz-ri.gbs 

	 --------------------------------------------------------
	                          DF-MP2                         
	      2nd-Order Density-Fitted Moller-Plesset Theory     
	              RMP2 Wavefunction,   8 Threads             
	                                                         
	        Rob Parrish, Justin Turney, Andy Simmonett,      
	           Ed Hohenstein, and C. David Sherrill          
	 --------------------------------------------------------

   => Auxiliary Basis Set <=

  Basis Set: (AUG-CC-PVTZ AUX)
    Blend: AUG-CC-PVTZ-RI
    Number of shells: 728
    Number of basis functions: 2686
    Number of Cartesian functions: 3406
    Spherical Harmonics?: true
    Max angular momentum: 4

	 --------------------------------------------------------
	                 NBF =  1196, NAUX =  2686
	 --------------------------------------------------------
	   CLASS    FOCC     OCC    AOCC    AVIR     VIR    FVIR
	   PAIRS      11      39      28    1157    1157       0
	 --------------------------------------------------------

	 Will attempt to load fitting metric from file 97.

	-----------------------------------------------------------
	 ==================> DF-MP2 Energies <==================== 
	-----------------------------------------------------------
	 Reference Energy          =    -539.5866107207464211 [Eh]
	 Singles Energy            =      -0.0000000000000000 [Eh]
	 Same-Spin Energy          =      -0.5425923987196466 [Eh]
	 Opposite-Spin Energy      =      -1.4992618622421863 [Eh]
	 Correlation Energy        =      -2.0418542609618329 [Eh]
	 Total Energy              =    -541.6284649817082482 [Eh]
	-----------------------------------------------------------
	 ================> DF-SCS-MP2 Energies <================== 
	-----------------------------------------------------------
	 SCS Same-Spin Scale       =       0.3333333333333333 [-]
	 SCS Opposite-Spin Scale   =       1.2000000000000000 [-]
	 SCS Same-Spin Energy      =      -0.1808641329065488 [Eh]
	 SCS Opposite-Spin Energy  =      -1.7991142346906235 [Eh]
	 SCS Correlation Energy    =      -1.9799783675971723 [Eh]
	 SCS Total Energy          =    -541.5665890883435623 [Eh]
	-----------------------------------------------------------


*** tstop() called on node155.bme.utexas.edu at Wed Jan 17 11:14:12 2024
Module time:
	user time   =     310.85 seconds =       5.18 minutes
	system time =       9.71 seconds =       0.16 minutes
	total time  =         65 seconds =       1.08 minutes
Total time:
	user time   =    5181.38 seconds =      86.36 minutes
	system time =      68.80 seconds =       1.15 minutes
	total time  =        900 seconds =      15.00 minutes
  Constructing Basis Sets for SAPT...

   => Loading Basis Set <=

    Name: (AUG-CC-PVTZ AUX)
    Role: RIFIT
    Keyword: DF_BASIS_SAPT
    atoms 1, 4, 11, 14-15, 17, 19, 29-31    entry H          line    30 file /opt/anaconda/envs/psi4v1.5/share/psi4/basis/aug-cc-pvtz-ri.gbs 
    atoms 2, 5, 8-9, 12, 16, 20, 24, 26-27  entry N          line   206 file /opt/anaconda/envs/psi4v1.5/share/psi4/basis/aug-cc-pvtz-ri.gbs 
    atoms 3, 6-7, 10, 13, 18, 21-22, 25, 28 entry C          line   148 file /opt/anaconda/envs/psi4v1.5/share/psi4/basis/aug-cc-pvtz-ri.gbs 
    atoms 23                                entry O          line   264 file /opt/anaconda/envs/psi4v1.5/share/psi4/basis/aug-cc-pvtz-ri.gbs 


  //>>>>>>>>>>>>>>>>>>>>>>>>>>>>>>>>>>>//
  //           SAPT2+(3)DMP2           //
  //<<<<<<<<<<<<<<<<<<<<<<<<<<<<<<<<<<<//


*** tstart() called on node155.bme.utexas.edu
*** at Wed Jan 17 11:14:12 2024

      SAPT2+(3)  
    Ed Hohenstein
     6 June 2009

      Orbital Information
  --------------------------
    NSO        =      1196
    NMO        =      1196
    NRI        =      2686
    NOCC A     =        35
    NOCC B     =        39
    FOCC A     =        10
    FOCC B     =        11
    NVIR A     =      1161
    NVIR B     =      1157

    Estimated memory usage: 78168.6 MB

    Natural Orbital Cutoff:   1.000E-06
    Disp(T3) Truncation:            Yes
    CCD (vv|vv) Truncation:         Yes
    MBPT T2 Truncation:             Yes

    Monomer A: 665 virtual orbitals dropped
    Monomer B: 617 virtual orbitals dropped

    Elst10,r            =    -0.011162016412 [Eh]
    Exch10 (S^2)        =     0.013173957110 [Eh]
    Exch10              =     0.013187720151 [Eh]
    Ind20,r (A<-B)      =    -0.003934107720 [Eh]
    Ind20,r (B<-A)      =    -0.002950559754 [Eh]
    Ind20,r             =    -0.006884667474 [Eh]
    Exch-Ind20,r (A<-B) =     0.002692036577 [Eh]
    Exch-Ind20,r (B<-A) =     0.002421188035 [Eh]
    Exch-Ind20,r        =     0.005113224613 [Eh]
    Disp20              =    -0.024460584883 [Eh]
    Disp20 (NO)         =    -0.022880686129 [Eh]
    Exch-Disp20         =     0.002286713558 [Eh]
    Elst12,r            =     0.000440672656 [Eh]
    Exch11              =     0.000350431879 [Eh]
    Exch12              =     0.000955043102 [Eh]
    Ind22               =    -0.000405378146 [Eh]
    Disp21              =     0.008670669108 [Eh]
    Disp22 (SDQ)        =    -0.001530374143 [Eh]

    (i =   1 of  28)       3136 seconds
    (i =   2 of  28)       6435 seconds
    (i =   3 of  28)       9787 seconds
    (i =   4 of  28)      13323 seconds
    (i =   5 of  28)      16919 seconds
    (i =   6 of  28)      20516 seconds
    (i =   7 of  28)      24101 seconds
    (i =   8 of  28)      27840 seconds
    (i =   9 of  28)      31618 seconds
    (i =  10 of  28)      35438 seconds
    (i =  11 of  28)      39157 seconds
    (i =  12 of  28)      42836 seconds
    (i =  13 of  28)      46653 seconds
    (i =  14 of  28)      50096 seconds
    (i =  15 of  28)      53149 seconds
    (i =  16 of  28)      55691 seconds
    (i =  17 of  28)      58320 seconds
    (i =  18 of  28)      60968 seconds
    (i =  19 of  28)      63609 seconds
    (i =  20 of  28)      66217 seconds
    (i =  21 of  28)      68751 seconds
    (i =  22 of  28)      71353 seconds
    (i =  23 of  28)      73998 seconds
    (i =  24 of  28)      76649 seconds
    (i =  25 of  28)      79293 seconds
    (i =  26 of  28)      81829 seconds
    (i =  27 of  28)      84389 seconds
    (i =  28 of  28)      87038 seconds

    Disp220 (T)         =    -0.002893349904 [Eh]

    (i =   1 of  25)       4015 seconds
    (i =   2 of  25)       7945 seconds
    (i =   3 of  25)      11847 seconds
    (i =   4 of  25)      15866 seconds
    (i =   5 of  25)      19884 seconds
    (i =   6 of  25)      23729 seconds
    (i =   7 of  25)      27724 seconds
    (i =   8 of  25)      31747 seconds
    (i =   9 of  25)      35681 seconds
    (i =  10 of  25)      39591 seconds
    (i =  11 of  25)      43603 seconds
    (i =  12 of  25)      47527 seconds
    (i =  13 of  25)      51284 seconds
    (i =  14 of  25)      55183 seconds
    (i =  15 of  25)      59104 seconds
    (i =  16 of  25)      62956 seconds
    (i =  17 of  25)      66755 seconds
    (i =  18 of  25)      70682 seconds
    (i =  19 of  25)      74614 seconds
    (i =  20 of  25)      78388 seconds
    (i =  21 of  25)      82197 seconds
    (i =  22 of  25)      85947 seconds
    (i =  23 of  25)      89698 seconds
    (i =  24 of  25)      93452 seconds
    (i =  25 of  25)      97202 seconds

    Disp202 (T)         =    -0.002918070507 [Eh]

    Disp22 (T)          =    -0.005811420411 [Eh]

    Est. Disp220 (T)    =    -0.003093134118 [Eh]
    Est. Disp202 (T)    =    -0.003119561666 [Eh]

    Est. Disp22 (T)     =    -0.006212695784 [Eh]
    Elst13,r            =     0.000226290710 [Eh]
    Disp30              =     0.000574560551 [Eh]

    SAPT Results 
  --------------------------------------------------------------------------------------------------------
    Electrostatics                -10.49505305 [mEh]      -6.58574521 [kcal/mol]     -27.55475798 [kJ/mol]
      Elst10,r                    -11.16201641 [mEh]      -7.00427105 [kcal/mol]     -29.30587005 [kJ/mol]
      Elst12,r                      0.44067266 [mEh]       0.27652627 [kcal/mol]       1.15698590 [kJ/mol]
      Elst13,r                      0.22629071 [mEh]       0.14199956 [kcal/mol]       0.59412618 [kJ/mol]

    Exchange                       14.49319513 [mEh]       9.09461725 [kcal/mol]      38.05187858 [kJ/mol]
      Exch10                       13.18772015 [mEh]       8.27541933 [kcal/mol]      34.62435448 [kJ/mol]
      Exch10(S^2)                  13.17395711 [mEh]       8.26678289 [kcal/mol]      34.58821963 [kJ/mol]
      Exch11(S^2)                   0.35043188 [mEh]       0.21989932 [kcal/mol]       0.92005877 [kJ/mol]
      Exch12(S^2)                   0.95504310 [mEh]       0.59929859 [kcal/mol]       2.50746532 [kJ/mol]

    Induction                      -2.38100520 [mEh]      -1.49410332 [kcal/mol]      -6.25132829 [kJ/mol]
      Ind20,r                      -6.88466747 [mEh]      -4.32019406 [kcal/mol]     -18.07569196 [kJ/mol]
      Ind22                        -0.40537815 [mEh]      -0.25437863 [kcal/mol]      -1.06432018 [kJ/mol]
      Exch-Ind20,r                  5.11322461 [mEh]       3.20859689 [kcal/mol]      13.42476937 [kJ/mol]
      Exch-Ind22                    0.30107329 [mEh]       0.18892634 [kcal/mol]       0.79046782 [kJ/mol]
      delta HF,r (2)               -1.02487512 [mEh]      -0.64311884 [kcal/mol]      -2.69080924 [kJ/mol]
      delta MP2,r (2)               0.51961763 [mEh]       0.32606498 [kcal/mol]       1.36425589 [kJ/mol]

    Dispersion                    -20.67171159 [mEh]     -12.97169486 [kcal/mol]     -54.27357131 [kJ/mol]
      Disp20                      -24.46058488 [mEh]     -15.34924875 [kcal/mol]     -64.22125676 [kJ/mol]
      Disp30                        0.57456055 [mEh]       0.36054219 [kcal/mol]       1.50850852 [kJ/mol]
      Disp21                        8.67066911 [mEh]       5.44092701 [kcal/mol]      22.76483861 [kJ/mol]
      Disp22 (SDQ)                 -1.53037414 [mEh]      -0.96032427 [kcal/mol]      -4.01799676 [kJ/mol]
      Disp22 (T)                   -5.81142041 [mEh]      -3.64672136 [kcal/mol]     -15.25788219 [kJ/mol]
      Est. Disp22 (T)              -6.21269578 [mEh]      -3.89852546 [kcal/mol]     -16.31143053 [kJ/mol]
      Exch-Disp20                   2.28671356 [mEh]       1.43493442 [kcal/mol]       6.00376562 [kJ/mol]

  Total HF                         -0.77061424 [mEh]      -0.48356774 [kcal/mol]      -2.02324740 [kJ/mol]
  Total SAPT0                     -22.94448556 [mEh]     -14.39788206 [kcal/mol]     -60.24073855 [kJ/mol]
  Total SAPT2                     -21.30264278 [mEh]     -13.36761016 [kcal/mol]     -55.93008091 [kJ/mol]
  Total SAPT2+                    -20.37504360 [mEh]     -12.78553289 [kcal/mol]     -53.49466959 [kJ/mol]
  Total SAPT2+(3)                 -19.57419234 [mEh]     -12.28299113 [kcal/mol]     -51.39203490 [kJ/mol]
  Total SAPT2+dMP2                -19.85542597 [mEh]     -12.45946790 [kcal/mol]     -52.13041370 [kJ/mol]
  Total SAPT2+(3)dMP2             -19.05457471 [mEh]     -11.95692615 [kcal/mol]     -50.02777900 [kJ/mol]

  Special recipe for scaled SAPT0 (see Manual):
    Electrostatics sSAPT0         -11.16201641 [mEh]      -7.00427105 [kcal/mol]     -29.30587005 [kJ/mol]
    Exchange sSAPT0                13.18772015 [mEh]       8.27541933 [kcal/mol]      34.62435448 [kJ/mol]
    Induction sSAPT0               -2.78027563 [mEh]      -1.74464930 [kcal/mol]      -7.29961266 [kJ/mol]
    Dispersion sSAPT0             -22.16669694 [mEh]     -13.90981233 [kcal/mol]     -58.19865479 [kJ/mol]
  Total sSAPT0                    -22.92126883 [mEh]     -14.38331334 [kcal/mol]     -60.17978302 [kJ/mol]
  --------------------------------------------------------------------------------------------------------

*** tstop() called on node155.bme.utexas.edu at Fri Jan 19 22:02:11 2024
Module time:
	user time   = 1295436.14 seconds =   21590.60 minutes
	system time =    3166.48 seconds =      52.77 minutes
	total time  =     211679 seconds =    3527.98 minutes
Total time:
	user time   = 1300617.64 seconds =   21676.96 minutes
	system time =    3235.28 seconds =      53.92 minutes
	total time  =     212579 seconds =    3542.98 minutes

    Psi4 stopped on: Friday, 19 January 2024 10:02PM
    Psi4 wall time for execution: 2 days, 11:02:59.93

*** Psi4 exiting successfully. Buy a developer a beer!
