
    -----------------------------------------------------------------------
          Psi4: An Open-Source Ab Initio Electronic Structure Package
                               Psi4 1.5 release

                         Git: Rev {HEAD} e9f4d6d 


    D. G. A. Smith, L. A. Burns, A. C. Simmonett, R. M. Parrish,
    M. C. Schieber, R. Galvelis, P. Kraus, H. Kruse, R. Di Remigio,
    A. Alenaizan, A. M. James, S. Lehtola, J. P. Misiewicz, M. Scheurer,
    R. A. Shaw, J. B. Schriber, Y. Xie, Z. L. Glick, D. A. Sirianni,
    J. S. O'Brien, J. M. Waldrop, A. Kumar, E. G. Hohenstein,
    B. P. Pritchard, B. R. Brooks, H. F. Schaefer III, A. Yu. Sokolov,
    K. Patkowski, A. E. DePrince III, U. Bozkaya, R. A. King,
    F. A. Evangelista, J. M. Turney, T. D. Crawford, C. D. Sherrill,
    J. Chem. Phys. 152(18) 184108 (2020). https://doi.org/10.1063/5.0006002

                            Additional Code Authors
    E. T. Seidl, C. L. Janssen, E. F. Valeev, M. L. Leininger,
    J. F. Gonthier, R. M. Richard, H. R. McAlexander, M. Saitow, X. Wang,
    P. Verma, M. H. Lechner, and A. Jiang

             Previous Authors, Complete List of Code Contributors,
                       and Citations for Specific Modules
    https://github.com/psi4/psi4/blob/master/codemeta.json
    https://github.com/psi4/psi4/graphs/contributors
    http://psicode.org/psi4manual/master/introduction.html#citing-psifour

    -----------------------------------------------------------------------


    Psi4 started on: Saturday, 20 January 2024 01:46PM

    Process ID: 1466547
    Host:       node157.bme.utexas.edu
    PSIDATADIR: /opt/anaconda/envs/psi4v1.5/share/psi4
    Memory:     500.0 MiB
    Threads:    8
    
  ==> Input File <==

--------------------------------------------------------------------------
memory 100GB

molecule {
0 1
H -3.44482 2.21216 -0.90217
N -3.0785 1.35965 -0.49464
C -3.64063 0.10716 -0.53064
H -4.54904 -0.09371 -1.08581
N -2.96923 -0.79519 0.17069
C -1.91889 -0.0711 0.70404
C -0.83113 -0.44621 1.52192
N -0.67692 -1.71363 1.99425
N 0.05072 0.50575 1.88563
C -0.13593 1.76551 1.43648
H 0.60515 2.49032 1.77132
N -1.10247 2.24731 0.64366
C -1.96203 1.27217 0.31006
H 0.28047 -1.94267 2.25487
H -1.10783 -2.42489 1.41054
-- 
0 1
N -0.5607622625 -0.29535846666666665 -2.0694332083333333
H -0.9767922625000001 0.35485153333333336 -2.7263032083333334
C -0.9895122625 -1.5628384666666668 -1.7576832083333334
H -1.8529522625000001 -2.0102484666666665 -2.2318732083333335
N -0.24318226250000002 -2.1447184666666663 -0.8299632083333333
C 0.7139777375 -1.1990284666666668 -0.5365032083333333
C 1.7318577375000002 -1.2121084666666668 0.47948679166666663
O 2.0003877374999997 -2.0658084666666667 1.3249867916666667
N 2.4910577375000003 -0.016888466666666643 0.40266679166666663
C 2.1968177375 1.0880715333333333 -0.3563232083333333
N 3.0574277375000003 2.1658315333333333 -0.22266320833333333
N 1.2284777375 1.1332915333333333 -1.2405232083333333
C 0.5328677374999999 -0.03627846666666664 -1.2846732083333332
H 3.2481277375 0.028281533333333355 1.0810667916666667
H 3.3285777375 2.3839015333333333 0.7311267916666667
H 2.6884777374999995 2.9799515333333333 -0.7047432083333333
 units angstrom
 no_reorient
 symmetry c1
}
set
 {scf_type DF
 basis aug-cc-pvtz
 freeze_core True
 guess SAD
}
energy('sapt2+(3)dmp2')
--------------------------------------------------------------------------

  Memory set to  93.132 GiB by Python driver.

Scratch directory: /tmp/
   => Loading Basis Set <=

    Name: AUG-CC-PVTZ
    Role: ORBITAL
    Keyword: BASIS
    atoms 1, 4, 11, 14-15, 17, 19, 29-31    entry H          line    40 file /opt/anaconda/envs/psi4v1.5/share/psi4/basis/aug-cc-pvtz.gbs 
    atoms 2, 5, 8-9, 12, 16, 20, 24, 26-27  entry N          line   285 file /opt/anaconda/envs/psi4v1.5/share/psi4/basis/aug-cc-pvtz.gbs 
    atoms 3, 6-7, 10, 13, 18, 21-22, 25, 28 entry C          line   239 file /opt/anaconda/envs/psi4v1.5/share/psi4/basis/aug-cc-pvtz.gbs 
    atoms 23                                entry O          line   331 file /opt/anaconda/envs/psi4v1.5/share/psi4/basis/aug-cc-pvtz.gbs 

   => Loading Basis Set <=

    Name: AUG-CC-PVTZ
    Role: ORBITAL
    Keyword: BASIS
    atoms 1, 4, 11, 14-15, 17, 19, 29-31    entry H          line    40 file /opt/anaconda/envs/psi4v1.5/share/psi4/basis/aug-cc-pvtz.gbs 
    atoms 2, 5, 8-9, 12, 16, 20, 24, 26-27  entry N          line   285 file /opt/anaconda/envs/psi4v1.5/share/psi4/basis/aug-cc-pvtz.gbs 
    atoms 3, 6-7, 10, 13, 18, 21-22, 25, 28 entry C          line   239 file /opt/anaconda/envs/psi4v1.5/share/psi4/basis/aug-cc-pvtz.gbs 
    atoms 23                                entry O          line   331 file /opt/anaconda/envs/psi4v1.5/share/psi4/basis/aug-cc-pvtz.gbs 


  //>>>>>>>>>>>>>>>>>>>>>>>>>>>>>>>>>>>//
  //              Dimer HF             //
  //<<<<<<<<<<<<<<<<<<<<<<<<<<<<<<<<<<<//


*** tstart() called on node157.bme.utexas.edu
*** at Sat Jan 20 13:46:07 2024

   => Loading Basis Set <=

    Name: AUG-CC-PVTZ
    Role: ORBITAL
    Keyword: BASIS
    atoms 1, 4, 11, 14-15, 17, 19, 29-31    entry H          line    40 file /opt/anaconda/envs/psi4v1.5/share/psi4/basis/aug-cc-pvtz.gbs 
    atoms 2, 5, 8-9, 12, 16, 20, 24, 26-27  entry N          line   285 file /opt/anaconda/envs/psi4v1.5/share/psi4/basis/aug-cc-pvtz.gbs 
    atoms 3, 6-7, 10, 13, 18, 21-22, 25, 28 entry C          line   239 file /opt/anaconda/envs/psi4v1.5/share/psi4/basis/aug-cc-pvtz.gbs 
    atoms 23                                entry O          line   331 file /opt/anaconda/envs/psi4v1.5/share/psi4/basis/aug-cc-pvtz.gbs 


         ---------------------------------------------------------
                                   SCF
               by Justin Turney, Rob Parrish, Andy Simmonett
                          and Daniel G. A. Smith
                              RHF Reference
                        8 Threads,  95367 MiB Core
         ---------------------------------------------------------

  ==> Geometry <==

    Molecular point group: c1
    Full point group: C1

    Geometry (in Angstrom), charge = 0, multiplicity = 1:

       Center              X                  Y                   Z               Mass       
    ------------   -----------------  -----------------  -----------------  -----------------
         H           -3.281653294981     2.206277508863    -0.985978953129     1.007825032230
         N           -2.915333294981     1.353767508863    -0.578448953129    14.003074004430
         C           -3.477463294981     0.101277508863    -0.614448953129    12.000000000000
         H           -4.385873294981    -0.099592491137    -1.169618953129     1.007825032230
         N           -2.806063294981    -0.801072491137     0.086881046871    14.003074004430
         C           -1.755723294981    -0.076982491137     0.620231046871    12.000000000000
         C           -0.667963294981    -0.452092491137     1.438111046871    12.000000000000
         N           -0.513753294981    -1.719512491137     1.910441046871    14.003074004430
         N            0.213886705019     0.499867508863     1.801821046871    14.003074004430
         C            0.027236705019     1.759627508863     1.352671046871    12.000000000000
         H            0.768316705019     2.484437508863     1.687511046871     1.007825032230
         N           -0.939303294981     2.241427508863     0.559851046871    14.003074004430
         C           -1.798863294981     1.266287508863     0.226251046871    12.000000000000
         H            0.443636705019    -1.948552491137     2.171061046871     1.007825032230
         H           -0.944663294981    -2.430772491137     1.326731046871     1.007825032230
         N           -0.397595557481    -0.301240957804    -2.153242161463    14.003074004430
         H           -0.813625557481     0.348969042196    -2.810112161463     1.007825032230
         C           -0.826345557481    -1.568720957804    -1.841492161463    12.000000000000
         H           -1.689785557481    -2.016130957804    -2.315682161463     1.007825032230
         N           -0.080015557481    -2.150600957804    -0.913772161463    14.003074004430
         C            0.877144442519    -1.204910957804    -0.620312161463    12.000000000000
         C            1.895024442519    -1.217990957804     0.395677838537    12.000000000000
         O            2.163554442519    -2.071690957804     1.241177838537    15.994914619570
         N            2.654224442519    -0.022770957804     0.318857838537    14.003074004430
         C            2.359984442519     1.082189042196    -0.440132161463    12.000000000000
         N            3.220594442519     2.159949042196    -0.306472161463    14.003074004430
         N            1.391644442519     1.127409042196    -1.324332161463    14.003074004430
         C            0.696034442519    -0.042160957804    -1.368482161463    12.000000000000
         H            3.411294442519     0.022399042196     0.997257838537     1.007825032230
         H            3.491744442519     2.378019042196     0.647317838537     1.007825032230
         H            2.851644442519     2.974069042196    -0.788552161463     1.007825032230

  Running in c1 symmetry.

  Rotational constants: A =      0.01809  B =      0.01195  C =      0.01073 [cm^-1]
  Rotational constants: A =    542.24766  B =    358.22029  C =    321.79706 [MHz]
  Nuclear repulsion = 1820.676262465642594

  Charge       = 0
  Multiplicity = 1
  Electrons    = 148
  Nalpha       = 74
  Nbeta        = 74

  ==> Algorithm <==

  SCF Algorithm Type is DF.
  DIIS enabled.
  MOM disabled.
  Fractional occupation disabled.
  Guess Type is SAD.
  Energy threshold   = 1.00e-08
  Density threshold  = 1.00e-08
  Integral threshold = 1.00e-12

  ==> Primary Basis <==

  Basis Set: AUG-CC-PVTZ
    Blend: AUG-CC-PVTZ
    Number of shells: 384
    Number of basis functions: 1196
    Number of Cartesian functions: 1405
    Spherical Harmonics?: true
    Max angular momentum: 3

   => Loading Basis Set <=

    Name: (AUG-CC-PVTZ AUX)
    Role: JKFIT
    Keyword: DF_BASIS_SCF
    atoms 1, 4, 11, 14-15, 17, 19, 29-31    entry H          line    70 file /opt/anaconda/envs/psi4v1.5/share/psi4/basis/aug-cc-pvtz-jkfit.gbs 
    atoms 2, 5, 8-9, 12, 16, 20, 24, 26-27  entry N          line   224 file /opt/anaconda/envs/psi4v1.5/share/psi4/basis/aug-cc-pvtz-jkfit.gbs 
    atoms 3, 6-7, 10, 13, 18, 21-22, 25, 28 entry C          line   162 file /opt/anaconda/envs/psi4v1.5/share/psi4/basis/aug-cc-pvtz-jkfit.gbs 
    atoms 23                                entry O          line   286 file /opt/anaconda/envs/psi4v1.5/share/psi4/basis/aug-cc-pvtz-jkfit.gbs 

  ==> Integral Setup <==

  ==> DiskDFJK: Density-Fitted J/K Matrices <==

    J tasked:                  Yes
    K tasked:                  Yes
    wK tasked:                  No
    OpenMP threads:              8
    Integrals threads:           8
    Memory [MiB]:            71525
    Algorithm:                Core
    Integral Cache:           SAVE
    Schwarz Cutoff:          1E-12
    Fitting Condition:       1E-10

   => Auxiliary Basis Set <=

  Basis Set: (AUG-CC-PVTZ AUX)
    Blend: AUG-CC-PVTZ-JKFIT
    Number of shells: 770
    Number of basis functions: 2644
    Number of Cartesian functions: 3301
    Spherical Harmonics?: true
    Max angular momentum: 4

  Minimum eigenvalue in the overlap matrix is 5.5141217796E-07.
  Reciprocal condition number of the overlap matrix is 2.1090864919E-08.
    Using symmetric orthogonalization.

  ==> Pre-Iterations <==

  SCF Guess: Superposition of Atomic Densities via on-the-fly atomic UHF (no occupation information).

   -------------------------
    Irrep   Nso     Nmo    
   -------------------------
     A       1196    1196 
   -------------------------
    Total    1196    1196
   -------------------------

  ==> Iterations <==

                           Total Energy        Delta E     RMS |[F,P]|

   @DF-RHF iter SAD: -1004.67302641427625   -1.00467e+03   0.00000e+00 
   @DF-RHF iter   1: -1003.69303622891027    9.79990e-01   8.58175e-04 DIIS
   @DF-RHF iter   2: -1004.09123535139304   -3.98199e-01   4.80832e-04 DIIS
   @DF-RHF iter   3: -1004.21779112119179   -1.26556e-01   1.18481e-04 DIIS
   @DF-RHF iter   4: -1004.22795189996566   -1.01608e-02   5.38462e-05 DIIS
   @DF-RHF iter   5: -1004.23021263548617   -2.26074e-03   1.17865e-05 DIIS
   @DF-RHF iter   6: -1004.23040061510346   -1.87980e-04   6.11635e-06 DIIS
   @DF-RHF iter   7: -1004.23046279323785   -6.21781e-05   2.46828e-06 DIIS
   @DF-RHF iter   8: -1004.23047499295592   -1.21997e-05   9.78230e-07 DIIS
   @DF-RHF iter   9: -1004.23047720081445   -2.20786e-06   3.96388e-07 DIIS
   @DF-RHF iter  10: -1004.23047757076938   -3.69955e-07   1.73045e-07 DIIS
   @DF-RHF iter  11: -1004.23047764319278   -7.24234e-08   7.59286e-08 DIIS
   @DF-RHF iter  12: -1004.23047765808883   -1.48960e-08   2.70626e-08 DIIS
   @DF-RHF iter  13: -1004.23047766016691   -2.07808e-09   1.11574e-08 DIIS
   @DF-RHF iter  14: -1004.23047766048603   -3.19119e-10   4.66554e-09 DIIS
  Energy and wave function converged.


  ==> Post-Iterations <==

    Orbital Energies [Eh]
    ---------------------

    Doubly Occupied:                                                      

       1A    -20.525219     2A    -15.636070     3A    -15.635443  
       4A    -15.627722     5A    -15.609507     6A    -15.571753  
       7A    -15.570503     8A    -15.562018     9A    -15.558846  
      10A    -15.552064    11A    -15.548472    12A    -11.394899  
      13A    -11.369208    14A    -11.330462    15A    -11.327359  
      16A    -11.325118    17A    -11.318228    18A    -11.317838  
      19A    -11.316005    20A    -11.249593    21A    -11.248965  
      22A     -1.396453    23A     -1.368043    24A     -1.361168  
      25A     -1.335452    26A     -1.294026    27A     -1.237396  
      28A     -1.220147    29A     -1.217280    30A     -1.182909  
      31A     -1.178858    32A     -1.146476    33A     -1.034206  
      34A     -1.028414    35A     -0.908416    36A     -0.890311  
      37A     -0.885272    38A     -0.874315    39A     -0.847123  
      40A     -0.845488    41A     -0.798886    42A     -0.768488  
      43A     -0.740252    44A     -0.728826    45A     -0.725293  
      46A     -0.700105    47A     -0.691189    48A     -0.680428  
      49A     -0.672400    50A     -0.662699    51A     -0.636519  
      52A     -0.627623    53A     -0.625320    54A     -0.618039  
      55A     -0.604843    56A     -0.599802    57A     -0.591312  
      58A     -0.588303    59A     -0.562760    60A     -0.540086  
      61A     -0.503221    62A     -0.496829    63A     -0.492183  
      64A     -0.454323    65A     -0.453448    66A     -0.446524  
      67A     -0.438106    68A     -0.431619    69A     -0.418296  
      70A     -0.412900    71A     -0.405615    72A     -0.373244  
      73A     -0.324160    74A     -0.284256  

    Virtual:                                                              

      75A      0.012964    76A      0.020886    77A      0.030584  
      78A      0.032922    79A      0.041872    80A      0.042834  
      81A      0.050991    82A      0.054305    83A      0.061570  
      84A      0.066158    85A      0.072803    86A      0.074979  
      87A      0.080760    88A      0.084059    89A      0.091649  
      90A      0.094324    91A      0.095295    92A      0.097439  
      93A      0.098267    94A      0.102354    95A      0.107333  
      96A      0.111531    97A      0.114254    98A      0.115479  
      99A      0.118706   100A      0.119741   101A      0.123641  
     102A      0.126139   103A      0.127775   104A      0.132463  
     105A      0.132891   106A      0.137024   107A      0.139010  
     108A      0.140197   109A      0.144218   110A      0.146683  
     111A      0.150863   112A      0.153165   113A      0.154760  
     114A      0.157981   115A      0.160919   116A      0.167496  
     117A      0.170703   118A      0.174522   119A      0.179303  
     120A      0.181731   121A      0.186333   122A      0.189156  
     123A      0.192384   124A      0.193790   125A      0.195893  
     126A      0.201880   127A      0.209593   128A      0.212230  
     129A      0.213681   130A      0.218003   131A      0.219235  
     132A      0.221523   133A      0.223764   134A      0.227024  
     135A      0.230054   136A      0.232811   137A      0.235347  
     138A      0.239794   139A      0.242804   140A      0.247226  
     141A      0.248032   142A      0.250425   143A      0.254183  
     144A      0.256021   145A      0.258762   146A      0.259702  
     147A      0.267570   148A      0.269027   149A      0.272663  
     150A      0.276552   151A      0.279017   152A      0.283615  
     153A      0.286970   154A      0.289063   155A      0.291701  
     156A      0.295792   157A      0.299769   158A      0.302852  
     159A      0.304178   160A      0.306782   161A      0.314279  
     162A      0.314728   163A      0.317998   164A      0.319344  
     165A      0.322654   166A      0.324987   167A      0.333515  
     168A      0.333788   169A      0.334977   170A      0.340330  
     171A      0.343748   172A      0.347779   173A      0.350390  
     174A      0.355261   175A      0.357242   176A      0.363189  
     177A      0.366063   178A      0.368668   179A      0.373916  
     180A      0.376944   181A      0.378756   182A      0.382412  
     183A      0.385790   184A      0.388228   185A      0.390223  
     186A      0.394732   187A      0.397296   188A      0.400548  
     189A      0.402103   190A      0.408162   191A      0.410289  
     192A      0.415279   193A      0.417471   194A      0.421315  
     195A      0.427552   196A      0.429457   197A      0.433776  
     198A      0.435979   199A      0.437585   200A      0.440444  
     201A      0.441910   202A      0.445106   203A      0.451728  
     204A      0.454059   205A      0.457782   206A      0.458322  
     207A      0.462845   208A      0.467494   209A      0.470564  
     210A      0.470864   211A      0.478044   212A      0.480175  
     213A      0.482272   214A      0.486002   215A      0.489322  
     216A      0.490618   217A      0.493992   218A      0.497582  
     219A      0.498943   220A      0.502287   221A      0.504964  
     222A      0.510856   223A      0.512370   224A      0.514056  
     225A      0.517870   226A      0.521209   227A      0.526106  
     228A      0.528208   229A      0.533829   230A      0.535321  
     231A      0.537508   232A      0.538456   233A      0.541210  
     234A      0.546046   235A      0.550897   236A      0.553339  
     237A      0.558444   238A      0.563252   239A      0.565269  
     240A      0.566171   241A      0.569612   242A      0.573390  
     243A      0.574372   244A      0.579954   245A      0.582549  
     246A      0.585550   247A      0.589295   248A      0.592186  
     249A      0.596101   250A      0.599630   251A      0.600727  
     252A      0.606855   253A      0.610128   254A      0.613473  
     255A      0.618404   256A      0.620577   257A      0.623782  
     258A      0.628642   259A      0.629575   260A      0.630439  
     261A      0.634659   262A      0.637802   263A      0.641077  
     264A      0.646583   265A      0.650219   266A      0.654317  
     267A      0.655793   268A      0.660861   269A      0.673814  
     270A      0.674717   271A      0.676632   272A      0.681465  
     273A      0.685513   274A      0.686913   275A      0.695074  
     276A      0.698758   277A      0.707509   278A      0.709165  
     279A      0.713570   280A      0.717435   281A      0.720927  
     282A      0.723706   283A      0.728440   284A      0.730336  
     285A      0.733024   286A      0.738727   287A      0.740188  
     288A      0.743354   289A      0.750127   290A      0.751502  
     291A      0.761272   292A      0.763793   293A      0.765490  
     294A      0.769535   295A      0.776760   296A      0.780888  
     297A      0.782511   298A      0.785807   299A      0.791370  
     300A      0.797930   301A      0.804147   302A      0.805623  
     303A      0.811417   304A      0.815907   305A      0.820223  
     306A      0.824872   307A      0.829092   308A      0.830899  
     309A      0.834029   310A      0.838561   311A      0.841448  
     312A      0.846143   313A      0.854462   314A      0.856304  
     315A      0.857287   316A      0.861766   317A      0.866068  
     318A      0.866939   319A      0.874167   320A      0.877620  
     321A      0.885119   322A      0.888408   323A      0.892603  
     324A      0.893620   325A      0.898760   326A      0.902108  
     327A      0.906479   328A      0.907752   329A      0.913496  
     330A      0.919809   331A      0.922931   332A      0.925926  
     333A      0.928136   334A      0.931945   335A      0.936675  
     336A      0.940590   337A      0.947124   338A      0.951322  
     339A      0.954582   340A      0.957745   341A      0.961453  
     342A      0.967457   343A      0.970745   344A      0.977559  
     345A      0.979815   346A      0.986209   347A      0.989583  
     348A      0.996096   349A      0.998426   350A      0.998980  
     351A      1.002125   352A      1.005832   353A      1.010414  
     354A      1.014999   355A      1.018077   356A      1.025112  
     357A      1.026779   358A      1.030210   359A      1.031490  
     360A      1.035521   361A      1.039621   362A      1.041026  
     363A      1.045659   364A      1.051400   365A      1.052481  
     366A      1.059842   367A      1.060267   368A      1.068999  
     369A      1.069818   370A      1.080526   371A      1.082000  
     372A      1.084375   373A      1.086696   374A      1.087555  
     375A      1.090145   376A      1.101517   377A      1.103894  
     378A      1.106486   379A      1.109082   380A      1.111041  
     381A      1.116258   382A      1.117466   383A      1.124463  
     384A      1.127763   385A      1.131895   386A      1.133803  
     387A      1.143728   388A      1.145844   389A      1.147844  
     390A      1.150109   391A      1.156205   392A      1.157606  
     393A      1.162528   394A      1.162791   395A      1.166871  
     396A      1.174368   397A      1.180541   398A      1.187443  
     399A      1.189317   400A      1.196950   401A      1.200660  
     402A      1.204579   403A      1.207697   404A      1.211087  
     405A      1.212048   406A      1.216789   407A      1.224980  
     408A      1.227638   409A      1.229031   410A      1.240479  
     411A      1.242014   412A      1.247121   413A      1.253053  
     414A      1.255510   415A      1.261575   416A      1.264991  
     417A      1.267835   418A      1.269132   419A      1.277298  
     420A      1.279935   421A      1.288061   422A      1.290893  
     423A      1.292681   424A      1.294546   425A      1.303398  
     426A      1.308181   427A      1.309111   428A      1.317663  
     429A      1.319934   430A      1.321452   431A      1.326958  
     432A      1.331187   433A      1.332603   434A      1.339993  
     435A      1.344374   436A      1.348160   437A      1.353189  
     438A      1.361002   439A      1.363986   440A      1.365325  
     441A      1.371541   442A      1.375972   443A      1.376414  
     444A      1.380205   445A      1.387169   446A      1.392939  
     447A      1.398065   448A      1.400025   449A      1.404608  
     450A      1.408214   451A      1.420451   452A      1.422745  
     453A      1.426628   454A      1.431092   455A      1.432383  
     456A      1.436842   457A      1.441138   458A      1.453370  
     459A      1.455416   460A      1.455657   461A      1.459398  
     462A      1.462785   463A      1.474652   464A      1.476628  
     465A      1.480743   466A      1.486645   467A      1.492498  
     468A      1.493786   469A      1.497600   470A      1.501219  
     471A      1.504111   472A      1.509934   473A      1.516268  
     474A      1.518781   475A      1.520956   476A      1.529348  
     477A      1.532650   478A      1.537959   479A      1.539716  
     480A      1.545994   481A      1.547063   482A      1.558610  
     483A      1.560846   484A      1.564439   485A      1.568381  
     486A      1.574029   487A      1.577351   488A      1.583650  
     489A      1.588764   490A      1.591393   491A      1.599309  
     492A      1.605099   493A      1.606745   494A      1.614196  
     495A      1.617562   496A      1.619522   497A      1.627735  
     498A      1.632779   499A      1.635987   500A      1.638533  
     501A      1.647998   502A      1.652055   503A      1.655095  
     504A      1.656644   505A      1.665138   506A      1.668962  
     507A      1.672483   508A      1.674299   509A      1.683249  
     510A      1.695595   511A      1.702280   512A      1.704835  
     513A      1.712743   514A      1.718639   515A      1.721253  
     516A      1.725321   517A      1.732634   518A      1.736287  
     519A      1.743195   520A      1.752088   521A      1.755838  
     522A      1.762139   523A      1.764071   524A      1.766384  
     525A      1.772108   526A      1.778101   527A      1.784571  
     528A      1.785905   529A      1.788317   530A      1.796831  
     531A      1.802960   532A      1.809600   533A      1.811178  
     534A      1.815704   535A      1.825998   536A      1.834511  
     537A      1.840280   538A      1.842578   539A      1.848032  
     540A      1.853453   541A      1.862772   542A      1.865366  
     543A      1.870338   544A      1.876972   545A      1.881444  
     546A      1.884971   547A      1.887730   548A      1.897031  
     549A      1.905849   550A      1.911141   551A      1.916342  
     552A      1.919448   553A      1.923723   554A      1.934545  
     555A      1.937897   556A      1.943054   557A      1.949968  
     558A      1.954004   559A      1.961794   560A      1.962695  
     561A      1.968930   562A      1.975737   563A      1.978503  
     564A      1.993691   565A      1.995340   566A      2.000370  
     567A      2.006415   568A      2.010200   569A      2.019619  
     570A      2.023763   571A      2.030081   572A      2.038350  
     573A      2.043116   574A      2.045256   575A      2.050149  
     576A      2.062063   577A      2.067680   578A      2.070590  
     579A      2.074231   580A      2.081273   581A      2.094813  
     582A      2.100321   583A      2.105353   584A      2.109038  
     585A      2.119947   586A      2.123764   587A      2.132024  
     588A      2.133419   589A      2.138424   590A      2.143312  
     591A      2.148894   592A      2.152600   593A      2.156774  
     594A      2.160611   595A      2.166248   596A      2.171277  
     597A      2.177454   598A      2.180159   599A      2.184787  
     600A      2.193179   601A      2.193764   602A      2.206058  
     603A      2.212357   604A      2.215776   605A      2.224631  
     606A      2.231126   607A      2.235202   608A      2.241145  
     609A      2.244016   610A      2.249695   611A      2.255844  
     612A      2.264662   613A      2.267083   614A      2.276456  
     615A      2.278029   616A      2.284624   617A      2.297916  
     618A      2.301775   619A      2.305183   620A      2.313530  
     621A      2.314232   622A      2.318809   623A      2.327164  
     624A      2.328966   625A      2.335295   626A      2.341954  
     627A      2.352567   628A      2.356666   629A      2.360428  
     630A      2.369250   631A      2.372642   632A      2.377372  
     633A      2.385079   634A      2.391449   635A      2.392605  
     636A      2.395398   637A      2.404071   638A      2.407734  
     639A      2.413206   640A      2.419169   641A      2.427841  
     642A      2.433635   643A      2.440682   644A      2.446958  
     645A      2.453599   646A      2.458617   647A      2.464464  
     648A      2.465421   649A      2.471707   650A      2.480764  
     651A      2.484833   652A      2.487727   653A      2.492109  
     654A      2.501185   655A      2.508941   656A      2.513036  
     657A      2.520540   658A      2.523531   659A      2.529591  
     660A      2.538203   661A      2.543656   662A      2.549588  
     663A      2.556054   664A      2.560085   665A      2.575764  
     666A      2.579535   667A      2.581738   668A      2.588930  
     669A      2.592022   670A      2.601025   671A      2.605054  
     672A      2.618827   673A      2.622390   674A      2.630109  
     675A      2.632624   676A      2.642131   677A      2.649114  
     678A      2.649485   679A      2.657690   680A      2.665636  
     681A      2.671763   682A      2.677817   683A      2.683193  
     684A      2.687639   685A      2.694774   686A      2.701680  
     687A      2.713514   688A      2.720001   689A      2.728659  
     690A      2.736724   691A      2.741940   692A      2.745382  
     693A      2.749609   694A      2.759216   695A      2.767419  
     696A      2.769309   697A      2.771328   698A      2.783055  
     699A      2.788194   700A      2.793933   701A      2.804695  
     702A      2.815174   703A      2.816262   704A      2.822506  
     705A      2.829125   706A      2.840532   707A      2.845675  
     708A      2.851487   709A      2.854015   710A      2.866100  
     711A      2.871300   712A      2.879546   713A      2.902421  
     714A      2.903688   715A      2.907833   716A      2.917428  
     717A      2.930190   718A      2.938995   719A      2.950596  
     720A      2.954916   721A      2.963561   722A      2.968755  
     723A      2.973194   724A      2.980255   725A      2.988188  
     726A      2.993346   727A      3.005694   728A      3.018073  
     729A      3.021461   730A      3.033845   731A      3.037945  
     732A      3.046234   733A      3.052052   734A      3.062424  
     735A      3.071961   736A      3.083581   737A      3.094544  
     738A      3.103476   739A      3.117013   740A      3.139215  
     741A      3.153817   742A      3.169108   743A      3.183841  
     744A      3.191845   745A      3.196960   746A      3.220728  
     747A      3.235151   748A      3.240537   749A      3.251785  
     750A      3.271574   751A      3.283958   752A      3.301893  
     753A      3.320280   754A      3.330063   755A      3.339416  
     756A      3.351676   757A      3.361794   758A      3.372917  
     759A      3.392112   760A      3.397979   761A      3.410759  
     762A      3.433735   763A      3.451285   764A      3.456908  
     765A      3.473789   766A      3.476655   767A      3.488829  
     768A      3.496786   769A      3.506975   770A      3.523950  
     771A      3.528565   772A      3.534132   773A      3.552472  
     774A      3.565370   775A      3.571314   776A      3.581981  
     777A      3.598224   778A      3.609672   779A      3.621035  
     780A      3.634045   781A      3.641765   782A      3.646107  
     783A      3.649365   784A      3.655495   785A      3.663407  
     786A      3.682417   787A      3.691780   788A      3.700173  
     789A      3.705154   790A      3.712386   791A      3.730933  
     792A      3.734502   793A      3.739024   794A      3.744662  
     795A      3.758889   796A      3.760462   797A      3.774571  
     798A      3.782209   799A      3.791834   800A      3.797112  
     801A      3.799420   802A      3.809516   803A      3.813823  
     804A      3.815488   805A      3.827055   806A      3.833056  
     807A      3.837336   808A      3.842830   809A      3.850646  
     810A      3.856105   811A      3.861461   812A      3.871217  
     813A      3.883375   814A      3.889831   815A      3.899666  
     816A      3.907168   817A      3.917479   818A      3.921149  
     819A      3.929572   820A      3.935919   821A      3.942280  
     822A      3.953437   823A      3.958951   824A      3.971895  
     825A      3.972923   826A      3.979359   827A      3.982176  
     828A      3.992302   829A      4.002482   830A      4.014353  
     831A      4.023174   832A      4.028170   833A      4.031787  
     834A      4.035185   835A      4.045349   836A      4.050827  
     837A      4.058795   838A      4.060426   839A      4.074944  
     840A      4.079582   841A      4.087101   842A      4.093181  
     843A      4.095048   844A      4.108833   845A      4.113896  
     846A      4.124146   847A      4.128977   848A      4.134418  
     849A      4.139716   850A      4.151003   851A      4.156237  
     852A      4.161335   853A      4.165742   854A      4.174816  
     855A      4.181695   856A      4.188020   857A      4.196189  
     858A      4.205249   859A      4.206318   860A      4.211095  
     861A      4.215580   862A      4.232115   863A      4.237332  
     864A      4.242721   865A      4.247995   866A      4.254558  
     867A      4.263064   868A      4.266381   869A      4.278451  
     870A      4.279602   871A      4.287794   872A      4.292655  
     873A      4.311520   874A      4.313022   875A      4.319849  
     876A      4.323369   877A      4.328617   878A      4.333117  
     879A      4.336211   880A      4.344480   881A      4.352954  
     882A      4.359030   883A      4.366263   884A      4.371922  
     885A      4.378451   886A      4.380824   887A      4.390230  
     888A      4.399118   889A      4.408896   890A      4.418215  
     891A      4.419675   892A      4.429200   893A      4.433790  
     894A      4.443777   895A      4.448756   896A      4.453487  
     897A      4.460814   898A      4.468401   899A      4.472554  
     900A      4.484231   901A      4.488415   902A      4.493343  
     903A      4.502391   904A      4.509340   905A      4.515574  
     906A      4.521569   907A      4.527193   908A      4.541230  
     909A      4.550081   910A      4.555364   911A      4.560300  
     912A      4.568955   913A      4.580552   914A      4.584615  
     915A      4.591198   916A      4.600782   917A      4.611380  
     918A      4.618619   919A      4.623096   920A      4.633214  
     921A      4.641762   922A      4.646027   923A      4.655735  
     924A      4.659371   925A      4.672399   926A      4.678413  
     927A      4.688162   928A      4.694208   929A      4.700735  
     930A      4.703761   931A      4.713171   932A      4.721609  
     933A      4.733190   934A      4.742410   935A      4.744944  
     936A      4.748791   937A      4.758185   938A      4.774372  
     939A      4.789766   940A      4.792862   941A      4.802153  
     942A      4.804827   943A      4.820440   944A      4.829097  
     945A      4.843532   946A      4.844339   947A      4.848440  
     948A      4.856338   949A      4.867143   950A      4.876663  
     951A      4.891658   952A      4.898022   953A      4.900503  
     954A      4.910812   955A      4.920320   956A      4.926316  
     957A      4.931856   958A      4.942506   959A      4.949219  
     960A      4.967682   961A      4.971230   962A      4.979767  
     963A      4.995421   964A      5.007410   965A      5.011297  
     966A      5.020869   967A      5.030068   968A      5.041274  
     969A      5.050693   970A      5.053572   971A      5.067745  
     972A      5.079118   973A      5.093336   974A      5.105687  
     975A      5.118802   976A      5.131591   977A      5.138685  
     978A      5.143505   979A      5.156266   980A      5.175257  
     981A      5.175966   982A      5.182552   983A      5.189603  
     984A      5.197658   985A      5.208155   986A      5.225909  
     987A      5.231289   988A      5.238941   989A      5.250581  
     990A      5.259617   991A      5.263219   992A      5.274580  
     993A      5.280460   994A      5.298934   995A      5.308386  
     996A      5.322334   997A      5.328581   998A      5.343640  
     999A      5.350695  1000A      5.357714  1001A      5.359151  
    1002A      5.364883  1003A      5.377456  1004A      5.388266  
    1005A      5.395801  1006A      5.414710  1007A      5.427456  
    1008A      5.437297  1009A      5.447565  1010A      5.470763  
    1011A      5.479531  1012A      5.487634  1013A      5.491919  
    1014A      5.500427  1015A      5.510346  1016A      5.514567  
    1017A      5.524474  1018A      5.533100  1019A      5.535630  
    1020A      5.558057  1021A      5.564539  1022A      5.578309  
    1023A      5.583218  1024A      5.590679  1025A      5.599771  
    1026A      5.606038  1027A      5.611173  1028A      5.618672  
    1029A      5.630898  1030A      5.647839  1031A      5.650971  
    1032A      5.665433  1033A      5.668837  1034A      5.684373  
    1035A      5.692017  1036A      5.697232  1037A      5.707783  
    1038A      5.722048  1039A      5.728568  1040A      5.735565  
    1041A      5.740903  1042A      5.748033  1043A      5.758047  
    1044A      5.761962  1045A      5.775831  1046A      5.786268  
    1047A      5.792858  1048A      5.807864  1049A      5.812542  
    1050A      5.822076  1051A      5.824451  1052A      5.827493  
    1053A      5.839992  1054A      5.847583  1055A      5.861539  
    1056A      5.872046  1057A      5.877253  1058A      5.895201  
    1059A      5.908022  1060A      5.911392  1061A      5.918211  
    1062A      5.925852  1063A      5.938795  1064A      5.948282  
    1065A      5.952550  1066A      5.956212  1067A      5.976137  
    1068A      5.977654  1069A      5.986620  1070A      5.992053  
    1071A      6.009334  1072A      6.019206  1073A      6.027533  
    1074A      6.031974  1075A      6.038309  1076A      6.045560  
    1077A      6.057239  1078A      6.076855  1079A      6.084979  
    1080A      6.092338  1081A      6.102132  1082A      6.107522  
    1083A      6.123888  1084A      6.131101  1085A      6.146955  
    1086A      6.150645  1087A      6.169748  1088A      6.189113  
    1089A      6.208959  1090A      6.209859  1091A      6.220287  
    1092A      6.222359  1093A      6.240380  1094A      6.249530  
    1095A      6.255270  1096A      6.263512  1097A      6.275190  
    1098A      6.280363  1099A      6.284297  1100A      6.302906  
    1101A      6.314582  1102A      6.337143  1103A      6.345141  
    1104A      6.359373  1105A      6.376848  1106A      6.394428  
    1107A      6.399787  1108A      6.433981  1109A      6.441507  
    1110A      6.481980  1111A      6.509033  1112A      6.544039  
    1113A      6.554074  1114A      6.564705  1115A      6.580229  
    1116A      6.593414  1117A      6.603013  1118A      6.619146  
    1119A      6.649690  1120A      6.670464  1121A      6.675558  
    1122A      6.708369  1123A      6.735826  1124A      6.756105  
    1125A      6.767464  1126A      6.788122  1127A      6.789747  
    1128A      6.797994  1129A      6.841692  1130A      6.866971  
    1131A      6.875077  1132A      6.888460  1133A      6.909066  
    1134A      6.915827  1135A      6.937973  1136A      6.970070  
    1137A      6.984370  1138A      7.001460  1139A      7.026683  
    1140A      7.047010  1141A      7.086479  1142A      7.092300  
    1143A      7.102267  1144A      7.110497  1145A      7.124210  
    1146A      7.148109  1147A      7.165721  1148A      7.189268  
    1149A      7.191850  1150A      7.221271  1151A      7.272368  
    1152A      7.281672  1153A      7.319007  1154A      7.337696  
    1155A      7.355381  1156A      7.371807  1157A      7.416926  
    1158A      7.436526  1159A      7.459609  1160A      7.479580  
    1161A      7.515546  1162A      7.547439  1163A      7.589691  
    1164A      7.618372  1165A      7.698352  1166A      7.726730  
    1167A      7.802162  1168A      7.849867  1169A      7.884504  
    1170A      7.909519  1171A      7.938193  1172A      7.963463  
    1173A      8.027724  1174A      8.089243  1175A      8.131545  
    1176A     16.417518  1177A     16.490195  1178A     16.709734  
    1179A     16.769091  1180A     16.924431  1181A     17.018285  
    1182A     17.753322  1183A     18.202532  1184A     18.275405  
    1185A     18.781165  1186A     19.302696  1187A     19.553172  
    1188A     19.586497  1189A     19.776263  1190A     20.024250  
    1191A     20.077944  1192A     21.006575  1193A     21.171326  
    1194A     21.380292  1195A     21.848667  1196A     22.176384  

    Final Occupation by Irrep:
              A 
    DOCC [    74 ]

  @DF-RHF Final Energy: -1004.23047766048603

   => Energetics <=

    Nuclear Repulsion Energy =           1820.6762624656425942
    One-Electron Energy =               -4989.9235919011007354
    Two-Electron Energy =                2165.0168517749721104
    Total Energy =                      -1004.2304776604860308

Computation Completed


Properties will be evaluated at   0.000000,   0.000000,   0.000000 [a0]

Properties computed using the SCF density matrix

  Nuclear Dipole Moment: [e a0]
     X:    -0.1288      Y:     3.6572      Z:    -1.1548

  Electronic Dipole Moment: [e a0]
     X:    -0.4964      Y:    -1.3439      Z:    -0.6281

  Dipole Moment: [e a0]
     X:    -0.6252      Y:     2.3133      Z:    -1.7829     Total:     2.9868

  Dipole Moment: [D]
     X:    -1.5890      Y:     5.8798      Z:    -4.5317     Total:     7.5916


*** tstop() called on node157.bme.utexas.edu at Sat Jan 20 13:49:11 2024
Module time:
	user time   =    1283.23 seconds =      21.39 minutes
	system time =      11.44 seconds =       0.19 minutes
	total time  =        184 seconds =       3.07 minutes
Total time:
	user time   =    1283.23 seconds =      21.39 minutes
	system time =      11.44 seconds =       0.19 minutes
	total time  =        184 seconds =       3.07 minutes

*** tstart() called on node157.bme.utexas.edu
*** at Sat Jan 20 13:49:11 2024


  //>>>>>>>>>>>>>>>>>>>>>>>>>>>>>>>>>>>//
  //               DFMP2               //
  //<<<<<<<<<<<<<<<<<<<<<<<<<<<<<<<<<<<//

   => Loading Basis Set <=

    Name: (AUG-CC-PVTZ AUX)
    Role: RIFIT
    Keyword: DF_BASIS_MP2
    atoms 1, 4, 11, 14-15, 17, 19, 29-31    entry H          line    30 file /opt/anaconda/envs/psi4v1.5/share/psi4/basis/aug-cc-pvtz-ri.gbs 
    atoms 2, 5, 8-9, 12, 16, 20, 24, 26-27  entry N          line   206 file /opt/anaconda/envs/psi4v1.5/share/psi4/basis/aug-cc-pvtz-ri.gbs 
    atoms 3, 6-7, 10, 13, 18, 21-22, 25, 28 entry C          line   148 file /opt/anaconda/envs/psi4v1.5/share/psi4/basis/aug-cc-pvtz-ri.gbs 
    atoms 23                                entry O          line   264 file /opt/anaconda/envs/psi4v1.5/share/psi4/basis/aug-cc-pvtz-ri.gbs 

	 --------------------------------------------------------
	                          DF-MP2                         
	      2nd-Order Density-Fitted Moller-Plesset Theory     
	              RMP2 Wavefunction,   8 Threads             
	                                                         
	        Rob Parrish, Justin Turney, Andy Simmonett,      
	           Ed Hohenstein, and C. David Sherrill          
	 --------------------------------------------------------

   => Auxiliary Basis Set <=

  Basis Set: (AUG-CC-PVTZ AUX)
    Blend: AUG-CC-PVTZ-RI
    Number of shells: 728
    Number of basis functions: 2686
    Number of Cartesian functions: 3406
    Spherical Harmonics?: true
    Max angular momentum: 4

	 --------------------------------------------------------
	                 NBF =  1196, NAUX =  2686
	 --------------------------------------------------------
	   CLASS    FOCC     OCC    AOCC    AVIR     VIR    FVIR
	   PAIRS      21      74      53    1122    1122       0
	 --------------------------------------------------------

	 Will save fitting metric to file 97.

	-----------------------------------------------------------
	 ==================> DF-MP2 Energies <==================== 
	-----------------------------------------------------------
	 Reference Energy          =   -1004.2304776604860308 [Eh]
	 Singles Energy            =      -0.0000000000000000 [Eh]
	 Same-Spin Energy          =      -1.0475657811576204 [Eh]
	 Opposite-Spin Energy      =      -2.8541381828031618 [Eh]
	 Correlation Energy        =      -3.9017039639607822 [Eh]
	 Total Energy              =   -1008.1321816244468437 [Eh]
	-----------------------------------------------------------
	 ================> DF-SCS-MP2 Energies <================== 
	-----------------------------------------------------------
	 SCS Same-Spin Scale       =       0.3333333333333333 [-]
	 SCS Opposite-Spin Scale   =       1.2000000000000000 [-]
	 SCS Same-Spin Energy      =      -0.3491885937192068 [Eh]
	 SCS Opposite-Spin Energy  =      -3.4249658193637940 [Eh]
	 SCS Correlation Energy    =      -3.7741544130830009 [Eh]
	 SCS Total Energy          =   -1008.0046320735690415 [Eh]
	-----------------------------------------------------------


*** tstop() called on node157.bme.utexas.edu at Sat Jan 20 13:50:10 2024
Module time:
	user time   =     378.31 seconds =       6.31 minutes
	system time =       5.30 seconds =       0.09 minutes
	total time  =         59 seconds =       0.98 minutes
Total time:
	user time   =    1661.56 seconds =      27.69 minutes
	system time =      16.74 seconds =       0.28 minutes
	total time  =        243 seconds =       4.05 minutes

  //>>>>>>>>>>>>>>>>>>>>>>>>>>>>>>>>>>>//
  //            Monomer A HF           //
  //<<<<<<<<<<<<<<<<<<<<<<<<<<<<<<<<<<<//


*** tstart() called on node157.bme.utexas.edu
*** at Sat Jan 20 13:50:10 2024

   => Loading Basis Set <=

    Name: AUG-CC-PVTZ
    Role: ORBITAL
    Keyword: BASIS
    atoms 1, 4, 11, 14-15, 17, 19, 29-31    entry H          line    40 file /opt/anaconda/envs/psi4v1.5/share/psi4/basis/aug-cc-pvtz.gbs 
    atoms 2, 5, 8-9, 12, 16, 20, 24, 26-27  entry N          line   285 file /opt/anaconda/envs/psi4v1.5/share/psi4/basis/aug-cc-pvtz.gbs 
    atoms 3, 6-7, 10, 13, 18, 21-22, 25, 28 entry C          line   239 file /opt/anaconda/envs/psi4v1.5/share/psi4/basis/aug-cc-pvtz.gbs 
    atoms 23                                entry O          line   331 file /opt/anaconda/envs/psi4v1.5/share/psi4/basis/aug-cc-pvtz.gbs 


         ---------------------------------------------------------
                                   SCF
               by Justin Turney, Rob Parrish, Andy Simmonett
                          and Daniel G. A. Smith
                              RHF Reference
                        8 Threads,  95367 MiB Core
         ---------------------------------------------------------

  ==> Geometry <==

    Molecular point group: c1
    Full point group: C1

    Geometry (in Angstrom), charge = 0, multiplicity = 1:

       Center              X                  Y                   Z               Mass       
    ------------   -----------------  -----------------  -----------------  -----------------
         H           -3.281653294981     2.206277508863    -0.985978953129     1.007825032230
         N           -2.915333294981     1.353767508863    -0.578448953129    14.003074004430
         C           -3.477463294981     0.101277508863    -0.614448953129    12.000000000000
         H           -4.385873294981    -0.099592491137    -1.169618953129     1.007825032230
         N           -2.806063294981    -0.801072491137     0.086881046871    14.003074004430
         C           -1.755723294981    -0.076982491137     0.620231046871    12.000000000000
         C           -0.667963294981    -0.452092491137     1.438111046871    12.000000000000
         N           -0.513753294981    -1.719512491137     1.910441046871    14.003074004430
         N            0.213886705019     0.499867508863     1.801821046871    14.003074004430
         C            0.027236705019     1.759627508863     1.352671046871    12.000000000000
         H            0.768316705019     2.484437508863     1.687511046871     1.007825032230
         N           -0.939303294981     2.241427508863     0.559851046871    14.003074004430
         C           -1.798863294981     1.266287508863     0.226251046871    12.000000000000
         H            0.443636705019    -1.948552491137     2.171061046871     1.007825032230
         H           -0.944663294981    -2.430772491137     1.326731046871     1.007825032230
      Gh(N)          -0.397595557481    -0.301240957804    -2.153242161463    14.003074004430
      Gh(H)          -0.813625557481     0.348969042196    -2.810112161463     1.007825032230
      Gh(C)          -0.826345557481    -1.568720957804    -1.841492161463    12.000000000000
      Gh(H)          -1.689785557481    -2.016130957804    -2.315682161463     1.007825032230
      Gh(N)          -0.080015557481    -2.150600957804    -0.913772161463    14.003074004430
      Gh(C)           0.877144442519    -1.204910957804    -0.620312161463    12.000000000000
      Gh(C)           1.895024442519    -1.217990957804     0.395677838537    12.000000000000
      Gh(O)           2.163554442519    -2.071690957804     1.241177838537    15.994914619570
      Gh(N)           2.654224442519    -0.022770957804     0.318857838537    14.003074004430
      Gh(C)           2.359984442519     1.082189042196    -0.440132161463    12.000000000000
      Gh(N)           3.220594442519     2.159949042196    -0.306472161463    14.003074004430
      Gh(N)           1.391644442519     1.127409042196    -1.324332161463    14.003074004430
      Gh(C)           0.696034442519    -0.042160957804    -1.368482161463    12.000000000000
      Gh(H)           3.411294442519     0.022399042196     0.997257838537     1.007825032230
      Gh(H)           3.491744442519     2.378019042196     0.647317838537     1.007825032230
      Gh(H)           2.851644442519     2.974069042196    -0.788552161463     1.007825032230

  Running in c1 symmetry.

  Rotational constants: A =      0.01809  B =      0.01195  C =      0.01073 [cm^-1]
  Rotational constants: A =    542.24766  B =    358.22029  C =    321.79706 [MHz]
  Nuclear repulsion =  501.381185017474309

  Charge       = 0
  Multiplicity = 1
  Electrons    = 70
  Nalpha       = 35
  Nbeta        = 35

  ==> Algorithm <==

  SCF Algorithm Type is DF.
  DIIS enabled.
  MOM disabled.
  Fractional occupation disabled.
  Guess Type is SAD.
  Energy threshold   = 1.00e-08
  Density threshold  = 1.00e-08
  Integral threshold = 1.00e-12

  ==> Primary Basis <==

  Basis Set: AUG-CC-PVTZ
    Blend: AUG-CC-PVTZ
    Number of shells: 384
    Number of basis functions: 1196
    Number of Cartesian functions: 1405
    Spherical Harmonics?: true
    Max angular momentum: 3

   => Loading Basis Set <=

    Name: (AUG-CC-PVTZ AUX)
    Role: JKFIT
    Keyword: DF_BASIS_SCF
    atoms 1, 4, 11, 14-15, 17, 19, 29-31    entry H          line    70 file /opt/anaconda/envs/psi4v1.5/share/psi4/basis/aug-cc-pvtz-jkfit.gbs 
    atoms 2, 5, 8-9, 12, 16, 20, 24, 26-27  entry N          line   224 file /opt/anaconda/envs/psi4v1.5/share/psi4/basis/aug-cc-pvtz-jkfit.gbs 
    atoms 3, 6-7, 10, 13, 18, 21-22, 25, 28 entry C          line   162 file /opt/anaconda/envs/psi4v1.5/share/psi4/basis/aug-cc-pvtz-jkfit.gbs 
    atoms 23                                entry O          line   286 file /opt/anaconda/envs/psi4v1.5/share/psi4/basis/aug-cc-pvtz-jkfit.gbs 

  ==> Integral Setup <==

  ==> DiskDFJK: Density-Fitted J/K Matrices <==

    J tasked:                  Yes
    K tasked:                  Yes
    wK tasked:                  No
    OpenMP threads:              8
    Integrals threads:           8
    Memory [MiB]:            71525
    Algorithm:                Core
    Integral Cache:           LOAD
    Schwarz Cutoff:          1E-12
    Fitting Condition:       1E-10

   => Auxiliary Basis Set <=

  Basis Set: (AUG-CC-PVTZ AUX)
    Blend: AUG-CC-PVTZ-JKFIT
    Number of shells: 770
    Number of basis functions: 2644
    Number of Cartesian functions: 3301
    Spherical Harmonics?: true
    Max angular momentum: 4

  Minimum eigenvalue in the overlap matrix is 5.5141217796E-07.
  Reciprocal condition number of the overlap matrix is 2.1090864919E-08.
    Using symmetric orthogonalization.

  ==> Pre-Iterations <==

  SCF Guess: Superposition of Atomic Densities via on-the-fly atomic UHF (no occupation information).

   -------------------------
    Irrep   Nso     Nmo    
   -------------------------
     A       1196    1196 
   -------------------------
    Total    1196    1196
   -------------------------

  ==> Iterations <==

                           Total Energy        Delta E     RMS |[F,P]|

   @DF-RHF iter SAD:  -464.44235798777794   -4.64442e+02   0.00000e+00 
   @DF-RHF iter   1:  -464.44250551735882   -1.47530e-04   5.58281e-04 DIIS
   @DF-RHF iter   2:  -464.63272109801579   -1.90216e-01   2.76041e-04 DIIS
   @DF-RHF iter   3:  -464.67646141141762   -4.37403e-02   6.34014e-05 DIIS
   @DF-RHF iter   4:  -464.67982490662990   -3.36350e-03   2.98774e-05 DIIS
   @DF-RHF iter   5:  -464.68049607394664   -6.71167e-04   6.06366e-06 DIIS
   @DF-RHF iter   6:  -464.68055409594041   -5.80220e-05   2.84644e-06 DIIS
   @DF-RHF iter   7:  -464.68056836189072   -1.42660e-05   1.12497e-06 DIIS
   @DF-RHF iter   8:  -464.68057129484760   -2.93296e-06   4.19448e-07 DIIS
   @DF-RHF iter   9:  -464.68057174503218   -4.50185e-07   2.23901e-07 DIIS
   @DF-RHF iter  10:  -464.68057186449784   -1.19466e-07   8.37414e-08 DIIS
   @DF-RHF iter  11:  -464.68057188994658   -2.54487e-08   3.53268e-08 DIIS
   @DF-RHF iter  12:  -464.68057189376088   -3.81431e-09   1.42763e-08 DIIS
   @DF-RHF iter  13:  -464.68057189433375   -5.72868e-10   5.12397e-09 DIIS
  Energy and wave function converged.


  ==> Post-Iterations <==

    Orbital Energies [Eh]
    ---------------------

    Doubly Occupied:                                                      

       1A    -15.636291     2A    -15.586021     3A    -15.573222  
       4A    -15.563933     5A    -15.555887     6A    -11.339225  
       7A    -11.329443     8A    -11.321626     9A    -11.314338  
      10A    -11.257161    11A     -1.368010    12A     -1.298931  
      13A     -1.248160    14A     -1.187676    15A     -1.153435  
      16A     -1.033646    17A     -0.894616    18A     -0.876590  
      19A     -0.847659    20A     -0.775660    21A     -0.733738  
      22A     -0.695721    23A     -0.671900    24A     -0.641452  
      25A     -0.631469    26A     -0.609736    27A     -0.590816  
      28A     -0.558688    29A     -0.501259    30A     -0.498919  
      31A     -0.453951    32A     -0.430265    33A     -0.413179  
      34A     -0.376480    35A     -0.313149  

    Virtual:                                                              

      36A      0.018141    37A      0.025409    38A      0.030744  
      39A      0.034681    40A      0.041044    41A      0.045170  
      42A      0.049406    43A      0.052432    44A      0.056808  
      45A      0.064514    46A      0.068387    47A      0.071836  
      48A      0.078066    49A      0.082335    50A      0.083706  
      51A      0.086299    52A      0.091297    53A      0.092635  
      54A      0.099082    55A      0.100401    56A      0.104031  
      57A      0.104579    58A      0.110599    59A      0.110866  
      60A      0.117046    61A      0.120665    62A      0.121894  
      63A      0.124096    64A      0.128315    65A      0.128782  
      66A      0.133353    67A      0.135008    68A      0.136604  
      69A      0.139286    70A      0.140984    71A      0.142426  
      72A      0.150912    73A      0.153734    74A      0.156652  
      75A      0.157222    76A      0.160902    77A      0.166424  
      78A      0.172834    79A      0.176950    80A      0.178370  
      81A      0.179960    82A      0.183369    83A      0.187439  
      84A      0.191311    85A      0.197309    86A      0.201717  
      87A      0.202756    88A      0.207939    89A      0.208721  
      90A      0.215322    91A      0.216368    92A      0.217955  
      93A      0.220538    94A      0.223151    95A      0.225651  
      96A      0.229144    97A      0.232992    98A      0.236791  
      99A      0.239062   100A      0.239769   101A      0.242924  
     102A      0.243756   103A      0.248880   104A      0.250405  
     105A      0.256013   106A      0.256470   107A      0.259754  
     108A      0.265291   109A      0.267517   110A      0.269150  
     111A      0.272565   112A      0.276607   113A      0.279444  
     114A      0.282474   115A      0.286660   116A      0.287442  
     117A      0.291981   118A      0.292993   119A      0.296703  
     120A      0.298657   121A      0.302673   122A      0.306636  
     123A      0.307643   124A      0.308856   125A      0.314316  
     126A      0.317550   127A      0.324405   128A      0.328586  
     129A      0.330158   130A      0.335574   131A      0.341147  
     132A      0.344032   133A      0.348500   134A      0.352488  
     135A      0.353212   136A      0.356139   137A      0.363914  
     138A      0.368454   139A      0.376106   140A      0.378898  
     141A      0.382884   142A      0.384115   143A      0.391780  
     144A      0.392596   145A      0.395491   146A      0.395777  
     147A      0.400673   148A      0.405317   149A      0.409585  
     150A      0.413302   151A      0.416718   152A      0.421113  
     153A      0.424029   154A      0.426655   155A      0.427967  
     156A      0.432829   157A      0.435034   158A      0.439145  
     159A      0.441398   160A      0.443229   161A      0.446661  
     162A      0.450759   163A      0.454888   164A      0.457074  
     165A      0.459955   166A      0.464011   167A      0.467076  
     168A      0.471675   169A      0.477354   170A      0.478994  
     171A      0.481935   172A      0.484799   173A      0.486537  
     174A      0.489949   175A      0.493042   176A      0.495768  
     177A      0.498254   178A      0.500528   179A      0.502206  
     180A      0.505499   181A      0.510329   182A      0.513521  
     183A      0.515268   184A      0.520723   185A      0.522423  
     186A      0.526220   187A      0.529850   188A      0.530169  
     189A      0.532664   190A      0.535942   191A      0.538375  
     192A      0.539600   193A      0.551329   194A      0.553858  
     195A      0.556509   196A      0.559569   197A      0.561341  
     198A      0.567081   199A      0.569860   200A      0.570976  
     201A      0.574634   202A      0.582977   203A      0.584383  
     204A      0.589639   205A      0.590898   206A      0.594094  
     207A      0.601928   208A      0.604368   209A      0.605988  
     210A      0.609399   211A      0.612494   212A      0.614174  
     213A      0.617866   214A      0.622459   215A      0.630589  
     216A      0.634019   217A      0.636909   218A      0.644003  
     219A      0.644038   220A      0.646046   221A      0.653118  
     222A      0.655980   223A      0.661728   224A      0.667799  
     225A      0.668014   226A      0.674807   227A      0.676338  
     228A      0.680686   229A      0.686458   230A      0.692421  
     231A      0.694803   232A      0.698335   233A      0.706712  
     234A      0.710274   235A      0.713617   236A      0.715471  
     237A      0.719465   238A      0.731745   239A      0.735930  
     240A      0.736262   241A      0.741914   242A      0.747775  
     243A      0.752488   244A      0.754072   245A      0.759420  
     246A      0.762282   247A      0.765983   248A      0.771424  
     249A      0.774728   250A      0.779129   251A      0.781867  
     252A      0.788903   253A      0.793832   254A      0.795437  
     255A      0.798412   256A      0.804011   257A      0.808298  
     258A      0.816227   259A      0.820547   260A      0.821792  
     261A      0.823924   262A      0.829701   263A      0.835364  
     264A      0.841891   265A      0.844088   266A      0.846969  
     267A      0.848385   268A      0.853487   269A      0.862893  
     270A      0.863719   271A      0.867467   272A      0.872256  
     273A      0.873205   274A      0.876950   275A      0.883730  
     276A      0.887182   277A      0.888975   278A      0.893009  
     279A      0.899811   280A      0.902008   281A      0.904288  
     282A      0.906885   283A      0.910523   284A      0.916522  
     285A      0.918546   286A      0.923473   287A      0.928177  
     288A      0.930833   289A      0.936467   290A      0.938863  
     291A      0.941971   292A      0.946644   293A      0.954114  
     294A      0.957076   295A      0.963559   296A      0.965673  
     297A      0.968509   298A      0.975732   299A      0.977542  
     300A      0.979619   301A      0.982456   302A      0.988017  
     303A      0.994076   304A      1.001199   305A      1.001871  
     306A      1.003954   307A      1.005196   308A      1.010425  
     309A      1.014483   310A      1.020630   311A      1.023000  
     312A      1.025399   313A      1.028712   314A      1.033145  
     315A      1.037614   316A      1.043735   317A      1.044436  
     318A      1.052249   319A      1.055095   320A      1.057208  
     321A      1.060084   322A      1.068721   323A      1.069993  
     324A      1.076920   325A      1.080996   326A      1.083880  
     327A      1.087799   328A      1.089947   329A      1.091213  
     330A      1.097861   331A      1.101070   332A      1.104528  
     333A      1.109485   334A      1.113138   335A      1.116634  
     336A      1.120721   337A      1.125590   338A      1.131556  
     339A      1.134611   340A      1.144995   341A      1.150087  
     342A      1.152790   343A      1.154965   344A      1.156665  
     345A      1.157424   346A      1.165208   347A      1.167695  
     348A      1.173652   349A      1.175427   350A      1.184972  
     351A      1.187807   352A      1.188810   353A      1.195499  
     354A      1.198936   355A      1.199794   356A      1.205495  
     357A      1.213650   358A      1.216697   359A      1.220414  
     360A      1.223201   361A      1.225203   362A      1.232313  
     363A      1.234504   364A      1.238059   365A      1.239792  
     366A      1.243338   367A      1.255377   368A      1.263235  
     369A      1.265742   370A      1.272980   371A      1.275851  
     372A      1.282070   373A      1.286916   374A      1.288180  
     375A      1.293394   376A      1.296819   377A      1.303577  
     378A      1.308380   379A      1.314190   380A      1.317519  
     381A      1.324579   382A      1.328308   383A      1.330707  
     384A      1.334610   385A      1.334700   386A      1.343609  
     387A      1.345544   388A      1.351507   389A      1.354204  
     390A      1.357200   391A      1.359929   392A      1.363518  
     393A      1.368728   394A      1.382379   395A      1.384744  
     396A      1.387182   397A      1.390731   398A      1.396919  
     399A      1.401231   400A      1.405309   401A      1.412779  
     402A      1.422508   403A      1.425815   404A      1.426462  
     405A      1.429311   406A      1.432374   407A      1.438281  
     408A      1.449420   409A      1.453323   410A      1.456193  
     411A      1.462482   412A      1.469092   413A      1.474808  
     414A      1.476925   415A      1.480555   416A      1.483618  
     417A      1.489387   418A      1.496927   419A      1.501379  
     420A      1.503024   421A      1.507181   422A      1.510409  
     423A      1.517417   424A      1.520682   425A      1.528113  
     426A      1.531178   427A      1.536762   428A      1.544641  
     429A      1.548993   430A      1.556200   431A      1.558190  
     432A      1.561064   433A      1.574424   434A      1.580423  
     435A      1.582826   436A      1.586474   437A      1.592919  
     438A      1.598005   439A      1.600739   440A      1.602821  
     441A      1.610437   442A      1.616842   443A      1.620102  
     444A      1.624114   445A      1.631511   446A      1.635554  
     447A      1.641836   448A      1.643309   449A      1.647428  
     450A      1.649387   451A      1.652995   452A      1.658621  
     453A      1.666297   454A      1.674969   455A      1.677838  
     456A      1.685645   457A      1.691965   458A      1.694218  
     459A      1.700741   460A      1.704253   461A      1.706633  
     462A      1.713410   463A      1.715573   464A      1.721023  
     465A      1.726165   466A      1.733592   467A      1.742677  
     468A      1.745934   469A      1.748245   470A      1.750469  
     471A      1.758601   472A      1.761532   473A      1.771171  
     474A      1.775940   475A      1.782445   476A      1.785138  
     477A      1.790932   478A      1.799298   479A      1.802705  
     480A      1.808837   481A      1.811796   482A      1.818485  
     483A      1.822487   484A      1.825036   485A      1.833288  
     486A      1.833609   487A      1.840186   488A      1.846718  
     489A      1.854762   490A      1.858183   491A      1.859809  
     492A      1.867399   493A      1.870638   494A      1.875605  
     495A      1.881928   496A      1.884935   497A      1.900220  
     498A      1.907476   499A      1.912942   500A      1.922109  
     501A      1.922875   502A      1.926512   503A      1.932211  
     504A      1.937697   505A      1.941784   506A      1.949225  
     507A      1.953360   508A      1.960331   509A      1.962788  
     510A      1.967744   511A      1.968426   512A      1.976643  
     513A      1.977569   514A      1.989901   515A      2.000565  
     516A      2.004932   517A      2.010139   518A      2.011921  
     519A      2.017088   520A      2.023931   521A      2.026348  
     522A      2.030173   523A      2.040053   524A      2.047998  
     525A      2.054989   526A      2.056494   527A      2.067939  
     528A      2.075845   529A      2.079375   530A      2.084081  
     531A      2.089034   532A      2.095006   533A      2.099296  
     534A      2.103381   535A      2.105943   536A      2.115365  
     537A      2.119817   538A      2.126296   539A      2.128311  
     540A      2.133604   541A      2.141595   542A      2.148821  
     543A      2.151210   544A      2.152357   545A      2.159697  
     546A      2.165168   547A      2.169164   548A      2.177388  
     549A      2.182945   550A      2.185380   551A      2.193369  
     552A      2.201744   553A      2.204188   554A      2.213870  
     555A      2.216211   556A      2.225708   557A      2.230522  
     558A      2.233872   559A      2.241111   560A      2.250542  
     561A      2.251835   562A      2.257512   563A      2.264354  
     564A      2.270855   565A      2.282782   566A      2.284142  
     567A      2.291598   568A      2.294188   569A      2.299883  
     570A      2.304377   571A      2.315809   572A      2.319370  
     573A      2.332170   574A      2.334300   575A      2.339210  
     576A      2.347090   577A      2.352154   578A      2.356983  
     579A      2.362673   580A      2.374848   581A      2.376107  
     582A      2.383683   583A      2.385475   584A      2.389765  
     585A      2.394449   586A      2.404033   587A      2.412189  
     588A      2.413807   589A      2.419312   590A      2.429247  
     591A      2.434786   592A      2.437397   593A      2.443893  
     594A      2.445585   595A      2.454819   596A      2.459372  
     597A      2.470812   598A      2.474531   599A      2.477293  
     600A      2.486297   601A      2.490142   602A      2.496846  
     603A      2.504571   604A      2.508003   605A      2.518292  
     606A      2.522766   607A      2.525505   608A      2.533179  
     609A      2.534357   610A      2.536098   611A      2.551651  
     612A      2.556066   613A      2.566123   614A      2.568987  
     615A      2.572870   616A      2.579040   617A      2.589603  
     618A      2.596199   619A      2.601777   620A      2.613363  
     621A      2.619011   622A      2.627093   623A      2.630470  
     624A      2.635117   625A      2.641944   626A      2.653161  
     627A      2.657094   628A      2.664744   629A      2.671742  
     630A      2.674947   631A      2.679820   632A      2.684591  
     633A      2.697841   634A      2.700807   635A      2.709523  
     636A      2.715694   637A      2.727242   638A      2.731531  
     639A      2.742209   640A      2.745417   641A      2.756843  
     642A      2.760381   643A      2.768467   644A      2.771376  
     645A      2.773755   646A      2.784869   647A      2.786322  
     648A      2.789442   649A      2.796455   650A      2.806509  
     651A      2.814923   652A      2.825026   653A      2.831408  
     654A      2.837368   655A      2.846127   656A      2.849467  
     657A      2.856624   658A      2.861548   659A      2.878086  
     660A      2.880494   661A      2.883275   662A      2.899459  
     663A      2.905925   664A      2.906834   665A      2.919180  
     666A      2.927814   667A      2.932203   668A      2.941107  
     669A      2.952393   670A      2.955077   671A      2.957939  
     672A      2.962785   673A      2.971108   674A      2.984584  
     675A      2.989768   676A      2.996719   677A      3.004381  
     678A      3.011563   679A      3.017953   680A      3.027248  
     681A      3.029747   682A      3.036670   683A      3.051209  
     684A      3.060070   685A      3.061272   686A      3.078626  
     687A      3.087492   688A      3.100623   689A      3.101974  
     690A      3.110136   691A      3.121142   692A      3.125882  
     693A      3.137978   694A      3.139058   695A      3.150201  
     696A      3.154954   697A      3.165789   698A      3.175984  
     699A      3.186043   700A      3.201311   701A      3.206941  
     702A      3.215709   703A      3.225960   704A      3.243141  
     705A      3.244458   706A      3.254970   707A      3.262893  
     708A      3.270528   709A      3.279328   710A      3.295106  
     711A      3.303404   712A      3.311327   713A      3.322887  
     714A      3.331452   715A      3.338670   716A      3.347726  
     717A      3.353692   718A      3.373970   719A      3.382009  
     720A      3.391736   721A      3.412559   722A      3.421496  
     723A      3.425466   724A      3.444383   725A      3.450681  
     726A      3.467602   727A      3.476848   728A      3.481074  
     729A      3.499793   730A      3.505072   731A      3.515738  
     732A      3.526971   733A      3.533784   734A      3.541028  
     735A      3.566552   736A      3.570161   737A      3.570956  
     738A      3.597165   739A      3.612996   740A      3.619562  
     741A      3.629054   742A      3.640008   743A      3.646439  
     744A      3.662888   745A      3.667070   746A      3.688776  
     747A      3.698323   748A      3.704115   749A      3.707939  
     750A      3.720055   751A      3.732509   752A      3.736053  
     753A      3.741681   754A      3.766951   755A      3.786217  
     756A      3.791488   757A      3.799747   758A      3.810644  
     759A      3.815428   760A      3.822818   761A      3.838670  
     762A      3.853658   763A      3.865496   764A      3.869924  
     765A      3.874681   766A      3.878624   767A      3.883432  
     768A      3.900786   769A      3.918147   770A      3.925753  
     771A      3.928998   772A      3.942463   773A      3.949514  
     774A      3.951412   775A      3.969191   776A      3.977765  
     777A      3.979868   778A      3.988417   779A      3.997258  
     780A      4.008325   781A      4.028821   782A      4.033475  
     783A      4.040009   784A      4.050269   785A      4.057613  
     786A      4.068461   787A      4.076417   788A      4.083805  
     789A      4.109381   790A      4.120150   791A      4.128998  
     792A      4.129822   793A      4.132450   794A      4.148584  
     795A      4.161367   796A      4.168669   797A      4.174510  
     798A      4.186828   799A      4.199562   800A      4.212545  
     801A      4.228788   802A      4.241263   803A      4.251015  
     804A      4.252303   805A      4.263073   806A      4.268376  
     807A      4.280354   808A      4.285017   809A      4.292300  
     810A      4.301387   811A      4.304059   812A      4.322676  
     813A      4.325854   814A      4.336856   815A      4.346251  
     816A      4.361584   817A      4.366347   818A      4.387830  
     819A      4.396136   820A      4.399088   821A      4.405283  
     822A      4.415062   823A      4.432207   824A      4.434056  
     825A      4.445778   826A      4.452597   827A      4.458192  
     828A      4.461099   829A      4.472364   830A      4.481874  
     831A      4.491565   832A      4.494485   833A      4.507807  
     834A      4.520452   835A      4.525575   836A      4.539868  
     837A      4.545539   838A      4.560032   839A      4.566724  
     840A      4.578678   841A      4.584006   842A      4.597966  
     843A      4.602327   844A      4.611390   845A      4.616555  
     846A      4.621165   847A      4.629883   848A      4.639885  
     849A      4.649947   850A      4.655092   851A      4.677323  
     852A      4.680144   853A      4.692419   854A      4.697066  
     855A      4.704556   856A      4.707854   857A      4.713526  
     858A      4.716419   859A      4.731712   860A      4.738370  
     861A      4.754758   862A      4.763045   863A      4.770763  
     864A      4.786260   865A      4.800411   866A      4.805325  
     867A      4.811151   868A      4.817440   869A      4.831748  
     870A      4.835593   871A      4.853556   872A      4.859548  
     873A      4.872052   874A      4.879537   875A      4.886434  
     876A      4.890656   877A      4.903605   878A      4.909744  
     879A      4.912465   880A      4.934003   881A      4.935197  
     882A      4.948174   883A      4.952221   884A      4.965331  
     885A      4.976655   886A      4.983668   887A      4.991810  
     888A      5.002759   889A      5.005580   890A      5.013363  
     891A      5.018618   892A      5.028192   893A      5.031481  
     894A      5.038419   895A      5.053045   896A      5.061115  
     897A      5.072440   898A      5.080384   899A      5.086287  
     900A      5.091434   901A      5.104361   902A      5.114448  
     903A      5.115293   904A      5.131817   905A      5.140411  
     906A      5.152556   907A      5.153478   908A      5.162482  
     909A      5.172313   910A      5.187001   911A      5.192769  
     912A      5.200361   913A      5.206225   914A      5.227414  
     915A      5.234313   916A      5.237565   917A      5.240510  
     918A      5.251872   919A      5.263879   920A      5.269000  
     921A      5.281978   922A      5.285936   923A      5.288905  
     924A      5.305543   925A      5.309098   926A      5.320249  
     927A      5.322740   928A      5.342387   929A      5.349715  
     930A      5.352576   931A      5.364162   932A      5.373769  
     933A      5.384643   934A      5.386388   935A      5.394743  
     936A      5.411077   937A      5.420406   938A      5.430405  
     939A      5.443986   940A      5.447770   941A      5.457640  
     942A      5.470314   943A      5.478504   944A      5.487875  
     945A      5.489437   946A      5.497874   947A      5.502775  
     948A      5.515505   949A      5.523540   950A      5.525462  
     951A      5.542060   952A      5.549097   953A      5.562759  
     954A      5.564537   955A      5.574196   956A      5.595748  
     957A      5.600155   958A      5.607029   959A      5.611267  
     960A      5.628250   961A      5.638034   962A      5.649928  
     963A      5.658089   964A      5.664711   965A      5.672003  
     966A      5.690223   967A      5.700331   968A      5.715042  
     969A      5.728885   970A      5.740142   971A      5.748234  
     972A      5.755772   973A      5.763082   974A      5.773968  
     975A      5.783396   976A      5.797128   977A      5.801378  
     978A      5.804137   979A      5.824657   980A      5.833124  
     981A      5.840806   982A      5.855368   983A      5.861854  
     984A      5.864568   985A      5.874388   986A      5.891411  
     987A      5.896098   988A      5.899017   989A      5.906374  
     990A      5.922287   991A      5.932953   992A      5.955747  
     993A      5.970222   994A      5.974780   995A      5.983005  
     996A      5.996023   997A      6.012960   998A      6.022266  
     999A      6.032996  1000A      6.045118  1001A      6.061202  
    1002A      6.072658  1003A      6.084630  1004A      6.088283  
    1005A      6.096044  1006A      6.105929  1007A      6.136438  
    1008A      6.153622  1009A      6.158565  1010A      6.182037  
    1011A      6.206076  1012A      6.208863  1013A      6.220017  
    1014A      6.226439  1015A      6.243306  1016A      6.255165  
    1017A      6.268584  1018A      6.277942  1019A      6.296818  
    1020A      6.311993  1021A      6.318391  1022A      6.337525  
    1023A      6.350389  1024A      6.356173  1025A      6.362861  
    1026A      6.384209  1027A      6.419385  1028A      6.436576  
    1029A      6.459081  1030A      6.469352  1031A      6.489937  
    1032A      6.512056  1033A      6.534852  1034A      6.548323  
    1035A      6.567032  1036A      6.568625  1037A      6.574007  
    1038A      6.586601  1039A      6.591773  1040A      6.601123  
    1041A      6.633340  1042A      6.649641  1043A      6.660759  
    1044A      6.673263  1045A      6.688385  1046A      6.718447  
    1047A      6.724675  1048A      6.729810  1049A      6.747383  
    1050A      6.780502  1051A      6.782010  1052A      6.797191  
    1053A      6.813456  1054A      6.836341  1055A      6.842051  
    1056A      6.852641  1057A      6.880058  1058A      6.891014  
    1059A      6.921626  1060A      6.927995  1061A      6.938929  
    1062A      6.957314  1063A      6.973225  1064A      6.994352  
    1065A      7.013146  1066A      7.032646  1067A      7.035722  
    1068A      7.069417  1069A      7.091249  1070A      7.110460  
    1071A      7.115666  1072A      7.148674  1073A      7.173347  
    1074A      7.196931  1075A      7.236705  1076A      7.247294  
    1077A      7.287203  1078A      7.294262  1079A      7.330076  
    1080A      7.333133  1081A      7.366171  1082A      7.387258  
    1083A      7.406378  1084A      7.430965  1085A      7.465239  
    1086A      7.487866  1087A      7.505486  1088A      7.531003  
    1089A      7.562747  1090A      7.593266  1091A      7.600033  
    1092A      7.615698  1093A      7.634666  1094A      7.652447  
    1095A      7.703938  1096A      7.718020  1097A      7.743297  
    1098A      7.775113  1099A      7.787150  1100A      7.800139  
    1101A      7.831395  1102A      7.859413  1103A      7.868229  
    1104A      7.876575  1105A      7.892126  1106A      7.898464  
    1107A      7.910665  1108A      7.922644  1109A      7.946843  
    1110A      7.962904  1111A      7.982554  1112A      8.024251  
    1113A      8.036097  1114A      8.050684  1115A      8.072985  
    1116A      8.088954  1117A      8.124383  1118A      8.145722  
    1119A      8.194335  1120A      8.232119  1121A      8.314559  
    1122A      8.336845  1123A      8.368835  1124A      8.374947  
    1125A      8.417932  1126A      8.492307  1127A      8.567835  
    1128A      8.601868  1129A      8.655648  1130A      8.741059  
    1131A      8.816026  1132A      8.847768  1133A      8.882607  
    1134A      8.927606  1135A      9.094922  1136A      9.135983  
    1137A      9.193407  1138A      9.354689  1139A      9.407152  
    1140A      9.434321  1141A      9.677883  1142A      9.811269  
    1143A      9.839898  1144A      9.891668  1145A      9.944072  
    1146A      9.966738  1147A     10.051668  1148A     10.130142  
    1149A     10.276291  1150A     10.393119  1151A     10.439403  
    1152A     10.523631  1153A     10.590666  1154A     10.696993  
    1155A     10.857331  1156A     11.179484  1157A     11.226418  
    1158A     11.366351  1159A     11.472037  1160A     11.572749  
    1161A     11.641401  1162A     11.791482  1163A     12.070543  
    1164A     12.110584  1165A     12.169442  1166A     12.287385  
    1167A     12.384645  1168A     12.433369  1169A     12.450613  
    1170A     12.680078  1171A     12.887321  1172A     13.116705  
    1173A     13.440112  1174A     13.748008  1175A     14.292277  
    1176A     16.507746  1177A     16.641719  1178A     16.845745  
    1179A     18.265419  1180A     18.801020  1181A     19.567810  
    1182A     19.761753  1183A     20.003133  1184A     21.133271  
    1185A     22.003224  1186A     53.075949  1187A     53.632971  
    1188A     54.401527  1189A     55.176312  1190A     58.647970  
    1191A     60.580544  1192A     62.904935  1193A     63.706559  
    1194A     64.715586  1195A     66.551222  1196A     71.333940  

    Final Occupation by Irrep:
              A 
    DOCC [    35 ]

  @DF-RHF Final Energy:  -464.68057189433375

   => Energetics <=

    Nuclear Repulsion Energy =            501.3811850174743086
    One-Electron Energy =               -1625.5590007631917615
    Two-Electron Energy =                 659.4972438513837005
    Total Energy =                       -464.6805718943337524

Computation Completed


Properties will be evaluated at   0.000000,   0.000000,   0.000000 [a0]

Properties computed using the SCF density matrix

  Nuclear Dipole Moment: [e a0]
     X:  -193.0560      Y:    50.6859      Z:    90.0084

  Electronic Dipole Moment: [e a0]
     X:   192.4099      Y:   -50.7773      Z:   -90.9101

  Dipole Moment: [e a0]
     X:    -0.6461      Y:    -0.0914      Z:    -0.9016     Total:     1.1130

  Dipole Moment: [D]
     X:    -1.6423      Y:    -0.2323      Z:    -2.2917     Total:     2.8289


*** tstop() called on node157.bme.utexas.edu at Sat Jan 20 13:54:27 2024
Module time:
	user time   =    1661.68 seconds =      27.69 minutes
	system time =      11.09 seconds =       0.18 minutes
	total time  =        257 seconds =       4.28 minutes
Total time:
	user time   =    3323.25 seconds =      55.39 minutes
	system time =      27.83 seconds =       0.46 minutes
	total time  =        500 seconds =       8.33 minutes

*** tstart() called on node157.bme.utexas.edu
*** at Sat Jan 20 13:54:27 2024


  //>>>>>>>>>>>>>>>>>>>>>>>>>>>>>>>>>>>//
  //               DFMP2               //
  //<<<<<<<<<<<<<<<<<<<<<<<<<<<<<<<<<<<//

   => Loading Basis Set <=

    Name: (AUG-CC-PVTZ AUX)
    Role: RIFIT
    Keyword: DF_BASIS_MP2
    atoms 1, 4, 11, 14-15, 17, 19, 29-31    entry H          line    30 file /opt/anaconda/envs/psi4v1.5/share/psi4/basis/aug-cc-pvtz-ri.gbs 
    atoms 2, 5, 8-9, 12, 16, 20, 24, 26-27  entry N          line   206 file /opt/anaconda/envs/psi4v1.5/share/psi4/basis/aug-cc-pvtz-ri.gbs 
    atoms 3, 6-7, 10, 13, 18, 21-22, 25, 28 entry C          line   148 file /opt/anaconda/envs/psi4v1.5/share/psi4/basis/aug-cc-pvtz-ri.gbs 
    atoms 23                                entry O          line   264 file /opt/anaconda/envs/psi4v1.5/share/psi4/basis/aug-cc-pvtz-ri.gbs 

	 --------------------------------------------------------
	                          DF-MP2                         
	      2nd-Order Density-Fitted Moller-Plesset Theory     
	              RMP2 Wavefunction,   8 Threads             
	                                                         
	        Rob Parrish, Justin Turney, Andy Simmonett,      
	           Ed Hohenstein, and C. David Sherrill          
	 --------------------------------------------------------

   => Auxiliary Basis Set <=

  Basis Set: (AUG-CC-PVTZ AUX)
    Blend: AUG-CC-PVTZ-RI
    Number of shells: 728
    Number of basis functions: 2686
    Number of Cartesian functions: 3406
    Spherical Harmonics?: true
    Max angular momentum: 4

	 --------------------------------------------------------
	                 NBF =  1196, NAUX =  2686
	 --------------------------------------------------------
	   CLASS    FOCC     OCC    AOCC    AVIR     VIR    FVIR
	   PAIRS      10      35      25    1161    1161       0
	 --------------------------------------------------------

	 Will attempt to load fitting metric from file 97.

	-----------------------------------------------------------
	 ==================> DF-MP2 Energies <==================== 
	-----------------------------------------------------------
	 Reference Energy          =    -464.6805718943337524 [Eh]
	 Singles Energy            =      -0.0000000000000000 [Eh]
	 Same-Spin Energy          =      -0.4792129164607938 [Eh]
	 Opposite-Spin Energy      =      -1.3274070547914949 [Eh]
	 Correlation Energy        =      -1.8066199712522888 [Eh]
	 Total Energy              =    -466.4871918655860554 [Eh]
	-----------------------------------------------------------
	 ================> DF-SCS-MP2 Energies <================== 
	-----------------------------------------------------------
	 SCS Same-Spin Scale       =       0.3333333333333333 [-]
	 SCS Opposite-Spin Scale   =       1.2000000000000000 [-]
	 SCS Same-Spin Energy      =      -0.1597376388202646 [Eh]
	 SCS Opposite-Spin Energy  =      -1.5928884657497939 [Eh]
	 SCS Correlation Energy    =      -1.7526261045700586 [Eh]
	 SCS Total Energy          =    -466.4331979989038359 [Eh]
	-----------------------------------------------------------


*** tstop() called on node157.bme.utexas.edu at Sat Jan 20 13:55:25 2024
Module time:
	user time   =     287.18 seconds =       4.79 minutes
	system time =       9.65 seconds =       0.16 minutes
	total time  =         58 seconds =       0.97 minutes
Total time:
	user time   =    3610.44 seconds =      60.17 minutes
	system time =      37.48 seconds =       0.62 minutes
	total time  =        558 seconds =       9.30 minutes

  //>>>>>>>>>>>>>>>>>>>>>>>>>>>>>>>>>>>//
  //            Monomer B HF           //
  //<<<<<<<<<<<<<<<<<<<<<<<<<<<<<<<<<<<//


*** tstart() called on node157.bme.utexas.edu
*** at Sat Jan 20 13:55:25 2024

   => Loading Basis Set <=

    Name: AUG-CC-PVTZ
    Role: ORBITAL
    Keyword: BASIS
    atoms 1, 4, 11, 14-15, 17, 19, 29-31    entry H          line    40 file /opt/anaconda/envs/psi4v1.5/share/psi4/basis/aug-cc-pvtz.gbs 
    atoms 2, 5, 8-9, 12, 16, 20, 24, 26-27  entry N          line   285 file /opt/anaconda/envs/psi4v1.5/share/psi4/basis/aug-cc-pvtz.gbs 
    atoms 3, 6-7, 10, 13, 18, 21-22, 25, 28 entry C          line   239 file /opt/anaconda/envs/psi4v1.5/share/psi4/basis/aug-cc-pvtz.gbs 
    atoms 23                                entry O          line   331 file /opt/anaconda/envs/psi4v1.5/share/psi4/basis/aug-cc-pvtz.gbs 


         ---------------------------------------------------------
                                   SCF
               by Justin Turney, Rob Parrish, Andy Simmonett
                          and Daniel G. A. Smith
                              RHF Reference
                        8 Threads,  95367 MiB Core
         ---------------------------------------------------------

  ==> Geometry <==

    Molecular point group: c1
    Full point group: C1

    Geometry (in Angstrom), charge = 0, multiplicity = 1:

       Center              X                  Y                   Z               Mass       
    ------------   -----------------  -----------------  -----------------  -----------------
      Gh(H)          -3.281653294981     2.206277508863    -0.985978953129     1.007825032230
      Gh(N)          -2.915333294981     1.353767508863    -0.578448953129    14.003074004430
      Gh(C)          -3.477463294981     0.101277508863    -0.614448953129    12.000000000000
      Gh(H)          -4.385873294981    -0.099592491137    -1.169618953129     1.007825032230
      Gh(N)          -2.806063294981    -0.801072491137     0.086881046871    14.003074004430
      Gh(C)          -1.755723294981    -0.076982491137     0.620231046871    12.000000000000
      Gh(C)          -0.667963294981    -0.452092491137     1.438111046871    12.000000000000
      Gh(N)          -0.513753294981    -1.719512491137     1.910441046871    14.003074004430
      Gh(N)           0.213886705019     0.499867508863     1.801821046871    14.003074004430
      Gh(C)           0.027236705019     1.759627508863     1.352671046871    12.000000000000
      Gh(H)           0.768316705019     2.484437508863     1.687511046871     1.007825032230
      Gh(N)          -0.939303294981     2.241427508863     0.559851046871    14.003074004430
      Gh(C)          -1.798863294981     1.266287508863     0.226251046871    12.000000000000
      Gh(H)           0.443636705019    -1.948552491137     2.171061046871     1.007825032230
      Gh(H)          -0.944663294981    -2.430772491137     1.326731046871     1.007825032230
         N           -0.397595557481    -0.301240957804    -2.153242161463    14.003074004430
         H           -0.813625557481     0.348969042196    -2.810112161463     1.007825032230
         C           -0.826345557481    -1.568720957804    -1.841492161463    12.000000000000
         H           -1.689785557481    -2.016130957804    -2.315682161463     1.007825032230
         N           -0.080015557481    -2.150600957804    -0.913772161463    14.003074004430
         C            0.877144442519    -1.204910957804    -0.620312161463    12.000000000000
         C            1.895024442519    -1.217990957804     0.395677838537    12.000000000000
         O            2.163554442519    -2.071690957804     1.241177838537    15.994914619570
         N            2.654224442519    -0.022770957804     0.318857838537    14.003074004430
         C            2.359984442519     1.082189042196    -0.440132161463    12.000000000000
         N            3.220594442519     2.159949042196    -0.306472161463    14.003074004430
         N            1.391644442519     1.127409042196    -1.324332161463    14.003074004430
         C            0.696034442519    -0.042160957804    -1.368482161463    12.000000000000
         H            3.411294442519     0.022399042196     0.997257838537     1.007825032230
         H            3.491744442519     2.378019042196     0.647317838537     1.007825032230
         H            2.851644442519     2.974069042196    -0.788552161463     1.007825032230

  Running in c1 symmetry.

  Rotational constants: A =      0.01809  B =      0.01195  C =      0.01073 [cm^-1]
  Rotational constants: A =    542.24766  B =    358.22029  C =    321.79706 [MHz]
  Nuclear repulsion =  594.253029831856907

  Charge       = 0
  Multiplicity = 1
  Electrons    = 78
  Nalpha       = 39
  Nbeta        = 39

  ==> Algorithm <==

  SCF Algorithm Type is DF.
  DIIS enabled.
  MOM disabled.
  Fractional occupation disabled.
  Guess Type is SAD.
  Energy threshold   = 1.00e-08
  Density threshold  = 1.00e-08
  Integral threshold = 1.00e-12

  ==> Primary Basis <==

  Basis Set: AUG-CC-PVTZ
    Blend: AUG-CC-PVTZ
    Number of shells: 384
    Number of basis functions: 1196
    Number of Cartesian functions: 1405
    Spherical Harmonics?: true
    Max angular momentum: 3

   => Loading Basis Set <=

    Name: (AUG-CC-PVTZ AUX)
    Role: JKFIT
    Keyword: DF_BASIS_SCF
    atoms 1, 4, 11, 14-15, 17, 19, 29-31    entry H          line    70 file /opt/anaconda/envs/psi4v1.5/share/psi4/basis/aug-cc-pvtz-jkfit.gbs 
    atoms 2, 5, 8-9, 12, 16, 20, 24, 26-27  entry N          line   224 file /opt/anaconda/envs/psi4v1.5/share/psi4/basis/aug-cc-pvtz-jkfit.gbs 
    atoms 3, 6-7, 10, 13, 18, 21-22, 25, 28 entry C          line   162 file /opt/anaconda/envs/psi4v1.5/share/psi4/basis/aug-cc-pvtz-jkfit.gbs 
    atoms 23                                entry O          line   286 file /opt/anaconda/envs/psi4v1.5/share/psi4/basis/aug-cc-pvtz-jkfit.gbs 

  ==> Integral Setup <==

  ==> DiskDFJK: Density-Fitted J/K Matrices <==

    J tasked:                  Yes
    K tasked:                  Yes
    wK tasked:                  No
    OpenMP threads:              8
    Integrals threads:           8
    Memory [MiB]:            71525
    Algorithm:                Core
    Integral Cache:           LOAD
    Schwarz Cutoff:          1E-12
    Fitting Condition:       1E-10

   => Auxiliary Basis Set <=

  Basis Set: (AUG-CC-PVTZ AUX)
    Blend: AUG-CC-PVTZ-JKFIT
    Number of shells: 770
    Number of basis functions: 2644
    Number of Cartesian functions: 3301
    Spherical Harmonics?: true
    Max angular momentum: 4

  Minimum eigenvalue in the overlap matrix is 5.5141217796E-07.
  Reciprocal condition number of the overlap matrix is 2.1090864919E-08.
    Using symmetric orthogonalization.

  ==> Pre-Iterations <==

  SCF Guess: Superposition of Atomic Densities via on-the-fly atomic UHF (no occupation information).

   -------------------------
    Irrep   Nso     Nmo    
   -------------------------
     A       1196    1196 
   -------------------------
    Total    1196    1196
   -------------------------

  ==> Iterations <==

                           Total Energy        Delta E     RMS |[F,P]|

   @DF-RHF iter SAD:  -539.32769261858436   -5.39328e+02   0.00000e+00 
   @DF-RHF iter   1:  -539.27733177499636    5.03608e-02   6.64881e-04 DIIS
   @DF-RHF iter   2:  -539.50079736698001   -2.23466e-01   3.95663e-04 DIIS
   @DF-RHF iter   3:  -539.58063521947327   -7.98379e-02   8.22815e-05 DIIS
   @DF-RHF iter   4:  -539.58576454401646   -5.12932e-03   3.38732e-05 DIIS
   @DF-RHF iter   5:  -539.58674490018757   -9.80356e-04   7.11941e-06 DIIS
   @DF-RHF iter   6:  -539.58684628707999   -1.01387e-04   3.71314e-06 DIIS
   @DF-RHF iter   7:  -539.58687259412341   -2.63070e-05   1.54283e-06 DIIS
   @DF-RHF iter   8:  -539.58687760906002   -5.01494e-06   5.44083e-07 DIIS
   @DF-RHF iter   9:  -539.58687820444607   -5.95386e-07   2.16425e-07 DIIS
   @DF-RHF iter  10:  -539.58687831074531   -1.06299e-07   8.55477e-08 DIIS
   @DF-RHF iter  11:  -539.58687832573878   -1.49935e-08   3.32141e-08 DIIS
   @DF-RHF iter  12:  -539.58687832774240   -2.00362e-09   1.22568e-08 DIIS
   @DF-RHF iter  13:  -539.58687832801957   -2.77169e-10   5.23388e-09 DIIS
  Energy and wave function converged.


  ==> Post-Iterations <==

    Orbital Energies [Eh]
    ---------------------

    Doubly Occupied:                                                      

       1A    -20.521776     2A    -15.636327     3A    -15.634116  
       4A    -15.613618     5A    -15.574293     6A    -15.564967  
       7A    -11.399804     8A    -11.366157     9A    -11.327488  
      10A    -11.314340    11A    -11.250482    12A     -1.392997  
      13A     -1.359157    14A     -1.335885    15A     -1.223364  
      16A     -1.219843    17A     -1.178365    18A     -1.031594  
      19A     -0.908210    20A     -0.887779    21A     -0.844885  
      22A     -0.800717    23A     -0.742571    24A     -0.730398  
      25A     -0.700647    26A     -0.673361    27A     -0.658394  
      28A     -0.633974    29A     -0.611979    30A     -0.602603  
      31A     -0.596182    32A     -0.546833    33A     -0.500523  
      34A     -0.463368    35A     -0.442366    36A     -0.433920  
      37A     -0.430505    38A     -0.412025    39A     -0.302210  

    Virtual:                                                              

      40A      0.012011    41A      0.017861    42A      0.030021  
      43A      0.032152    44A      0.038198    45A      0.041303  
      46A      0.046578    47A      0.054266    48A      0.059111  
      49A      0.061711    50A      0.068338    51A      0.069684  
      52A      0.076296    53A      0.077391    54A      0.082445  
      55A      0.084122    56A      0.091339    57A      0.095623  
      58A      0.096417    59A      0.100299    60A      0.105735  
      61A      0.108030    62A      0.112500    63A      0.114073  
      64A      0.116257    65A      0.119064    66A      0.122213  
      67A      0.124683    68A      0.127268    69A      0.129665  
      70A      0.131928    71A      0.132720    72A      0.136901  
      73A      0.138831    74A      0.142019    75A      0.144974  
      76A      0.149682    77A      0.152254    78A      0.155570  
      79A      0.161579    80A      0.163287    81A      0.164331  
      82A      0.168045    83A      0.174322    84A      0.177029  
      85A      0.178435    86A      0.180743    87A      0.184061  
      88A      0.187398    89A      0.193383    90A      0.194657  
      91A      0.198806    92A      0.206668    93A      0.209764  
      94A      0.213415    95A      0.214841    96A      0.218362  
      97A      0.219817    98A      0.222403    99A      0.225468  
     100A      0.227037   101A      0.227805   102A      0.231811  
     103A      0.235912   104A      0.239439   105A      0.240771  
     106A      0.245927   107A      0.247526   108A      0.249637  
     109A      0.253432   110A      0.257103   111A      0.260361  
     112A      0.264133   113A      0.268195   114A      0.272286  
     115A      0.275631   116A      0.279299   117A      0.281034  
     118A      0.285208   119A      0.288167   120A      0.289343  
     121A      0.292231   122A      0.295134   123A      0.297501  
     124A      0.301449   125A      0.302275   126A      0.303024  
     127A      0.309338   128A      0.314765   129A      0.320564  
     130A      0.321291   131A      0.324496   132A      0.329897  
     133A      0.331627   134A      0.341446   135A      0.342326  
     136A      0.344948   137A      0.346688   138A      0.349258  
     139A      0.351715   140A      0.359058   141A      0.360819  
     142A      0.365327   143A      0.369569   144A      0.372184  
     145A      0.377077   146A      0.378928   147A      0.380382  
     148A      0.384488   149A      0.392548   150A      0.398847  
     151A      0.400709   152A      0.400962   153A      0.404372  
     154A      0.408378   155A      0.412704   156A      0.413541  
     157A      0.417631   158A      0.419160   159A      0.424933  
     160A      0.428683   161A      0.433480   162A      0.437813  
     163A      0.438878   164A      0.442242   165A      0.444270  
     166A      0.447389   167A      0.452439   168A      0.452941  
     169A      0.454626   170A      0.456455   171A      0.463003  
     172A      0.466904   173A      0.468290   174A      0.475982  
     175A      0.478116   176A      0.480592   177A      0.480942  
     178A      0.485309   179A      0.490082   180A      0.492518  
     181A      0.494661   182A      0.498339   183A      0.501862  
     184A      0.503782   185A      0.504446   186A      0.508545  
     187A      0.510650   188A      0.512705   189A      0.520130  
     190A      0.524921   191A      0.526505   192A      0.531481  
     193A      0.533152   194A      0.534981   195A      0.537216  
     196A      0.540770   197A      0.543482   198A      0.548942  
     199A      0.552144   200A      0.554464   201A      0.555725  
     202A      0.564729   203A      0.566202   204A      0.572052  
     205A      0.574575   206A      0.581377   207A      0.583240  
     208A      0.585730   209A      0.587882   210A      0.591217  
     211A      0.598095   212A      0.599527   213A      0.605835  
     214A      0.610907   215A      0.613788   216A      0.615754  
     217A      0.619746   218A      0.625260   219A      0.628088  
     220A      0.630263   221A      0.634730   222A      0.636458  
     223A      0.644952   224A      0.649126   225A      0.651994  
     226A      0.655775   227A      0.656261   228A      0.664415  
     229A      0.666952   230A      0.669864   231A      0.672917  
     232A      0.676041   233A      0.685744   234A      0.687234  
     235A      0.688496   236A      0.694464   237A      0.701347  
     238A      0.705216   239A      0.707091   240A      0.719240  
     241A      0.721407   242A      0.725429   243A      0.728437  
     244A      0.732928   245A      0.737329   246A      0.739731  
     247A      0.750741   248A      0.752987   249A      0.758015  
     250A      0.760857   251A      0.765011   252A      0.768666  
     253A      0.768824   254A      0.778077   255A      0.781341  
     256A      0.783346   257A      0.785439   258A      0.790962  
     259A      0.795411   260A      0.800373   261A      0.802748  
     262A      0.805725   263A      0.815277   264A      0.816813  
     265A      0.820297   266A      0.828825   267A      0.830808  
     268A      0.837665   269A      0.838176   270A      0.843961  
     271A      0.851786   272A      0.854805   273A      0.857072  
     274A      0.858173   275A      0.865349   276A      0.868498  
     277A      0.871877   278A      0.876050   279A      0.879269  
     280A      0.881590   281A      0.884139   282A      0.893269  
     283A      0.894429   284A      0.900824   285A      0.902394  
     286A      0.906274   287A      0.907167   288A      0.912999  
     289A      0.917664   290A      0.920885   291A      0.924235  
     292A      0.928612   293A      0.937010   294A      0.938823  
     295A      0.940429   296A      0.944753   297A      0.948499  
     298A      0.951437   299A      0.954797   300A      0.958667  
     301A      0.961798   302A      0.964741   303A      0.971631  
     304A      0.976511   305A      0.979227   306A      0.980869  
     307A      0.986164   308A      0.995633   309A      0.996863  
     310A      0.998404   311A      1.000001   312A      1.009518  
     313A      1.014509   314A      1.016086   315A      1.017630  
     316A      1.023474   317A      1.026740   318A      1.030497  
     319A      1.036890   320A      1.041646   321A      1.047177  
     322A      1.048746   323A      1.052167   324A      1.058974  
     325A      1.060670   326A      1.064076   327A      1.069910  
     328A      1.071956   329A      1.073470   330A      1.076132  
     331A      1.082695   332A      1.085699   333A      1.089678  
     334A      1.093120   335A      1.095451   336A      1.100645  
     337A      1.102784   338A      1.104456   339A      1.107177  
     340A      1.117234   341A      1.118950   342A      1.124493  
     343A      1.130451   344A      1.132495   345A      1.136045  
     346A      1.141600   347A      1.144485   348A      1.147048  
     349A      1.151819   350A      1.154794   351A      1.163851  
     352A      1.164882   353A      1.174500   354A      1.181675  
     355A      1.182760   356A      1.185298   357A      1.188631  
     358A      1.197534   359A      1.201629   360A      1.204350  
     361A      1.209184   362A      1.216306   363A      1.217990  
     364A      1.221034   365A      1.228748   366A      1.231351  
     367A      1.237057   368A      1.239591   369A      1.243290  
     370A      1.247333   371A      1.254093   372A      1.261765  
     373A      1.262747   374A      1.268058   375A      1.271996  
     376A      1.274941   377A      1.281394   378A      1.286151  
     379A      1.290724   380A      1.291713   381A      1.293193  
     382A      1.303418   383A      1.311315   384A      1.315253  
     385A      1.320011   386A      1.324810   387A      1.328410  
     388A      1.331023   389A      1.335537   390A      1.339211  
     391A      1.345574   392A      1.350111   393A      1.353073  
     394A      1.355566   395A      1.359815   396A      1.369583  
     397A      1.372652   398A      1.380473   399A      1.381454  
     400A      1.388990   401A      1.392710   402A      1.393638  
     403A      1.396651   404A      1.399390   405A      1.405140  
     406A      1.405550   407A      1.412937   408A      1.417359  
     409A      1.426551   410A      1.435944   411A      1.438246  
     412A      1.446090   413A      1.449359   414A      1.450320  
     415A      1.455307   416A      1.457895   417A      1.461403  
     418A      1.471577   419A      1.476487   420A      1.482689  
     421A      1.486873   422A      1.494477   423A      1.497828  
     424A      1.500717   425A      1.508092   426A      1.513897  
     427A      1.520608   428A      1.524983   429A      1.527296  
     430A      1.536754   431A      1.540991   432A      1.544068  
     433A      1.547514   434A      1.552974   435A      1.559113  
     436A      1.568549   437A      1.572369   438A      1.576984  
     439A      1.582361   440A      1.585907   441A      1.588611  
     442A      1.594089   443A      1.599762   444A      1.601834  
     445A      1.607415   446A      1.613931   447A      1.615270  
     448A      1.623110   449A      1.628226   450A      1.629954  
     451A      1.633712   452A      1.639533   453A      1.643631  
     454A      1.647916   455A      1.655937   456A      1.659914  
     457A      1.665043   458A      1.675055   459A      1.677790  
     460A      1.683646   461A      1.689437   462A      1.691055  
     463A      1.696302   464A      1.704290   465A      1.710210  
     466A      1.715126   467A      1.718125   468A      1.720487  
     469A      1.726926   470A      1.730121   471A      1.731203  
     472A      1.737660   473A      1.746419   474A      1.752806  
     475A      1.759053   476A      1.761585   477A      1.763205  
     478A      1.771508   479A      1.775440   480A      1.777940  
     481A      1.783303   482A      1.790885   483A      1.793902  
     484A      1.797994   485A      1.798861   486A      1.803452  
     487A      1.810802   488A      1.815208   489A      1.818304  
     490A      1.828045   491A      1.832594   492A      1.834183  
     493A      1.842287   494A      1.849934   495A      1.852881  
     496A      1.861036   497A      1.866528   498A      1.867600  
     499A      1.877060   500A      1.879688   501A      1.884636  
     502A      1.890386   503A      1.899025   504A      1.904114  
     505A      1.908912   506A      1.912974   507A      1.916818  
     508A      1.924548   509A      1.931635   510A      1.937017  
     511A      1.946376   512A      1.951103   513A      1.955133  
     514A      1.967669   515A      1.974079   516A      1.976742  
     517A      1.981102   518A      1.984629   519A      1.992132  
     520A      1.995298   521A      2.006704   522A      2.010489  
     523A      2.013079   524A      2.023687   525A      2.029349  
     526A      2.030976   527A      2.039455   528A      2.040287  
     529A      2.045552   530A      2.050697   531A      2.061722  
     532A      2.062881   533A      2.074287   534A      2.077016  
     535A      2.084479   536A      2.085226   537A      2.092152  
     538A      2.096673   539A      2.101126   540A      2.109084  
     541A      2.118118   542A      2.121336   543A      2.124390  
     544A      2.132499   545A      2.136963   546A      2.138724  
     547A      2.143528   548A      2.150111   549A      2.161094  
     550A      2.162441   551A      2.168822   552A      2.169246  
     553A      2.177982   554A      2.183386   555A      2.188521  
     556A      2.191475   557A      2.202160   558A      2.205964  
     559A      2.216733   560A      2.218013   561A      2.225132  
     562A      2.228753   563A      2.231899   564A      2.238408  
     565A      2.244420   566A      2.251502   567A      2.259857  
     568A      2.268223   569A      2.272364   570A      2.273397  
     571A      2.278302   572A      2.292283   573A      2.297290  
     574A      2.303456   575A      2.307439   576A      2.316360  
     577A      2.318635   578A      2.321192   579A      2.329405  
     580A      2.332861   581A      2.334482   582A      2.339268  
     583A      2.347821   584A      2.358507   585A      2.359424  
     586A      2.366261   587A      2.375908   588A      2.383007  
     589A      2.387160   590A      2.390828   591A      2.399685  
     592A      2.400908   593A      2.407587   594A      2.413802  
     595A      2.417844   596A      2.430307   597A      2.432564  
     598A      2.438005   599A      2.442977   600A      2.449230  
     601A      2.455363   602A      2.457018   603A      2.462648  
     604A      2.474343   605A      2.476971   606A      2.481723  
     607A      2.483602   608A      2.485526   609A      2.497996  
     610A      2.500012   611A      2.506767   612A      2.511320  
     613A      2.518810   614A      2.529703   615A      2.536055  
     616A      2.542127   617A      2.551725   618A      2.557260  
     619A      2.559906   620A      2.567494   621A      2.571116  
     622A      2.580395   623A      2.585436   624A      2.595238  
     625A      2.599356   626A      2.605512   627A      2.616781  
     628A      2.623315   629A      2.630227   630A      2.635143  
     631A      2.644883   632A      2.647392   633A      2.656189  
     634A      2.659086   635A      2.663191   636A      2.673411  
     637A      2.676697   638A      2.686912   639A      2.695106  
     640A      2.707219   641A      2.712746   642A      2.717324  
     643A      2.721859   644A      2.726332   645A      2.731506  
     646A      2.743141   647A      2.748021   648A      2.757109  
     649A      2.762028   650A      2.764193   651A      2.777052  
     652A      2.783329   653A      2.784683   654A      2.794931  
     655A      2.805273   656A      2.810364   657A      2.817849  
     658A      2.827608   659A      2.830555   660A      2.837814  
     661A      2.844498   662A      2.856161   663A      2.865734  
     664A      2.867588   665A      2.877347   666A      2.882774  
     667A      2.887760   668A      2.892105   669A      2.901058  
     670A      2.903069   671A      2.913768   672A      2.921461  
     673A      2.931060   674A      2.946292   675A      2.950725  
     676A      2.954596   677A      2.965233   678A      2.973136  
     679A      2.984244   680A      2.992844   681A      3.001808  
     682A      3.004204   683A      3.012164   684A      3.013508  
     685A      3.020288   686A      3.024069   687A      3.034530  
     688A      3.039859   689A      3.041566   690A      3.056525  
     691A      3.060092   692A      3.075409   693A      3.084688  
     694A      3.092940   695A      3.103479   696A      3.111260  
     697A      3.113973   698A      3.125987   699A      3.130880  
     700A      3.145607   701A      3.154905   702A      3.161992  
     703A      3.169655   704A      3.176101   705A      3.189110  
     706A      3.194316   707A      3.200651   708A      3.216302  
     709A      3.224406   710A      3.233582   711A      3.247862  
     712A      3.266807   713A      3.271129   714A      3.281212  
     715A      3.289231   716A      3.293664   717A      3.298021  
     718A      3.305051   719A      3.328771   720A      3.334290  
     721A      3.354439   722A      3.361276   723A      3.372403  
     724A      3.379225   725A      3.388524   726A      3.403230  
     727A      3.409401   728A      3.433307   729A      3.445078  
     730A      3.455169   731A      3.477205   732A      3.488729  
     733A      3.497497   734A      3.516043   735A      3.519306  
     736A      3.526601   737A      3.537984   738A      3.551878  
     739A      3.562710   740A      3.575394   741A      3.591032  
     742A      3.598230   743A      3.613771   744A      3.621103  
     745A      3.636469   746A      3.646864   747A      3.665755  
     748A      3.690559   749A      3.698065   750A      3.703882  
     751A      3.710192   752A      3.714054   753A      3.724578  
     754A      3.748566   755A      3.753513   756A      3.766492  
     757A      3.785347   758A      3.789898   759A      3.799859  
     760A      3.806186   761A      3.822712   762A      3.831934  
     763A      3.837926   764A      3.847554   765A      3.850929  
     766A      3.869696   767A      3.875789   768A      3.880009  
     769A      3.891391   770A      3.896426   771A      3.900882  
     772A      3.911473   773A      3.926491   774A      3.932069  
     775A      3.946086   776A      3.953933   777A      3.969352  
     778A      3.977741   779A      3.982039   780A      3.996708  
     781A      4.011686   782A      4.014206   783A      4.018791  
     784A      4.039039   785A      4.045409   786A      4.058930  
     787A      4.065920   788A      4.080722   789A      4.086117  
     790A      4.103402   791A      4.115200   792A      4.126370  
     793A      4.133219   794A      4.143103   795A      4.150925  
     796A      4.157681   797A      4.159193   798A      4.174596  
     799A      4.177740   800A      4.192800   801A      4.210679  
     802A      4.213911   803A      4.223005   804A      4.227007  
     805A      4.230759   806A      4.237703   807A      4.243901  
     808A      4.259224   809A      4.262895   810A      4.270845  
     811A      4.277420   812A      4.290080   813A      4.302279  
     814A      4.305457   815A      4.318047   816A      4.319752  
     817A      4.331273   818A      4.344335   819A      4.349217  
     820A      4.357740   821A      4.361862   822A      4.371362  
     823A      4.379910   824A      4.386791   825A      4.391255  
     826A      4.399213   827A      4.411918   828A      4.425178  
     829A      4.425734   830A      4.435587   831A      4.446288  
     832A      4.452053   833A      4.463239   834A      4.472281  
     835A      4.484925   836A      4.487365   837A      4.501367  
     838A      4.514874   839A      4.519951   840A      4.525668  
     841A      4.533889   842A      4.548044   843A      4.560410  
     844A      4.568948   845A      4.578788   846A      4.588431  
     847A      4.603136   848A      4.606072   849A      4.617050  
     850A      4.620821   851A      4.623340   852A      4.639783  
     853A      4.647394   854A      4.657148   855A      4.660623  
     856A      4.673098   857A      4.683828   858A      4.687793  
     859A      4.691140   860A      4.704179   861A      4.713368  
     862A      4.726694   863A      4.732643   864A      4.740992  
     865A      4.742805   866A      4.752344   867A      4.757726  
     868A      4.775332   869A      4.781642   870A      4.791066  
     871A      4.797127   872A      4.805360   873A      4.812976  
     874A      4.822674   875A      4.826928   876A      4.837929  
     877A      4.849074   878A      4.854797   879A      4.858809  
     880A      4.873485   881A      4.877371   882A      4.892712  
     883A      4.913088   884A      4.919300   885A      4.930931  
     886A      4.937393   887A      4.945831   888A      4.961723  
     889A      4.963609   890A      4.968229   891A      4.971978  
     892A      4.987885   893A      4.992279   894A      4.998996  
     895A      5.009690   896A      5.019773   897A      5.023834  
     898A      5.026038   899A      5.038900   900A      5.045758  
     901A      5.049649   902A      5.061171   903A      5.068656  
     904A      5.081527   905A      5.097647   906A      5.100420  
     907A      5.109201   908A      5.118948   909A      5.129370  
     910A      5.132766   911A      5.144162   912A      5.157491  
     913A      5.164322   914A      5.177260   915A      5.181423  
     916A      5.184089   917A      5.192830   918A      5.199618  
     919A      5.215009   920A      5.217221   921A      5.228056  
     922A      5.232211   923A      5.243690   924A      5.256144  
     925A      5.267542   926A      5.275126   927A      5.280846  
     928A      5.293667   929A      5.313536   930A      5.320725  
     931A      5.330949   932A      5.341472   933A      5.346239  
     934A      5.350610   935A      5.364153   936A      5.369230  
     937A      5.372168   938A      5.384935   939A      5.396587  
     940A      5.410044   941A      5.412768   942A      5.421945  
     943A      5.430460   944A      5.444601   945A      5.461978  
     946A      5.470954   947A      5.487448   948A      5.500469  
     949A      5.502399   950A      5.506851   951A      5.518078  
     952A      5.529174   953A      5.538705   954A      5.547758  
     955A      5.563635   956A      5.563892   957A      5.568682  
     958A      5.575924   959A      5.586062   960A      5.591177  
     961A      5.604141   962A      5.612689   963A      5.623473  
     964A      5.625165   965A      5.645616   966A      5.659779  
     967A      5.665339   968A      5.670710   969A      5.681832  
     970A      5.686508   971A      5.693027   972A      5.711375  
     973A      5.722949   974A      5.726737   975A      5.737687  
     976A      5.755529   977A      5.765645   978A      5.775215  
     979A      5.779481   980A      5.793888   981A      5.801505  
     982A      5.814862   983A      5.830186   984A      5.842819  
     985A      5.845452   986A      5.850966   987A      5.852797  
     988A      5.882687   989A      5.897736   990A      5.907872  
     991A      5.922913   992A      5.929539   993A      5.938048  
     994A      5.949684   995A      5.963845   996A      5.975198  
     997A      5.982986   998A      5.991177   999A      6.003041  
    1000A      6.018849  1001A      6.022599  1002A      6.032348  
    1003A      6.047222  1004A      6.052621  1005A      6.058417  
    1006A      6.066896  1007A      6.098332  1008A      6.103909  
    1009A      6.117090  1010A      6.131130  1011A      6.141707  
    1012A      6.157366  1013A      6.163818  1014A      6.174438  
    1015A      6.185338  1016A      6.211672  1017A      6.214507  
    1018A      6.219166  1019A      6.239887  1020A      6.255148  
    1021A      6.271588  1022A      6.277887  1023A      6.283113  
    1024A      6.300675  1025A      6.320078  1026A      6.335120  
    1027A      6.338628  1028A      6.347318  1029A      6.358718  
    1030A      6.392228  1031A      6.399398  1032A      6.425383  
    1033A      6.435908  1034A      6.449282  1035A      6.499046  
    1036A      6.512583  1037A      6.526265  1038A      6.533000  
    1039A      6.551248  1040A      6.565935  1041A      6.576157  
    1042A      6.580895  1043A      6.596242  1044A      6.617577  
    1045A      6.640018  1046A      6.647006  1047A      6.665180  
    1048A      6.674110  1049A      6.683899  1050A      6.688669  
    1051A      6.712954  1052A      6.727126  1053A      6.752681  
    1054A      6.770372  1055A      6.776990  1056A      6.799070  
    1057A      6.813543  1058A      6.828126  1059A      6.829715  
    1060A      6.834863  1061A      6.862485  1062A      6.884695  
    1063A      6.894983  1064A      6.899816  1065A      6.921530  
    1066A      6.940113  1067A      6.951069  1068A      6.975802  
    1069A      6.992829  1070A      7.002622  1071A      7.021581  
    1072A      7.030683  1073A      7.061977  1074A      7.069211  
    1075A      7.089418  1076A      7.116055  1077A      7.124053  
    1078A      7.139322  1079A      7.141190  1080A      7.154163  
    1081A      7.167637  1082A      7.208800  1083A      7.237345  
    1084A      7.250019  1085A      7.279316  1086A      7.289273  
    1087A      7.308400  1088A      7.310117  1089A      7.329704  
    1090A      7.366490  1091A      7.387225  1092A      7.393344  
    1093A      7.415949  1094A      7.461927  1095A      7.475822  
    1096A      7.506338  1097A      7.526503  1098A      7.539723  
    1099A      7.559889  1100A      7.590499  1101A      7.600683  
    1102A      7.611514  1103A      7.640074  1104A      7.665036  
    1105A      7.689914  1106A      7.706405  1107A      7.719040  
    1108A      7.734981  1109A      7.738329  1110A      7.758122  
    1111A      7.796317  1112A      7.798480  1113A      7.828384  
    1114A      7.832544  1115A      7.854751  1116A      7.890514  
    1117A      7.911900  1118A      7.920685  1119A      7.944216  
    1120A      7.952438  1121A      7.974820  1122A      7.993111  
    1123A      8.026388  1124A      8.047144  1125A      8.067636  
    1126A      8.079510  1127A      8.099094  1128A      8.107250  
    1129A      8.117995  1130A      8.147463  1131A      8.159389  
    1132A      8.191549  1133A      8.241888  1134A      8.332194  
    1135A      8.357949  1136A      8.417848  1137A      8.458296  
    1138A      8.516198  1139A      8.561547  1140A      8.597160  
    1141A      8.782198  1142A      8.849498  1143A      8.909768  
    1144A      9.020883  1145A      9.064537  1146A      9.083923  
    1147A      9.329215  1148A      9.412672  1149A      9.440315  
    1150A      9.678427  1151A      9.784860  1152A      9.818018  
    1153A      9.885840  1154A      9.914454  1155A     10.143871  
    1156A     10.249398  1157A     10.372055  1158A     10.523861  
    1159A     10.837836  1160A     11.126063  1161A     11.194646  
    1162A     11.327234  1163A     11.373651  1164A     11.640261  
    1165A     11.730593  1166A     11.916843  1167A     11.984076  
    1168A     12.104236  1169A     12.157533  1170A     12.291567  
    1171A     12.409782  1172A     12.658179  1173A     12.669870  
    1174A     12.932936  1175A     13.215026  1176A     16.631944  
    1177A     16.880819  1178A     16.991402  1179A     17.737657  
    1180A     18.215575  1181A     19.307644  1182A     19.622075  
    1183A     20.072200  1184A     21.016704  1185A     21.342509  
    1186A     21.938203  1187A     52.607410  1188A     52.705418  
    1189A     53.948522  1190A     55.443376  1191A     58.329325  
    1192A     61.443720  1193A     62.833275  1194A     63.191924  
    1195A     63.474797  1196A     66.744044  

    Final Occupation by Irrep:
              A 
    DOCC [    39 ]

  @DF-RHF Final Energy:  -539.58687832801957

   => Energetics <=

    Nuclear Repulsion Energy =            594.2530298318569066
    One-Electron Energy =               -1913.9437672829919848
    Two-Electron Energy =                 780.1038591231156261
    Total Energy =                       -539.5868783280195657

Computation Completed


Properties will be evaluated at   0.000000,   0.000000,   0.000000 [a0]

Properties computed using the SCF density matrix

  Nuclear Dipole Moment: [e a0]
     X:   192.9273      Y:   -47.0288      Z:   -91.1633

  Electronic Dipole Moment: [e a0]
     X:  -193.0488      Y:    49.6856      Z:    90.2460

  Dipole Moment: [e a0]
     X:    -0.1215      Y:     2.6568      Z:    -0.9173     Total:     2.8133

  Dipole Moment: [D]
     X:    -0.3088      Y:     6.7530      Z:    -2.3314     Total:     7.1508


*** tstop() called on node157.bme.utexas.edu at Sat Jan 20 13:59:32 2024
Module time:
	user time   =    1548.46 seconds =      25.81 minutes
	system time =      15.16 seconds =       0.25 minutes
	total time  =        247 seconds =       4.12 minutes
Total time:
	user time   =    5158.92 seconds =      85.98 minutes
	system time =      52.64 seconds =       0.88 minutes
	total time  =        805 seconds =      13.42 minutes

*** tstart() called on node157.bme.utexas.edu
*** at Sat Jan 20 13:59:32 2024


  //>>>>>>>>>>>>>>>>>>>>>>>>>>>>>>>>>>>//
  //               DFMP2               //
  //<<<<<<<<<<<<<<<<<<<<<<<<<<<<<<<<<<<//

   => Loading Basis Set <=

    Name: (AUG-CC-PVTZ AUX)
    Role: RIFIT
    Keyword: DF_BASIS_MP2
    atoms 1, 4, 11, 14-15, 17, 19, 29-31    entry H          line    30 file /opt/anaconda/envs/psi4v1.5/share/psi4/basis/aug-cc-pvtz-ri.gbs 
    atoms 2, 5, 8-9, 12, 16, 20, 24, 26-27  entry N          line   206 file /opt/anaconda/envs/psi4v1.5/share/psi4/basis/aug-cc-pvtz-ri.gbs 
    atoms 3, 6-7, 10, 13, 18, 21-22, 25, 28 entry C          line   148 file /opt/anaconda/envs/psi4v1.5/share/psi4/basis/aug-cc-pvtz-ri.gbs 
    atoms 23                                entry O          line   264 file /opt/anaconda/envs/psi4v1.5/share/psi4/basis/aug-cc-pvtz-ri.gbs 

	 --------------------------------------------------------
	                          DF-MP2                         
	      2nd-Order Density-Fitted Moller-Plesset Theory     
	              RMP2 Wavefunction,   8 Threads             
	                                                         
	        Rob Parrish, Justin Turney, Andy Simmonett,      
	           Ed Hohenstein, and C. David Sherrill          
	 --------------------------------------------------------

   => Auxiliary Basis Set <=

  Basis Set: (AUG-CC-PVTZ AUX)
    Blend: AUG-CC-PVTZ-RI
    Number of shells: 728
    Number of basis functions: 2686
    Number of Cartesian functions: 3406
    Spherical Harmonics?: true
    Max angular momentum: 4

	 --------------------------------------------------------
	                 NBF =  1196, NAUX =  2686
	 --------------------------------------------------------
	   CLASS    FOCC     OCC    AOCC    AVIR     VIR    FVIR
	   PAIRS      11      39      28    1157    1157       0
	 --------------------------------------------------------

	 Will attempt to load fitting metric from file 97.

	-----------------------------------------------------------
	 ==================> DF-MP2 Energies <==================== 
	-----------------------------------------------------------
	 Reference Energy          =    -539.5868783280195657 [Eh]
	 Singles Energy            =      -0.0000000000000000 [Eh]
	 Same-Spin Energy          =      -0.5428278331061247 [Eh]
	 Opposite-Spin Energy      =      -1.5008253955924133 [Eh]
	 Correlation Energy        =      -2.0436532286985383 [Eh]
	 Total Energy              =    -541.6305315567180969 [Eh]
	-----------------------------------------------------------
	 ================> DF-SCS-MP2 Energies <================== 
	-----------------------------------------------------------
	 SCS Same-Spin Scale       =       0.3333333333333333 [-]
	 SCS Opposite-Spin Scale   =       1.2000000000000000 [-]
	 SCS Same-Spin Energy      =      -0.1809426110353749 [Eh]
	 SCS Opposite-Spin Energy  =      -1.8009904747108960 [Eh]
	 SCS Correlation Energy    =      -1.9819330857462709 [Eh]
	 SCS Total Energy          =    -541.5688114137658431 [Eh]
	-----------------------------------------------------------


*** tstop() called on node157.bme.utexas.edu at Sat Jan 20 14:00:28 2024
Module time:
	user time   =     292.73 seconds =       4.88 minutes
	system time =       8.01 seconds =       0.13 minutes
	total time  =         56 seconds =       0.93 minutes
Total time:
	user time   =    5451.66 seconds =      90.86 minutes
	system time =      60.65 seconds =       1.01 minutes
	total time  =        861 seconds =      14.35 minutes
  Constructing Basis Sets for SAPT...

   => Loading Basis Set <=

    Name: (AUG-CC-PVTZ AUX)
    Role: RIFIT
    Keyword: DF_BASIS_SAPT
    atoms 1, 4, 11, 14-15, 17, 19, 29-31    entry H          line    30 file /opt/anaconda/envs/psi4v1.5/share/psi4/basis/aug-cc-pvtz-ri.gbs 
    atoms 2, 5, 8-9, 12, 16, 20, 24, 26-27  entry N          line   206 file /opt/anaconda/envs/psi4v1.5/share/psi4/basis/aug-cc-pvtz-ri.gbs 
    atoms 3, 6-7, 10, 13, 18, 21-22, 25, 28 entry C          line   148 file /opt/anaconda/envs/psi4v1.5/share/psi4/basis/aug-cc-pvtz-ri.gbs 
    atoms 23                                entry O          line   264 file /opt/anaconda/envs/psi4v1.5/share/psi4/basis/aug-cc-pvtz-ri.gbs 


  //>>>>>>>>>>>>>>>>>>>>>>>>>>>>>>>>>>>//
  //           SAPT2+(3)DMP2           //
  //<<<<<<<<<<<<<<<<<<<<<<<<<<<<<<<<<<<//


*** tstart() called on node157.bme.utexas.edu
*** at Sat Jan 20 14:00:28 2024

      SAPT2+(3)  
    Ed Hohenstein
     6 June 2009

      Orbital Information
  --------------------------
    NSO        =      1196
    NMO        =      1196
    NRI        =      2686
    NOCC A     =        35
    NOCC B     =        39
    FOCC A     =        10
    FOCC B     =        11
    NVIR A     =      1161
    NVIR B     =      1157

    Estimated memory usage: 78168.6 MB

    Natural Orbital Cutoff:   1.000E-06
    Disp(T3) Truncation:            Yes
    CCD (vv|vv) Truncation:         Yes
    MBPT T2 Truncation:             Yes

    Monomer A: 650 virtual orbitals dropped
    Monomer B: 604 virtual orbitals dropped

    Elst10,r            =    -0.050604310922 [Eh]
    Exch10 (S^2)        =     0.100196178385 [Eh]
    Exch10              =     0.101086286427 [Eh]
    Ind20,r (A<-B)      =    -0.029123939059 [Eh]
    Ind20,r (B<-A)      =    -0.024224798198 [Eh]
    Ind20,r             =    -0.053348737258 [Eh]
    Exch-Ind20,r (A<-B) =     0.025669431221 [Eh]
    Exch-Ind20,r (B<-A) =     0.021060058455 [Eh]
    Exch-Ind20,r        =     0.046729489676 [Eh]
    Disp20              =    -0.071629057304 [Eh]
    Disp20 (NO)         =    -0.066411509962 [Eh]
    Exch-Disp20         =     0.012580616341 [Eh]
    Elst12,r            =    -0.000879694182 [Eh]
    Exch11              =     0.002443295950 [Eh]
    Exch12              =     0.002781281228 [Eh]
    Ind22               =    -0.002971517010 [Eh]
    Disp21              =     0.024010800447 [Eh]
    Disp22 (SDQ)        =    -0.004222155011 [Eh]

    (i =   1 of  28)       3713 seconds
    (i =   2 of  28)       7467 seconds
    (i =   3 of  28)      11899 seconds
    (i =   4 of  28)      15701 seconds
    (i =   5 of  28)      19480 seconds
    (i =   6 of  28)      23859 seconds
    (i =   7 of  28)      27665 seconds
    (i =   8 of  28)      31454 seconds
    (i =   9 of  28)      35779 seconds
    (i =  10 of  28)      39579 seconds
    (i =  11 of  28)      43391 seconds
    (i =  12 of  28)      47663 seconds
    (i =  13 of  28)      51524 seconds
    (i =  14 of  28)      55322 seconds
    (i =  15 of  28)      59604 seconds
    (i =  16 of  28)      63607 seconds
    (i =  17 of  28)      67620 seconds
    (i =  18 of  28)      72027 seconds
    (i =  19 of  28)      75994 seconds
    (i =  20 of  28)      79983 seconds
    (i =  21 of  28)      84410 seconds
    (i =  22 of  28)      88412 seconds
    (i =  23 of  28)      92340 seconds
    (i =  24 of  28)      96025 seconds
    (i =  25 of  28)      98949 seconds
    (i =  26 of  28)     101795 seconds
    (i =  27 of  28)     104595 seconds
    (i =  28 of  28)     107752 seconds

    Disp220 (T)         =    -0.007720855143 [Eh]

    (i =   1 of  25)       2718 seconds
    (i =   2 of  25)       5356 seconds
    (i =   3 of  25)       8030 seconds
    (i =   4 of  25)      11148 seconds
    (i =   5 of  25)      13783 seconds
    (i =   6 of  25)      16429 seconds
    (i =   7 of  25)      19119 seconds
    (i =   8 of  25)      22280 seconds
    (i =   9 of  25)      24908 seconds
    (i =  10 of  25)      27534 seconds
    (i =  11 of  25)      30160 seconds
    (i =  12 of  25)      32785 seconds
    (i =  13 of  25)      35491 seconds
    (i =  14 of  25)      38176 seconds
    (i =  15 of  25)      40860 seconds
    (i =  16 of  25)      43544 seconds
    (i =  17 of  25)      46229 seconds
    (i =  18 of  25)      48948 seconds
    (i =  19 of  25)      52339 seconds
    (i =  20 of  25)      56262 seconds
    (i =  21 of  25)      60483 seconds
    (i =  22 of  25)      65966 seconds
    (i =  23 of  25)      71572 seconds
    (i =  24 of  25)      77156 seconds
    (i =  25 of  25)      82787 seconds

    Disp202 (T)         =    -0.007861245479 [Eh]

    Disp22 (T)          =    -0.015582100622 [Eh]

    Est. Disp220 (T)    =    -0.008327435648 [Eh]
    Est. Disp202 (T)    =    -0.008478855596 [Eh]

    Est. Disp22 (T)     =    -0.016806291244 [Eh]
    Elst13,r            =     0.001965741953 [Eh]
    Disp30              =     0.002286804351 [Eh]

    SAPT Results 
  --------------------------------------------------------------------------------------------------------
    Electrostatics                -49.51826315 [mEh]     -31.07317925 [kcal/mol]    -130.01018199 [kJ/mol]
      Elst10,r                    -50.60431092 [mEh]     -31.75468452 [kcal/mol]    -132.86160002 [kJ/mol]
      Elst12,r                     -0.87969418 [mEh]      -0.55201643 [kcal/mol]      -2.30963676 [kJ/mol]
      Elst13,r                      1.96574195 [mEh]       1.23352170 [kcal/mol]       5.16105479 [kJ/mol]

    Exchange                      106.31086361 [mEh]      66.71107408 [kcal/mol]     279.11913394 [kJ/mol]
      Exch10                      101.08628643 [mEh]      63.43260240 [kcal/mol]     265.40200845 [kJ/mol]
      Exch10(S^2)                 100.19617838 [mEh]      62.87405117 [kcal/mol]     263.06503011 [kJ/mol]
      Exch11(S^2)                   2.44329595 [mEh]       1.53319136 [kcal/mol]       6.41487263 [kJ/mol]
      Exch12(S^2)                   2.78128123 [mEh]       1.74528032 [kcal/mol]       7.30225286 [kJ/mol]

    Induction                     -10.23661968 [mEh]      -6.42357583 [kcal/mol]     -26.87624127 [kJ/mol]
      Ind20,r                     -53.34873726 [mEh]     -33.47683804 [kcal/mol]    -140.06709037 [kJ/mol]
      Ind22                        -2.97151701 [mEh]      -1.86465508 [kcal/mol]      -7.80171684 [kJ/mol]
      Exch-Ind20,r                 46.72948968 [mEh]      29.32319748 [kcal/mol]     122.68825824 [kJ/mol]
      Exch-Ind22                    2.60282587 [mEh]       1.63329789 [kcal/mol]       6.83371838 [kJ/mol]
      delta HF,r (2)               -6.89016606 [mEh]      -4.32364448 [kcal/mol]     -18.09012849 [kJ/mol]
      delta MP2,r (2)               3.64148510 [mEh]       2.28506640 [kcal/mol]       9.56071781 [kJ/mol]

    Dispersion                    -53.77928242 [mEh]     -33.74700921 [kcal/mol]    -141.19748654 [kJ/mol]
      Disp20                      -71.62905730 [mEh]     -44.94791206 [kcal/mol]    -188.06206404 [kJ/mol]
      Disp30                        2.28680435 [mEh]       1.43499139 [kcal/mol]       6.00400400 [kJ/mol]
      Disp21                       24.01080045 [mEh]      15.06700475 [kcal/mol]      63.04034789 [kJ/mol]
      Disp22 (SDQ)                 -4.22215501 [mEh]      -2.64944227 [kcal/mol]     -11.08526645 [kJ/mol]
      Disp22 (T)                  -15.58210062 [mEh]      -9.77791576 [kcal/mol]     -40.91079955 [kJ/mol]
      Est. Disp22 (T)             -16.80629124 [mEh]     -10.54610697 [kcal/mol]     -44.12491158 [kJ/mol]
      Exch-Disp20                  12.58061634 [mEh]       7.89445594 [kcal/mol]      33.03040365 [kJ/mol]

  Total HF                         36.97256187 [mEh]      23.20063284 [kcal/mol]      97.07144781 [kJ/mol]
  Total SAPT0                     -22.07587910 [mEh]     -13.85282327 [kcal/mol]     -57.96021258 [kJ/mol]
  Total SAPT2                     -18.09968724 [mEh]     -11.35772522 [kcal/mol]     -47.52072230 [kJ/mol]
  Total SAPT2+                    -15.11733305 [mEh]      -9.48626971 [kcal/mol]     -39.69055245 [kJ/mol]
  Total SAPT2+(3)                 -10.86478674 [mEh]      -6.81775661 [kcal/mol]     -28.52549367 [kJ/mol]
  Total SAPT2+dMP2                -11.47584795 [mEh]      -7.20120331 [kcal/mol]     -30.12983464 [kJ/mol]
  Total SAPT2+(3)dMP2              -7.22330165 [mEh]      -4.53269022 [kcal/mol]     -18.96477586 [kJ/mol]

  Special recipe for scaled SAPT0 (see Manual):
    Electrostatics sSAPT0         -50.60431092 [mEh]     -31.75468452 [kcal/mol]    -132.86160002 [kJ/mol]
    Exchange sSAPT0               101.08628643 [mEh]      63.43260240 [kcal/mol]     265.40200845 [kJ/mol]
    Induction sSAPT0              -12.25293164 [mEh]      -7.68883069 [kcal/mol]     -32.17006760 [kJ/mol]
    Dispersion sSAPT0             -58.71016811 [mEh]     -36.84118669 [kcal/mol]    -154.14352513 [kJ/mol]
  Total sSAPT0                    -20.48112425 [mEh]     -12.85209950 [kcal/mol]     -53.77318430 [kJ/mol]
  --------------------------------------------------------------------------------------------------------

*** tstop() called on node157.bme.utexas.edu at Tue Jan 23 05:32:20 2024
Module time:
	user time   = 1343822.44 seconds =   22397.04 minutes
	system time =    3443.46 seconds =      57.39 minutes
	total time  =     228712 seconds =    3811.87 minutes
Total time:
	user time   = 1349274.55 seconds =   22487.91 minutes
	system time =    3504.12 seconds =      58.40 minutes
	total time  =     229573 seconds =    3826.22 minutes

    Psi4 stopped on: Tuesday, 23 January 2024 05:32AM
    Psi4 wall time for execution: 2 days, 15:46:13.70

*** Psi4 exiting successfully. Buy a developer a beer!
