30

H 0.56716 0.4829 -3.27295
N 0.86215 0.67613 -2.3229
C 1.13583 1.89942 -1.76604
H 1.00892 2.82065 -2.32176
N 1.56731 1.82742 -0.51384
C 1.57423 0.46991 -0.25639
C 1.92643 -0.27542 0.88738
N 2.42169 0.31567 2.01422
N 1.82677 -1.61435 0.83867
C 1.39138 -2.19224 -0.30466
H 1.31991 -3.27699 -0.28085
N 1.02386 -1.60544 -1.45177
C 1.13685 -0.27141 -1.36101
H 2.37396 -0.27942 2.8348
H 2.08393 1.25929 2.17454
N -2.5676052 -0.616324 -0.8654747333333334
H -2.9728652 -1.0492240000000002 -1.6869847333333334
C -2.1036752 -1.5079539999999998 0.08928526666666665
O -2.1815852 -2.7240539999999998 -0.023144733333333348
N -1.5561952000000001 -0.859464 1.1859252666666666
H -1.1430652000000001 -1.469634 1.8880452666666667
C -1.4139152 0.514686 1.4052752666666666
O -0.8724052 0.933406 2.431815266666667
C -1.9537252 1.3595259999999998 0.34425526666666667
C -2.5032252 0.754846 -0.7384447333333334
H -2.9298652 1.3181859999999999 -1.5642447333333334
C -1.8748752 2.842406 0.5272452666666667
H -2.3172052 3.363716 -0.32694473333333335
H -2.4038052 3.145876 1.4354052666666666
H -0.8311152 3.149366 0.6302952666666667
