
    -----------------------------------------------------------------------
          Psi4: An Open-Source Ab Initio Electronic Structure Package
                               Psi4 1.5 release

                         Git: Rev {HEAD} e9f4d6d 


    D. G. A. Smith, L. A. Burns, A. C. Simmonett, R. M. Parrish,
    M. C. Schieber, R. Galvelis, P. Kraus, H. Kruse, R. Di Remigio,
    A. Alenaizan, A. M. James, S. Lehtola, J. P. Misiewicz, M. Scheurer,
    R. A. Shaw, J. B. Schriber, Y. Xie, Z. L. Glick, D. A. Sirianni,
    J. S. O'Brien, J. M. Waldrop, A. Kumar, E. G. Hohenstein,
    B. P. Pritchard, B. R. Brooks, H. F. Schaefer III, A. Yu. Sokolov,
    K. Patkowski, A. E. DePrince III, U. Bozkaya, R. A. King,
    F. A. Evangelista, J. M. Turney, T. D. Crawford, C. D. Sherrill,
    J. Chem. Phys. 152(18) 184108 (2020). https://doi.org/10.1063/5.0006002

                            Additional Code Authors
    E. T. Seidl, C. L. Janssen, E. F. Valeev, M. L. Leininger,
    J. F. Gonthier, R. M. Richard, H. R. McAlexander, M. Saitow, X. Wang,
    P. Verma, M. H. Lechner, and A. Jiang

             Previous Authors, Complete List of Code Contributors,
                       and Citations for Specific Modules
    https://github.com/psi4/psi4/blob/master/codemeta.json
    https://github.com/psi4/psi4/graphs/contributors
    http://psicode.org/psi4manual/master/introduction.html#citing-psifour

    -----------------------------------------------------------------------


    Psi4 started on: Sunday, 14 January 2024 11:50AM

    Process ID: 2491703
    Host:       node158.bme.utexas.edu
    PSIDATADIR: /opt/anaconda/envs/psi4v1.5/share/psi4
    Memory:     500.0 MiB
    Threads:    8
    
  ==> Input File <==

--------------------------------------------------------------------------
memory 80GB

molecule {
0 1
H 0.56716 0.4829 -3.27295
N 0.86215 0.67613 -2.3229
C 1.13583 1.89942 -1.76604
H 1.00892 2.82065 -2.32176
N 1.56731 1.82742 -0.51384
C 1.57423 0.46991 -0.25639
C 1.92643 -0.27542 0.88738
N 2.42169 0.31567 2.01422
N 1.82677 -1.61435 0.83867
C 1.39138 -2.19224 -0.30466
H 1.31991 -3.27699 -0.28085
N 1.02386 -1.60544 -1.45177
C 1.13685 -0.27141 -1.36101
H 2.37396 -0.27942 2.8348
H 2.08393 1.25929 2.17454
--
0 1
N -2.5676052 -0.616324 -0.8654747333333334
H -2.9728652 -1.0492240000000002 -1.6869847333333334
C -2.1036752 -1.5079539999999998 0.08928526666666665
O -2.1815852 -2.7240539999999998 -0.023144733333333348
N -1.5561952000000001 -0.859464 1.1859252666666666
H -1.1430652000000001 -1.469634 1.8880452666666667
C -1.4139152 0.514686 1.4052752666666666
O -0.8724052 0.933406 2.431815266666667
C -1.9537252 1.3595259999999998 0.34425526666666667
C -2.5032252 0.754846 -0.7384447333333334
H -2.9298652 1.3181859999999999 -1.5642447333333334
C -1.8748752 2.842406 0.5272452666666667
H -2.3172052 3.363716 -0.32694473333333335
H -2.4038052 3.145876 1.4354052666666666
H -0.8311152 3.149366 0.6302952666666667
 units angstrom
 no_reorient
 symmetry c1
}
set
 {scf_type DF
 basis aug-cc-pvtz
 freeze_core True
 guess SAD
}
energy('sapt2+(3)dmp2')
--------------------------------------------------------------------------

  Memory set to  74.506 GiB by Python driver.

Scratch directory: /tmp/
   => Loading Basis Set <=

    Name: AUG-CC-PVTZ
    Role: ORBITAL
    Keyword: BASIS
    atoms 1, 4, 11, 14-15, 17, 21, 26, 28-30 entry H          line    40 file /opt/anaconda/envs/psi4v1.5/share/psi4/basis/aug-cc-pvtz.gbs 
    atoms 2, 5, 8-9, 12, 16, 20              entry N          line   285 file /opt/anaconda/envs/psi4v1.5/share/psi4/basis/aug-cc-pvtz.gbs 
    atoms 3, 6-7, 10, 13, 18, 22, 24-25, 27  entry C          line   239 file /opt/anaconda/envs/psi4v1.5/share/psi4/basis/aug-cc-pvtz.gbs 
    atoms 19, 23                             entry O          line   331 file /opt/anaconda/envs/psi4v1.5/share/psi4/basis/aug-cc-pvtz.gbs 

   => Loading Basis Set <=

    Name: AUG-CC-PVTZ
    Role: ORBITAL
    Keyword: BASIS
    atoms 1, 4, 11, 14-15, 17, 21, 26, 28-30 entry H          line    40 file /opt/anaconda/envs/psi4v1.5/share/psi4/basis/aug-cc-pvtz.gbs 
    atoms 2, 5, 8-9, 12, 16, 20              entry N          line   285 file /opt/anaconda/envs/psi4v1.5/share/psi4/basis/aug-cc-pvtz.gbs 
    atoms 3, 6-7, 10, 13, 18, 22, 24-25, 27  entry C          line   239 file /opt/anaconda/envs/psi4v1.5/share/psi4/basis/aug-cc-pvtz.gbs 
    atoms 19, 23                             entry O          line   331 file /opt/anaconda/envs/psi4v1.5/share/psi4/basis/aug-cc-pvtz.gbs 


  //>>>>>>>>>>>>>>>>>>>>>>>>>>>>>>>>>>>//
  //              Dimer HF             //
  //<<<<<<<<<<<<<<<<<<<<<<<<<<<<<<<<<<<//


*** tstart() called on node158.bme.utexas.edu
*** at Sun Jan 14 11:50:53 2024

   => Loading Basis Set <=

    Name: AUG-CC-PVTZ
    Role: ORBITAL
    Keyword: BASIS
    atoms 1, 4, 11, 14-15, 17, 21, 26, 28-30 entry H          line    40 file /opt/anaconda/envs/psi4v1.5/share/psi4/basis/aug-cc-pvtz.gbs 
    atoms 2, 5, 8-9, 12, 16, 20              entry N          line   285 file /opt/anaconda/envs/psi4v1.5/share/psi4/basis/aug-cc-pvtz.gbs 
    atoms 3, 6-7, 10, 13, 18, 22, 24-25, 27  entry C          line   239 file /opt/anaconda/envs/psi4v1.5/share/psi4/basis/aug-cc-pvtz.gbs 
    atoms 19, 23                             entry O          line   331 file /opt/anaconda/envs/psi4v1.5/share/psi4/basis/aug-cc-pvtz.gbs 


         ---------------------------------------------------------
                                   SCF
               by Justin Turney, Rob Parrish, Andy Simmonett
                          and Daniel G. A. Smith
                              RHF Reference
                        8 Threads,  76293 MiB Core
         ---------------------------------------------------------

  ==> Geometry <==

    Molecular point group: c1
    Full point group: C1

    Geometry (in Angstrom), charge = 0, multiplicity = 1:

       Center              X                  Y                   Z               Mass       
    ------------   -----------------  -----------------  -----------------  -----------------
         H            0.705985692720     0.491525225313    -3.304888067924     1.007825032230
         N            1.000975692720     0.684755225313    -2.354838067924    14.003074004430
         C            1.274655692720     1.908045225313    -1.797978067924    12.000000000000
         H            1.147745692720     2.829275225313    -2.353698067924     1.007825032230
         N            1.706135692720     1.836045225313    -0.545778067924    14.003074004430
         C            1.713055692720     0.478535225313    -0.288328067924    12.000000000000
         C            2.065255692720    -0.266794774687     0.855441932076    12.000000000000
         N            2.560515692720     0.324295225313     1.982281932076    14.003074004430
         N            1.965595692720    -1.605724774687     0.806731932076    14.003074004430
         C            1.530205692720    -2.183614774687    -0.336598067924    12.000000000000
         H            1.458735692720    -3.268364774687    -0.312788067924     1.007825032230
         N            1.162685692720    -1.596814774687    -1.483708067924    14.003074004430
         C            1.275675692720    -0.262784774687    -1.392948067924    12.000000000000
         H            2.512785692720    -0.270794774687     2.802861932076     1.007825032230
         H            2.222755692720     1.267915225313     2.142601932076     1.007825032230
         N           -2.428779507280    -0.607698774687    -0.897412801257    14.003074004430
         H           -2.834039507280    -1.040598774687    -1.718922801257     1.007825032230
         C           -1.964849507280    -1.499328774687     0.057347198743    12.000000000000
         O           -2.042759507280    -2.715428774687    -0.055082801257    15.994914619570
         N           -1.417369507280    -0.850838774687     1.153987198743    14.003074004430
         H           -1.004239507280    -1.461008774687     1.856107198743     1.007825032230
         C           -1.275089507280     0.523311225313     1.373337198743    12.000000000000
         O           -0.733579507280     0.942031225313     2.399877198743    15.994914619570
         C           -1.814899507280     1.368151225313     0.312317198743    12.000000000000
         C           -2.364399507280     0.763471225313    -0.770382801257    12.000000000000
         H           -2.791039507280     1.326811225313    -1.596182801257     1.007825032230
         C           -1.736049507280     2.851031225313     0.495307198743    12.000000000000
         H           -2.178379507280     3.372341225313    -0.358882801257     1.007825032230
         H           -2.264979507280     3.154501225313     1.403467198743     1.007825032230
         H           -0.692289507280     3.157991225313     0.598357198743     1.007825032230

  Running in c1 symmetry.

  Rotational constants: A =      0.01627  B =      0.01341  C =      0.01196 [cm^-1]
  Rotational constants: A =    487.64429  B =    402.05059  C =    358.40639 [MHz]
  Nuclear repulsion = 1499.618767412932812

  Charge       = 0
  Multiplicity = 1
  Electrons    = 136
  Nalpha       = 68
  Nbeta        = 68

  ==> Algorithm <==

  SCF Algorithm Type is DF.
  DIIS enabled.
  MOM disabled.
  Fractional occupation disabled.
  Guess Type is SAD.
  Energy threshold   = 1.00e-08
  Density threshold  = 1.00e-08
  Integral threshold = 1.00e-12

  ==> Primary Basis <==

  Basis Set: AUG-CC-PVTZ
    Blend: AUG-CC-PVTZ
    Number of shells: 365
    Number of basis functions: 1127
    Number of Cartesian functions: 1320
    Spherical Harmonics?: true
    Max angular momentum: 3

   => Loading Basis Set <=

    Name: (AUG-CC-PVTZ AUX)
    Role: JKFIT
    Keyword: DF_BASIS_SCF
    atoms 1, 4, 11, 14-15, 17, 21, 26, 28-30 entry H          line    70 file /opt/anaconda/envs/psi4v1.5/share/psi4/basis/aug-cc-pvtz-jkfit.gbs 
    atoms 2, 5, 8-9, 12, 16, 20              entry N          line   224 file /opt/anaconda/envs/psi4v1.5/share/psi4/basis/aug-cc-pvtz-jkfit.gbs 
    atoms 3, 6-7, 10, 13, 18, 22, 24-25, 27  entry C          line   162 file /opt/anaconda/envs/psi4v1.5/share/psi4/basis/aug-cc-pvtz-jkfit.gbs 
    atoms 19, 23                             entry O          line   286 file /opt/anaconda/envs/psi4v1.5/share/psi4/basis/aug-cc-pvtz-jkfit.gbs 

  ==> Integral Setup <==

  ==> DiskDFJK: Density-Fitted J/K Matrices <==

    J tasked:                  Yes
    K tasked:                  Yes
    wK tasked:                  No
    OpenMP threads:              8
    Integrals threads:           8
    Memory [MiB]:            57220
    Algorithm:                Core
    Integral Cache:           SAVE
    Schwarz Cutoff:          1E-12
    Fitting Condition:       1E-10

   => Auxiliary Basis Set <=

  Basis Set: (AUG-CC-PVTZ AUX)
    Blend: AUG-CC-PVTZ-JKFIT
    Number of shells: 724
    Number of basis functions: 2482
    Number of Cartesian functions: 3094
    Spherical Harmonics?: true
    Max angular momentum: 4

  Minimum eigenvalue in the overlap matrix is 7.3085860589E-07.
  Reciprocal condition number of the overlap matrix is 3.0814131922E-08.
    Using symmetric orthogonalization.

  ==> Pre-Iterations <==

  SCF Guess: Superposition of Atomic Densities via on-the-fly atomic UHF (no occupation information).

   -------------------------
    Irrep   Nso     Nmo    
   -------------------------
     A       1127    1127 
   -------------------------
    Total    1127    1127
   -------------------------

  ==> Iterations <==

                           Total Energy        Delta E     RMS |[F,P]|

   @DF-RHF iter SAD:  -915.61018973357102   -9.15610e+02   0.00000e+00 
   @DF-RHF iter   1:  -915.82186106359109   -2.11671e-01   9.14785e-04 DIIS
   @DF-RHF iter   2:  -916.20432495785383   -3.82464e-01   5.42705e-04 DIIS
   @DF-RHF iter   3:  -916.33852161889877   -1.34197e-01   1.23505e-04 DIIS
   @DF-RHF iter   4:  -916.34831993051057   -9.79831e-03   5.23778e-05 DIIS
   @DF-RHF iter   5:  -916.35032990144884   -2.00997e-03   1.00642e-05 DIIS
   @DF-RHF iter   6:  -916.35050324658982   -1.73345e-04   5.23667e-06 DIIS
   @DF-RHF iter   7:  -916.35054784921954   -4.46026e-05   2.23919e-06 DIIS
   @DF-RHF iter   8:  -916.35055643212650   -8.58291e-06   8.87502e-07 DIIS
   @DF-RHF iter   9:  -916.35055775967055   -1.32754e-06   3.50936e-07 DIIS
   @DF-RHF iter  10:  -916.35055799838869   -2.38718e-07   1.43902e-07 DIIS
   @DF-RHF iter  11:  -916.35055804238311   -4.39944e-08   6.48082e-08 DIIS
   @DF-RHF iter  12:  -916.35055805170600   -9.32289e-09   2.79169e-08 DIIS
   @DF-RHF iter  13:  -916.35055805336697   -1.66096e-09   1.11063e-08 DIIS
   @DF-RHF iter  14:  -916.35055805366585   -2.98883e-10   4.94805e-09 DIIS
  Energy and wave function converged.


  ==> Post-Iterations <==

    Orbital Energies [Eh]
    ---------------------

    Doubly Occupied:                                                      

       1A    -20.540217     2A    -20.539437     3A    -15.640854  
       4A    -15.637039     5A    -15.624012     6A    -15.576673  
       7A    -15.575948     8A    -15.564305     9A    -15.555388  
      10A    -11.413547    11A    -11.378903    12A    -11.337381  
      13A    -11.332125    14A    -11.329801    15A    -11.323410  
      16A    -11.315110    17A    -11.259672    18A    -11.257734  
      19A    -11.235444    20A     -1.423343    21A     -1.388438  
      22A     -1.371812    23A     -1.301631    24A     -1.298782  
      25A     -1.245074    26A     -1.236896    27A     -1.189076  
      28A     -1.152542    29A     -1.104963    30A     -1.035514  
      31A     -0.966835    32A     -0.912814    33A     -0.895429  
      34A     -0.890033    35A     -0.878240    36A     -0.851443  
      37A     -0.774924    38A     -0.767360    39A     -0.762427  
      40A     -0.732073    41A     -0.704390    42A     -0.696578  
      43A     -0.672530    44A     -0.671064    45A     -0.667252  
      46A     -0.639020    47A     -0.636279    48A     -0.631299  
      49A     -0.613299    50A     -0.608926    51A     -0.593504  
      52A     -0.588882    53A     -0.565936    54A     -0.564811  
      55A     -0.548180    56A     -0.547644    57A     -0.508976  
      58A     -0.500739    59A     -0.496866    60A     -0.475155  
      61A     -0.455718    62A     -0.446250    63A     -0.433742  
      64A     -0.428556    65A     -0.412772    66A     -0.378144  
      67A     -0.350888    68A     -0.314043  

    Virtual:                                                              

      69A      0.009356    70A      0.025290    71A      0.028113  
      72A      0.037304    73A      0.043973    74A      0.046802  
      75A      0.048107    76A      0.051256    77A      0.057357  
      78A      0.064818    79A      0.068642    80A      0.075616  
      81A      0.077252    82A      0.082114    83A      0.085531  
      84A      0.088232    85A      0.089988    86A      0.092302  
      87A      0.100115    88A      0.102736    89A      0.103865  
      90A      0.109047    91A      0.113954    92A      0.114526  
      93A      0.119931    94A      0.122419    95A      0.123833  
      96A      0.126218    97A      0.128471    98A      0.130148  
      99A      0.133219   100A      0.134422   101A      0.137109  
     102A      0.140323   103A      0.141544   104A      0.146508  
     105A      0.150225   106A      0.154441   107A      0.159984  
     108A      0.163408   109A      0.165475   110A      0.167764  
     111A      0.170753   112A      0.174478   113A      0.177307  
     114A      0.180431   115A      0.183425   116A      0.186722  
     117A      0.192255   118A      0.196243   119A      0.197416  
     120A      0.204694   121A      0.210960   122A      0.212192  
     123A      0.215340   124A      0.219799   125A      0.221977  
     126A      0.223279   127A      0.230477   128A      0.233156  
     129A      0.235455   130A      0.239879   131A      0.241263  
     132A      0.244849   133A      0.247564   134A      0.247771  
     135A      0.250368   136A      0.256523   137A      0.259170  
     138A      0.264015   139A      0.266767   140A      0.270160  
     141A      0.271957   142A      0.275488   143A      0.280687  
     144A      0.285672   145A      0.288735   146A      0.291472  
     147A      0.295820   148A      0.296921   149A      0.301089  
     150A      0.303733   151A      0.306723   152A      0.308650  
     153A      0.311816   154A      0.318795   155A      0.319826  
     156A      0.322127   157A      0.324563   158A      0.330016  
     159A      0.331436   160A      0.333738   161A      0.338166  
     162A      0.341793   163A      0.344444   164A      0.346602  
     165A      0.350667   166A      0.353701   167A      0.356078  
     168A      0.364623   169A      0.366035   170A      0.369668  
     171A      0.374011   172A      0.380348   173A      0.381325  
     174A      0.381989   175A      0.389727   176A      0.391474  
     177A      0.391883   178A      0.396505   179A      0.398280  
     180A      0.402394   181A      0.406451   182A      0.409901  
     183A      0.414843   184A      0.419446   185A      0.423702  
     186A      0.428217   187A      0.428839   188A      0.430953  
     189A      0.433212   190A      0.437978   191A      0.440036  
     192A      0.444375   193A      0.446546   194A      0.448244  
     195A      0.449460   196A      0.451613   197A      0.457891  
     198A      0.459672   199A      0.463054   200A      0.467406  
     201A      0.469391   202A      0.470979   203A      0.477366  
     204A      0.479139   205A      0.481579   206A      0.483785  
     207A      0.489920   208A      0.493851   209A      0.496774  
     210A      0.501735   211A      0.504392   212A      0.507476  
     213A      0.509260   214A      0.515551   215A      0.519240  
     216A      0.521597   217A      0.524630   218A      0.527726  
     219A      0.530319   220A      0.532424   221A      0.533511  
     222A      0.538366   223A      0.539813   224A      0.544080  
     225A      0.548981   226A      0.552719   227A      0.554464  
     228A      0.557946   229A      0.561009   230A      0.564092  
     231A      0.566668   232A      0.569682   233A      0.571947  
     234A      0.573914   235A      0.577977   236A      0.581891  
     237A      0.585401   238A      0.587529   239A      0.591814  
     240A      0.595683   241A      0.601219   242A      0.608137  
     243A      0.611786   244A      0.617955   245A      0.621432  
     246A      0.626488   247A      0.630135   248A      0.632804  
     249A      0.634512   250A      0.635463   251A      0.642046  
     252A      0.646654   253A      0.650753   254A      0.652944  
     255A      0.655197   256A      0.659548   257A      0.661584  
     258A      0.672435   259A      0.673091   260A      0.677114  
     261A      0.680380   262A      0.684728   263A      0.685241  
     264A      0.690895   265A      0.701201   266A      0.702494  
     267A      0.708707   268A      0.714413   269A      0.721284  
     270A      0.723258   271A      0.726943   272A      0.731063  
     273A      0.732968   274A      0.735535   275A      0.743087  
     276A      0.747775   277A      0.756184   278A      0.762238  
     279A      0.764645   280A      0.775148   281A      0.776896  
     282A      0.782108   283A      0.785636   284A      0.787611  
     285A      0.794852   286A      0.794966   287A      0.796974  
     288A      0.805247   289A      0.808125   290A      0.811316  
     291A      0.812846   292A      0.815970   293A      0.821070  
     294A      0.828465   295A      0.830162   296A      0.835529  
     297A      0.842806   298A      0.846235   299A      0.848222  
     300A      0.851691   301A      0.854311   302A      0.857582  
     303A      0.858876   304A      0.868686   305A      0.873687  
     306A      0.879390   307A      0.881966   308A      0.884163  
     309A      0.891141   310A      0.892795   311A      0.899069  
     312A      0.904274   313A      0.908896   314A      0.911426  
     315A      0.916245   316A      0.919345   317A      0.922394  
     318A      0.928500   319A      0.929545   320A      0.933529  
     321A      0.939335   322A      0.943522   323A      0.945861  
     324A      0.952646   325A      0.957130   326A      0.960052  
     327A      0.966828   328A      0.968044   329A      0.969067  
     330A      0.973394   331A      0.975764   332A      0.979653  
     333A      0.982650   334A      0.986413   335A      0.990113  
     336A      0.993515   337A      0.999945   338A      1.004077  
     339A      1.005328   340A      1.009165   341A      1.012341  
     342A      1.018866   343A      1.022856   344A      1.027017  
     345A      1.030791   346A      1.032642   347A      1.036475  
     348A      1.040918   349A      1.047965   350A      1.051314  
     351A      1.055864   352A      1.057678   353A      1.058109  
     354A      1.063572   355A      1.069888   356A      1.070991  
     357A      1.075177   358A      1.079844   359A      1.085586  
     360A      1.093471   361A      1.095079   362A      1.101389  
     363A      1.104195   364A      1.108074   365A      1.109996  
     366A      1.115929   367A      1.121196   368A      1.123910  
     369A      1.126513   370A      1.132231   371A      1.138254  
     372A      1.142108   373A      1.147549   374A      1.149432  
     375A      1.152230   376A      1.158592   377A      1.162397  
     378A      1.164198   379A      1.171559   380A      1.174657  
     381A      1.177395   382A      1.180756   383A      1.188874  
     384A      1.190371   385A      1.195957   386A      1.200847  
     387A      1.204878   388A      1.205854   389A      1.212745  
     390A      1.215966   391A      1.221124   392A      1.221834  
     393A      1.228049   394A      1.233039   395A      1.234105  
     396A      1.240277   397A      1.247516   398A      1.251586  
     399A      1.257349   400A      1.261025   401A      1.263627  
     402A      1.269113   403A      1.272517   404A      1.274622  
     405A      1.280719   406A      1.284476   407A      1.290826  
     408A      1.296321   409A      1.297225   410A      1.300796  
     411A      1.303015   412A      1.307609   413A      1.317597  
     414A      1.321174   415A      1.324526   416A      1.330129  
     417A      1.334375   418A      1.337589   419A      1.338789  
     420A      1.347122   421A      1.351349   422A      1.353788  
     423A      1.358045   424A      1.364788   425A      1.371792  
     426A      1.376340   427A      1.380327   428A      1.382165  
     429A      1.387571   430A      1.394131   431A      1.397550  
     432A      1.400736   433A      1.405368   434A      1.407702  
     435A      1.414681   436A      1.420499   437A      1.425512  
     438A      1.426858   439A      1.434107   440A      1.437673  
     441A      1.443236   442A      1.448472   443A      1.454672  
     444A      1.456278   445A      1.462857   446A      1.467286  
     447A      1.471166   448A      1.476643   449A      1.482849  
     450A      1.488007   451A      1.493423   452A      1.495282  
     453A      1.501814   454A      1.508264   455A      1.511459  
     456A      1.516348   457A      1.520468   458A      1.525999  
     459A      1.528740   460A      1.535606   461A      1.545173  
     462A      1.552286   463A      1.558904   464A      1.561441  
     465A      1.566720   466A      1.569327   467A      1.575444  
     468A      1.579310   469A      1.586070   470A      1.591577  
     471A      1.595643   472A      1.600223   473A      1.607705  
     474A      1.611956   475A      1.614917   476A      1.620659  
     477A      1.626132   478A      1.629266   479A      1.633226  
     480A      1.638766   481A      1.643451   482A      1.645599  
     483A      1.648593   484A      1.655678   485A      1.665374  
     486A      1.671229   487A      1.675590   488A      1.683326  
     489A      1.685567   490A      1.688658   491A      1.694942  
     492A      1.697439   493A      1.705398   494A      1.706162  
     495A      1.712048   496A      1.718208   497A      1.721027  
     498A      1.730641   499A      1.732998   500A      1.740649  
     501A      1.741558   502A      1.745852   503A      1.749960  
     504A      1.755000   505A      1.757899   506A      1.763313  
     507A      1.764679   508A      1.776458   509A      1.782665  
     510A      1.786859   511A      1.792639   512A      1.800574  
     513A      1.802816   514A      1.805037   515A      1.808597  
     516A      1.818796   517A      1.825998   518A      1.829402  
     519A      1.833810   520A      1.838409   521A      1.847627  
     522A      1.849145   523A      1.859906   524A      1.861895  
     525A      1.875177   526A      1.878825   527A      1.882758  
     528A      1.888360   529A      1.898121   530A      1.901740  
     531A      1.908081   532A      1.913061   533A      1.914618  
     534A      1.932082   535A      1.935120   536A      1.938475  
     537A      1.944764   538A      1.947790   539A      1.954950  
     540A      1.959681   541A      1.966196   542A      1.971522  
     543A      1.985252   544A      1.987823   545A      1.994037  
     546A      2.000528   547A      2.001884   548A      2.020515  
     549A      2.025176   550A      2.030549   551A      2.035962  
     552A      2.041793   553A      2.045628   554A      2.051652  
     555A      2.067935   556A      2.074437   557A      2.080787  
     558A      2.094962   559A      2.096685   560A      2.100724  
     561A      2.110859   562A      2.115323   563A      2.125556  
     564A      2.133709   565A      2.136468   566A      2.138850  
     567A      2.148612   568A      2.151937   569A      2.159473  
     570A      2.163346   571A      2.167524   572A      2.175521  
     573A      2.183789   574A      2.189104   575A      2.190353  
     576A      2.196073   577A      2.199543   578A      2.205963  
     579A      2.212705   580A      2.216327   581A      2.225017  
     582A      2.231550   583A      2.233964   584A      2.239854  
     585A      2.245108   586A      2.248019   587A      2.256898  
     588A      2.263894   589A      2.270375   590A      2.275700  
     591A      2.279284   592A      2.287974   593A      2.294273  
     594A      2.297502   595A      2.305734   596A      2.307773  
     597A      2.317872   598A      2.326715   599A      2.330923  
     600A      2.331159   601A      2.342077   602A      2.342727  
     603A      2.353427   604A      2.360868   605A      2.363471  
     606A      2.369531   607A      2.373293   608A      2.375426  
     609A      2.383818   610A      2.396948   611A      2.399717  
     612A      2.405850   613A      2.416062   614A      2.422760  
     615A      2.434161   616A      2.436780   617A      2.446759  
     618A      2.450099   619A      2.456302   620A      2.459147  
     621A      2.466078   622A      2.474738   623A      2.477981  
     624A      2.485344   625A      2.486939   626A      2.493787  
     627A      2.498924   628A      2.504100   629A      2.505053  
     630A      2.527355   631A      2.534227   632A      2.538405  
     633A      2.555706   634A      2.558131   635A      2.564597  
     636A      2.567678   637A      2.572593   638A      2.581447  
     639A      2.588135   640A      2.592918   641A      2.601836  
     642A      2.616617   643A      2.618642   644A      2.630639  
     645A      2.636065   646A      2.644617   647A      2.650551  
     648A      2.659364   649A      2.662117   650A      2.675783  
     651A      2.677818   652A      2.684301   653A      2.690305  
     654A      2.702414   655A      2.710046   656A      2.711414  
     657A      2.712161   658A      2.724953   659A      2.735473  
     660A      2.738892   661A      2.743453   662A      2.752131  
     663A      2.759906   664A      2.762600   665A      2.767523  
     666A      2.776434   667A      2.791817   668A      2.795975  
     669A      2.799478   670A      2.807713   671A      2.826048  
     672A      2.831489   673A      2.841573   674A      2.847361  
     675A      2.860934   676A      2.877653   677A      2.884096  
     678A      2.887076   679A      2.889113   680A      2.896891  
     681A      2.900053   682A      2.906136   683A      2.919034  
     684A      2.935070   685A      2.960932   686A      2.966241  
     687A      2.971410   688A      2.982229   689A      2.989208  
     690A      2.999349   691A      3.011489   692A      3.013918  
     693A      3.049900   694A      3.055462   695A      3.066783  
     696A      3.077138   697A      3.090158   698A      3.103838  
     699A      3.108941   700A      3.119023   701A      3.122419  
     702A      3.147562   703A      3.159059   704A      3.165345  
     705A      3.205533   706A      3.226976   707A      3.239888  
     708A      3.250488   709A      3.254227   710A      3.277070  
     711A      3.299202   712A      3.306609   713A      3.311445  
     714A      3.329515   715A      3.355959   716A      3.359626  
     717A      3.371297   718A      3.377606   719A      3.399640  
     720A      3.408750   721A      3.414874   722A      3.429168  
     723A      3.445081   724A      3.452992   725A      3.456047  
     726A      3.463966   727A      3.468542   728A      3.486132  
     729A      3.490702   730A      3.503826   731A      3.508644  
     732A      3.518174   733A      3.534021   734A      3.540526  
     735A      3.548205   736A      3.564104   737A      3.570945  
     738A      3.575346   739A      3.577017   740A      3.596134  
     741A      3.601516   742A      3.606109   743A      3.620725  
     744A      3.633414   745A      3.637883   746A      3.644434  
     747A      3.650385   748A      3.657114   749A      3.669538  
     750A      3.673711   751A      3.686758   752A      3.693479  
     753A      3.707928   754A      3.714263   755A      3.718551  
     756A      3.730062   757A      3.732562   758A      3.741189  
     759A      3.750330   760A      3.751624   761A      3.768217  
     762A      3.773723   763A      3.782880   764A      3.789496  
     765A      3.791992   766A      3.799595   767A      3.801413  
     768A      3.817840   769A      3.821553   770A      3.828211  
     771A      3.832184   772A      3.836193   773A      3.842056  
     774A      3.850036   775A      3.858697   776A      3.863531  
     777A      3.868520   778A      3.882404   779A      3.887709  
     780A      3.896897   781A      3.904902   782A      3.913401  
     783A      3.916915   784A      3.927651   785A      3.937070  
     786A      3.940770   787A      3.949082   788A      3.955116  
     789A      3.965285   790A      3.977824   791A      3.983983  
     792A      3.989272   793A      3.991994   794A      4.003026  
     795A      4.007384   796A      4.013078   797A      4.018957  
     798A      4.022859   799A      4.037253   800A      4.039857  
     801A      4.042424   802A      4.052338   803A      4.063541  
     804A      4.078536   805A      4.085787   806A      4.090345  
     807A      4.098907   808A      4.102979   809A      4.110215  
     810A      4.120155   811A      4.123251   812A      4.126953  
     813A      4.138866   814A      4.144198   815A      4.154341  
     816A      4.158357   817A      4.173708   818A      4.179549  
     819A      4.187660   820A      4.189327   821A      4.197051  
     822A      4.204306   823A      4.212115   824A      4.219282  
     825A      4.223821   826A      4.234364   827A      4.239109  
     828A      4.252969   829A      4.254602   830A      4.258581  
     831A      4.270681   832A      4.276158   833A      4.284543  
     834A      4.287808   835A      4.296521   836A      4.302788  
     837A      4.316291   838A      4.318585   839A      4.324473  
     840A      4.331523   841A      4.338530   842A      4.350440  
     843A      4.354348   844A      4.361972   845A      4.367866  
     846A      4.373376   847A      4.384884   848A      4.386929  
     849A      4.399716   850A      4.405981   851A      4.413829  
     852A      4.418293   853A      4.424877   854A      4.434869  
     855A      4.442748   856A      4.445175   857A      4.451879  
     858A      4.457736   859A      4.464724   860A      4.480126  
     861A      4.488141   862A      4.489645   863A      4.496149  
     864A      4.508650   865A      4.513305   866A      4.525133  
     867A      4.535729   868A      4.536918   869A      4.559197  
     870A      4.562237   871A      4.567038   872A      4.573070  
     873A      4.580330   874A      4.588971   875A      4.594932  
     876A      4.617915   877A      4.622276   878A      4.638259  
     879A      4.641831   880A      4.644846   881A      4.663813  
     882A      4.669267   883A      4.672279   884A      4.681365  
     885A      4.688598   886A      4.695124   887A      4.718511  
     888A      4.724788   889A      4.732362   890A      4.739380  
     891A      4.744164   892A      4.754376   893A      4.759529  
     894A      4.772335   895A      4.787030   896A      4.789120  
     897A      4.793827   898A      4.805498   899A      4.812162  
     900A      4.819575   901A      4.822953   902A      4.838880  
     903A      4.846143   904A      4.853261   905A      4.860604  
     906A      4.868130   907A      4.874770   908A      4.887880  
     909A      4.904037   910A      4.911768   911A      4.932438  
     912A      4.935042   913A      4.959176   914A      4.962558  
     915A      4.972933   916A      4.973884   917A      4.996744  
     918A      5.007638   919A      5.015492   920A      5.028248  
     921A      5.034332   922A      5.037314   923A      5.052885  
     924A      5.062664   925A      5.075783   926A      5.081823  
     927A      5.087593   928A      5.095873   929A      5.110253  
     930A      5.122233   931A      5.137413   932A      5.144681  
     933A      5.150426   934A      5.156420   935A      5.174310  
     936A      5.191545   937A      5.195198   938A      5.213013  
     939A      5.216371   940A      5.226326   941A      5.240961  
     942A      5.255605   943A      5.265733   944A      5.291977  
     945A      5.295023   946A      5.298524   947A      5.311964  
     948A      5.320652   949A      5.330627   950A      5.346773  
     951A      5.361965   952A      5.367574   953A      5.382464  
     954A      5.385997   955A      5.394835   956A      5.405799  
     957A      5.418391   958A      5.427579   959A      5.442256  
     960A      5.465439   961A      5.472747   962A      5.478587  
     963A      5.482445   964A      5.496781   965A      5.506163  
     966A      5.519203   967A      5.527525   968A      5.536172  
     969A      5.540076   970A      5.560495   971A      5.562983  
     972A      5.569823   973A      5.588390   974A      5.590974  
     975A      5.608386   976A      5.616179   977A      5.629430  
     978A      5.643163   979A      5.648291   980A      5.655579  
     981A      5.661953   982A      5.681305   983A      5.690898  
     984A      5.697652   985A      5.703096   986A      5.711034  
     987A      5.730534   988A      5.738399   989A      5.740452  
     990A      5.744778   991A      5.770552   992A      5.771275  
     993A      5.776106   994A      5.789068   995A      5.791275  
     996A      5.807772   997A      5.817663   998A      5.826166  
     999A      5.832421  1000A      5.843812  1001A      5.852133  
    1002A      5.871882  1003A      5.898750  1004A      5.916281  
    1005A      5.927356  1006A      5.934721  1007A      5.941050  
    1008A      5.951053  1009A      5.952610  1010A      5.968015  
    1011A      5.977422  1012A      5.983151  1013A      5.994897  
    1014A      6.007148  1015A      6.024582  1016A      6.029446  
    1017A      6.045317  1018A      6.051492  1019A      6.053779  
    1020A      6.071894  1021A      6.110551  1022A      6.116730  
    1023A      6.136420  1024A      6.142545  1025A      6.152489  
    1026A      6.159741  1027A      6.179206  1028A      6.183495  
    1029A      6.208796  1030A      6.209543  1031A      6.219654  
    1032A      6.224774  1033A      6.243203  1034A      6.259579  
    1035A      6.265605  1036A      6.273224  1037A      6.290860  
    1038A      6.307522  1039A      6.324364  1040A      6.352581  
    1041A      6.375371  1042A      6.416585  1043A      6.443014  
    1044A      6.497493  1045A      6.499969  1046A      6.530607  
    1047A      6.536559  1048A      6.559367  1049A      6.615300  
    1050A      6.633293  1051A      6.657936  1052A      6.700292  
    1053A      6.705800  1054A      6.725743  1055A      6.730140  
    1056A      6.745939  1057A      6.761753  1058A      6.773428  
    1059A      6.794715  1060A      6.802471  1061A      6.823570  
    1062A      6.833665  1063A      6.862516  1064A      6.868854  
    1065A      6.878933  1066A      6.885791  1067A      6.897067  
    1068A      6.908422  1069A      6.921246  1070A      6.938782  
    1071A      6.976037  1072A      6.995061  1073A      7.020357  
    1074A      7.034016  1075A      7.042203  1076A      7.075503  
    1077A      7.093191  1078A      7.106483  1079A      7.115281  
    1080A      7.154531  1081A      7.218262  1082A      7.226075  
    1083A      7.245677  1084A      7.300287  1085A      7.311991  
    1086A      7.368004  1087A      7.382635  1088A      7.398268  
    1089A      7.440852  1090A      7.461512  1091A      7.474219  
    1092A      7.509628  1093A      7.517735  1094A      7.569146  
    1095A      7.604887  1096A      7.663119  1097A      7.740146  
    1098A      7.800932  1099A      7.813226  1100A      7.869863  
    1101A      7.885022  1102A      7.896084  1103A      7.928839  
    1104A      7.984779  1105A      8.017440  1106A      8.055574  
    1107A      8.069488  1108A      8.114059  1109A     16.181169  
    1110A     16.201427  1111A     16.319177  1112A     16.408896  
    1113A     16.586869  1114A     16.666459  1115A     17.050525  
    1116A     17.919734  1117A     18.300592  1118A     18.518334  
    1119A     19.271187  1120A     19.415820  1121A     19.531326  
    1122A     19.693799  1123A     20.158371  1124A     20.589201  
    1125A     20.863548  1126A     21.444245  1127A     21.673719  

    Final Occupation by Irrep:
              A 
    DOCC [    68 ]

  @DF-RHF Final Energy:  -916.35055805366585

   => Energetics <=

    Nuclear Repulsion Energy =           1499.6187674129328116
    One-Electron Energy =               -4230.4024684671376235
    Two-Electron Energy =                1814.4331430005388484
    Total Energy =                       -916.3505580536659636

Computation Completed


Properties will be evaluated at   0.000000,   0.000000,   0.000000 [a0]

Properties computed using the SCF density matrix

  Nuclear Dipole Moment: [e a0]
     X:    -3.5111      Y:     8.9586      Z:    -0.7742

  Electronic Dipole Moment: [e a0]
     X:     2.3644      Y:    -7.3730      Z:    -1.1803

  Dipole Moment: [e a0]
     X:    -1.1467      Y:     1.5856      Z:    -1.9545     Total:     2.7657

  Dipole Moment: [D]
     X:    -2.9147      Y:     4.0302      Z:    -4.9679     Total:     7.0298


*** tstop() called on node158.bme.utexas.edu at Sun Jan 14 11:56:19 2024
Module time:
	user time   =    1646.98 seconds =      27.45 minutes
	system time =      27.52 seconds =       0.46 minutes
	total time  =        326 seconds =       5.43 minutes
Total time:
	user time   =    1646.98 seconds =      27.45 minutes
	system time =      27.52 seconds =       0.46 minutes
	total time  =        326 seconds =       5.43 minutes

*** tstart() called on node158.bme.utexas.edu
*** at Sun Jan 14 11:56:19 2024


  //>>>>>>>>>>>>>>>>>>>>>>>>>>>>>>>>>>>//
  //               DFMP2               //
  //<<<<<<<<<<<<<<<<<<<<<<<<<<<<<<<<<<<//

   => Loading Basis Set <=

    Name: (AUG-CC-PVTZ AUX)
    Role: RIFIT
    Keyword: DF_BASIS_MP2
    atoms 1, 4, 11, 14-15, 17, 21, 26, 28-30 entry H          line    30 file /opt/anaconda/envs/psi4v1.5/share/psi4/basis/aug-cc-pvtz-ri.gbs 
    atoms 2, 5, 8-9, 12, 16, 20              entry N          line   206 file /opt/anaconda/envs/psi4v1.5/share/psi4/basis/aug-cc-pvtz-ri.gbs 
    atoms 3, 6-7, 10, 13, 18, 22, 24-25, 27  entry C          line   148 file /opt/anaconda/envs/psi4v1.5/share/psi4/basis/aug-cc-pvtz-ri.gbs 
    atoms 19, 23                             entry O          line   264 file /opt/anaconda/envs/psi4v1.5/share/psi4/basis/aug-cc-pvtz-ri.gbs 

	 --------------------------------------------------------
	                          DF-MP2                         
	      2nd-Order Density-Fitted Moller-Plesset Theory     
	              RMP2 Wavefunction,   8 Threads             
	                                                         
	        Rob Parrish, Justin Turney, Andy Simmonett,      
	           Ed Hohenstein, and C. David Sherrill          
	 --------------------------------------------------------

   => Auxiliary Basis Set <=

  Basis Set: (AUG-CC-PVTZ AUX)
    Blend: AUG-CC-PVTZ-RI
    Number of shells: 686
    Number of basis functions: 2520
    Number of Cartesian functions: 3189
    Spherical Harmonics?: true
    Max angular momentum: 4

	 --------------------------------------------------------
	                 NBF =  1127, NAUX =  2520
	 --------------------------------------------------------
	   CLASS    FOCC     OCC    AOCC    AVIR     VIR    FVIR
	   PAIRS      19      68      49    1059    1059       0
	 --------------------------------------------------------

	 Will save fitting metric to file 97.

	-----------------------------------------------------------
	 ==================> DF-MP2 Energies <==================== 
	-----------------------------------------------------------
	 Reference Energy          =    -916.3505580536658499 [Eh]
	 Singles Energy            =      -0.0000000000000000 [Eh]
	 Same-Spin Energy          =      -0.9220812192525810 [Eh]
	 Opposite-Spin Energy      =      -2.5866853822360043 [Eh]
	 Correlation Energy        =      -3.5087666014885852 [Eh]
	 Total Energy              =    -919.8593246551544098 [Eh]
	-----------------------------------------------------------
	 ================> DF-SCS-MP2 Energies <================== 
	-----------------------------------------------------------
	 SCS Same-Spin Scale       =       0.3333333333333333 [-]
	 SCS Opposite-Spin Scale   =       1.2000000000000000 [-]
	 SCS Same-Spin Energy      =      -0.3073604064175270 [Eh]
	 SCS Opposite-Spin Energy  =      -3.1040224586832053 [Eh]
	 SCS Correlation Energy    =      -3.4113828651007321 [Eh]
	 SCS Total Energy          =    -919.7619409187665269 [Eh]
	-----------------------------------------------------------


*** tstop() called on node158.bme.utexas.edu at Sun Jan 14 11:57:38 2024
Module time:
	user time   =     448.66 seconds =       7.48 minutes
	system time =      11.96 seconds =       0.20 minutes
	total time  =         79 seconds =       1.32 minutes
Total time:
	user time   =    2095.65 seconds =      34.93 minutes
	system time =      39.48 seconds =       0.66 minutes
	total time  =        405 seconds =       6.75 minutes

  //>>>>>>>>>>>>>>>>>>>>>>>>>>>>>>>>>>>//
  //            Monomer A HF           //
  //<<<<<<<<<<<<<<<<<<<<<<<<<<<<<<<<<<<//


*** tstart() called on node158.bme.utexas.edu
*** at Sun Jan 14 11:57:38 2024

   => Loading Basis Set <=

    Name: AUG-CC-PVTZ
    Role: ORBITAL
    Keyword: BASIS
    atoms 1, 4, 11, 14-15, 17, 21, 26, 28-30 entry H          line    40 file /opt/anaconda/envs/psi4v1.5/share/psi4/basis/aug-cc-pvtz.gbs 
    atoms 2, 5, 8-9, 12, 16, 20              entry N          line   285 file /opt/anaconda/envs/psi4v1.5/share/psi4/basis/aug-cc-pvtz.gbs 
    atoms 3, 6-7, 10, 13, 18, 22, 24-25, 27  entry C          line   239 file /opt/anaconda/envs/psi4v1.5/share/psi4/basis/aug-cc-pvtz.gbs 
    atoms 19, 23                             entry O          line   331 file /opt/anaconda/envs/psi4v1.5/share/psi4/basis/aug-cc-pvtz.gbs 


         ---------------------------------------------------------
                                   SCF
               by Justin Turney, Rob Parrish, Andy Simmonett
                          and Daniel G. A. Smith
                              RHF Reference
                        8 Threads,  76293 MiB Core
         ---------------------------------------------------------

  ==> Geometry <==

    Molecular point group: c1
    Full point group: C1

    Geometry (in Angstrom), charge = 0, multiplicity = 1:

       Center              X                  Y                   Z               Mass       
    ------------   -----------------  -----------------  -----------------  -----------------
         H            0.705985692720     0.491525225313    -3.304888067924     1.007825032230
         N            1.000975692720     0.684755225313    -2.354838067924    14.003074004430
         C            1.274655692720     1.908045225313    -1.797978067924    12.000000000000
         H            1.147745692720     2.829275225313    -2.353698067924     1.007825032230
         N            1.706135692720     1.836045225313    -0.545778067924    14.003074004430
         C            1.713055692720     0.478535225313    -0.288328067924    12.000000000000
         C            2.065255692720    -0.266794774687     0.855441932076    12.000000000000
         N            2.560515692720     0.324295225313     1.982281932076    14.003074004430
         N            1.965595692720    -1.605724774687     0.806731932076    14.003074004430
         C            1.530205692720    -2.183614774687    -0.336598067924    12.000000000000
         H            1.458735692720    -3.268364774687    -0.312788067924     1.007825032230
         N            1.162685692720    -1.596814774687    -1.483708067924    14.003074004430
         C            1.275675692720    -0.262784774687    -1.392948067924    12.000000000000
         H            2.512785692720    -0.270794774687     2.802861932076     1.007825032230
         H            2.222755692720     1.267915225313     2.142601932076     1.007825032230
      Gh(N)          -2.428779507280    -0.607698774687    -0.897412801257    14.003074004430
      Gh(H)          -2.834039507280    -1.040598774687    -1.718922801257     1.007825032230
      Gh(C)          -1.964849507280    -1.499328774687     0.057347198743    12.000000000000
      Gh(O)          -2.042759507280    -2.715428774687    -0.055082801257    15.994914619570
      Gh(N)          -1.417369507280    -0.850838774687     1.153987198743    14.003074004430
      Gh(H)          -1.004239507280    -1.461008774687     1.856107198743     1.007825032230
      Gh(C)          -1.275089507280     0.523311225313     1.373337198743    12.000000000000
      Gh(O)          -0.733579507280     0.942031225313     2.399877198743    15.994914619570
      Gh(C)          -1.814899507280     1.368151225313     0.312317198743    12.000000000000
      Gh(C)          -2.364399507280     0.763471225313    -0.770382801257    12.000000000000
      Gh(H)          -2.791039507280     1.326811225313    -1.596182801257     1.007825032230
      Gh(C)          -1.736049507280     2.851031225313     0.495307198743    12.000000000000
      Gh(H)          -2.178379507280     3.372341225313    -0.358882801257     1.007825032230
      Gh(H)          -2.264979507280     3.154501225313     1.403467198743     1.007825032230
      Gh(H)          -0.692289507280     3.157991225313     0.598357198743     1.007825032230

  Running in c1 symmetry.

  Rotational constants: A =      0.01627  B =      0.01341  C =      0.01196 [cm^-1]
  Rotational constants: A =    487.64429  B =    402.05059  C =    358.40639 [MHz]
  Nuclear repulsion =  501.476228947270272

  Charge       = 0
  Multiplicity = 1
  Electrons    = 70
  Nalpha       = 35
  Nbeta        = 35

  ==> Algorithm <==

  SCF Algorithm Type is DF.
  DIIS enabled.
  MOM disabled.
  Fractional occupation disabled.
  Guess Type is SAD.
  Energy threshold   = 1.00e-08
  Density threshold  = 1.00e-08
  Integral threshold = 1.00e-12

  ==> Primary Basis <==

  Basis Set: AUG-CC-PVTZ
    Blend: AUG-CC-PVTZ
    Number of shells: 365
    Number of basis functions: 1127
    Number of Cartesian functions: 1320
    Spherical Harmonics?: true
    Max angular momentum: 3

   => Loading Basis Set <=

    Name: (AUG-CC-PVTZ AUX)
    Role: JKFIT
    Keyword: DF_BASIS_SCF
    atoms 1, 4, 11, 14-15, 17, 21, 26, 28-30 entry H          line    70 file /opt/anaconda/envs/psi4v1.5/share/psi4/basis/aug-cc-pvtz-jkfit.gbs 
    atoms 2, 5, 8-9, 12, 16, 20              entry N          line   224 file /opt/anaconda/envs/psi4v1.5/share/psi4/basis/aug-cc-pvtz-jkfit.gbs 
    atoms 3, 6-7, 10, 13, 18, 22, 24-25, 27  entry C          line   162 file /opt/anaconda/envs/psi4v1.5/share/psi4/basis/aug-cc-pvtz-jkfit.gbs 
    atoms 19, 23                             entry O          line   286 file /opt/anaconda/envs/psi4v1.5/share/psi4/basis/aug-cc-pvtz-jkfit.gbs 

  ==> Integral Setup <==

  ==> DiskDFJK: Density-Fitted J/K Matrices <==

    J tasked:                  Yes
    K tasked:                  Yes
    wK tasked:                  No
    OpenMP threads:              8
    Integrals threads:           8
    Memory [MiB]:            57220
    Algorithm:                Core
    Integral Cache:           LOAD
    Schwarz Cutoff:          1E-12
    Fitting Condition:       1E-10

   => Auxiliary Basis Set <=

  Basis Set: (AUG-CC-PVTZ AUX)
    Blend: AUG-CC-PVTZ-JKFIT
    Number of shells: 724
    Number of basis functions: 2482
    Number of Cartesian functions: 3094
    Spherical Harmonics?: true
    Max angular momentum: 4

  Minimum eigenvalue in the overlap matrix is 7.3085860589E-07.
  Reciprocal condition number of the overlap matrix is 3.0814131922E-08.
    Using symmetric orthogonalization.

  ==> Pre-Iterations <==

  SCF Guess: Superposition of Atomic Densities via on-the-fly atomic UHF (no occupation information).

   -------------------------
    Irrep   Nso     Nmo    
   -------------------------
     A       1127    1127 
   -------------------------
    Total    1127    1127
   -------------------------

  ==> Iterations <==

                           Total Energy        Delta E     RMS |[F,P]|

   @DF-RHF iter SAD:  -464.44721381263031   -4.64447e+02   0.00000e+00 
   @DF-RHF iter   1:  -464.44251599280403    4.69782e-03   5.93116e-04 DIIS
   @DF-RHF iter   2:  -464.63255170680759   -1.90036e-01   2.93994e-04 DIIS
   @DF-RHF iter   3:  -464.67660587173702   -4.40542e-02   6.75627e-05 DIIS
   @DF-RHF iter   4:  -464.67998192846949   -3.37606e-03   3.18367e-05 DIIS
   @DF-RHF iter   5:  -464.68065805613134   -6.76128e-04   6.40942e-06 DIIS
   @DF-RHF iter   6:  -464.68071518396806   -5.71278e-05   2.99092e-06 DIIS
   @DF-RHF iter   7:  -464.68072910385132   -1.39199e-05   1.18059e-06 DIIS
   @DF-RHF iter   8:  -464.68073193182505   -2.82797e-06   4.38788e-07 DIIS
   @DF-RHF iter   9:  -464.68073236122109   -4.29396e-07   2.33789e-07 DIIS
   @DF-RHF iter  10:  -464.68073247424718   -1.13026e-07   8.71896e-08 DIIS
   @DF-RHF iter  11:  -464.68073249861874   -2.43716e-08   3.72969e-08 DIIS
   @DF-RHF iter  12:  -464.68073250244373   -3.82499e-09   1.50408e-08 DIIS
   @DF-RHF iter  13:  -464.68073250303161   -5.87875e-10   5.41791e-09 DIIS
  Energy and wave function converged.


  ==> Post-Iterations <==

    Orbital Energies [Eh]
    ---------------------

    Doubly Occupied:                                                      

       1A    -15.636546     2A    -15.584245     3A    -15.572917  
       4A    -15.564243     5A    -15.555962     6A    -11.338185  
       7A    -11.329246     8A    -11.321197     9A    -11.314916  
      10A    -11.256712    11A     -1.368511    12A     -1.298953  
      13A     -1.247007    14A     -1.187416    15A     -1.153043  
      16A     -1.034009    17A     -0.894695    18A     -0.877460  
      19A     -0.847955    20A     -0.775382    21A     -0.733395  
      22A     -0.696363    23A     -0.672935    24A     -0.641420  
      25A     -0.630624    26A     -0.609801    27A     -0.592571  
      28A     -0.557560    29A     -0.500245    30A     -0.499275  
      31A     -0.454509    32A     -0.429689    33A     -0.412420  
      34A     -0.376514    35A     -0.313053  

    Virtual:                                                              

      36A      0.016673    37A      0.025398    38A      0.030298  
      39A      0.033083    40A      0.042550    41A      0.044987  
      42A      0.046080    43A      0.050264    44A      0.059961  
      45A      0.063996    46A      0.065869    47A      0.070875  
      48A      0.076372    49A      0.078721    50A      0.083200  
      51A      0.086614    52A      0.089190    53A      0.093422  
      54A      0.094311    55A      0.099178    56A      0.103431  
      57A      0.110097    58A      0.113627    59A      0.114750  
      60A      0.115747    61A      0.119424    62A      0.120960  
      63A      0.124913    64A      0.127014    65A      0.130529  
      66A      0.132958    67A      0.133604    68A      0.134295  
      69A      0.136079    70A      0.139590    71A      0.146266  
      72A      0.148585    73A      0.154260    74A      0.159002  
      75A      0.159305    76A      0.165874    77A      0.169293  
      78A      0.174114    79A      0.176761    80A      0.178591  
      81A      0.179439    82A      0.184616    83A      0.187996  
      84A      0.192161    85A      0.195402    86A      0.199873  
      87A      0.203043    88A      0.205487    89A      0.209361  
      90A      0.210366    91A      0.214237    92A      0.215703  
      93A      0.220240    94A      0.226795    95A      0.231646  
      96A      0.236900    97A      0.239438    98A      0.241706  
      99A      0.242874   100A      0.243490   101A      0.247889  
     102A      0.249109   103A      0.254362   104A      0.260607  
     105A      0.263177   106A      0.265913   107A      0.268258  
     108A      0.272552   109A      0.275475   110A      0.278587  
     111A      0.280097   112A      0.285500   113A      0.287775  
     114A      0.290341   115A      0.293130   116A      0.294997  
     117A      0.301198   118A      0.307306   119A      0.310381  
     120A      0.311353   121A      0.313047   122A      0.316993  
     123A      0.320494   124A      0.323940   125A      0.328675  
     126A      0.334493   127A      0.337704   128A      0.340179  
     129A      0.344409   130A      0.346185   131A      0.351876  
     132A      0.359750   133A      0.361312   134A      0.364357  
     135A      0.365454   136A      0.368184   137A      0.374526  
     138A      0.376034   139A      0.381740   140A      0.387341  
     141A      0.388903   142A      0.391939   143A      0.396775  
     144A      0.401343   145A      0.402993   146A      0.406212  
     147A      0.409422   148A      0.411535   149A      0.420607  
     150A      0.422307   151A      0.425355   152A      0.430872  
     153A      0.432898   154A      0.437007   155A      0.439370  
     156A      0.440688   157A      0.441562   158A      0.444360  
     159A      0.448492   160A      0.450880   161A      0.453113  
     162A      0.457278   163A      0.462938   164A      0.465476  
     165A      0.469062   166A      0.472271   167A      0.477939  
     168A      0.484576   169A      0.486811   170A      0.488012  
     171A      0.491343   172A      0.492288   173A      0.495023  
     174A      0.498779   175A      0.507761   176A      0.510779  
     177A      0.512038   178A      0.515129   179A      0.516642  
     180A      0.521137   181A      0.523418   182A      0.526095  
     183A      0.526961   184A      0.533527   185A      0.536350  
     186A      0.537707   187A      0.543165   188A      0.545458  
     189A      0.550539   190A      0.553770   191A      0.558261  
     192A      0.561528   193A      0.564796   194A      0.565562  
     195A      0.568077   196A      0.571155   197A      0.574888  
     198A      0.583133   199A      0.585679   200A      0.590671  
     201A      0.592885   202A      0.598468   203A      0.602898  
     204A      0.604509   205A      0.610457   206A      0.611488  
     207A      0.617290   208A      0.623741   209A      0.624969  
     210A      0.630732   211A      0.632753   212A      0.636536  
     213A      0.639800   214A      0.641384   215A      0.643090  
     216A      0.649659   217A      0.659481   218A      0.661239  
     219A      0.664502   220A      0.665661   221A      0.667218  
     222A      0.670142   223A      0.679882   224A      0.683844  
     225A      0.685047   226A      0.691105   227A      0.696308  
     228A      0.700721   229A      0.705024   230A      0.710549  
     231A      0.712375   232A      0.716557   233A      0.719078  
     234A      0.725672   235A      0.733123   236A      0.737349  
     237A      0.742585   238A      0.744609   239A      0.749058  
     240A      0.755576   241A      0.766183   242A      0.767133  
     243A      0.771618   244A      0.775620   245A      0.776081  
     246A      0.779870   247A      0.787509   248A      0.788259  
     249A      0.788644   250A      0.794379   251A      0.802864  
     252A      0.808668   253A      0.813205   254A      0.819073  
     255A      0.821176   256A      0.823991   257A      0.826700  
     258A      0.828625   259A      0.832674   260A      0.840592  
     261A      0.842501   262A      0.847299   263A      0.851012  
     264A      0.852119   265A      0.864118   266A      0.865552  
     267A      0.872932   268A      0.875648   269A      0.884758  
     270A      0.887862   271A      0.897683   272A      0.903877  
     273A      0.906109   274A      0.908775   275A      0.911136  
     276A      0.912000   277A      0.918551   278A      0.920703  
     279A      0.922290   280A      0.930273   281A      0.932191  
     282A      0.933694   283A      0.943185   284A      0.949009  
     285A      0.954064   286A      0.961809   287A      0.962948  
     288A      0.968433   289A      0.975090   290A      0.980911  
     291A      0.983250   292A      0.985735   293A      0.991497  
     294A      0.993636   295A      0.997447   296A      1.002920  
     297A      1.004738   298A      1.008711   299A      1.012795  
     300A      1.014470   301A      1.018449   302A      1.020093  
     303A      1.029399   304A      1.031652   305A      1.035618  
     306A      1.037855   307A      1.043321   308A      1.045618  
     309A      1.052401   310A      1.056296   311A      1.058829  
     312A      1.060850   313A      1.065945   314A      1.069028  
     315A      1.072728   316A      1.074178   317A      1.081412  
     318A      1.082792   319A      1.089666   320A      1.092335  
     321A      1.097506   322A      1.102457   323A      1.105341  
     324A      1.117534   325A      1.120230   326A      1.121240  
     327A      1.126105   328A      1.128575   329A      1.138647  
     330A      1.141383   331A      1.143681   332A      1.148047  
     333A      1.154672   334A      1.156907   335A      1.159141  
     336A      1.162644   337A      1.166582   338A      1.169585  
     339A      1.172644   340A      1.181382   341A      1.184834  
     342A      1.188614   343A      1.190433   344A      1.194358  
     345A      1.200045   346A      1.209963   347A      1.212531  
     348A      1.216656   349A      1.221204   350A      1.223897  
     351A      1.229687   352A      1.230837   353A      1.233183  
     354A      1.242064   355A      1.244089   356A      1.246042  
     357A      1.246332   358A      1.258435   359A      1.262183  
     360A      1.267146   361A      1.269822   362A      1.275231  
     363A      1.283029   364A      1.285992   365A      1.288481  
     366A      1.292384   367A      1.295292   368A      1.302671  
     369A      1.303053   370A      1.308163   371A      1.310878  
     372A      1.315085   373A      1.322013   374A      1.325766  
     375A      1.328932   376A      1.336527   377A      1.339173  
     378A      1.341046   379A      1.350879   380A      1.355373  
     381A      1.358278   382A      1.358760   383A      1.365507  
     384A      1.366795   385A      1.369368   386A      1.374183  
     387A      1.376987   388A      1.387002   389A      1.392490  
     390A      1.399426   391A      1.402381   392A      1.406105  
     393A      1.412907   394A      1.417168   395A      1.420964  
     396A      1.425931   397A      1.430877   398A      1.435234  
     399A      1.439419   400A      1.445565   401A      1.450230  
     402A      1.450779   403A      1.454028   404A      1.456196  
     405A      1.465757   406A      1.469126   407A      1.473390  
     408A      1.476597   409A      1.481722   410A      1.490376  
     411A      1.493859   412A      1.504550   413A      1.506101  
     414A      1.512989   415A      1.518219   416A      1.522749  
     417A      1.528378   418A      1.531587   419A      1.536964  
     420A      1.540979   421A      1.549118   422A      1.557382  
     423A      1.559044   424A      1.562847   425A      1.568676  
     426A      1.572921   427A      1.581943   428A      1.583346  
     429A      1.587920   430A      1.590563   431A      1.599113  
     432A      1.602050   433A      1.612454   434A      1.613818  
     435A      1.619300   436A      1.627839   437A      1.634568  
     438A      1.638117   439A      1.648403   440A      1.652495  
     441A      1.658114   442A      1.664804   443A      1.669532  
     444A      1.675215   445A      1.677904   446A      1.682333  
     447A      1.687900   448A      1.690916   449A      1.701234  
     450A      1.703956   451A      1.710966   452A      1.716588  
     453A      1.720530   454A      1.725360   455A      1.730378  
     456A      1.735876   457A      1.737949   458A      1.742200  
     459A      1.751315   460A      1.755698   461A      1.760565  
     462A      1.763976   463A      1.769367   464A      1.774551  
     465A      1.775869   466A      1.784040   467A      1.790705  
     468A      1.795619   469A      1.798292   470A      1.808816  
     471A      1.819451   472A      1.821613   473A      1.826745  
     474A      1.840233   475A      1.842633   476A      1.849304  
     477A      1.853466   478A      1.857524   479A      1.867559  
     480A      1.872155   481A      1.876557   482A      1.881234  
     483A      1.884875   484A      1.896889   485A      1.908505  
     486A      1.909837   487A      1.911001   488A      1.912581  
     489A      1.921391   490A      1.927067   491A      1.933138  
     492A      1.940222   493A      1.943668   494A      1.955087  
     495A      1.959454   496A      1.962489   497A      1.966176  
     498A      1.969199   499A      1.978815   500A      1.984578  
     501A      1.988779   502A      1.997484   503A      2.000783  
     504A      2.012179   505A      2.014741   506A      2.018665  
     507A      2.027581   508A      2.033022   509A      2.036294  
     510A      2.047267   511A      2.056741   512A      2.064809  
     513A      2.065311   514A      2.070876   515A      2.076856  
     516A      2.083654   517A      2.094200   518A      2.099962  
     519A      2.110284   520A      2.113404   521A      2.115210  
     522A      2.119554   523A      2.125676   524A      2.127562  
     525A      2.131733   526A      2.144780   527A      2.152021  
     528A      2.158317   529A      2.163627   530A      2.168861  
     531A      2.174790   532A      2.186301   533A      2.189677  
     534A      2.193836   535A      2.198163   536A      2.209738  
     537A      2.210882   538A      2.219415   539A      2.221798  
     540A      2.233082   541A      2.238155   542A      2.245743  
     543A      2.248696   544A      2.258161   545A      2.261054  
     546A      2.269539   547A      2.270334   548A      2.282025  
     549A      2.290653   550A      2.295004   551A      2.303458  
     552A      2.306039   553A      2.310950   554A      2.320587  
     555A      2.326231   556A      2.334440   557A      2.337331  
     558A      2.344017   559A      2.353867   560A      2.358227  
     561A      2.365815   562A      2.371259   563A      2.373836  
     564A      2.380434   565A      2.390630   566A      2.396377  
     567A      2.399355   568A      2.400936   569A      2.408997  
     570A      2.420619   571A      2.425713   572A      2.434287  
     573A      2.441722   574A      2.444084   575A      2.452187  
     576A      2.453849   577A      2.454423   578A      2.461957  
     579A      2.471609   580A      2.476775   581A      2.482135  
     582A      2.487336   583A      2.492476   584A      2.500110  
     585A      2.504256   586A      2.514795   587A      2.524218  
     588A      2.531692   589A      2.539792   590A      2.544879  
     591A      2.547065   592A      2.556812   593A      2.569433  
     594A      2.570632   595A      2.577166   596A      2.583299  
     597A      2.588568   598A      2.598817   599A      2.607770  
     600A      2.614196   601A      2.620184   602A      2.622070  
     603A      2.639187   604A      2.646935   605A      2.654256  
     606A      2.663977   607A      2.665070   608A      2.667476  
     609A      2.681812   610A      2.688830   611A      2.693932  
     612A      2.702550   613A      2.710975   614A      2.715839  
     615A      2.723393   616A      2.731362   617A      2.736424  
     618A      2.741604   619A      2.750951   620A      2.754804  
     621A      2.759011   622A      2.769500   623A      2.784166  
     624A      2.788903   625A      2.796085   626A      2.802267  
     627A      2.817257   628A      2.820353   629A      2.830683  
     630A      2.840919   631A      2.845605   632A      2.858672  
     633A      2.864874   634A      2.871259   635A      2.876747  
     636A      2.884639   637A      2.890901   638A      2.900335  
     639A      2.905979   640A      2.913625   641A      2.915913  
     642A      2.922349   643A      2.925146   644A      2.931070  
     645A      2.938297   646A      2.947109   647A      2.961003  
     648A      2.968196   649A      2.977960   650A      2.982881  
     651A      2.994522   652A      3.002426   653A      3.005407  
     654A      3.015239   655A      3.021365   656A      3.026645  
     657A      3.039123   658A      3.051601   659A      3.064188  
     660A      3.076206   661A      3.089963   662A      3.092861  
     663A      3.100498   664A      3.113230   665A      3.123802  
     666A      3.143495   667A      3.147252   668A      3.161275  
     669A      3.181141   670A      3.209840   671A      3.214855  
     672A      3.219005   673A      3.243974   674A      3.247346  
     675A      3.265031   676A      3.269690   677A      3.286070  
     678A      3.300887   679A      3.310457   680A      3.324257  
     681A      3.328114   682A      3.346242   683A      3.350294  
     684A      3.364105   685A      3.379200   686A      3.389821  
     687A      3.395386   688A      3.410598   689A      3.429359  
     690A      3.444064   691A      3.455555   692A      3.468940  
     693A      3.476814   694A      3.484602   695A      3.502382  
     696A      3.505187   697A      3.534584   698A      3.539675  
     699A      3.547747   700A      3.559772   701A      3.572815  
     702A      3.586659   703A      3.592036   704A      3.603259  
     705A      3.610276   706A      3.637647   707A      3.652237  
     708A      3.661036   709A      3.663508   710A      3.668936  
     711A      3.687681   712A      3.690500   713A      3.715267  
     714A      3.722109   715A      3.732323   716A      3.737373  
     717A      3.741333   718A      3.760209   719A      3.768491  
     720A      3.775066   721A      3.788292   722A      3.795406  
     723A      3.798281   724A      3.807750   725A      3.815797  
     726A      3.835821   727A      3.840131   728A      3.849900  
     729A      3.859169   730A      3.862269   731A      3.877896  
     732A      3.884296   733A      3.897264   734A      3.902723  
     735A      3.914256   736A      3.925471   737A      3.930662  
     738A      3.947231   739A      3.958218   740A      3.973602  
     741A      3.982963   742A      3.994038   743A      3.995653  
     744A      4.008673   745A      4.020701   746A      4.036352  
     747A      4.045818   748A      4.049156   749A      4.059850  
     750A      4.076524   751A      4.084009   752A      4.091559  
     753A      4.107416   754A      4.116737   755A      4.128811  
     756A      4.131564   757A      4.136757   758A      4.142024  
     759A      4.153376   760A      4.160455   761A      4.175516  
     762A      4.185935   763A      4.192536   764A      4.201557  
     765A      4.203841   766A      4.213576   767A      4.219307  
     768A      4.221377   769A      4.232079   770A      4.243554  
     771A      4.256241   772A      4.264305   773A      4.268860  
     774A      4.274352   775A      4.279838   776A      4.288584  
     777A      4.297565   778A      4.313559   779A      4.318311  
     780A      4.323348   781A      4.342205   782A      4.344631  
     783A      4.353017   784A      4.362353   785A      4.368261  
     786A      4.379583   787A      4.384190   788A      4.391555  
     789A      4.397766   790A      4.411258   791A      4.412751  
     792A      4.419862   793A      4.429377   794A      4.434272  
     795A      4.442932   796A      4.449880   797A      4.451438  
     798A      4.460681   799A      4.475318   800A      4.487604  
     801A      4.490154   802A      4.502362   803A      4.516241  
     804A      4.524158   805A      4.529665   806A      4.542692  
     807A      4.548614   808A      4.559661   809A      4.569399  
     810A      4.574116   811A      4.594238   812A      4.603060  
     813A      4.608799   814A      4.615264   815A      4.623806  
     816A      4.638761   817A      4.648720   818A      4.654761  
     819A      4.663628   820A      4.671062   821A      4.674612  
     822A      4.683524   823A      4.704493   824A      4.712193  
     825A      4.717948   826A      4.728104   827A      4.737737  
     828A      4.745401   829A      4.747631   830A      4.754545  
     831A      4.759176   832A      4.775729   833A      4.781739  
     834A      4.790595   835A      4.813107   836A      4.820390  
     837A      4.829529   838A      4.836286   839A      4.843259  
     840A      4.847781   841A      4.856330   842A      4.864862  
     843A      4.878171   844A      4.885366   845A      4.903797  
     846A      4.909425   847A      4.915444   848A      4.926643  
     849A      4.931183   850A      4.940790   851A      4.962063  
     852A      4.966865   853A      4.975465   854A      4.986963  
     855A      4.991096   856A      5.012127   857A      5.019051  
     858A      5.023828   859A      5.032255   860A      5.038650  
     861A      5.052392   862A      5.055636   863A      5.067159  
     864A      5.074782   865A      5.088813   866A      5.095203  
     867A      5.111263   868A      5.131905   869A      5.134953  
     870A      5.140882   871A      5.158520   872A      5.165047  
     873A      5.171328   874A      5.177226   875A      5.189547  
     876A      5.192759   877A      5.197006   878A      5.226254  
     879A      5.228631   880A      5.233204   881A      5.267531  
     882A      5.276139   883A      5.281305   884A      5.289283  
     885A      5.295622   886A      5.302611   887A      5.316493  
     888A      5.321400   889A      5.329667   890A      5.347729  
     891A      5.350988   892A      5.358442   893A      5.362569  
     894A      5.370577   895A      5.380976   896A      5.390990  
     897A      5.396808   898A      5.409234   899A      5.417207  
     900A      5.419359   901A      5.433292   902A      5.443705  
     903A      5.457056   904A      5.467993   905A      5.470192  
     906A      5.479300   907A      5.488744   908A      5.493172  
     909A      5.498991   910A      5.505494   911A      5.533094  
     912A      5.543850   913A      5.558861   914A      5.562807  
     915A      5.567075   916A      5.569510   917A      5.572630  
     918A      5.589223   919A      5.614820   920A      5.622721  
     921A      5.626300   922A      5.635530   923A      5.648523  
     924A      5.658111   925A      5.660702   926A      5.671964  
     927A      5.679637   928A      5.690516   929A      5.695139  
     930A      5.707503   931A      5.712410   932A      5.729094  
     933A      5.739144   934A      5.744176   935A      5.757173  
     936A      5.762245   937A      5.768105   938A      5.788284  
     939A      5.806543   940A      5.812053   941A      5.828356  
     942A      5.840424   943A      5.846905   944A      5.860832  
     945A      5.876736   946A      5.878958   947A      5.887014  
     948A      5.916839   949A      5.931740   950A      5.949203  
     951A      5.955832   952A      5.974946   953A      5.975621  
     954A      5.978778   955A      5.984584   956A      6.000931  
     957A      6.016002   958A      6.023643   959A      6.040582  
     960A      6.048452   961A      6.062745   962A      6.073121  
     963A      6.103295   964A      6.114011   965A      6.135661  
     966A      6.144426   967A      6.174187   968A      6.180108  
     969A      6.207015   970A      6.210704   971A      6.222026  
     972A      6.236318   973A      6.241142   974A      6.245113  
     975A      6.260243   976A      6.280038   977A      6.286216  
     978A      6.302983   979A      6.311621   980A      6.335337  
     981A      6.345037   982A      6.358727   983A      6.391861  
     984A      6.414276   985A      6.460244   986A      6.485556  
     987A      6.498181   988A      6.502692   989A      6.522428  
     990A      6.536805   991A      6.549830   992A      6.558271  
     993A      6.611475   994A      6.633252   995A      6.650948  
     996A      6.662506   997A      6.670846   998A      6.679637  
     999A      6.717999  1000A      6.722040  1001A      6.741734  
    1002A      6.752547  1003A      6.787987  1004A      6.803356  
    1005A      6.815317  1006A      6.842383  1007A      6.864893  
    1008A      6.874813  1009A      6.885126  1010A      6.889287  
    1011A      6.909927  1012A      6.912459  1013A      6.947647  
    1014A      6.992702  1015A      6.996895  1016A      7.035165  
    1017A      7.077932  1018A      7.094463  1019A      7.128651  
    1020A      7.147290  1021A      7.167392  1022A      7.203817  
    1023A      7.226706  1024A      7.241627  1025A      7.305265  
    1026A      7.312978  1027A      7.340927  1028A      7.382422  
    1029A      7.394194  1030A      7.417406  1031A      7.453896  
    1032A      7.475583  1033A      7.567752  1034A      7.592773  
    1035A      7.603384  1036A      7.616510  1037A      7.644478  
    1038A      7.659402  1039A      7.665046  1040A      7.707970  
    1041A      7.736657  1042A      7.748964  1043A      7.789226  
    1044A      7.801885  1045A      7.813423  1046A      7.823470  
    1047A      7.850940  1048A      7.869872  1049A      7.879233  
    1050A      7.898783  1051A      7.914521  1052A      7.919689  
    1053A      7.930273  1054A      7.968064  1055A      7.996966  
    1056A      8.008249  1057A      8.061389  1058A      8.100204  
    1059A      8.199427  1060A      8.213348  1061A      8.256932  
    1062A      8.323577  1063A      8.349093  1064A      8.380539  
    1065A      8.414050  1066A      8.471246  1067A      8.579631  
    1068A      8.682669  1069A      8.752468  1070A      8.816227  
    1071A      8.922037  1072A      8.975011  1073A      9.027634  
    1074A      9.173391  1075A      9.227937  1076A      9.608699  
    1077A      9.640400  1078A      9.665205  1079A      9.720580  
    1080A      9.911738  1081A      9.999776  1082A     10.022659  
    1083A     10.075344  1084A     10.091235  1085A     10.303628  
    1086A     10.324754  1087A     10.391351  1088A     10.407162  
    1089A     10.492010  1090A     10.563419  1091A     10.623245  
    1092A     10.797096  1093A     11.005211  1094A     11.281095  
    1095A     11.475334  1096A     11.657218  1097A     12.093542  
    1098A     12.112508  1099A     12.119030  1100A     12.144556  
    1101A     12.425435  1102A     12.517792  1103A     12.766326  
    1104A     12.899833  1105A     13.497694  1106A     13.695337  
    1107A     14.209599  1108A     14.253527  1109A     16.198209  
    1110A     16.389687  1111A     16.522092  1112A     17.914152  
    1113A     18.510584  1114A     19.274299  1115A     19.502514  
    1116A     19.694889  1117A     20.167885  1118A     21.508559  
    1119A     52.336618  1120A     53.160526  1121A     54.352893  
    1122A     55.485970  1123A     58.997102  1124A     61.157796  
    1125A     61.865395  1126A     69.832591  1127A     70.651844  

    Final Occupation by Irrep:
              A 
    DOCC [    35 ]

  @DF-RHF Final Energy:  -464.68073250303161

   => Energetics <=

    Nuclear Repulsion Energy =            501.4762289472702719
    One-Electron Energy =               -1625.7559829005060692
    Two-Electron Energy =                 659.5990214502040772
    Total Energy =                       -464.6807325030316633

Computation Completed


Properties will be evaluated at   0.000000,   0.000000,   0.000000 [a0]

Properties computed using the SCF density matrix

  Nuclear Dipole Moment: [e a0]
     X:   215.3767      Y:    -6.4482      Z:   -56.6078

  Electronic Dipole Moment: [e a0]
     X:  -215.9135      Y:     7.2040      Z:    56.0545

  Dipole Moment: [e a0]
     X:    -0.5368      Y:     0.7558      Z:    -0.5533     Total:     1.0796

  Dipole Moment: [D]
     X:    -1.3644      Y:     1.9212      Z:    -1.4062     Total:     2.7440


*** tstop() called on node158.bme.utexas.edu at Sun Jan 14 12:02:51 2024
Module time:
	user time   =    1568.56 seconds =      26.14 minutes
	system time =      21.90 seconds =       0.36 minutes
	total time  =        313 seconds =       5.22 minutes
Total time:
	user time   =    3664.21 seconds =      61.07 minutes
	system time =      61.38 seconds =       1.02 minutes
	total time  =        718 seconds =      11.97 minutes

*** tstart() called on node158.bme.utexas.edu
*** at Sun Jan 14 12:02:51 2024


  //>>>>>>>>>>>>>>>>>>>>>>>>>>>>>>>>>>>//
  //               DFMP2               //
  //<<<<<<<<<<<<<<<<<<<<<<<<<<<<<<<<<<<//

   => Loading Basis Set <=

    Name: (AUG-CC-PVTZ AUX)
    Role: RIFIT
    Keyword: DF_BASIS_MP2
    atoms 1, 4, 11, 14-15, 17, 21, 26, 28-30 entry H          line    30 file /opt/anaconda/envs/psi4v1.5/share/psi4/basis/aug-cc-pvtz-ri.gbs 
    atoms 2, 5, 8-9, 12, 16, 20              entry N          line   206 file /opt/anaconda/envs/psi4v1.5/share/psi4/basis/aug-cc-pvtz-ri.gbs 
    atoms 3, 6-7, 10, 13, 18, 22, 24-25, 27  entry C          line   148 file /opt/anaconda/envs/psi4v1.5/share/psi4/basis/aug-cc-pvtz-ri.gbs 
    atoms 19, 23                             entry O          line   264 file /opt/anaconda/envs/psi4v1.5/share/psi4/basis/aug-cc-pvtz-ri.gbs 

	 --------------------------------------------------------
	                          DF-MP2                         
	      2nd-Order Density-Fitted Moller-Plesset Theory     
	              RMP2 Wavefunction,   8 Threads             
	                                                         
	        Rob Parrish, Justin Turney, Andy Simmonett,      
	           Ed Hohenstein, and C. David Sherrill          
	 --------------------------------------------------------

   => Auxiliary Basis Set <=

  Basis Set: (AUG-CC-PVTZ AUX)
    Blend: AUG-CC-PVTZ-RI
    Number of shells: 686
    Number of basis functions: 2520
    Number of Cartesian functions: 3189
    Spherical Harmonics?: true
    Max angular momentum: 4

	 --------------------------------------------------------
	                 NBF =  1127, NAUX =  2520
	 --------------------------------------------------------
	   CLASS    FOCC     OCC    AOCC    AVIR     VIR    FVIR
	   PAIRS      10      35      25    1092    1092       0
	 --------------------------------------------------------

	 Will attempt to load fitting metric from file 97.

	-----------------------------------------------------------
	 ==================> DF-MP2 Energies <==================== 
	-----------------------------------------------------------
	 Reference Energy          =    -464.6807325030316065 [Eh]
	 Singles Energy            =      -0.0000000000000000 [Eh]
	 Same-Spin Energy          =      -0.4790203022676506 [Eh]
	 Opposite-Spin Energy      =      -1.3258927857793577 [Eh]
	 Correlation Energy        =      -1.8049130880470083 [Eh]
	 Total Energy              =    -466.4856455910785940 [Eh]
	-----------------------------------------------------------
	 ================> DF-SCS-MP2 Energies <================== 
	-----------------------------------------------------------
	 SCS Same-Spin Scale       =       0.3333333333333333 [-]
	 SCS Opposite-Spin Scale   =       1.2000000000000000 [-]
	 SCS Same-Spin Energy      =      -0.1596734340892169 [Eh]
	 SCS Opposite-Spin Energy  =      -1.5910713429352292 [Eh]
	 SCS Correlation Energy    =      -1.7507447770244462 [Eh]
	 SCS Total Energy          =    -466.4314772800560718 [Eh]
	-----------------------------------------------------------


*** tstop() called on node158.bme.utexas.edu at Sun Jan 14 12:03:41 2024
Module time:
	user time   =     212.72 seconds =       3.55 minutes
	system time =      10.49 seconds =       0.17 minutes
	total time  =         50 seconds =       0.83 minutes
Total time:
	user time   =    3876.94 seconds =      64.62 minutes
	system time =      71.87 seconds =       1.20 minutes
	total time  =        768 seconds =      12.80 minutes

  //>>>>>>>>>>>>>>>>>>>>>>>>>>>>>>>>>>>//
  //            Monomer B HF           //
  //<<<<<<<<<<<<<<<<<<<<<<<<<<<<<<<<<<<//


*** tstart() called on node158.bme.utexas.edu
*** at Sun Jan 14 12:03:41 2024

   => Loading Basis Set <=

    Name: AUG-CC-PVTZ
    Role: ORBITAL
    Keyword: BASIS
    atoms 1, 4, 11, 14-15, 17, 21, 26, 28-30 entry H          line    40 file /opt/anaconda/envs/psi4v1.5/share/psi4/basis/aug-cc-pvtz.gbs 
    atoms 2, 5, 8-9, 12, 16, 20              entry N          line   285 file /opt/anaconda/envs/psi4v1.5/share/psi4/basis/aug-cc-pvtz.gbs 
    atoms 3, 6-7, 10, 13, 18, 22, 24-25, 27  entry C          line   239 file /opt/anaconda/envs/psi4v1.5/share/psi4/basis/aug-cc-pvtz.gbs 
    atoms 19, 23                             entry O          line   331 file /opt/anaconda/envs/psi4v1.5/share/psi4/basis/aug-cc-pvtz.gbs 


         ---------------------------------------------------------
                                   SCF
               by Justin Turney, Rob Parrish, Andy Simmonett
                          and Daniel G. A. Smith
                              RHF Reference
                        8 Threads,  76293 MiB Core
         ---------------------------------------------------------

  ==> Geometry <==

    Molecular point group: c1
    Full point group: C1

    Geometry (in Angstrom), charge = 0, multiplicity = 1:

       Center              X                  Y                   Z               Mass       
    ------------   -----------------  -----------------  -----------------  -----------------
      Gh(H)           0.705985692720     0.491525225313    -3.304888067924     1.007825032230
      Gh(N)           1.000975692720     0.684755225313    -2.354838067924    14.003074004430
      Gh(C)           1.274655692720     1.908045225313    -1.797978067924    12.000000000000
      Gh(H)           1.147745692720     2.829275225313    -2.353698067924     1.007825032230
      Gh(N)           1.706135692720     1.836045225313    -0.545778067924    14.003074004430
      Gh(C)           1.713055692720     0.478535225313    -0.288328067924    12.000000000000
      Gh(C)           2.065255692720    -0.266794774687     0.855441932076    12.000000000000
      Gh(N)           2.560515692720     0.324295225313     1.982281932076    14.003074004430
      Gh(N)           1.965595692720    -1.605724774687     0.806731932076    14.003074004430
      Gh(C)           1.530205692720    -2.183614774687    -0.336598067924    12.000000000000
      Gh(H)           1.458735692720    -3.268364774687    -0.312788067924     1.007825032230
      Gh(N)           1.162685692720    -1.596814774687    -1.483708067924    14.003074004430
      Gh(C)           1.275675692720    -0.262784774687    -1.392948067924    12.000000000000
      Gh(H)           2.512785692720    -0.270794774687     2.802861932076     1.007825032230
      Gh(H)           2.222755692720     1.267915225313     2.142601932076     1.007825032230
         N           -2.428779507280    -0.607698774687    -0.897412801257    14.003074004430
         H           -2.834039507280    -1.040598774687    -1.718922801257     1.007825032230
         C           -1.964849507280    -1.499328774687     0.057347198743    12.000000000000
         O           -2.042759507280    -2.715428774687    -0.055082801257    15.994914619570
         N           -1.417369507280    -0.850838774687     1.153987198743    14.003074004430
         H           -1.004239507280    -1.461008774687     1.856107198743     1.007825032230
         C           -1.275089507280     0.523311225313     1.373337198743    12.000000000000
         O           -0.733579507280     0.942031225313     2.399877198743    15.994914619570
         C           -1.814899507280     1.368151225313     0.312317198743    12.000000000000
         C           -2.364399507280     0.763471225313    -0.770382801257    12.000000000000
         H           -2.791039507280     1.326811225313    -1.596182801257     1.007825032230
         C           -1.736049507280     2.851031225313     0.495307198743    12.000000000000
         H           -2.178379507280     3.372341225313    -0.358882801257     1.007825032230
         H           -2.264979507280     3.154501225313     1.403467198743     1.007825032230
         H           -0.692289507280     3.157991225313     0.598357198743     1.007825032230

  Running in c1 symmetry.

  Rotational constants: A =      0.01627  B =      0.01341  C =      0.01196 [cm^-1]
  Rotational constants: A =    487.64429  B =    402.05059  C =    358.40639 [MHz]
  Nuclear repulsion =  438.318459732348572

  Charge       = 0
  Multiplicity = 1
  Electrons    = 66
  Nalpha       = 33
  Nbeta        = 33

  ==> Algorithm <==

  SCF Algorithm Type is DF.
  DIIS enabled.
  MOM disabled.
  Fractional occupation disabled.
  Guess Type is SAD.
  Energy threshold   = 1.00e-08
  Density threshold  = 1.00e-08
  Integral threshold = 1.00e-12

  ==> Primary Basis <==

  Basis Set: AUG-CC-PVTZ
    Blend: AUG-CC-PVTZ
    Number of shells: 365
    Number of basis functions: 1127
    Number of Cartesian functions: 1320
    Spherical Harmonics?: true
    Max angular momentum: 3

   => Loading Basis Set <=

    Name: (AUG-CC-PVTZ AUX)
    Role: JKFIT
    Keyword: DF_BASIS_SCF
    atoms 1, 4, 11, 14-15, 17, 21, 26, 28-30 entry H          line    70 file /opt/anaconda/envs/psi4v1.5/share/psi4/basis/aug-cc-pvtz-jkfit.gbs 
    atoms 2, 5, 8-9, 12, 16, 20              entry N          line   224 file /opt/anaconda/envs/psi4v1.5/share/psi4/basis/aug-cc-pvtz-jkfit.gbs 
    atoms 3, 6-7, 10, 13, 18, 22, 24-25, 27  entry C          line   162 file /opt/anaconda/envs/psi4v1.5/share/psi4/basis/aug-cc-pvtz-jkfit.gbs 
    atoms 19, 23                             entry O          line   286 file /opt/anaconda/envs/psi4v1.5/share/psi4/basis/aug-cc-pvtz-jkfit.gbs 

  ==> Integral Setup <==

  ==> DiskDFJK: Density-Fitted J/K Matrices <==

    J tasked:                  Yes
    K tasked:                  Yes
    wK tasked:                  No
    OpenMP threads:              8
    Integrals threads:           8
    Memory [MiB]:            57220
    Algorithm:                Core
    Integral Cache:           LOAD
    Schwarz Cutoff:          1E-12
    Fitting Condition:       1E-10

   => Auxiliary Basis Set <=

  Basis Set: (AUG-CC-PVTZ AUX)
    Blend: AUG-CC-PVTZ-JKFIT
    Number of shells: 724
    Number of basis functions: 2482
    Number of Cartesian functions: 3094
    Spherical Harmonics?: true
    Max angular momentum: 4

  Minimum eigenvalue in the overlap matrix is 7.3085860589E-07.
  Reciprocal condition number of the overlap matrix is 3.0814131922E-08.
    Using symmetric orthogonalization.

  ==> Pre-Iterations <==

  SCF Guess: Superposition of Atomic Densities via on-the-fly atomic UHF (no occupation information).

   -------------------------
    Irrep   Nso     Nmo    
   -------------------------
     A       1127    1127 
   -------------------------
    Total    1127    1127
   -------------------------

  ==> Iterations <==

                           Total Energy        Delta E     RMS |[F,P]|

   @DF-RHF iter SAD:  -450.94169388031543   -4.50942e+02   0.00000e+00 
   @DF-RHF iter   1:  -451.37759636912165   -4.35902e-01   7.02736e-04 DIIS
   @DF-RHF iter   2:  -451.57528085721327   -1.97684e-01   4.58663e-04 DIIS
   @DF-RHF iter   3:  -451.66571137598510   -9.04305e-02   8.87685e-05 DIIS
   @DF-RHF iter   4:  -451.67107568145360   -5.36431e-03   3.57708e-05 DIIS
   @DF-RHF iter   5:  -451.67216061969378   -1.08494e-03   7.18285e-06 DIIS
   @DF-RHF iter   6:  -451.67227147478724   -1.10855e-04   3.68552e-06 DIIS
   @DF-RHF iter   7:  -451.67229480562872   -2.33308e-05   1.58256e-06 DIIS
   @DF-RHF iter   8:  -451.67229901664820   -4.21102e-06   6.07914e-07 DIIS
   @DF-RHF iter   9:  -451.67229949508908   -4.78441e-07   2.01082e-07 DIIS
   @DF-RHF iter  10:  -451.67229957353749   -7.84484e-08   7.99402e-08 DIIS
   @DF-RHF iter  11:  -451.67229958271457   -9.17709e-09   3.05395e-08 DIIS
   @DF-RHF iter  12:  -451.67229958418471   -1.47014e-09   9.73627e-09 DIIS
  Energy and wave function converged.


  ==> Post-Iterations <==

    Orbital Energies [Eh]
    ---------------------

    Doubly Occupied:                                                      

       1A    -20.545341     2A    -20.541704     3A    -15.641090  
       4A    -15.628899     5A    -11.418637     6A    -11.380349  
       7A    -11.332526     8A    -11.262645     9A    -11.239557  
      10A     -1.428213    11A     -1.389868    12A     -1.305753  
      13A     -1.240805    14A     -1.108031    15A     -0.970343  
      16A     -0.915907    17A     -0.893804    18A     -0.771270  
      19A     -0.765655    20A     -0.707526    21A     -0.673989  
      22A     -0.665572    23A     -0.640500    24A     -0.615024  
      25A     -0.592489    26A     -0.568135    27A     -0.557756  
      28A     -0.550845    29A     -0.511979    30A     -0.479802  
      31A     -0.448007    32A     -0.434519    33A     -0.354126  

    Virtual:                                                              

      34A      0.012702    35A      0.025000    36A      0.027798  
      37A      0.031902    38A      0.042427    39A      0.044614  
      40A      0.048761    41A      0.050358    42A      0.053241  
      43A      0.062972    44A      0.064293    45A      0.068884  
      46A      0.074822    47A      0.078786    48A      0.079650  
      49A      0.082154    50A      0.084720    51A      0.090593  
      52A      0.093454    53A      0.094508    54A      0.099274  
      55A      0.106922    56A      0.108091    57A      0.112737  
      58A      0.115477    59A      0.117613    60A      0.120523  
      61A      0.123656    62A      0.127089    63A      0.129464  
      64A      0.130953    65A      0.135372    66A      0.136851  
      67A      0.140888    68A      0.142642    69A      0.147714  
      70A      0.151100    71A      0.154954    72A      0.157896  
      73A      0.162360    74A      0.165725    75A      0.167037  
      76A      0.169917    77A      0.173346    78A      0.175755  
      79A      0.179117    80A      0.180354    81A      0.182332  
      82A      0.188438    83A      0.194722    84A      0.196474  
      85A      0.198119    86A      0.207102    87A      0.209428  
      88A      0.214307    89A      0.214738    90A      0.218862  
      91A      0.223523    92A      0.228168    93A      0.228632  
      94A      0.233604    95A      0.235269    96A      0.238399  
      97A      0.241266    98A      0.242995    99A      0.246756  
     100A      0.247158   101A      0.252822   102A      0.262579  
     103A      0.263363   104A      0.266060   105A      0.269354  
     106A      0.269652   107A      0.275227   108A      0.280204  
     109A      0.282142   110A      0.287136   111A      0.288125  
     112A      0.289736   113A      0.291260   114A      0.292840  
     115A      0.299992   116A      0.302913   117A      0.306923  
     118A      0.311429   119A      0.312660   120A      0.316567  
     121A      0.319877   122A      0.321679   123A      0.326814  
     124A      0.333804   125A      0.336133   126A      0.338629  
     127A      0.346204   128A      0.349117   129A      0.350732  
     130A      0.352945   131A      0.354861   132A      0.360348  
     133A      0.365883   134A      0.369401   135A      0.372285  
     136A      0.377175   137A      0.380653   138A      0.384836  
     139A      0.386799   140A      0.390185   141A      0.393653  
     142A      0.397660   143A      0.398577   144A      0.404114  
     145A      0.410652   146A      0.412773   147A      0.417291  
     148A      0.419586   149A      0.425553   150A      0.426966  
     151A      0.430314   152A      0.432425   153A      0.434014  
     154A      0.437409   155A      0.438443   156A      0.442690  
     157A      0.449596   158A      0.450376   159A      0.451790  
     160A      0.456788   161A      0.459534   162A      0.460320  
     163A      0.466831   164A      0.469767   165A      0.473852  
     166A      0.474998   167A      0.480826   168A      0.481048  
     169A      0.484798   170A      0.488644   171A      0.491545  
     172A      0.494271   173A      0.498876   174A      0.501238  
     175A      0.505611   176A      0.508944   177A      0.509895  
     178A      0.512264   179A      0.514803   180A      0.520254  
     181A      0.523316   182A      0.527677   183A      0.529687  
     184A      0.533788   185A      0.535092   186A      0.540177  
     187A      0.543233   188A      0.544965   189A      0.552079  
     190A      0.556298   191A      0.560165   192A      0.560588  
     193A      0.564554   194A      0.572369   195A      0.575133  
     196A      0.576885   197A      0.579765   198A      0.583663  
     199A      0.588450   200A      0.591167   201A      0.596676  
     202A      0.603361   203A      0.604873   204A      0.607799  
     205A      0.611600   206A      0.617401   207A      0.621204  
     208A      0.625260   209A      0.626856   210A      0.630853  
     211A      0.636059   212A      0.637543   213A      0.646009  
     214A      0.649648   215A      0.652072   216A      0.657066  
     217A      0.664486   218A      0.668500   219A      0.675446  
     220A      0.679467   221A      0.682351   222A      0.688522  
     223A      0.691363   224A      0.697142   225A      0.699843  
     226A      0.708876   227A      0.717044   228A      0.717775  
     229A      0.720966   230A      0.725705   231A      0.729688  
     232A      0.738554   233A      0.741863   234A      0.743119  
     235A      0.746534   236A      0.748556   237A      0.752519  
     238A      0.758501   239A      0.763671   240A      0.770970  
     241A      0.778241   242A      0.780176   243A      0.785829  
     244A      0.794017   245A      0.795208   246A      0.798040  
     247A      0.802342   248A      0.804697   249A      0.806371  
     250A      0.813647   251A      0.820653   252A      0.824465  
     253A      0.826618   254A      0.830229   255A      0.832007  
     256A      0.836756   257A      0.841156   258A      0.848997  
     259A      0.852602   260A      0.857794   261A      0.860328  
     262A      0.865274   263A      0.865871   264A      0.867298  
     265A      0.873257   266A      0.874156   267A      0.881967  
     268A      0.885987   269A      0.891470   270A      0.895704  
     271A      0.898256   272A      0.900484   273A      0.908810  
     274A      0.914167   275A      0.916282   276A      0.919682  
     277A      0.923872   278A      0.927076   279A      0.930809  
     280A      0.931963   281A      0.934003   282A      0.938792  
     283A      0.946874   284A      0.950820   285A      0.954791  
     286A      0.957601   287A      0.960014   288A      0.963114  
     289A      0.966639   290A      0.975321   291A      0.975726  
     292A      0.980343   293A      0.982090   294A      0.986823  
     295A      0.992199   296A      0.995011   297A      0.998144  
     298A      1.001927   299A      1.004032   300A      1.007424  
     301A      1.011054   302A      1.014153   303A      1.020084  
     304A      1.023566   305A      1.032326   306A      1.033445  
     307A      1.038168   308A      1.043175   309A      1.046017  
     310A      1.055532   311A      1.056307   312A      1.060758  
     313A      1.065068   314A      1.066503   315A      1.073365  
     316A      1.076023   317A      1.080173   318A      1.086396  
     319A      1.090466   320A      1.095732   321A      1.099741  
     322A      1.105810   323A      1.109797   324A      1.115850  
     325A      1.118195   326A      1.127081   327A      1.130595  
     328A      1.132565   329A      1.139021   330A      1.139922  
     331A      1.149752   332A      1.152461   333A      1.156026  
     334A      1.158921   335A      1.161937   336A      1.163842  
     337A      1.169293   338A      1.172492   339A      1.177157  
     340A      1.181460   341A      1.184933   342A      1.190117  
     343A      1.201001   344A      1.202256   345A      1.207146  
     346A      1.210991   347A      1.217404   348A      1.219884  
     349A      1.225409   350A      1.231324   351A      1.239012  
     352A      1.243866   353A      1.245790   354A      1.248618  
     355A      1.252886   356A      1.260854   357A      1.263709  
     358A      1.270083   359A      1.273392   360A      1.275735  
     361A      1.281249   362A      1.285307   363A      1.289716  
     364A      1.291431   365A      1.299262   366A      1.304254  
     367A      1.307593   368A      1.311717   369A      1.313287  
     370A      1.323394   371A      1.327399   372A      1.330154  
     373A      1.335911   374A      1.340118   375A      1.349845  
     376A      1.350655   377A      1.355915   378A      1.357298  
     379A      1.360991   380A      1.371381   381A      1.372621  
     382A      1.379970   383A      1.384734   384A      1.388086  
     385A      1.393643   386A      1.401969   387A      1.405191  
     388A      1.411026   389A      1.416897   390A      1.418876  
     391A      1.423117   392A      1.427341   393A      1.430528  
     394A      1.442283   395A      1.445572   396A      1.452273  
     397A      1.455708   398A      1.460439   399A      1.463529  
     400A      1.467086   401A      1.471421   402A      1.479085  
     403A      1.486794   404A      1.487974   405A      1.489635  
     406A      1.496134   407A      1.506550   408A      1.508674  
     409A      1.514821   410A      1.517282   411A      1.522929  
     412A      1.529266   413A      1.534259   414A      1.539338  
     415A      1.547821   416A      1.549780   417A      1.551749  
     418A      1.563902   419A      1.567483   420A      1.573883  
     421A      1.575742   422A      1.584574   423A      1.590228  
     424A      1.590742   425A      1.598987   426A      1.602975  
     427A      1.605148   428A      1.612928   429A      1.621549  
     430A      1.622576   431A      1.628832   432A      1.633894  
     433A      1.640556   434A      1.646461   435A      1.653286  
     436A      1.656481   437A      1.661045   438A      1.667769  
     439A      1.669826   440A      1.679511   441A      1.683014  
     442A      1.687403   443A      1.689249   444A      1.695274  
     445A      1.699493   446A      1.702741   447A      1.708440  
     448A      1.715624   449A      1.718307   450A      1.727454  
     451A      1.731129   452A      1.733564   453A      1.740792  
     454A      1.743804   455A      1.749175   456A      1.753324  
     457A      1.764271   458A      1.765184   459A      1.768416  
     460A      1.771962   461A      1.774886   462A      1.784521  
     463A      1.792699   464A      1.796126   465A      1.797705  
     466A      1.799497   467A      1.804650   468A      1.813863  
     469A      1.820107   470A      1.822496   471A      1.826959  
     472A      1.831949   473A      1.833958   474A      1.843589  
     475A      1.847577   476A      1.850397   477A      1.854675  
     478A      1.862531   479A      1.865113   480A      1.870985  
     481A      1.877552   482A      1.888133   483A      1.893794  
     484A      1.900221   485A      1.901050   486A      1.905785  
     487A      1.916358   488A      1.921478   489A      1.927136  
     490A      1.933895   491A      1.940362   492A      1.947367  
     493A      1.951895   494A      1.955280   495A      1.963273  
     496A      1.966823   497A      1.971155   498A      1.976488  
     499A      1.985333   500A      1.994346   501A      1.996868  
     502A      2.000200   503A      2.009176   504A      2.018000  
     505A      2.029697   506A      2.034078   507A      2.040544  
     508A      2.043801   509A      2.047103   510A      2.051725  
     511A      2.058772   512A      2.065434   513A      2.073671  
     514A      2.079965   515A      2.081342   516A      2.093037  
     517A      2.094216   518A      2.100229   519A      2.112220  
     520A      2.117936   521A      2.123282   522A      2.130283  
     523A      2.136548   524A      2.138350   525A      2.142131  
     526A      2.151760   527A      2.158462   528A      2.167235  
     529A      2.172859   530A      2.177550   531A      2.180530  
     532A      2.186543   533A      2.192597   534A      2.198877  
     535A      2.204305   536A      2.212781   537A      2.217960  
     538A      2.219349   539A      2.229149   540A      2.234608  
     541A      2.239469   542A      2.246566   543A      2.252630  
     544A      2.258606   545A      2.259225   546A      2.269910  
     547A      2.274503   548A      2.276613   549A      2.286649  
     550A      2.291149   551A      2.297640   552A      2.304068  
     553A      2.310236   554A      2.318422   555A      2.318872  
     556A      2.330549   557A      2.337655   558A      2.343581  
     559A      2.348315   560A      2.355921   561A      2.358134  
     562A      2.366126   563A      2.374941   564A      2.377915  
     565A      2.378959   566A      2.396562   567A      2.401389  
     568A      2.413816   569A      2.418928   570A      2.421678  
     571A      2.426564   572A      2.442773   573A      2.450910  
     574A      2.454654   575A      2.462779   576A      2.466261  
     577A      2.474990   578A      2.479206   579A      2.484525  
     580A      2.491697   581A      2.492080   582A      2.506510  
     583A      2.508292   584A      2.522137   585A      2.528671  
     586A      2.534195   587A      2.540348   588A      2.544950  
     589A      2.554357   590A      2.560840   591A      2.571705  
     592A      2.575125   593A      2.583719   594A      2.588052  
     595A      2.601761   596A      2.604356   597A      2.609139  
     598A      2.611821   599A      2.623792   600A      2.631671  
     601A      2.636799   602A      2.642877   603A      2.650336  
     604A      2.656685   605A      2.665678   606A      2.668190  
     607A      2.678545   608A      2.682614   609A      2.692724  
     610A      2.701245   611A      2.714504   612A      2.718392  
     613A      2.725544   614A      2.731479   615A      2.736297  
     616A      2.745102   617A      2.754431   618A      2.768910  
     619A      2.772024   620A      2.776308   621A      2.780225  
     622A      2.784555   623A      2.802409   624A      2.811317  
     625A      2.818190   626A      2.833327   627A      2.837034  
     628A      2.847573   629A      2.848386   630A      2.856148  
     631A      2.865789   632A      2.878600   633A      2.880025  
     634A      2.886862   635A      2.895472   636A      2.900683  
     637A      2.905835   638A      2.931912   639A      2.936774  
     640A      2.950574   641A      2.956012   642A      2.958487  
     643A      2.963613   644A      2.968266   645A      2.984830  
     646A      2.989827   647A      2.997458   648A      3.005656  
     649A      3.010238   650A      3.027824   651A      3.039637  
     652A      3.047043   653A      3.051889   654A      3.060283  
     655A      3.065435   656A      3.076841   657A      3.087782  
     658A      3.098419   659A      3.099642   660A      3.119981  
     661A      3.121296   662A      3.129953   663A      3.131692  
     664A      3.140760   665A      3.153406   666A      3.155335  
     667A      3.165076   668A      3.173382   669A      3.182136  
     670A      3.190522   671A      3.205571   672A      3.226201  
     673A      3.245247   674A      3.250950   675A      3.256587  
     676A      3.261124   677A      3.280589   678A      3.292652  
     679A      3.306265   680A      3.316698   681A      3.324455  
     682A      3.331093   683A      3.353532   684A      3.365874  
     685A      3.373794   686A      3.385367   687A      3.394749  
     688A      3.416536   689A      3.420310   690A      3.434148  
     691A      3.439689   692A      3.446960   693A      3.472915  
     694A      3.478375   695A      3.482070   696A      3.501512  
     697A      3.505219   698A      3.518472   699A      3.522944  
     700A      3.538572   701A      3.552600   702A      3.563343  
     703A      3.565453   704A      3.577856   705A      3.610126  
     706A      3.613797   707A      3.624093   708A      3.640011  
     709A      3.668600   710A      3.677175   711A      3.682140  
     712A      3.695297   713A      3.701264   714A      3.709118  
     715A      3.719778   716A      3.731915   717A      3.738316  
     718A      3.745114   719A      3.750417   720A      3.770544  
     721A      3.790099   722A      3.792696   723A      3.798127  
     724A      3.812203   725A      3.826807   726A      3.840232  
     727A      3.846523   728A      3.865197   729A      3.867544  
     730A      3.876755   731A      3.884069   732A      3.887006  
     733A      3.896189   734A      3.909993   735A      3.917340  
     736A      3.931879   737A      3.949372   738A      3.959720  
     739A      3.964736   740A      3.974778   741A      3.989382  
     742A      3.996948   743A      4.010720   744A      4.016352  
     745A      4.028238   746A      4.031522   747A      4.035319  
     748A      4.067669   749A      4.081242   750A      4.090512  
     751A      4.094392   752A      4.106024   753A      4.129968  
     754A      4.140245   755A      4.149598   756A      4.164648  
     757A      4.167014   758A      4.175513   759A      4.179898  
     760A      4.191399   761A      4.210745   762A      4.217131  
     763A      4.225614   764A      4.230296   765A      4.248351  
     766A      4.257676   767A      4.263120   768A      4.277774  
     769A      4.286703   770A      4.293715   771A      4.298848  
     772A      4.311036   773A      4.323639   774A      4.330931  
     775A      4.335903   776A      4.348246   777A      4.354859  
     778A      4.357123   779A      4.368224   780A      4.372779  
     781A      4.382605   782A      4.388431   783A      4.404443  
     784A      4.409231   785A      4.415126   786A      4.424992  
     787A      4.430301   788A      4.444347   789A      4.454853  
     790A      4.458359   791A      4.466294   792A      4.485495  
     793A      4.510534   794A      4.520192   795A      4.528627  
     796A      4.533673   797A      4.544210   798A      4.546472  
     799A      4.565591   800A      4.572345   801A      4.585996  
     802A      4.592054   803A      4.598897   804A      4.610027  
     805A      4.622253   806A      4.630672   807A      4.645323  
     808A      4.646075   809A      4.662574   810A      4.667793  
     811A      4.668570   812A      4.686904   813A      4.691516  
     814A      4.697472   815A      4.712758   816A      4.719842  
     817A      4.723169   818A      4.737636   819A      4.745577  
     820A      4.751582   821A      4.758047   822A      4.763599  
     823A      4.767448   824A      4.775994   825A      4.785217  
     826A      4.791339   827A      4.801348   828A      4.811570  
     829A      4.819643   830A      4.823225   831A      4.828628  
     832A      4.832502   833A      4.856601   834A      4.859623  
     835A      4.867778   836A      4.887403   837A      4.888744  
     838A      4.907020   839A      4.924361   840A      4.928759  
     841A      4.939240   842A      4.947112   843A      4.950194  
     844A      4.959469   845A      4.966593   846A      4.971708  
     847A      4.979438   848A      4.996036   849A      5.001939  
     850A      5.008327   851A      5.021681   852A      5.024613  
     853A      5.029140   854A      5.038816   855A      5.048527  
     856A      5.052128   857A      5.062697   858A      5.070026  
     859A      5.074654   860A      5.084273   861A      5.093855  
     862A      5.102831   863A      5.112872   864A      5.122314  
     865A      5.126081   866A      5.131817   867A      5.142278  
     868A      5.145135   869A      5.157354   870A      5.169870  
     871A      5.173329   872A      5.185861   873A      5.195222  
     874A      5.206899   875A      5.214656   876A      5.222607  
     877A      5.226321   878A      5.238548   879A      5.244974  
     880A      5.264579   881A      5.276902   882A      5.279825  
     883A      5.299208   884A      5.312921   885A      5.322754  
     886A      5.329702   887A      5.333867   888A      5.354935  
     889A      5.363778   890A      5.371791   891A      5.391038  
     892A      5.409342   893A      5.411017   894A      5.427749  
     895A      5.435216   896A      5.449009   897A      5.463162  
     898A      5.473142   899A      5.478015   900A      5.492045  
     901A      5.507265   902A      5.508695   903A      5.517625  
     904A      5.524402   905A      5.537391   906A      5.549511  
     907A      5.566493   908A      5.567886   909A      5.577386  
     910A      5.585166   911A      5.591863   912A      5.609370  
     913A      5.611672   914A      5.631696   915A      5.645022  
     916A      5.657525   917A      5.661732   918A      5.670897  
     919A      5.681541   920A      5.686159   921A      5.728822  
     922A      5.738240   923A      5.769245   924A      5.773142  
     925A      5.780411   926A      5.788944   927A      5.803233  
     928A      5.824456   929A      5.831129   930A      5.845587  
     931A      5.866371   932A      5.885631   933A      5.903707  
     934A      5.911207   935A      5.920005   936A      5.934722  
     937A      5.940613   938A      5.956216   939A      5.976141  
     940A      5.992084   941A      6.003017   942A      6.022272  
     943A      6.046086   944A      6.059940   945A      6.069223  
     946A      6.092956   947A      6.101559   948A      6.105651  
     949A      6.123019   950A      6.136102   951A      6.144349  
     952A      6.155123   953A      6.160077   954A      6.177146  
     955A      6.200908   956A      6.205385   957A      6.218606  
     958A      6.237299   959A      6.259117   960A      6.273709  
     961A      6.313673   962A      6.323188   963A      6.343954  
     964A      6.357586   965A      6.362399   966A      6.372192  
     967A      6.436801   968A      6.451399   969A      6.491444  
     970A      6.503498   971A      6.521067   972A      6.531489  
     973A      6.535248   974A      6.542381   975A      6.546563  
     976A      6.578252   977A      6.589946   978A      6.609809  
     979A      6.620730   980A      6.631079   981A      6.669388  
     982A      6.686820   983A      6.706690   984A      6.724212  
     985A      6.744868   986A      6.765290   987A      6.773178  
     988A      6.780413   989A      6.793799   990A      6.796281  
     991A      6.813197   992A      6.827960   993A      6.841459  
     994A      6.859842   995A      6.861241   996A      6.876374  
     997A      6.890484   998A      6.893690   999A      6.914673  
    1000A      6.921174  1001A      6.937162  1002A      6.954030  
    1003A      6.967826  1004A      6.978628  1005A      6.996122  
    1006A      7.003695  1007A      7.017274  1008A      7.021902  
    1009A      7.038030  1010A      7.058018  1011A      7.095649  
    1012A      7.112223  1013A      7.115631  1014A      7.127035  
    1015A      7.171981  1016A      7.212339  1017A      7.242693  
    1018A      7.252569  1019A      7.281327  1020A      7.301416  
    1021A      7.359377  1022A      7.366545  1023A      7.385945  
    1024A      7.417151  1025A      7.432626  1026A      7.452632  
    1027A      7.479430  1028A      7.490958  1029A      7.505853  
    1030A      7.525950  1031A      7.532745  1032A      7.560659  
    1033A      7.567602  1034A      7.575686  1035A      7.607904  
    1036A      7.624244  1037A      7.649587  1038A      7.668399  
    1039A      7.686239  1040A      7.697026  1041A      7.706838  
    1042A      7.715508  1043A      7.737708  1044A      7.740486  
    1045A      7.791226  1046A      7.807988  1047A      7.858431  
    1048A      7.865233  1049A      7.877958  1050A      7.895486  
    1051A      7.903805  1052A      7.925304  1053A      7.951508  
    1054A      7.966652  1055A      7.981059  1056A      7.990984  
    1057A      8.008876  1058A      8.015724  1059A      8.017350  
    1060A      8.044889  1061A      8.058343  1062A      8.070957  
    1063A      8.089928  1064A      8.113396  1065A      8.130256  
    1066A      8.213518  1067A      8.242892  1068A      8.320391  
    1069A      8.355738  1070A      8.403232  1071A      8.457099  
    1072A      8.484398  1073A      8.567174  1074A      8.698262  
    1075A      8.810497  1076A      8.866597  1077A      8.957267  
    1078A      9.019652  1079A      9.050522  1080A      9.254360  
    1081A      9.329770  1082A      9.374957  1083A      9.636837  
    1084A      9.674686  1085A      9.683260  1086A      9.755288  
    1087A      9.820194  1088A      9.958038  1089A     10.186702  
    1090A     10.276458  1091A     10.464988  1092A     10.764003  
    1093A     11.060283  1094A     11.111112  1095A     11.210030  
    1096A     11.278991  1097A     11.585962  1098A     11.689172  
    1099A     11.767150  1100A     11.873032  1101A     12.074379  
    1102A     12.094002  1103A     12.275737  1104A     12.379468  
    1105A     12.465700  1106A     12.607435  1107A     12.925272  
    1108A     12.967253  1109A     16.215562  1110A     16.437611  
    1111A     16.661867  1112A     17.041659  1113A     18.313081  
    1114A     19.445479  1115A     20.570811  1116A     20.853900  
    1117A     21.582678  1118A     51.844290  1119A     52.196836  
    1120A     52.962300  1121A     54.570463  1122A     57.362589  
    1123A     60.402411  1124A     62.562054  1125A     62.790955  
    1126A     63.201518  1127A     64.574910  

    Final Occupation by Irrep:
              A 
    DOCC [    33 ]

  @DF-RHF Final Energy:  -451.67229958418471

   => Energetics <=

    Nuclear Repulsion Energy =            438.3184597323485718
    One-Electron Energy =               -1484.8201713577946066
    Two-Electron Energy =                 594.8294120412613211
    Total Energy =                       -451.6722995841846569

Computation Completed


Properties will be evaluated at   0.000000,   0.000000,   0.000000 [a0]

Properties computed using the SCF density matrix

  Nuclear Dipole Moment: [e a0]
     X:  -218.8878      Y:    15.4068      Z:    55.8336

  Electronic Dipole Moment: [e a0]
     X:   218.1409      Y:   -14.4699      Z:   -57.3784

  Dipole Moment: [e a0]
     X:    -0.7469      Y:     0.9369      Z:    -1.5448     Total:     1.9550

  Dipole Moment: [D]
     X:    -1.8985      Y:     2.3814      Z:    -3.9265     Total:     4.9692


*** tstop() called on node158.bme.utexas.edu at Sun Jan 14 12:06:56 2024
Module time:
	user time   =    1169.23 seconds =      19.49 minutes
	system time =      11.68 seconds =       0.19 minutes
	total time  =        195 seconds =       3.25 minutes
Total time:
	user time   =    5046.17 seconds =      84.10 minutes
	system time =      83.55 seconds =       1.39 minutes
	total time  =        963 seconds =      16.05 minutes

*** tstart() called on node158.bme.utexas.edu
*** at Sun Jan 14 12:06:56 2024


  //>>>>>>>>>>>>>>>>>>>>>>>>>>>>>>>>>>>//
  //               DFMP2               //
  //<<<<<<<<<<<<<<<<<<<<<<<<<<<<<<<<<<<//

   => Loading Basis Set <=

    Name: (AUG-CC-PVTZ AUX)
    Role: RIFIT
    Keyword: DF_BASIS_MP2
    atoms 1, 4, 11, 14-15, 17, 21, 26, 28-30 entry H          line    30 file /opt/anaconda/envs/psi4v1.5/share/psi4/basis/aug-cc-pvtz-ri.gbs 
    atoms 2, 5, 8-9, 12, 16, 20              entry N          line   206 file /opt/anaconda/envs/psi4v1.5/share/psi4/basis/aug-cc-pvtz-ri.gbs 
    atoms 3, 6-7, 10, 13, 18, 22, 24-25, 27  entry C          line   148 file /opt/anaconda/envs/psi4v1.5/share/psi4/basis/aug-cc-pvtz-ri.gbs 
    atoms 19, 23                             entry O          line   264 file /opt/anaconda/envs/psi4v1.5/share/psi4/basis/aug-cc-pvtz-ri.gbs 

	 --------------------------------------------------------
	                          DF-MP2                         
	      2nd-Order Density-Fitted Moller-Plesset Theory     
	              RMP2 Wavefunction,   8 Threads             
	                                                         
	        Rob Parrish, Justin Turney, Andy Simmonett,      
	           Ed Hohenstein, and C. David Sherrill          
	 --------------------------------------------------------

   => Auxiliary Basis Set <=

  Basis Set: (AUG-CC-PVTZ AUX)
    Blend: AUG-CC-PVTZ-RI
    Number of shells: 686
    Number of basis functions: 2520
    Number of Cartesian functions: 3189
    Spherical Harmonics?: true
    Max angular momentum: 4

	 --------------------------------------------------------
	                 NBF =  1127, NAUX =  2520
	 --------------------------------------------------------
	   CLASS    FOCC     OCC    AOCC    AVIR     VIR    FVIR
	   PAIRS       9      33      24    1094    1094       0
	 --------------------------------------------------------

	 Will attempt to load fitting metric from file 97.

	-----------------------------------------------------------
	 ==================> DF-MP2 Energies <==================== 
	-----------------------------------------------------------
	 Reference Energy          =    -451.6722995841847137 [Eh]
	 Singles Energy            =      -0.0000000000000000 [Eh]
	 Same-Spin Energy          =      -0.4340922563320774 [Eh]
	 Opposite-Spin Energy      =      -1.2518693341656322 [Eh]
	 Correlation Energy        =      -1.6859615904977097 [Eh]
	 Total Energy              =    -453.3582611746824114 [Eh]
	-----------------------------------------------------------
	 ================> DF-SCS-MP2 Energies <================== 
	-----------------------------------------------------------
	 SCS Same-Spin Scale       =       0.3333333333333333 [-]
	 SCS Opposite-Spin Scale   =       1.2000000000000000 [-]
	 SCS Same-Spin Energy      =      -0.1446974187773591 [Eh]
	 SCS Opposite-Spin Energy  =      -1.5022432009987585 [Eh]
	 SCS Correlation Energy    =      -1.6469406197761176 [Eh]
	 SCS Total Energy          =    -453.3192402039608169 [Eh]
	-----------------------------------------------------------


*** tstop() called on node158.bme.utexas.edu at Sun Jan 14 12:07:38 2024
Module time:
	user time   =     190.37 seconds =       3.17 minutes
	system time =       8.22 seconds =       0.14 minutes
	total time  =         42 seconds =       0.70 minutes
Total time:
	user time   =    5236.55 seconds =      87.28 minutes
	system time =      91.77 seconds =       1.53 minutes
	total time  =       1005 seconds =      16.75 minutes
  Constructing Basis Sets for SAPT...

   => Loading Basis Set <=

    Name: (AUG-CC-PVTZ AUX)
    Role: RIFIT
    Keyword: DF_BASIS_SAPT
    atoms 1, 4, 11, 14-15, 17, 21, 26, 28-30 entry H          line    30 file /opt/anaconda/envs/psi4v1.5/share/psi4/basis/aug-cc-pvtz-ri.gbs 
    atoms 2, 5, 8-9, 12, 16, 20              entry N          line   206 file /opt/anaconda/envs/psi4v1.5/share/psi4/basis/aug-cc-pvtz-ri.gbs 
    atoms 3, 6-7, 10, 13, 18, 22, 24-25, 27  entry C          line   148 file /opt/anaconda/envs/psi4v1.5/share/psi4/basis/aug-cc-pvtz-ri.gbs 
    atoms 19, 23                             entry O          line   264 file /opt/anaconda/envs/psi4v1.5/share/psi4/basis/aug-cc-pvtz-ri.gbs 


  //>>>>>>>>>>>>>>>>>>>>>>>>>>>>>>>>>>>//
  //           SAPT2+(3)DMP2           //
  //<<<<<<<<<<<<<<<<<<<<<<<<<<<<<<<<<<<//


*** tstart() called on node158.bme.utexas.edu
*** at Sun Jan 14 12:07:38 2024

      SAPT2+(3)  
    Ed Hohenstein
     6 June 2009

      Orbital Information
  --------------------------
    NSO        =      1127
    NMO        =      1127
    NRI        =      2520
    NOCC A     =        35
    NOCC B     =        33
    FOCC A     =        10
    FOCC B     =         9
    NVIR A     =      1092
    NVIR B     =      1094

    Estimated memory usage: 59315.2 MB

    Natural Orbital Cutoff:   1.000E-06
    Disp(T3) Truncation:            Yes
    CCD (vv|vv) Truncation:         Yes
    MBPT T2 Truncation:             Yes

    Monomer A: 594 virtual orbitals dropped
    Monomer B: 617 virtual orbitals dropped

    Elst10,r            =    -0.006399450102 [Eh]
    Exch10 (S^2)        =     0.010538369964 [Eh]
    Exch10              =     0.010542031714 [Eh]
    Ind20,r (A<-B)      =    -0.003017967092 [Eh]
    Ind20,r (B<-A)      =    -0.001821895660 [Eh]
    Ind20,r             =    -0.004839862752 [Eh]
    Exch-Ind20,r (A<-B) =     0.002282843225 [Eh]
    Exch-Ind20,r (B<-A) =     0.001541817554 [Eh]
    Exch-Ind20,r        =     0.003824660778 [Eh]
    Disp20              =    -0.021291372212 [Eh]
    Disp20 (NO)         =    -0.019953802393 [Eh]
    Exch-Disp20         =     0.001752922176 [Eh]
    Elst12,r            =     0.000432345761 [Eh]
    Exch11              =     0.000229021191 [Eh]
    Exch12              =     0.000724147957 [Eh]
    Ind22               =    -0.000038168709 [Eh]
    Disp21              =     0.006928595269 [Eh]
    Disp22 (SDQ)        =    -0.001074847311 [Eh]

    (i =   1 of  24)       3685 seconds
    (i =   2 of  24)       7411 seconds
    (i =   3 of  24)      11133 seconds
    (i =   4 of  24)      14763 seconds
    (i =   5 of  24)      18473 seconds
    (i =   6 of  24)      22235 seconds
    (i =   7 of  24)      26024 seconds
    (i =   8 of  24)      29729 seconds
    (i =   9 of  24)      33482 seconds
    (i =  10 of  24)      37219 seconds
    (i =  11 of  24)      40974 seconds
    (i =  12 of  24)      44711 seconds
    (i =  13 of  24)      48376 seconds
    (i =  14 of  24)      52130 seconds
    (i =  15 of  24)      55866 seconds
    (i =  16 of  24)      59670 seconds
    (i =  17 of  24)      63443 seconds
    (i =  18 of  24)      67194 seconds
    (i =  19 of  24)      70954 seconds
    (i =  20 of  24)      74725 seconds
    (i =  21 of  24)      78504 seconds
    (i =  22 of  24)      82279 seconds
    (i =  23 of  24)      86034 seconds
    (i =  24 of  24)      89796 seconds

    Disp220 (T)         =    -0.002501700712 [Eh]

    (i =   1 of  25)       3262 seconds
    (i =   2 of  25)       6556 seconds
    (i =   3 of  25)       9826 seconds
    (i =   4 of  25)      13027 seconds
    (i =   5 of  25)      16185 seconds
    (i =   6 of  25)      19110 seconds
    (i =   7 of  25)      21929 seconds
    (i =   8 of  25)      24544 seconds
    (i =   9 of  25)      26721 seconds
    (i =  10 of  25)      28900 seconds
    (i =  11 of  25)      31088 seconds
    (i =  12 of  25)      33258 seconds
    (i =  13 of  25)      35448 seconds
    (i =  14 of  25)      37628 seconds
    (i =  15 of  25)      39857 seconds
    (i =  16 of  25)      42046 seconds
    (i =  17 of  25)      44242 seconds
    (i =  18 of  25)      46436 seconds
    (i =  19 of  25)      48604 seconds
    (i =  20 of  25)      50765 seconds
    (i =  21 of  25)      52905 seconds
    (i =  22 of  25)      55044 seconds
    (i =  23 of  25)      57215 seconds
    (i =  24 of  25)      59394 seconds
    (i =  25 of  25)      61583 seconds

    Disp202 (T)         =    -0.002390898385 [Eh]

    Disp22 (T)          =    -0.004892599097 [Eh]

    Est. Disp220 (T)    =    -0.002669398041 [Eh]
    Est. Disp202 (T)    =    -0.002551168265 [Eh]

    Est. Disp22 (T)     =    -0.005220566306 [Eh]
    Elst13,r            =     0.000145366976 [Eh]
    Disp30              =     0.000475084211 [Eh]

    SAPT Results 
  --------------------------------------------------------------------------------------------------------
    Electrostatics                 -5.82173736 [mEh]      -3.65319535 [kcal/mol]     -15.28496934 [kJ/mol]
      Elst10,r                     -6.39945010 [mEh]      -4.01571557 [kcal/mol]     -16.80175393 [kJ/mol]
      Elst12,r                      0.43234576 [mEh]       0.27130106 [kcal/mol]       1.13512364 [kJ/mol]
      Elst13,r                      0.14536698 [mEh]       0.09121915 [kcal/mol]       0.38166094 [kJ/mol]

    Exchange                       11.49520086 [mEh]       7.21334744 [kcal/mol]      30.18064571 [kJ/mol]
      Exch10                       10.54203171 [mEh]       6.61522477 [kcal/mol]      27.67810045 [kJ/mol]
      Exch10(S^2)                  10.53836996 [mEh]       6.61292699 [kcal/mol]      27.66848653 [kJ/mol]
      Exch11(S^2)                   0.22902119 [mEh]       0.14371297 [kcal/mol]       0.60129505 [kJ/mol]
      Exch12(S^2)                   0.72414796 [mEh]       0.45440970 [kcal/mol]       1.90125020 [kJ/mol]

    Induction                      -1.40753588 [mEh]      -0.88324210 [kcal/mol]      -3.69548494 [kJ/mol]
      Ind20,r                      -4.83986275 [mEh]      -3.03705973 [kcal/mol]     -12.70705791 [kJ/mol]
      Ind22                        -0.03816871 [mEh]      -0.02395123 [kcal/mol]      -0.10021193 [kJ/mol]
      Exch-Ind20,r                  3.82466078 [mEh]       2.40001087 [kcal/mol]      10.04164549 [kJ/mol]
      Exch-Ind22                    0.03016250 [mEh]       0.01892726 [kcal/mol]       0.07919164 [kJ/mol]
      delta HF,r (2)               -0.65334609 [mEh]      -0.40998086 [kcal/mol]      -1.71535992 [kJ/mol]
      delta MP2,r (2)               0.26901839 [mEh]       0.16881159 [kcal/mol]       0.70630769 [kJ/mol]

    Dispersion                    -18.43018417 [mEh]     -11.56511517 [kcal/mol]     -48.38844188 [kJ/mol]
      Disp20                      -21.29137221 [mEh]     -13.36053777 [kcal/mol]     -55.90049004 [kJ/mol]
      Disp30                        0.47508421 [mEh]       0.29811984 [kcal/mol]       1.24733342 [kJ/mol]
      Disp21                        6.92859527 [mEh]       4.34775917 [kcal/mol]      18.19102437 [kJ/mol]
      Disp22 (SDQ)                 -1.07484731 [mEh]      -0.67447687 [kcal/mol]      -2.82201123 [kJ/mol]
      Disp22 (T)                   -4.89259910 [mEh]      -3.07015228 [kcal/mol]     -12.84551716 [kJ/mol]
      Est. Disp22 (T)              -5.22056631 [mEh]      -3.27595482 [kcal/mol]     -13.70659495 [kJ/mol]
      Exch-Disp20                   1.75292218 [mEh]       1.09997527 [kcal/mol]       4.60229654 [kJ/mol]

  Total HF                          2.47403355 [mEh]       1.55247949 [kcal/mol]       6.49557419 [kJ/mol]
  Total SAPT0                     -17.06441649 [mEh]     -10.70808301 [kcal/mol]     -44.80261931 [kJ/mol]
  Total SAPT2                     -15.68690778 [mEh]      -9.84368325 [kcal/mol]     -41.18597071 [kJ/mol]
  Total SAPT2+                    -15.05372613 [mEh]      -9.44635576 [kcal/mol]     -39.52355252 [kJ/mol]
  Total SAPT2+(3)                 -14.43327495 [mEh]      -9.05701677 [kcal/mol]     -37.89455815 [kJ/mol]
  Total SAPT2+dMP2                -14.78470774 [mEh]      -9.27754417 [kcal/mol]     -38.81724483 [kJ/mol]
  Total SAPT2+(3)dMP2             -14.16425655 [mEh]      -8.88820518 [kcal/mol]     -37.18825046 [kJ/mol]

  Special recipe for scaled SAPT0 (see Manual):
    Electrostatics sSAPT0          -6.39945010 [mEh]      -4.01571557 [kcal/mol]     -16.80175393 [kJ/mol]
    Exchange sSAPT0                10.54203171 [mEh]       6.61522477 [kcal/mol]      27.67810045 [kJ/mol]
    Induction sSAPT0               -1.66455983 [mEh]      -1.04452706 [kcal/mol]      -4.37030123 [kJ/mol]
    Dispersion sSAPT0             -19.53662215 [mEh]     -12.25941548 [kcal/mol]     -51.29339438 [kJ/mol]
  Total sSAPT0                    -17.05860036 [mEh]     -10.70443334 [kcal/mol]     -44.78734909 [kJ/mol]
  --------------------------------------------------------------------------------------------------------

*** tstop() called on node158.bme.utexas.edu at Tue Jan 16 12:32:15 2024
Module time:
	user time   =  996439.84 seconds =   16607.33 minutes
	system time =    2665.40 seconds =      44.42 minutes
	total time  =     174277 seconds =    2904.62 minutes
Total time:
	user time   = 1001677.18 seconds =   16694.62 minutes
	system time =    2757.18 seconds =      45.95 minutes
	total time  =     175282 seconds =    2921.37 minutes

    Psi4 stopped on: Tuesday, 16 January 2024 12:32PM
    Psi4 wall time for execution: 2 days, 0:41:22.34

*** Psi4 exiting successfully. Buy a developer a beer!
