27

H 0.73416 -2.73714 1.78907
N 1.07053 -2.05372 1.12076
C 1.83021 -2.28443 0.0011
H 2.0989 -3.28737 -0.30805
N 2.1882 -1.17806 -0.63497
C 1.63236 -0.17459 0.13508
C 1.64002 1.22903 0.00713
N 2.33434 1.86152 -0.98341
N 0.9933 1.96332 0.92822
C 0.35708 1.32479 1.9369
H -0.1597 1.96925 2.64406
N 0.26588 0.00787 2.16903
C 0.92611 -0.68744 1.22973
H 2.04429 2.82257 -1.13064
H 2.42428 1.32417 -1.83981
N -1.786811366666667 -0.9035662333333333 0.469711
H -2.324611366666667 -1.3440662333333335 1.206751
C -1.7078013666666667 0.48154376666666665 0.5583009999999999
O -2.273431366666667 1.1323537666666665 1.425541
N -0.9366713666666668 1.0311037666666665 -0.453439
C -0.2288113666666668 0.37659376666666666 -1.473319
O 0.4435486333333333 1.0206437666666666 -2.278819
C -0.3875513666666668 -1.0688062333333335 -1.453429
H 0.12032863333333321 -1.6529462333333336 -2.2091589999999997
C -1.1455113666666668 -1.6472962333333334 -0.492659
H -1.2981413666666668 -2.7204962333333333 -0.43165900000000007
H -0.8020213666666667 2.0380937666666665 -0.3933090000000001
