
    -----------------------------------------------------------------------
          Psi4: An Open-Source Ab Initio Electronic Structure Package
                               Psi4 1.5 release

                         Git: Rev {HEAD} e9f4d6d 


    D. G. A. Smith, L. A. Burns, A. C. Simmonett, R. M. Parrish,
    M. C. Schieber, R. Galvelis, P. Kraus, H. Kruse, R. Di Remigio,
    A. Alenaizan, A. M. James, S. Lehtola, J. P. Misiewicz, M. Scheurer,
    R. A. Shaw, J. B. Schriber, Y. Xie, Z. L. Glick, D. A. Sirianni,
    J. S. O'Brien, J. M. Waldrop, A. Kumar, E. G. Hohenstein,
    B. P. Pritchard, B. R. Brooks, H. F. Schaefer III, A. Yu. Sokolov,
    K. Patkowski, A. E. DePrince III, U. Bozkaya, R. A. King,
    F. A. Evangelista, J. M. Turney, T. D. Crawford, C. D. Sherrill,
    J. Chem. Phys. 152(18) 184108 (2020). https://doi.org/10.1063/5.0006002

                            Additional Code Authors
    E. T. Seidl, C. L. Janssen, E. F. Valeev, M. L. Leininger,
    J. F. Gonthier, R. M. Richard, H. R. McAlexander, M. Saitow, X. Wang,
    P. Verma, M. H. Lechner, and A. Jiang

             Previous Authors, Complete List of Code Contributors,
                       and Citations for Specific Modules
    https://github.com/psi4/psi4/blob/master/codemeta.json
    https://github.com/psi4/psi4/graphs/contributors
    http://psicode.org/psi4manual/master/introduction.html#citing-psifour

    -----------------------------------------------------------------------


    Psi4 started on: Sunday, 14 January 2024 11:37AM

    Process ID: 3671620
    Host:       node151.bme.utexas.edu
    PSIDATADIR: /opt/anaconda/envs/psi4v1.5/share/psi4
    Memory:     500.0 MiB
    Threads:    8
    
  ==> Input File <==

--------------------------------------------------------------------------
memory 80GB

molecule {
0 1
H 0.73416 -2.73714 1.78907
N 1.07053 -2.05372 1.12076
C 1.83021 -2.28443 0.0011
H 2.0989 -3.28737 -0.30805
N 2.1882 -1.17806 -0.63497
C 1.63236 -0.17459 0.13508
C 1.64002 1.22903 0.00713
N 2.33434 1.86152 -0.98341
N 0.9933 1.96332 0.92822
C 0.35708 1.32479 1.9369
H -0.1597 1.96925 2.64406
N 0.26588 0.00787 2.16903
C 0.92611 -0.68744 1.22973
H 2.04429 2.82257 -1.13064
H 2.42428 1.32417 -1.83981
--
0 1
N -2.3833 -0.97308 0.23686
H -2.9211 -1.41358 0.9739
C -2.30429 0.41203 0.32545
O -2.86992 1.06284 1.19269
N -1.53316 0.96159 -0.68629
C -0.8253 0.30708 -1.70617
O -0.15294 0.95113 -2.51167
C -0.98404 -1.13832 -1.68628
H -0.47616 -1.72246 -2.44201
C -1.742 -1.71681 -0.72551
H -1.89463 -2.79001 -0.66451
H -1.39851 1.96858 -0.62616
 units angstrom
 no_reorient
 symmetry c1
}
set
 {scf_type DF
 basis aug-cc-pvtz
 freeze_core True
 guess SAD
}
energy('sapt2+(3)dmp2')
--------------------------------------------------------------------------

  Memory set to  74.506 GiB by Python driver.

Scratch directory: /tmp/
   => Loading Basis Set <=

    Name: AUG-CC-PVTZ
    Role: ORBITAL
    Keyword: BASIS
    atoms 1, 4, 11, 14-15, 17, 24, 26-27 entry H          line    40 file /opt/anaconda/envs/psi4v1.5/share/psi4/basis/aug-cc-pvtz.gbs 
    atoms 2, 5, 8-9, 12, 16, 20          entry N          line   285 file /opt/anaconda/envs/psi4v1.5/share/psi4/basis/aug-cc-pvtz.gbs 
    atoms 3, 6-7, 10, 13, 18, 21, 23, 25 entry C          line   239 file /opt/anaconda/envs/psi4v1.5/share/psi4/basis/aug-cc-pvtz.gbs 
    atoms 19, 22                         entry O          line   331 file /opt/anaconda/envs/psi4v1.5/share/psi4/basis/aug-cc-pvtz.gbs 

   => Loading Basis Set <=

    Name: AUG-CC-PVTZ
    Role: ORBITAL
    Keyword: BASIS
    atoms 1, 4, 11, 14-15, 17, 24, 26-27 entry H          line    40 file /opt/anaconda/envs/psi4v1.5/share/psi4/basis/aug-cc-pvtz.gbs 
    atoms 2, 5, 8-9, 12, 16, 20          entry N          line   285 file /opt/anaconda/envs/psi4v1.5/share/psi4/basis/aug-cc-pvtz.gbs 
    atoms 3, 6-7, 10, 13, 18, 21, 23, 25 entry C          line   239 file /opt/anaconda/envs/psi4v1.5/share/psi4/basis/aug-cc-pvtz.gbs 
    atoms 19, 22                         entry O          line   331 file /opt/anaconda/envs/psi4v1.5/share/psi4/basis/aug-cc-pvtz.gbs 


  //>>>>>>>>>>>>>>>>>>>>>>>>>>>>>>>>>>>//
  //              Dimer HF             //
  //<<<<<<<<<<<<<<<<<<<<<<<<<<<<<<<<<<<//


*** tstart() called on node151.bme.utexas.edu
*** at Sun Jan 14 11:37:05 2024

   => Loading Basis Set <=

    Name: AUG-CC-PVTZ
    Role: ORBITAL
    Keyword: BASIS
    atoms 1, 4, 11, 14-15, 17, 24, 26-27 entry H          line    40 file /opt/anaconda/envs/psi4v1.5/share/psi4/basis/aug-cc-pvtz.gbs 
    atoms 2, 5, 8-9, 12, 16, 20          entry N          line   285 file /opt/anaconda/envs/psi4v1.5/share/psi4/basis/aug-cc-pvtz.gbs 
    atoms 3, 6-7, 10, 13, 18, 21, 23, 25 entry C          line   239 file /opt/anaconda/envs/psi4v1.5/share/psi4/basis/aug-cc-pvtz.gbs 
    atoms 19, 22                         entry O          line   331 file /opt/anaconda/envs/psi4v1.5/share/psi4/basis/aug-cc-pvtz.gbs 


         ---------------------------------------------------------
                                   SCF
               by Justin Turney, Rob Parrish, Andy Simmonett
                          and Daniel G. A. Smith
                              RHF Reference
                        8 Threads,  76293 MiB Core
         ---------------------------------------------------------

  ==> Geometry <==

    Molecular point group: c1
    Full point group: C1

    Geometry (in Angstrom), charge = 0, multiplicity = 1:

       Center              X                  Y                   Z               Mass       
    ------------   -----------------  -----------------  -----------------  -----------------
         H            0.735873763562    -2.752629158110     1.782574600937     1.007825032230
         N            1.072243763562    -2.069209158110     1.114264600937    14.003074004430
         C            1.831923763562    -2.299919158110    -0.005395399063    12.000000000000
         H            2.100613763562    -3.302859158110    -0.314545399063     1.007825032230
         N            2.189913763562    -1.193549158110    -0.641465399063    14.003074004430
         C            1.634073763562    -0.190079158110     0.128584600937    12.000000000000
         C            1.641733763562     1.213540841890     0.000634600937    12.000000000000
         N            2.336053763562     1.846030841890    -0.989905399063    14.003074004430
         N            0.995013763562     1.947830841890     0.921724600937    14.003074004430
         C            0.358793763562     1.309300841890     1.930404600937    12.000000000000
         H           -0.157986236438     1.953760841890     2.637564600937     1.007825032230
         N            0.267593763562    -0.007619158110     2.162534600937    14.003074004430
         C            0.927823763562    -0.702929158110     1.223234600937    12.000000000000
         H            2.046003763562     2.807080841890    -1.137135399063     1.007825032230
         H            2.425993763562     1.308680841890    -1.846305399063     1.007825032230
         N           -2.381586236438    -0.988569158110     0.230364600937    14.003074004430
         H           -2.919386236438    -1.429069158110     0.967404600937     1.007825032230
         C           -2.302576236438     0.396540841890     0.318954600937    12.000000000000
         O           -2.868206236438     1.047350841890     1.186194600937    15.994914619570
         N           -1.531446236438     0.946100841890    -0.692785399063    14.003074004430
         C           -0.823586236438     0.291590841890    -1.712665399063    12.000000000000
         O           -0.151226236438     0.935640841890    -2.518165399063    15.994914619570
         C           -0.982326236438    -1.153809158110    -1.692775399063    12.000000000000
         H           -0.474446236438    -1.737949158110    -2.448505399063     1.007825032230
         C           -1.740286236438    -1.732299158110    -0.732005399063    12.000000000000
         H           -1.892916236438    -2.805499158110    -0.671005399063     1.007825032230
         H           -1.396796236438     1.953090841890    -0.632655399063     1.007825032230

  Running in c1 symmetry.

  Rotational constants: A =      0.01963  B =      0.01542  C =      0.01485 [cm^-1]
  Rotational constants: A =    588.45748  B =    462.21827  C =    445.18665 [MHz]
  Nuclear repulsion = 1389.793231941201157

  Charge       = 0
  Multiplicity = 1
  Electrons    = 128
  Nalpha       = 64
  Nbeta        = 64

  ==> Algorithm <==

  SCF Algorithm Type is DF.
  DIIS enabled.
  MOM disabled.
  Fractional occupation disabled.
  Guess Type is SAD.
  Energy threshold   = 1.00e-08
  Density threshold  = 1.00e-08
  Integral threshold = 1.00e-12

  ==> Primary Basis <==

  Basis Set: AUG-CC-PVTZ
    Blend: AUG-CC-PVTZ
    Number of shells: 333
    Number of basis functions: 1035
    Number of Cartesian functions: 1215
    Spherical Harmonics?: true
    Max angular momentum: 3

   => Loading Basis Set <=

    Name: (AUG-CC-PVTZ AUX)
    Role: JKFIT
    Keyword: DF_BASIS_SCF
    atoms 1, 4, 11, 14-15, 17, 24, 26-27 entry H          line    70 file /opt/anaconda/envs/psi4v1.5/share/psi4/basis/aug-cc-pvtz-jkfit.gbs 
    atoms 2, 5, 8-9, 12, 16, 20          entry N          line   224 file /opt/anaconda/envs/psi4v1.5/share/psi4/basis/aug-cc-pvtz-jkfit.gbs 
    atoms 3, 6-7, 10, 13, 18, 21, 23, 25 entry C          line   162 file /opt/anaconda/envs/psi4v1.5/share/psi4/basis/aug-cc-pvtz-jkfit.gbs 
    atoms 19, 22                         entry O          line   286 file /opt/anaconda/envs/psi4v1.5/share/psi4/basis/aug-cc-pvtz-jkfit.gbs 

  ==> Integral Setup <==

  ==> DiskDFJK: Density-Fitted J/K Matrices <==

    J tasked:                  Yes
    K tasked:                  Yes
    wK tasked:                  No
    OpenMP threads:              8
    Integrals threads:           8
    Memory [MiB]:            57220
    Algorithm:                Core
    Integral Cache:           SAVE
    Schwarz Cutoff:          1E-12
    Fitting Condition:       1E-10

   => Auxiliary Basis Set <=

  Basis Set: (AUG-CC-PVTZ AUX)
    Blend: AUG-CC-PVTZ-JKFIT
    Number of shells: 666
    Number of basis functions: 2286
    Number of Cartesian functions: 2853
    Spherical Harmonics?: true
    Max angular momentum: 4

  Minimum eigenvalue in the overlap matrix is 7.4313740243E-07.
  Reciprocal condition number of the overlap matrix is 3.1137794558E-08.
    Using symmetric orthogonalization.

  ==> Pre-Iterations <==

  SCF Guess: Superposition of Atomic Densities via on-the-fly atomic UHF (no occupation information).

   -------------------------
    Irrep   Nso     Nmo    
   -------------------------
     A       1035    1035 
   -------------------------
    Total    1035    1035
   -------------------------

  ==> Iterations <==

                           Total Energy        Delta E     RMS |[F,P]|

   @DF-RHF iter SAD:  -876.69107201155850   -8.76691e+02   0.00000e+00 
   @DF-RHF iter   1:  -876.81206091488957   -1.20989e-01   9.59645e-04 DIIS
   @DF-RHF iter   2:  -877.15682203759366   -3.44761e-01   5.73981e-04 DIIS
   @DF-RHF iter   3:  -877.28081231816543   -1.23990e-01   1.28350e-04 DIIS
   @DF-RHF iter   4:  -877.28962744189494   -8.81512e-03   5.56923e-05 DIIS
   @DF-RHF iter   5:  -877.29150244120194   -1.87500e-03   1.08389e-05 DIIS
   @DF-RHF iter   6:  -877.29167276138969   -1.70320e-04   5.76257e-06 DIIS
   @DF-RHF iter   7:  -877.29171875986685   -4.59985e-05   2.42540e-06 DIIS
   @DF-RHF iter   8:  -877.29172741914613   -8.65928e-06   9.48710e-07 DIIS
   @DF-RHF iter   9:  -877.29172868120111   -1.26205e-06   3.84000e-07 DIIS
   @DF-RHF iter  10:  -877.29172892581698   -2.44616e-07   1.55517e-07 DIIS
   @DF-RHF iter  11:  -877.29172897083674   -4.50198e-08   7.22797e-08 DIIS
   @DF-RHF iter  12:  -877.29172898037802   -9.54128e-09   2.87920e-08 DIIS
   @DF-RHF iter  13:  -877.29172898196907   -1.59105e-09   1.18472e-08 DIIS
   @DF-RHF iter  14:  -877.29172898222976   -2.60684e-10   5.44463e-09 DIIS
  Energy and wave function converged.


  ==> Post-Iterations <==

    Orbital Energies [Eh]
    ---------------------

    Doubly Occupied:                                                      

       1A    -20.542220     2A    -20.539817     3A    -15.642180  
       4A    -15.641157     5A    -15.623783     6A    -15.576328  
       7A    -15.574139     8A    -15.565566     9A    -15.555745  
      10A    -11.416420    11A    -11.381986    12A    -11.339864  
      13A    -11.337339    14A    -11.332516    15A    -11.324787  
      16A    -11.316266    17A    -11.257935    18A    -11.254067  
      19A     -1.426066    20A     -1.390172    21A     -1.372905  
      22A     -1.305457    23A     -1.299634    24A     -1.245209  
      25A     -1.238797    26A     -1.189586    27A     -1.153213  
      28A     -1.083601    29A     -1.036550    30A     -0.927814  
      31A     -0.897310    32A     -0.895228    33A     -0.879312  
      34A     -0.852555    35A     -0.799701    36A     -0.775287  
      37A     -0.758320    38A     -0.732103    39A     -0.708954  
      40A     -0.697043    41A     -0.675856    42A     -0.674234  
      43A     -0.669105    44A     -0.647112    45A     -0.635966  
      46A     -0.630975    47A     -0.610889    48A     -0.608416  
      49A     -0.596684    50A     -0.593581    51A     -0.575624  
      52A     -0.553395    53A     -0.518017    54A     -0.501663  
      55A     -0.495161    56A     -0.478338    57A     -0.456454  
      58A     -0.447862    59A     -0.436505    60A     -0.428819  
      61A     -0.413760    62A     -0.379225    63A     -0.363992  
      64A     -0.314900  

    Virtual:                                                              

      65A      0.007893    66A      0.025626    67A      0.029136  
      68A      0.038391    69A      0.046587    70A      0.048031  
      71A      0.049619    72A      0.053405    73A      0.061852  
      74A      0.071004    75A      0.078540    76A      0.078760  
      77A      0.083007    78A      0.085544    79A      0.087030  
      80A      0.091111    81A      0.092637    82A      0.097139  
      83A      0.105445    84A      0.106772    85A      0.109494  
      86A      0.114973    87A      0.121072    88A      0.121927  
      89A      0.124183    90A      0.126466    91A      0.127439  
      92A      0.131787    93A      0.133897    94A      0.136034  
      95A      0.137888    96A      0.140175    97A      0.142735  
      98A      0.145948    99A      0.147868   100A      0.153966  
     101A      0.157535   102A      0.163674   103A      0.167772  
     104A      0.170512   105A      0.179239   106A      0.182060  
     107A      0.184184   108A      0.186085   109A      0.190412  
     110A      0.193174   111A      0.197915   112A      0.204282  
     113A      0.207729   114A      0.211653   115A      0.215750  
     116A      0.218942   117A      0.223245   118A      0.227658  
     119A      0.231923   120A      0.237153   121A      0.238716  
     122A      0.242773   123A      0.244927   124A      0.247597  
     125A      0.252590   126A      0.255122   127A      0.257099  
     128A      0.259134   129A      0.265394   130A      0.267955  
     131A      0.274689   132A      0.278836   133A      0.279120  
     134A      0.283171   135A      0.286858   136A      0.289828  
     137A      0.290136   138A      0.296648   139A      0.298247  
     140A      0.302265   141A      0.304879   142A      0.307368  
     143A      0.308971   144A      0.314114   145A      0.316290  
     146A      0.320508   147A      0.326652   148A      0.333374  
     149A      0.336213   150A      0.341806   151A      0.342413  
     152A      0.347309   153A      0.349410   154A      0.353091  
     155A      0.359247   156A      0.361803   157A      0.363494  
     158A      0.366790   159A      0.371677   160A      0.377330  
     161A      0.380980   162A      0.382212   163A      0.384408  
     164A      0.391383   165A      0.394568   166A      0.399859  
     167A      0.404659   168A      0.412545   169A      0.413925  
     170A      0.417424   171A      0.419653   172A      0.421735  
     173A      0.424891   174A      0.429251   175A      0.435206  
     176A      0.437350   177A      0.438353   178A      0.445556  
     179A      0.446807   180A      0.449454   181A      0.455351  
     182A      0.457579   183A      0.461601   184A      0.462238  
     185A      0.467860   186A      0.469943   187A      0.472871  
     188A      0.476807   189A      0.482712   190A      0.484624  
     191A      0.488578   192A      0.490023   193A      0.493763  
     194A      0.498595   195A      0.508018   196A      0.510339  
     197A      0.513250   198A      0.515243   199A      0.516968  
     200A      0.519213   201A      0.524527   202A      0.528211  
     203A      0.529995   204A      0.533866   205A      0.539954  
     206A      0.540570   207A      0.542958   208A      0.546582  
     209A      0.549473   210A      0.552925   211A      0.557006  
     212A      0.559006   213A      0.565984   214A      0.567158  
     215A      0.571023   216A      0.574012   217A      0.581131  
     218A      0.582077   219A      0.590053   220A      0.596223  
     221A      0.598309   222A      0.598798   223A      0.605272  
     224A      0.613257   225A      0.615035   226A      0.619335  
     227A      0.624569   228A      0.629048   229A      0.630654  
     230A      0.638484   231A      0.639305   232A      0.644748  
     233A      0.648656   234A      0.652640   235A      0.661252  
     236A      0.664762   237A      0.666083   238A      0.668594  
     239A      0.671510   240A      0.674386   241A      0.682427  
     242A      0.689349   243A      0.691989   244A      0.699490  
     245A      0.701175   246A      0.707716   247A      0.715940  
     248A      0.719342   249A      0.722577   250A      0.729147  
     251A      0.729997   252A      0.738539   253A      0.741450  
     254A      0.748482   255A      0.752116   256A      0.754525  
     257A      0.757060   258A      0.764770   259A      0.772450  
     260A      0.775043   261A      0.780545   262A      0.787250  
     263A      0.788703   264A      0.795419   265A      0.799061  
     266A      0.804819   267A      0.808288   268A      0.813293  
     269A      0.818651   270A      0.820287   271A      0.826490  
     272A      0.828695   273A      0.832720   274A      0.835633  
     275A      0.845717   276A      0.847450   277A      0.854581  
     278A      0.858075   279A      0.860647   280A      0.866293  
     281A      0.871471   282A      0.878871   283A      0.880775  
     284A      0.886145   285A      0.892980   286A      0.897036  
     287A      0.901296   288A      0.906744   289A      0.914837  
     290A      0.919756   291A      0.925497   292A      0.926154  
     293A      0.928765   294A      0.933037   295A      0.939134  
     296A      0.944047   297A      0.946771   298A      0.953120  
     299A      0.957610   300A      0.962054   301A      0.964821  
     302A      0.970325   303A      0.971584   304A      0.975443  
     305A      0.979625   306A      0.983714   307A      0.987381  
     308A      0.993262   309A      0.996302   310A      1.001412  
     311A      1.007296   312A      1.007703   313A      1.015808  
     314A      1.021270   315A      1.022098   316A      1.028967  
     317A      1.034401   318A      1.035221   319A      1.040865  
     320A      1.046852   321A      1.047620   322A      1.050840  
     323A      1.061167   324A      1.062955   325A      1.069932  
     326A      1.075139   327A      1.079594   328A      1.087228  
     329A      1.087962   330A      1.091797   331A      1.097014  
     332A      1.100126   333A      1.110275   334A      1.115661  
     335A      1.116730   336A      1.124468   337A      1.126555  
     338A      1.128840   339A      1.133756   340A      1.138257  
     341A      1.142443   342A      1.145405   343A      1.150871  
     344A      1.154105   345A      1.160209   346A      1.163468  
     347A      1.166411   348A      1.174588   349A      1.178871  
     350A      1.179961   351A      1.186117   352A      1.188076  
     353A      1.195089   354A      1.200218   355A      1.203938  
     356A      1.207836   357A      1.213362   358A      1.221252  
     359A      1.222498   360A      1.228701   361A      1.233440  
     362A      1.234594   363A      1.239029   364A      1.240411  
     365A      1.243064   366A      1.252767   367A      1.254866  
     368A      1.263297   369A      1.270118   370A      1.271760  
     371A      1.275960   372A      1.284174   373A      1.292953  
     374A      1.300686   375A      1.304320   376A      1.306654  
     377A      1.309268   378A      1.320171   379A      1.324472  
     380A      1.324954   381A      1.328547   382A      1.329706  
     383A      1.333500   384A      1.341996   385A      1.345701  
     386A      1.351001   387A      1.358103   388A      1.361867  
     389A      1.368913   390A      1.370215   391A      1.372504  
     392A      1.383229   393A      1.387745   394A      1.392499  
     395A      1.396624   396A      1.401050   397A      1.413340  
     398A      1.415692   399A      1.425161   400A      1.430664  
     401A      1.431874   402A      1.433945   403A      1.439097  
     404A      1.442085   405A      1.447425   406A      1.453725  
     407A      1.463870   408A      1.465307   409A      1.472646  
     410A      1.473881   411A      1.482050   412A      1.488255  
     413A      1.491793   414A      1.497129   415A      1.498589  
     416A      1.501715   417A      1.507418   418A      1.513027  
     419A      1.519753   420A      1.530871   421A      1.536841  
     422A      1.539347   423A      1.545555   424A      1.550289  
     425A      1.556107   426A      1.561025   427A      1.567671  
     428A      1.576517   429A      1.582476   430A      1.586698  
     431A      1.592153   432A      1.596135   433A      1.604256  
     434A      1.607502   435A      1.610983   436A      1.617179  
     437A      1.618291   438A      1.626839   439A      1.630749  
     440A      1.638053   441A      1.642003   442A      1.651262  
     443A      1.656449   444A      1.660702   445A      1.671395  
     446A      1.675075   447A      1.676893   448A      1.680726  
     449A      1.688640   450A      1.695896   451A      1.700477  
     452A      1.706275   453A      1.715151   454A      1.720323  
     455A      1.725837   456A      1.734902   457A      1.742054  
     458A      1.744648   459A      1.749439   460A      1.752015  
     461A      1.753991   462A      1.759753   463A      1.765358  
     464A      1.772139   465A      1.782281   466A      1.790003  
     467A      1.799155   468A      1.804170   469A      1.813289  
     470A      1.815581   471A      1.819746   472A      1.834446  
     473A      1.837673   474A      1.846984   475A      1.851729  
     476A      1.858321   477A      1.865132   478A      1.867581  
     479A      1.875510   480A      1.878802   481A      1.891049  
     482A      1.899001   483A      1.911941   484A      1.914771  
     485A      1.919778   486A      1.921572   487A      1.927224  
     488A      1.933270   489A      1.938912   490A      1.948333  
     491A      1.954809   492A      1.955810   493A      1.964369  
     494A      1.972916   495A      1.976397   496A      1.989113  
     497A      1.999382   498A      2.000944   499A      2.011160  
     500A      2.024165   501A      2.032269   502A      2.034994  
     503A      2.039854   504A      2.049864   505A      2.058431  
     506A      2.062241   507A      2.070974   508A      2.077615  
     509A      2.084098   510A      2.093121   511A      2.103342  
     512A      2.104066   513A      2.113745   514A      2.120336  
     515A      2.128878   516A      2.139863   517A      2.144767  
     518A      2.150788   519A      2.155193   520A      2.161222  
     521A      2.165658   522A      2.167489   523A      2.175272  
     524A      2.182804   525A      2.186900   526A      2.190050  
     527A      2.193275   528A      2.211646   529A      2.213456  
     530A      2.219297   531A      2.229379   532A      2.234008  
     533A      2.238079   534A      2.239122   535A      2.251375  
     536A      2.258826   537A      2.263600   538A      2.268521  
     539A      2.281943   540A      2.287157   541A      2.297036  
     542A      2.307406   543A      2.315150   544A      2.319044  
     545A      2.320868   546A      2.332904   547A      2.335676  
     548A      2.338084   549A      2.348914   550A      2.353805  
     551A      2.355561   552A      2.369254   553A      2.375198  
     554A      2.384869   555A      2.389693   556A      2.404655  
     557A      2.404767   558A      2.419976   559A      2.424999  
     560A      2.428300   561A      2.435670   562A      2.438416  
     563A      2.447989   564A      2.457152   565A      2.464452  
     566A      2.472637   567A      2.475972   568A      2.479296  
     569A      2.483484   570A      2.489447   571A      2.494776  
     572A      2.501543   573A      2.507399   574A      2.521059  
     575A      2.524629   576A      2.534455   577A      2.542842  
     578A      2.546238   579A      2.553282   580A      2.557660  
     581A      2.566474   582A      2.574702   583A      2.591364  
     584A      2.597802   585A      2.601887   586A      2.613293  
     587A      2.616227   588A      2.629317   589A      2.638731  
     590A      2.646517   591A      2.650479   592A      2.654242  
     593A      2.658274   594A      2.671503   595A      2.678092  
     596A      2.680436   597A      2.686803   598A      2.698056  
     599A      2.703831   600A      2.710072   601A      2.715043  
     602A      2.721918   603A      2.732227   604A      2.741102  
     605A      2.746488   606A      2.751073   607A      2.757892  
     608A      2.764467   609A      2.770925   610A      2.793983  
     611A      2.798533   612A      2.803179   613A      2.805327  
     614A      2.819990   615A      2.827787   616A      2.837801  
     617A      2.845014   618A      2.848819   619A      2.853566  
     620A      2.880426   621A      2.889748   622A      2.893246  
     623A      2.899741   624A      2.910148   625A      2.915910  
     626A      2.923195   627A      2.936798   628A      2.944567  
     629A      2.971819   630A      2.975721   631A      2.979440  
     632A      2.988407   633A      3.001908   634A      3.012516  
     635A      3.021260   636A      3.046068   637A      3.061121  
     638A      3.065841   639A      3.077150   640A      3.090153  
     641A      3.098815   642A      3.105881   643A      3.120269  
     644A      3.139311   645A      3.140384   646A      3.157812  
     647A      3.175242   648A      3.205719   649A      3.217445  
     650A      3.245457   651A      3.262681   652A      3.270377  
     653A      3.279957   654A      3.293315   655A      3.306152  
     656A      3.315709   657A      3.330649   658A      3.338172  
     659A      3.361187   660A      3.369840   661A      3.385858  
     662A      3.398452   663A      3.410683   664A      3.419615  
     665A      3.433260   666A      3.446315   667A      3.463653  
     668A      3.471956   669A      3.475897   670A      3.494036  
     671A      3.496734   672A      3.505451   673A      3.525015  
     674A      3.547319   675A      3.548278   676A      3.555415  
     677A      3.568324   678A      3.572300   679A      3.579147  
     680A      3.594888   681A      3.612648   682A      3.623453  
     683A      3.630754   684A      3.636356   685A      3.642920  
     686A      3.651480   687A      3.657284   688A      3.678441  
     689A      3.681832   690A      3.697707   691A      3.705427  
     692A      3.713241   693A      3.726475   694A      3.729265  
     695A      3.742224   696A      3.747664   697A      3.758012  
     698A      3.764327   699A      3.770422   700A      3.777672  
     701A      3.791027   702A      3.793104   703A      3.807925  
     704A      3.818698   705A      3.832299   706A      3.838591  
     707A      3.841327   708A      3.849936   709A      3.852943  
     710A      3.864941   711A      3.870623   712A      3.874541  
     713A      3.881694   714A      3.889798   715A      3.892378  
     716A      3.901928   717A      3.911877   718A      3.924934  
     719A      3.926101   720A      3.933784   721A      3.947882  
     722A      3.952893   723A      3.962649   724A      3.970830  
     725A      3.974074   726A      3.989710   727A      4.003196  
     728A      4.005749   729A      4.009057   730A      4.023073  
     731A      4.025353   732A      4.031486   733A      4.040637  
     734A      4.054311   735A      4.058160   736A      4.069605  
     737A      4.078249   738A      4.090446   739A      4.100827  
     740A      4.103931   741A      4.120053   742A      4.121809  
     743A      4.131032   744A      4.135858   745A      4.142834  
     746A      4.160104   747A      4.162134   748A      4.169591  
     749A      4.177102   750A      4.185589   751A      4.193019  
     752A      4.204653   753A      4.214843   754A      4.225421  
     755A      4.230922   756A      4.241565   757A      4.251474  
     758A      4.254396   759A      4.263247   760A      4.267410  
     761A      4.276215   762A      4.276743   763A      4.292290  
     764A      4.294721   765A      4.306861   766A      4.310792  
     767A      4.318053   768A      4.333891   769A      4.338002  
     770A      4.348267   771A      4.350040   772A      4.363430  
     773A      4.376009   774A      4.378368   775A      4.386912  
     776A      4.394571   777A      4.397044   778A      4.401728  
     779A      4.417979   780A      4.426707   781A      4.432208  
     782A      4.435706   783A      4.440443   784A      4.457463  
     785A      4.465418   786A      4.471179   787A      4.476380  
     788A      4.485607   789A      4.493007   790A      4.500283  
     791A      4.511062   792A      4.518739   793A      4.527439  
     794A      4.538498   795A      4.548599   796A      4.555094  
     797A      4.576364   798A      4.581111   799A      4.586734  
     800A      4.591100   801A      4.610613   802A      4.619748  
     803A      4.635306   804A      4.646922   805A      4.654724  
     806A      4.670278   807A      4.675330   808A      4.688507  
     809A      4.697309   810A      4.706299   811A      4.717130  
     812A      4.721648   813A      4.725384   814A      4.734409  
     815A      4.739909   816A      4.753035   817A      4.757981  
     818A      4.771236   819A      4.782347   820A      4.806469  
     821A      4.813472   822A      4.818280   823A      4.827056  
     824A      4.842858   825A      4.844341   826A      4.849517  
     827A      4.873079   828A      4.880345   829A      4.900184  
     830A      4.913622   831A      4.920083   832A      4.924729  
     833A      4.931088   834A      4.947822   835A      4.957502  
     836A      4.961016   837A      4.985907   838A      4.987190  
     839A      5.013846   840A      5.021587   841A      5.032251  
     842A      5.040271   843A      5.045166   844A      5.054951  
     845A      5.065633   846A      5.073219   847A      5.092968  
     848A      5.103937   849A      5.110485   850A      5.124815  
     851A      5.136524   852A      5.145004   853A      5.161677  
     854A      5.170650   855A      5.183404   856A      5.191965  
     857A      5.198506   858A      5.219862   859A      5.228059  
     860A      5.240616   861A      5.247501   862A      5.271449  
     863A      5.273532   864A      5.293869   865A      5.308866  
     866A      5.315540   867A      5.323843   868A      5.340360  
     869A      5.353856   870A      5.361488   871A      5.379115  
     872A      5.392392   873A      5.398592   874A      5.405757  
     875A      5.415322   876A      5.424139   877A      5.436163  
     878A      5.452487   879A      5.472885   880A      5.482247  
     881A      5.488833   882A      5.498147   883A      5.506548  
     884A      5.536870   885A      5.541497   886A      5.545485  
     887A      5.557785   888A      5.563545   889A      5.576869  
     890A      5.591627   891A      5.594657   892A      5.611646  
     893A      5.629117   894A      5.640291   895A      5.648781  
     896A      5.657041   897A      5.676666   898A      5.688069  
     899A      5.695734   900A      5.706771   901A      5.722043  
     902A      5.729325   903A      5.739639   904A      5.743972  
     905A      5.747730   906A      5.761187   907A      5.777602  
     908A      5.794163   909A      5.806585   910A      5.813055  
     911A      5.819218   912A      5.822169   913A      5.836128  
     914A      5.839514   915A      5.850803   916A      5.860161  
     917A      5.873763   918A      5.903503   919A      5.911844  
     920A      5.928310   921A      5.944499   922A      5.947169  
     923A      5.960376   924A      5.967586   925A      5.977334  
     926A      5.994382   927A      6.002094   928A      6.015813  
     929A      6.029427   930A      6.041544   931A      6.047144  
     932A      6.052973   933A      6.067373   934A      6.087483  
     935A      6.116796   936A      6.123326   937A      6.146051  
     938A      6.158831   939A      6.176144   940A      6.184917  
     941A      6.204079   942A      6.210498   943A      6.222301  
     944A      6.232403   945A      6.259097   946A      6.267726  
     947A      6.280244   948A      6.295742   949A      6.309133  
     950A      6.324494   951A      6.333518   952A      6.395419  
     953A      6.432203   954A      6.503023   955A      6.509781  
     956A      6.536789   957A      6.560960   958A      6.570540  
     959A      6.588479   960A      6.633955   961A      6.656116  
     962A      6.659058   963A      6.666111   964A      6.714694  
     965A      6.732992   966A      6.744607   967A      6.750745  
     968A      6.780393   969A      6.811186   970A      6.817198  
     971A      6.825404   972A      6.837339   973A      6.842335  
     974A      6.865772   975A      6.881224   976A      6.891913  
     977A      6.910156   978A      6.916269   979A      6.923369  
     980A      6.981785   981A      7.003815   982A      7.022735  
     983A      7.041745   984A      7.057290   985A      7.075855  
     986A      7.101074   987A      7.109360   988A      7.123251  
     989A      7.162472   990A      7.232367   991A      7.233609  
     992A      7.242426   993A      7.309697   994A      7.317458  
     995A      7.387729   996A      7.391536   997A      7.411828  
     998A      7.455117   999A      7.466953  1000A      7.496837  
    1001A      7.514009  1002A      7.520958  1003A      7.549546  
    1004A      7.601810  1005A      7.657240  1006A      7.750664  
    1007A      7.816526  1008A      7.824558  1009A      7.859844  
    1010A      7.887546  1011A      7.894703  1012A      7.929846  
    1013A      7.985617  1014A      8.023045  1015A      8.029590  
    1016A      8.063291  1017A      8.127169  1018A     16.190214  
    1019A     16.276438  1020A     16.324052  1021A     16.424569  
    1022A     16.567763  1023A     16.834060  1024A     17.217675  
    1025A     18.007530  1026A     18.442008  1027A     18.481632  
    1028A     19.272897  1029A     19.596009  1030A     19.719770  
    1031A     20.010397  1032A     20.370410  1033A     20.528516  
    1034A     21.239921  1035A     21.587615  

    Final Occupation by Irrep:
              A 
    DOCC [    64 ]

  @DF-RHF Final Energy:  -877.29172898222976

   => Energetics <=

    Nuclear Repulsion Energy =           1389.7932319412011566
    One-Electron Energy =               -3958.9829869189270539
    Two-Electron Energy =                1691.8980259954960275
    Total Energy =                       -877.2917289822298699

Computation Completed


Properties will be evaluated at   0.000000,   0.000000,   0.000000 [a0]

Properties computed using the SCF density matrix

  Nuclear Dipole Moment: [e a0]
     X:     0.4147      Y:    -3.7468      Z:    -1.5712

  Electronic Dipole Moment: [e a0]
     X:    -0.8856      Y:     1.0310      Z:     1.6495

  Dipole Moment: [e a0]
     X:    -0.4709      Y:    -2.7158      Z:     0.0783     Total:     2.7574

  Dipole Moment: [D]
     X:    -1.1970      Y:    -6.9029      Z:     0.1990     Total:     7.0087


*** tstop() called on node151.bme.utexas.edu at Sun Jan 14 11:39:12 2024
Module time:
	user time   =     846.16 seconds =      14.10 minutes
	system time =       9.87 seconds =       0.16 minutes
	total time  =        127 seconds =       2.12 minutes
Total time:
	user time   =     846.16 seconds =      14.10 minutes
	system time =       9.87 seconds =       0.16 minutes
	total time  =        127 seconds =       2.12 minutes

*** tstart() called on node151.bme.utexas.edu
*** at Sun Jan 14 11:39:12 2024


  //>>>>>>>>>>>>>>>>>>>>>>>>>>>>>>>>>>>//
  //               DFMP2               //
  //<<<<<<<<<<<<<<<<<<<<<<<<<<<<<<<<<<<//

   => Loading Basis Set <=

    Name: (AUG-CC-PVTZ AUX)
    Role: RIFIT
    Keyword: DF_BASIS_MP2
    atoms 1, 4, 11, 14-15, 17, 24, 26-27 entry H          line    30 file /opt/anaconda/envs/psi4v1.5/share/psi4/basis/aug-cc-pvtz-ri.gbs 
    atoms 2, 5, 8-9, 12, 16, 20          entry N          line   206 file /opt/anaconda/envs/psi4v1.5/share/psi4/basis/aug-cc-pvtz-ri.gbs 
    atoms 3, 6-7, 10, 13, 18, 21, 23, 25 entry C          line   148 file /opt/anaconda/envs/psi4v1.5/share/psi4/basis/aug-cc-pvtz-ri.gbs 
    atoms 19, 22                         entry O          line   264 file /opt/anaconda/envs/psi4v1.5/share/psi4/basis/aug-cc-pvtz-ri.gbs 

	 --------------------------------------------------------
	                          DF-MP2                         
	      2nd-Order Density-Fitted Moller-Plesset Theory     
	              RMP2 Wavefunction,   8 Threads             
	                                                         
	        Rob Parrish, Justin Turney, Andy Simmonett,      
	           Ed Hohenstein, and C. David Sherrill          
	 --------------------------------------------------------

   => Auxiliary Basis Set <=

  Basis Set: (AUG-CC-PVTZ AUX)
    Blend: AUG-CC-PVTZ-RI
    Number of shells: 630
    Number of basis functions: 2322
    Number of Cartesian functions: 2943
    Spherical Harmonics?: true
    Max angular momentum: 4

	 --------------------------------------------------------
	                 NBF =  1035, NAUX =  2322
	 --------------------------------------------------------
	   CLASS    FOCC     OCC    AOCC    AVIR     VIR    FVIR
	   PAIRS      18      64      46     971     971       0
	 --------------------------------------------------------

	 Will save fitting metric to file 97.

	-----------------------------------------------------------
	 ==================> DF-MP2 Energies <==================== 
	-----------------------------------------------------------
	 Reference Energy          =    -877.2917289822297562 [Eh]
	 Singles Energy            =      -0.0000000000000000 [Eh]
	 Same-Spin Energy          =      -0.8847168761457325 [Eh]
	 Opposite-Spin Energy      =      -2.4525781740782460 [Eh]
	 Correlation Energy        =      -3.3372950502239784 [Eh]
	 Total Energy              =    -880.6290240324536853 [Eh]
	-----------------------------------------------------------
	 ================> DF-SCS-MP2 Energies <================== 
	-----------------------------------------------------------
	 SCS Same-Spin Scale       =       0.3333333333333333 [-]
	 SCS Opposite-Spin Scale   =       1.2000000000000000 [-]
	 SCS Same-Spin Energy      =      -0.2949056253819108 [Eh]
	 SCS Opposite-Spin Energy  =      -2.9430938088938952 [Eh]
	 SCS Correlation Energy    =      -3.2379994342758058 [Eh]
	 SCS Total Energy          =    -880.5297284165055771 [Eh]
	-----------------------------------------------------------


*** tstop() called on node151.bme.utexas.edu at Sun Jan 14 11:39:51 2024
Module time:
	user time   =     240.03 seconds =       4.00 minutes
	system time =       4.31 seconds =       0.07 minutes
	total time  =         39 seconds =       0.65 minutes
Total time:
	user time   =    1086.19 seconds =      18.10 minutes
	system time =      14.18 seconds =       0.24 minutes
	total time  =        166 seconds =       2.77 minutes

  //>>>>>>>>>>>>>>>>>>>>>>>>>>>>>>>>>>>//
  //            Monomer A HF           //
  //<<<<<<<<<<<<<<<<<<<<<<<<<<<<<<<<<<<//


*** tstart() called on node151.bme.utexas.edu
*** at Sun Jan 14 11:39:51 2024

   => Loading Basis Set <=

    Name: AUG-CC-PVTZ
    Role: ORBITAL
    Keyword: BASIS
    atoms 1, 4, 11, 14-15, 17, 24, 26-27 entry H          line    40 file /opt/anaconda/envs/psi4v1.5/share/psi4/basis/aug-cc-pvtz.gbs 
    atoms 2, 5, 8-9, 12, 16, 20          entry N          line   285 file /opt/anaconda/envs/psi4v1.5/share/psi4/basis/aug-cc-pvtz.gbs 
    atoms 3, 6-7, 10, 13, 18, 21, 23, 25 entry C          line   239 file /opt/anaconda/envs/psi4v1.5/share/psi4/basis/aug-cc-pvtz.gbs 
    atoms 19, 22                         entry O          line   331 file /opt/anaconda/envs/psi4v1.5/share/psi4/basis/aug-cc-pvtz.gbs 


         ---------------------------------------------------------
                                   SCF
               by Justin Turney, Rob Parrish, Andy Simmonett
                          and Daniel G. A. Smith
                              RHF Reference
                        8 Threads,  76293 MiB Core
         ---------------------------------------------------------

  ==> Geometry <==

    Molecular point group: c1
    Full point group: C1

    Geometry (in Angstrom), charge = 0, multiplicity = 1:

       Center              X                  Y                   Z               Mass       
    ------------   -----------------  -----------------  -----------------  -----------------
         H            0.735873763562    -2.752629158110     1.782574600937     1.007825032230
         N            1.072243763562    -2.069209158110     1.114264600937    14.003074004430
         C            1.831923763562    -2.299919158110    -0.005395399063    12.000000000000
         H            2.100613763562    -3.302859158110    -0.314545399063     1.007825032230
         N            2.189913763562    -1.193549158110    -0.641465399063    14.003074004430
         C            1.634073763562    -0.190079158110     0.128584600937    12.000000000000
         C            1.641733763562     1.213540841890     0.000634600937    12.000000000000
         N            2.336053763562     1.846030841890    -0.989905399063    14.003074004430
         N            0.995013763562     1.947830841890     0.921724600937    14.003074004430
         C            0.358793763562     1.309300841890     1.930404600937    12.000000000000
         H           -0.157986236438     1.953760841890     2.637564600937     1.007825032230
         N            0.267593763562    -0.007619158110     2.162534600937    14.003074004430
         C            0.927823763562    -0.702929158110     1.223234600937    12.000000000000
         H            2.046003763562     2.807080841890    -1.137135399063     1.007825032230
         H            2.425993763562     1.308680841890    -1.846305399063     1.007825032230
      Gh(N)          -2.381586236438    -0.988569158110     0.230364600937    14.003074004430
      Gh(H)          -2.919386236438    -1.429069158110     0.967404600937     1.007825032230
      Gh(C)          -2.302576236438     0.396540841890     0.318954600937    12.000000000000
      Gh(O)          -2.868206236438     1.047350841890     1.186194600937    15.994914619570
      Gh(N)          -1.531446236438     0.946100841890    -0.692785399063    14.003074004430
      Gh(C)          -0.823586236438     0.291590841890    -1.712665399063    12.000000000000
      Gh(O)          -0.151226236438     0.935640841890    -2.518165399063    15.994914619570
      Gh(C)          -0.982326236438    -1.153809158110    -1.692775399063    12.000000000000
      Gh(H)          -0.474446236438    -1.737949158110    -2.448505399063     1.007825032230
      Gh(C)          -1.740286236438    -1.732299158110    -0.732005399063    12.000000000000
      Gh(H)          -1.892916236438    -2.805499158110    -0.671005399063     1.007825032230
      Gh(H)          -1.396796236438     1.953090841890    -0.632655399063     1.007825032230

  Running in c1 symmetry.

  Rotational constants: A =      0.01963  B =      0.01542  C =      0.01485 [cm^-1]
  Rotational constants: A =    588.45748  B =    462.21827  C =    445.18665 [MHz]
  Nuclear repulsion =  501.509282475141219

  Charge       = 0
  Multiplicity = 1
  Electrons    = 70
  Nalpha       = 35
  Nbeta        = 35

  ==> Algorithm <==

  SCF Algorithm Type is DF.
  DIIS enabled.
  MOM disabled.
  Fractional occupation disabled.
  Guess Type is SAD.
  Energy threshold   = 1.00e-08
  Density threshold  = 1.00e-08
  Integral threshold = 1.00e-12

  ==> Primary Basis <==

  Basis Set: AUG-CC-PVTZ
    Blend: AUG-CC-PVTZ
    Number of shells: 333
    Number of basis functions: 1035
    Number of Cartesian functions: 1215
    Spherical Harmonics?: true
    Max angular momentum: 3

   => Loading Basis Set <=

    Name: (AUG-CC-PVTZ AUX)
    Role: JKFIT
    Keyword: DF_BASIS_SCF
    atoms 1, 4, 11, 14-15, 17, 24, 26-27 entry H          line    70 file /opt/anaconda/envs/psi4v1.5/share/psi4/basis/aug-cc-pvtz-jkfit.gbs 
    atoms 2, 5, 8-9, 12, 16, 20          entry N          line   224 file /opt/anaconda/envs/psi4v1.5/share/psi4/basis/aug-cc-pvtz-jkfit.gbs 
    atoms 3, 6-7, 10, 13, 18, 21, 23, 25 entry C          line   162 file /opt/anaconda/envs/psi4v1.5/share/psi4/basis/aug-cc-pvtz-jkfit.gbs 
    atoms 19, 22                         entry O          line   286 file /opt/anaconda/envs/psi4v1.5/share/psi4/basis/aug-cc-pvtz-jkfit.gbs 

  ==> Integral Setup <==

  ==> DiskDFJK: Density-Fitted J/K Matrices <==

    J tasked:                  Yes
    K tasked:                  Yes
    wK tasked:                  No
    OpenMP threads:              8
    Integrals threads:           8
    Memory [MiB]:            57220
    Algorithm:                Core
    Integral Cache:           LOAD
    Schwarz Cutoff:          1E-12
    Fitting Condition:       1E-10

   => Auxiliary Basis Set <=

  Basis Set: (AUG-CC-PVTZ AUX)
    Blend: AUG-CC-PVTZ-JKFIT
    Number of shells: 666
    Number of basis functions: 2286
    Number of Cartesian functions: 2853
    Spherical Harmonics?: true
    Max angular momentum: 4

  Minimum eigenvalue in the overlap matrix is 7.4313740243E-07.
  Reciprocal condition number of the overlap matrix is 3.1137794558E-08.
    Using symmetric orthogonalization.

  ==> Pre-Iterations <==

  SCF Guess: Superposition of Atomic Densities via on-the-fly atomic UHF (no occupation information).

   -------------------------
    Irrep   Nso     Nmo    
   -------------------------
     A       1035    1035 
   -------------------------
    Total    1035    1035
   -------------------------

  ==> Iterations <==

                           Total Energy        Delta E     RMS |[F,P]|

   @DF-RHF iter SAD:  -464.44778120031719   -4.64448e+02   0.00000e+00 
   @DF-RHF iter   1:  -464.44269913985801    5.08206e-03   6.45729e-04 DIIS
   @DF-RHF iter   2:  -464.63272970322407   -1.90031e-01   3.19874e-04 DIIS
   @DF-RHF iter   3:  -464.67672033521296   -4.39906e-02   7.35391e-05 DIIS
   @DF-RHF iter   4:  -464.68009439734061   -3.37406e-03   3.46518e-05 DIIS
   @DF-RHF iter   5:  -464.68076998801286   -6.75591e-04   6.97445e-06 DIIS
   @DF-RHF iter   6:  -464.68082718900195   -5.72010e-05   3.25970e-06 DIIS
   @DF-RHF iter   7:  -464.68084114849660   -1.39595e-05   1.28792e-06 DIIS
   @DF-RHF iter   8:  -464.68084399417438   -2.84568e-06   4.78916e-07 DIIS
   @DF-RHF iter   9:  -464.68084442623575   -4.32061e-07   2.54955e-07 DIIS
   @DF-RHF iter  10:  -464.68084453980725   -1.13572e-07   9.50929e-08 DIIS
   @DF-RHF iter  11:  -464.68084456426925   -2.44620e-08   4.05843e-08 DIIS
   @DF-RHF iter  12:  -464.68084456809368   -3.82443e-09   1.63629e-08 DIIS
   @DF-RHF iter  13:  -464.68084456867984   -5.86169e-10   5.87791e-09 DIIS
  Energy and wave function converged.


  ==> Post-Iterations <==

    Orbital Energies [Eh]
    ---------------------

    Doubly Occupied:                                                      

       1A    -15.636434     2A    -15.584287     3A    -15.573007  
       4A    -15.564173     5A    -15.555922     6A    -11.338105  
       7A    -11.329239     8A    -11.321260     9A    -11.314913  
      10A    -11.256526    11A     -1.368400    12A     -1.298859  
      13A     -1.246979    14A     -1.187587    15A     -1.153007  
      16A     -1.034047    17A     -0.894625    18A     -0.877434  
      19A     -0.847875    20A     -0.775304    21A     -0.733482  
      22A     -0.696433    23A     -0.672896    24A     -0.641557  
      25A     -0.630441    26A     -0.609813    27A     -0.592499  
      28A     -0.557579    29A     -0.500356    30A     -0.499186  
      31A     -0.454629    32A     -0.429777    33A     -0.412393  
      34A     -0.376466    35A     -0.313092  

    Virtual:                                                              

      36A      0.017680    37A      0.026948    38A      0.031557  
      39A      0.034674    40A      0.043303    41A      0.047774  
      42A      0.048483    43A      0.051470    44A      0.065602  
      45A      0.067695    46A      0.075324    47A      0.078702  
      48A      0.081123    49A      0.085437    50A      0.088812  
      51A      0.090378    52A      0.095382    53A      0.097800  
      54A      0.104355    55A      0.107560    56A      0.111876  
      57A      0.115397    58A      0.117923    59A      0.118920  
      60A      0.122262    61A      0.123813    62A      0.128086  
      63A      0.130019    64A      0.133895    65A      0.135913  
      66A      0.138160    67A      0.138353    68A      0.142067  
      69A      0.142738    70A      0.153456    71A      0.155790  
      72A      0.164893    73A      0.167800    74A      0.170156  
      75A      0.175101    76A      0.179312    77A      0.183282  
      78A      0.186173    79A      0.188153    80A      0.193762  
      81A      0.194098    82A      0.198583    83A      0.206674  
      84A      0.208663    85A      0.209697    86A      0.212218  
      87A      0.216173    88A      0.221410    89A      0.222331  
      90A      0.229710    91A      0.234110    92A      0.235910  
      93A      0.239028    94A      0.243412    95A      0.248010  
      96A      0.250400    97A      0.253111    98A      0.255740  
      99A      0.260677   100A      0.266281   101A      0.267342  
     102A      0.270926   103A      0.274040   104A      0.274947  
     105A      0.277778   106A      0.282115   107A      0.286413  
     108A      0.287760   109A      0.292893   110A      0.295609  
     111A      0.300393   112A      0.303842   113A      0.307619  
     114A      0.312360   115A      0.317000   116A      0.318822  
     117A      0.324849   118A      0.331972   119A      0.335084  
     120A      0.339997   121A      0.341522   122A      0.345590  
     123A      0.349326   124A      0.352619   125A      0.359950  
     126A      0.363928   127A      0.364782   128A      0.370295  
     129A      0.375369   130A      0.378335   131A      0.385548  
     132A      0.390602   133A      0.392839   134A      0.396479  
     135A      0.398194   136A      0.405512   137A      0.407760  
     138A      0.411774   139A      0.417316   140A      0.418521  
     141A      0.419982   142A      0.425762   143A      0.430541  
     144A      0.432701   145A      0.436809   146A      0.442435  
     147A      0.445908   148A      0.448436   149A      0.450286  
     150A      0.451466   151A      0.459531   152A      0.463049  
     153A      0.466811   154A      0.470023   155A      0.471519  
     156A      0.477134   157A      0.483634   158A      0.485702  
     159A      0.488863   160A      0.489824   161A      0.492500  
     162A      0.493814   163A      0.505350   164A      0.507048  
     165A      0.509650   166A      0.512060   167A      0.515057  
     168A      0.518930   169A      0.522857   170A      0.525500  
     171A      0.527899   172A      0.535295   173A      0.537280  
     174A      0.539410   175A      0.542463   176A      0.551235  
     177A      0.552818   178A      0.557438   179A      0.560342  
     180A      0.564998   181A      0.568859   182A      0.571918  
     183A      0.577045   184A      0.580505   185A      0.584711  
     186A      0.591312   187A      0.592672   188A      0.597320  
     189A      0.602892   190A      0.605612   191A      0.612647  
     192A      0.617560   193A      0.619066   194A      0.620655  
     195A      0.625665   196A      0.629312   197A      0.636367  
     198A      0.636682   199A      0.643555   200A      0.647490  
     201A      0.652359   202A      0.655980   203A      0.660259  
     204A      0.663003   205A      0.668902   206A      0.669535  
     207A      0.674593   208A      0.681578   209A      0.686076  
     210A      0.691240   211A      0.694297   212A      0.705142  
     213A      0.709444   214A      0.715020   215A      0.722048  
     216A      0.726562   217A      0.728531   218A      0.734816  
     219A      0.738799   220A      0.745242   221A      0.749213  
     222A      0.757300   223A      0.760631   224A      0.766319  
     225A      0.772436   226A      0.773750   227A      0.775048  
     228A      0.779526   229A      0.785147   230A      0.790889  
     231A      0.793811   232A      0.797382   233A      0.802692  
     234A      0.809102   235A      0.817416   236A      0.818730  
     237A      0.827838   238A      0.829686   239A      0.832523  
     240A      0.835769   241A      0.841518   242A      0.845678  
     243A      0.853503   244A      0.855268   245A      0.859329  
     246A      0.862170   247A      0.868428   248A      0.877016  
     249A      0.881965   250A      0.892865   251A      0.894925  
     252A      0.901431   253A      0.904840   254A      0.909808  
     255A      0.913486   256A      0.919921   257A      0.925071  
     258A      0.926192   259A      0.929056   260A      0.932855  
     261A      0.942253   262A      0.944301   263A      0.953831  
     264A      0.956310   265A      0.964032   266A      0.966897  
     267A      0.968547   268A      0.973207   269A      0.977950  
     270A      0.983808   271A      0.987805   272A      0.992249  
     273A      0.997162   274A      1.000185   275A      1.006916  
     276A      1.008480   277A      1.016158   278A      1.020421  
     279A      1.025549   280A      1.027132   281A      1.032212  
     282A      1.035987   283A      1.039936   284A      1.047786  
     285A      1.049820   286A      1.054226   287A      1.057753  
     288A      1.066855   289A      1.069047   290A      1.071911  
     291A      1.078082   292A      1.081005   293A      1.086896  
     294A      1.090500   295A      1.095193   296A      1.095725  
     297A      1.099015   298A      1.103405   299A      1.107413  
     300A      1.111115   301A      1.115921   302A      1.126366  
     303A      1.128185   304A      1.132898   305A      1.137090  
     306A      1.147793   307A      1.150112   308A      1.154285  
     309A      1.158568   310A      1.162215   311A      1.167856  
     312A      1.171353   313A      1.180293   314A      1.182802  
     315A      1.186731   316A      1.191440   317A      1.196629  
     318A      1.201273   319A      1.204061   320A      1.209160  
     321A      1.211433   322A      1.216935   323A      1.218116  
     324A      1.222476   325A      1.226420   326A      1.236149  
     327A      1.239372   328A      1.242718   329A      1.247657  
     330A      1.251212   331A      1.255884   332A      1.263262  
     333A      1.266750   334A      1.271581   335A      1.276841  
     336A      1.279858   337A      1.289485   338A      1.292497  
     339A      1.299298   340A      1.302058   341A      1.311070  
     342A      1.312597   343A      1.318181   344A      1.321042  
     345A      1.327502   346A      1.330835   347A      1.333017  
     348A      1.338658   349A      1.345615   350A      1.349732  
     351A      1.354075   352A      1.363727   353A      1.371488  
     354A      1.372821   355A      1.380405   356A      1.386400  
     357A      1.390368   358A      1.398630   359A      1.402735  
     360A      1.404734   361A      1.414342   362A      1.415994  
     363A      1.419257   364A      1.423823   365A      1.430067  
     366A      1.440747   367A      1.443136   368A      1.445970  
     369A      1.452547   370A      1.454679   371A      1.463787  
     372A      1.468171   373A      1.470650   374A      1.482072  
     375A      1.484608   376A      1.488923   377A      1.493924  
     378A      1.498000   379A      1.504431   380A      1.509329  
     381A      1.514423   382A      1.519404   383A      1.523326  
     384A      1.534075   385A      1.540743   386A      1.545245  
     387A      1.556332   388A      1.564703   389A      1.565331  
     390A      1.570703   391A      1.573133   392A      1.578491  
     393A      1.582233   394A      1.595546   395A      1.598685  
     396A      1.606811   397A      1.609999   398A      1.616504  
     399A      1.628277   400A      1.629255   401A      1.633769  
     402A      1.646625   403A      1.652328   404A      1.657583  
     405A      1.660432   406A      1.669705   407A      1.672968  
     408A      1.681012   409A      1.686076   410A      1.692585  
     411A      1.698358   412A      1.704271   413A      1.709269  
     414A      1.714100   415A      1.717379   416A      1.725579  
     417A      1.734518   418A      1.738214   419A      1.745738  
     420A      1.747962   421A      1.751756   422A      1.757021  
     423A      1.763484   424A      1.770123   425A      1.777409  
     426A      1.780535   427A      1.788723   428A      1.793417  
     429A      1.795332   430A      1.806301   431A      1.817892  
     432A      1.820112   433A      1.823194   434A      1.825778  
     435A      1.834666   436A      1.842131   437A      1.850482  
     438A      1.858961   439A      1.865665   440A      1.871836  
     441A      1.878138   442A      1.884365   443A      1.887194  
     444A      1.893521   445A      1.898795   446A      1.904979  
     447A      1.919145   448A      1.923604   449A      1.935061  
     450A      1.936168   451A      1.939110   452A      1.953078  
     453A      1.959825   454A      1.964155   455A      1.968978  
     456A      1.972147   457A      1.983680   458A      1.988236  
     459A      1.991185   460A      2.003980   461A      2.014207  
     462A      2.020315   463A      2.024493   464A      2.035516  
     465A      2.040155   466A      2.043304   467A      2.050049  
     468A      2.058148   469A      2.061681   470A      2.068913  
     471A      2.078015   472A      2.089849   473A      2.099401  
     474A      2.107427   475A      2.112143   476A      2.112570  
     477A      2.119782   478A      2.125971   479A      2.128571  
     480A      2.130667   481A      2.137713   482A      2.145888  
     483A      2.157280   484A      2.160732   485A      2.166696  
     486A      2.179639   487A      2.180447   488A      2.188018  
     489A      2.193551   490A      2.198039   491A      2.209958  
     492A      2.213823   493A      2.218495   494A      2.221407  
     495A      2.235810   496A      2.238972   497A      2.248895  
     498A      2.253087   499A      2.258081   500A      2.269229  
     501A      2.278546   502A      2.285731   503A      2.292544  
     504A      2.293913   505A      2.304237   506A      2.307502  
     507A      2.309355   508A      2.323362   509A      2.326520  
     510A      2.328498   511A      2.337442   512A      2.352884  
     513A      2.357048   514A      2.365511   515A      2.371717  
     516A      2.378782   517A      2.381425   518A      2.388211  
     519A      2.401166   520A      2.404832   521A      2.415782  
     522A      2.422696   523A      2.423788   524A      2.428670  
     525A      2.434737   526A      2.444541   527A      2.449660  
     528A      2.453447   529A      2.462580   530A      2.464252  
     531A      2.482422   532A      2.485405   533A      2.495987  
     534A      2.501357   535A      2.502041   536A      2.511661  
     537A      2.523875   538A      2.528681   539A      2.531767  
     540A      2.550114   541A      2.556929   542A      2.563087  
     543A      2.574339   544A      2.578709   545A      2.585259  
     546A      2.594757   547A      2.598890   548A      2.604476  
     549A      2.616047   550A      2.623084   551A      2.630443  
     552A      2.644136   553A      2.648463   554A      2.652036  
     555A      2.659768   556A      2.672385   557A      2.675220  
     558A      2.680234   559A      2.691597   560A      2.700920  
     561A      2.709646   562A      2.712258   563A      2.716530  
     564A      2.723168   565A      2.728794   566A      2.738553  
     567A      2.741726   568A      2.753849   569A      2.764578  
     570A      2.776197   571A      2.785612   572A      2.793549  
     573A      2.805507   574A      2.809331   575A      2.815711  
     576A      2.828697   577A      2.842736   578A      2.846978  
     579A      2.853433   580A      2.859632   581A      2.859961  
     582A      2.864324   583A      2.876694   584A      2.889813  
     585A      2.896194   586A      2.906306   587A      2.910641  
     588A      2.916626   589A      2.929173   590A      2.933731  
     591A      2.938047   592A      2.951054   593A      2.957145  
     594A      2.963155   595A      2.971117   596A      2.976675  
     597A      3.001731   598A      3.005133   599A      3.011286  
     600A      3.021218   601A      3.024481   602A      3.030599  
     603A      3.042556   604A      3.046381   605A      3.057521  
     606A      3.085700   607A      3.095165   608A      3.101250  
     609A      3.122416   610A      3.132844   611A      3.134573  
     612A      3.151674   613A      3.175554   614A      3.183345  
     615A      3.193704   616A      3.209214   617A      3.223599  
     618A      3.232394   619A      3.253147   620A      3.259203  
     621A      3.269692   622A      3.271469   623A      3.303573  
     624A      3.311917   625A      3.320852   626A      3.326429  
     627A      3.345110   628A      3.355218   629A      3.379545  
     630A      3.379909   631A      3.412999   632A      3.420284  
     633A      3.440663   634A      3.460499   635A      3.471631  
     636A      3.481343   637A      3.489743   638A      3.501123  
     639A      3.509841   640A      3.517749   641A      3.543500  
     642A      3.560147   643A      3.566287   644A      3.583455  
     645A      3.591449   646A      3.609792   647A      3.615740  
     648A      3.622235   649A      3.633599   650A      3.651898  
     651A      3.663111   652A      3.668618   653A      3.686505  
     654A      3.692602   655A      3.699220   656A      3.708958  
     657A      3.714568   658A      3.727889   659A      3.736506  
     660A      3.741907   661A      3.747383   662A      3.768358  
     663A      3.784907   664A      3.794599   665A      3.796028  
     666A      3.804231   667A      3.811185   668A      3.830463  
     669A      3.836024   670A      3.851975   671A      3.861221  
     672A      3.872959   673A      3.874560   674A      3.882119  
     675A      3.893465   676A      3.906279   677A      3.916039  
     678A      3.930480   679A      3.940348   680A      3.959388  
     681A      3.961400   682A      3.969014   683A      3.987154  
     684A      3.995737   685A      4.001700   686A      4.006180  
     687A      4.009856   688A      4.028325   689A      4.039812  
     690A      4.052476   691A      4.059814   692A      4.065617  
     693A      4.075752   694A      4.088159   695A      4.095708  
     696A      4.112058   697A      4.112491   698A      4.134570  
     699A      4.143165   700A      4.155629   701A      4.158272  
     702A      4.162877   703A      4.175679   704A      4.180317  
     705A      4.196257   706A      4.207435   707A      4.216854  
     708A      4.225783   709A      4.228405   710A      4.235458  
     711A      4.255477   712A      4.257595   713A      4.266938  
     714A      4.274392   715A      4.278801   716A      4.291248  
     717A      4.308059   718A      4.316301   719A      4.322581  
     720A      4.337992   721A      4.347929   722A      4.359267  
     723A      4.373271   724A      4.378765   725A      4.381935  
     726A      4.391195   727A      4.396664   728A      4.399060  
     729A      4.415811   730A      4.423186   731A      4.426380  
     732A      4.435597   733A      4.442559   734A      4.446509  
     735A      4.458260   736A      4.470769   737A      4.472530  
     738A      4.493223   739A      4.497396   740A      4.512972  
     741A      4.520769   742A      4.533432   743A      4.550126  
     744A      4.560126   745A      4.566065   746A      4.585250  
     747A      4.591570   748A      4.606731   749A      4.613828  
     750A      4.621192   751A      4.634493   752A      4.647611  
     753A      4.654477   754A      4.657062   755A      4.670912  
     756A      4.680680   757A      4.689462   758A      4.712884  
     759A      4.720879   760A      4.732039   761A      4.738046  
     762A      4.745274   763A      4.761774   764A      4.771580  
     765A      4.775473   766A      4.797436   767A      4.803381  
     768A      4.807856   769A      4.818228   770A      4.828588  
     771A      4.834107   772A      4.844784   773A      4.850631  
     774A      4.864996   775A      4.867967   776A      4.889074  
     777A      4.903845   778A      4.914410   779A      4.924516  
     780A      4.939484   781A      4.941679   782A      4.954260  
     783A      4.964489   784A      4.977942   785A      4.997242  
     786A      5.015456   787A      5.017817   788A      5.031196  
     789A      5.034142   790A      5.045262   791A      5.052480  
     792A      5.061329   793A      5.075805   794A      5.078866  
     795A      5.094200   796A      5.104415   797A      5.125367  
     798A      5.129360   799A      5.147829   800A      5.159355  
     801A      5.171412   802A      5.173573   803A      5.185568  
     804A      5.190828   805A      5.206399   806A      5.209955  
     807A      5.221085   808A      5.231435   809A      5.249809  
     810A      5.261485   811A      5.283454   812A      5.288581  
     813A      5.294372   814A      5.303815   815A      5.313275  
     816A      5.328521   817A      5.337490   818A      5.349293  
     819A      5.355569   820A      5.369756   821A      5.373963  
     822A      5.386808   823A      5.390828   824A      5.406111  
     825A      5.412425   826A      5.423457   827A      5.436337  
     828A      5.446705   829A      5.451687   830A      5.455117  
     831A      5.467891   832A      5.484534   833A      5.496987  
     834A      5.505127   835A      5.517971   836A      5.539680  
     837A      5.557887   838A      5.563830   839A      5.568127  
     840A      5.581525   841A      5.584478   842A      5.587886  
     843A      5.626003   844A      5.630686   845A      5.643601  
     846A      5.649352   847A      5.656088   848A      5.660378  
     849A      5.672477   850A      5.696269   851A      5.702538  
     852A      5.720738   853A      5.738266   854A      5.740699  
     855A      5.756260   856A      5.758222   857A      5.768333  
     858A      5.784948   859A      5.802086   860A      5.807250  
     861A      5.813287   862A      5.823811   863A      5.847171  
     864A      5.853153   865A      5.855566   866A      5.870632  
     867A      5.889011   868A      5.894540   869A      5.913112  
     870A      5.930830   871A      5.949835   872A      5.955671  
     873A      5.962632   874A      5.976817   875A      5.981151  
     876A      5.987125   877A      5.990162   878A      6.014545  
     879A      6.024303   880A      6.027846   881A      6.046180  
     882A      6.050351   883A      6.069464   884A      6.116734  
     885A      6.129749   886A      6.145117   887A      6.164969  
     888A      6.184881   889A      6.197756   890A      6.213239  
     891A      6.218249   892A      6.222808   893A      6.234795  
     894A      6.249301   895A      6.263862   896A      6.272020  
     897A      6.292329   898A      6.305722   899A      6.322754  
     900A      6.350462   901A      6.410061   902A      6.424958  
     903A      6.476047   904A      6.484200   905A      6.499165  
     906A      6.505140   907A      6.518920   908A      6.540391  
     909A      6.561916   910A      6.589751   911A      6.630973  
     912A      6.640972   913A      6.657562   914A      6.664021  
     915A      6.681918   916A      6.686826   917A      6.727238  
     918A      6.730112   919A      6.746512   920A      6.757735  
     921A      6.783682   922A      6.811853   923A      6.832447  
     924A      6.871361   925A      6.882996   926A      6.895264  
     927A      6.912784   928A      6.941860   929A      6.954728  
     930A      6.993570   931A      7.002707   932A      7.033634  
     933A      7.043960   934A      7.076711   935A      7.103738  
     936A      7.155300   937A      7.196492   938A      7.219804  
     939A      7.237840   940A      7.295438   941A      7.304231  
     942A      7.343519   943A      7.387206   944A      7.391740  
     945A      7.407447   946A      7.464642   947A      7.497288  
     948A      7.553028   949A      7.598732   950A      7.608038  
     951A      7.624156   952A      7.652886   953A      7.681897  
     954A      7.694937   955A      7.711538   956A      7.731547  
     957A      7.757091   958A      7.777604   959A      7.811161  
     960A      7.846335   961A      7.848467   962A      7.867312  
     963A      7.888924   964A      7.903516   965A      7.926590  
     966A      7.952926   967A      7.985521   968A      8.018229  
     969A      8.063840   970A      8.083092   971A      8.112138  
     972A      8.244127   973A      8.272172   974A      8.307119  
     975A      8.351912   976A      8.356460   977A      8.432355  
     978A      8.582732   979A      8.712283   980A      8.740288  
     981A      8.764833   982A      8.913797   983A      9.046324  
     984A      9.128590   985A      9.217515   986A      9.325407  
     987A      9.610639   988A      9.627009   989A      9.691758  
     990A      9.929070   991A     10.022654   992A     10.049970  
     993A     10.081326   994A     10.100582   995A     10.325177  
     996A     10.335985   997A     10.422559   998A     10.443850  
     999A     10.487393  1000A     10.569092  1001A     10.594285  
    1002A     11.022080  1003A     11.263825  1004A     11.388266  
    1005A     11.539878  1006A     12.066356  1007A     12.109641  
    1008A     12.142251  1009A     12.172004  1010A     12.398054  
    1011A     12.498847  1012A     12.712854  1013A     12.898666  
    1014A     13.468384  1015A     13.672037  1016A     14.220629  
    1017A     14.254141  1018A     16.259418  1019A     16.433894  
    1020A     16.581548  1021A     18.006410  1022A     18.485358  
    1023A     19.282962  1024A     19.611298  1025A     19.734468  
    1026A     20.273461  1027A     21.565409  1028A     52.480171  
    1029A     52.623151  1030A     55.170845  1031A     56.812310  
    1032A     61.256433  1033A     61.329242  1034A     69.787966  
    1035A     70.594419  

    Final Occupation by Irrep:
              A 
    DOCC [    35 ]

  @DF-RHF Final Energy:  -464.68084456867984

   => Energetics <=

    Nuclear Repulsion Energy =            501.5092824751412195
    One-Electron Energy =               -1625.8230823196029178
    Two-Electron Energy =                 659.6329552757819101
    Total Energy =                       -464.6808445686798450

Computation Completed


Properties will be evaluated at   0.000000,   0.000000,   0.000000 [a0]

Properties computed using the SCF density matrix

  Nuclear Dipole Moment: [e a0]
     X:   176.7694      Y:    -0.6465      Z:    73.2401

  Electronic Dipole Moment: [e a0]
     X:  -176.9273      Y:    -0.3679      Z:   -73.5654

  Dipole Moment: [e a0]
     X:    -0.1580      Y:    -1.0144      Z:    -0.3253     Total:     1.0769

  Dipole Moment: [D]
     X:    -0.4015      Y:    -2.5783      Z:    -0.8267     Total:     2.7372


*** tstop() called on node151.bme.utexas.edu at Sun Jan 14 11:41:29 2024
Module time:
	user time   =     662.05 seconds =      11.03 minutes
	system time =       4.78 seconds =       0.08 minutes
	total time  =         98 seconds =       1.63 minutes
Total time:
	user time   =    1748.24 seconds =      29.14 minutes
	system time =      18.96 seconds =       0.32 minutes
	total time  =        264 seconds =       4.40 minutes

*** tstart() called on node151.bme.utexas.edu
*** at Sun Jan 14 11:41:29 2024


  //>>>>>>>>>>>>>>>>>>>>>>>>>>>>>>>>>>>//
  //               DFMP2               //
  //<<<<<<<<<<<<<<<<<<<<<<<<<<<<<<<<<<<//

   => Loading Basis Set <=

    Name: (AUG-CC-PVTZ AUX)
    Role: RIFIT
    Keyword: DF_BASIS_MP2
    atoms 1, 4, 11, 14-15, 17, 24, 26-27 entry H          line    30 file /opt/anaconda/envs/psi4v1.5/share/psi4/basis/aug-cc-pvtz-ri.gbs 
    atoms 2, 5, 8-9, 12, 16, 20          entry N          line   206 file /opt/anaconda/envs/psi4v1.5/share/psi4/basis/aug-cc-pvtz-ri.gbs 
    atoms 3, 6-7, 10, 13, 18, 21, 23, 25 entry C          line   148 file /opt/anaconda/envs/psi4v1.5/share/psi4/basis/aug-cc-pvtz-ri.gbs 
    atoms 19, 22                         entry O          line   264 file /opt/anaconda/envs/psi4v1.5/share/psi4/basis/aug-cc-pvtz-ri.gbs 

	 --------------------------------------------------------
	                          DF-MP2                         
	      2nd-Order Density-Fitted Moller-Plesset Theory     
	              RMP2 Wavefunction,   8 Threads             
	                                                         
	        Rob Parrish, Justin Turney, Andy Simmonett,      
	           Ed Hohenstein, and C. David Sherrill          
	 --------------------------------------------------------

   => Auxiliary Basis Set <=

  Basis Set: (AUG-CC-PVTZ AUX)
    Blend: AUG-CC-PVTZ-RI
    Number of shells: 630
    Number of basis functions: 2322
    Number of Cartesian functions: 2943
    Spherical Harmonics?: true
    Max angular momentum: 4

	 --------------------------------------------------------
	                 NBF =  1035, NAUX =  2322
	 --------------------------------------------------------
	   CLASS    FOCC     OCC    AOCC    AVIR     VIR    FVIR
	   PAIRS      10      35      25    1000    1000       0
	 --------------------------------------------------------

	 Will attempt to load fitting metric from file 97.

	-----------------------------------------------------------
	 ==================> DF-MP2 Energies <==================== 
	-----------------------------------------------------------
	 Reference Energy          =    -464.6808445686798450 [Eh]
	 Singles Energy            =      -0.0000000000000000 [Eh]
	 Same-Spin Energy          =      -0.4790380786871371 [Eh]
	 Opposite-Spin Energy      =      -1.3261447789056608 [Eh]
	 Correlation Energy        =      -1.8051828575927980 [Eh]
	 Total Energy              =    -466.4860274262726421 [Eh]
	-----------------------------------------------------------
	 ================> DF-SCS-MP2 Energies <================== 
	-----------------------------------------------------------
	 SCS Same-Spin Scale       =       0.3333333333333333 [-]
	 SCS Opposite-Spin Scale   =       1.2000000000000000 [-]
	 SCS Same-Spin Energy      =      -0.1596793595623790 [Eh]
	 SCS Opposite-Spin Energy  =      -1.5913737346867929 [Eh]
	 SCS Correlation Energy    =      -1.7510530942491720 [Eh]
	 SCS Total Energy          =    -466.4318976629290319 [Eh]
	-----------------------------------------------------------


*** tstop() called on node151.bme.utexas.edu at Sun Jan 14 11:41:54 2024
Module time:
	user time   =     135.60 seconds =       2.26 minutes
	system time =       3.36 seconds =       0.06 minutes
	total time  =         25 seconds =       0.42 minutes
Total time:
	user time   =    1883.84 seconds =      31.40 minutes
	system time =      22.32 seconds =       0.37 minutes
	total time  =        289 seconds =       4.82 minutes

  //>>>>>>>>>>>>>>>>>>>>>>>>>>>>>>>>>>>//
  //            Monomer B HF           //
  //<<<<<<<<<<<<<<<<<<<<<<<<<<<<<<<<<<<//


*** tstart() called on node151.bme.utexas.edu
*** at Sun Jan 14 11:41:54 2024

   => Loading Basis Set <=

    Name: AUG-CC-PVTZ
    Role: ORBITAL
    Keyword: BASIS
    atoms 1, 4, 11, 14-15, 17, 24, 26-27 entry H          line    40 file /opt/anaconda/envs/psi4v1.5/share/psi4/basis/aug-cc-pvtz.gbs 
    atoms 2, 5, 8-9, 12, 16, 20          entry N          line   285 file /opt/anaconda/envs/psi4v1.5/share/psi4/basis/aug-cc-pvtz.gbs 
    atoms 3, 6-7, 10, 13, 18, 21, 23, 25 entry C          line   239 file /opt/anaconda/envs/psi4v1.5/share/psi4/basis/aug-cc-pvtz.gbs 
    atoms 19, 22                         entry O          line   331 file /opt/anaconda/envs/psi4v1.5/share/psi4/basis/aug-cc-pvtz.gbs 


         ---------------------------------------------------------
                                   SCF
               by Justin Turney, Rob Parrish, Andy Simmonett
                          and Daniel G. A. Smith
                              RHF Reference
                        8 Threads,  76293 MiB Core
         ---------------------------------------------------------

  ==> Geometry <==

    Molecular point group: c1
    Full point group: C1

    Geometry (in Angstrom), charge = 0, multiplicity = 1:

       Center              X                  Y                   Z               Mass       
    ------------   -----------------  -----------------  -----------------  -----------------
      Gh(H)           0.735873763562    -2.752629158110     1.782574600937     1.007825032230
      Gh(N)           1.072243763562    -2.069209158110     1.114264600937    14.003074004430
      Gh(C)           1.831923763562    -2.299919158110    -0.005395399063    12.000000000000
      Gh(H)           2.100613763562    -3.302859158110    -0.314545399063     1.007825032230
      Gh(N)           2.189913763562    -1.193549158110    -0.641465399063    14.003074004430
      Gh(C)           1.634073763562    -0.190079158110     0.128584600937    12.000000000000
      Gh(C)           1.641733763562     1.213540841890     0.000634600937    12.000000000000
      Gh(N)           2.336053763562     1.846030841890    -0.989905399063    14.003074004430
      Gh(N)           0.995013763562     1.947830841890     0.921724600937    14.003074004430
      Gh(C)           0.358793763562     1.309300841890     1.930404600937    12.000000000000
      Gh(H)          -0.157986236438     1.953760841890     2.637564600937     1.007825032230
      Gh(N)           0.267593763562    -0.007619158110     2.162534600937    14.003074004430
      Gh(C)           0.927823763562    -0.702929158110     1.223234600937    12.000000000000
      Gh(H)           2.046003763562     2.807080841890    -1.137135399063     1.007825032230
      Gh(H)           2.425993763562     1.308680841890    -1.846305399063     1.007825032230
         N           -2.381586236438    -0.988569158110     0.230364600937    14.003074004430
         H           -2.919386236438    -1.429069158110     0.967404600937     1.007825032230
         C           -2.302576236438     0.396540841890     0.318954600937    12.000000000000
         O           -2.868206236438     1.047350841890     1.186194600937    15.994914619570
         N           -1.531446236438     0.946100841890    -0.692785399063    14.003074004430
         C           -0.823586236438     0.291590841890    -1.712665399063    12.000000000000
         O           -0.151226236438     0.935640841890    -2.518165399063    15.994914619570
         C           -0.982326236438    -1.153809158110    -1.692775399063    12.000000000000
         H           -0.474446236438    -1.737949158110    -2.448505399063     1.007825032230
         C           -1.740286236438    -1.732299158110    -0.732005399063    12.000000000000
         H           -1.892916236438    -2.805499158110    -0.671005399063     1.007825032230
         H           -1.396796236438     1.953090841890    -0.632655399063     1.007825032230

  Running in c1 symmetry.

  Rotational constants: A =      0.01963  B =      0.01542  C =      0.01485 [cm^-1]
  Rotational constants: A =    588.45748  B =    462.21827  C =    445.18665 [MHz]
  Nuclear repulsion =  355.501183888588344

  Charge       = 0
  Multiplicity = 1
  Electrons    = 58
  Nalpha       = 29
  Nbeta        = 29

  ==> Algorithm <==

  SCF Algorithm Type is DF.
  DIIS enabled.
  MOM disabled.
  Fractional occupation disabled.
  Guess Type is SAD.
  Energy threshold   = 1.00e-08
  Density threshold  = 1.00e-08
  Integral threshold = 1.00e-12

  ==> Primary Basis <==

  Basis Set: AUG-CC-PVTZ
    Blend: AUG-CC-PVTZ
    Number of shells: 333
    Number of basis functions: 1035
    Number of Cartesian functions: 1215
    Spherical Harmonics?: true
    Max angular momentum: 3

   => Loading Basis Set <=

    Name: (AUG-CC-PVTZ AUX)
    Role: JKFIT
    Keyword: DF_BASIS_SCF
    atoms 1, 4, 11, 14-15, 17, 24, 26-27 entry H          line    70 file /opt/anaconda/envs/psi4v1.5/share/psi4/basis/aug-cc-pvtz-jkfit.gbs 
    atoms 2, 5, 8-9, 12, 16, 20          entry N          line   224 file /opt/anaconda/envs/psi4v1.5/share/psi4/basis/aug-cc-pvtz-jkfit.gbs 
    atoms 3, 6-7, 10, 13, 18, 21, 23, 25 entry C          line   162 file /opt/anaconda/envs/psi4v1.5/share/psi4/basis/aug-cc-pvtz-jkfit.gbs 
    atoms 19, 22                         entry O          line   286 file /opt/anaconda/envs/psi4v1.5/share/psi4/basis/aug-cc-pvtz-jkfit.gbs 

  ==> Integral Setup <==

  ==> DiskDFJK: Density-Fitted J/K Matrices <==

    J tasked:                  Yes
    K tasked:                  Yes
    wK tasked:                  No
    OpenMP threads:              8
    Integrals threads:           8
    Memory [MiB]:            57220
    Algorithm:                Core
    Integral Cache:           LOAD
    Schwarz Cutoff:          1E-12
    Fitting Condition:       1E-10

   => Auxiliary Basis Set <=

  Basis Set: (AUG-CC-PVTZ AUX)
    Blend: AUG-CC-PVTZ-JKFIT
    Number of shells: 666
    Number of basis functions: 2286
    Number of Cartesian functions: 2853
    Spherical Harmonics?: true
    Max angular momentum: 4

  Minimum eigenvalue in the overlap matrix is 7.4313740243E-07.
  Reciprocal condition number of the overlap matrix is 3.1137794558E-08.
    Using symmetric orthogonalization.

  ==> Pre-Iterations <==

  SCF Guess: Superposition of Atomic Densities via on-the-fly atomic UHF (no occupation information).

   -------------------------
    Irrep   Nso     Nmo    
   -------------------------
     A       1035    1035 
   -------------------------
    Total    1035    1035
   -------------------------

  ==> Iterations <==

                           Total Energy        Delta E     RMS |[F,P]|

   @DF-RHF iter SAD:  -411.86334617888946   -4.11863e+02   0.00000e+00 
   @DF-RHF iter   1:  -412.37380283971470   -5.10457e-01   7.20359e-04 DIIS
   @DF-RHF iter   2:  -412.53463818114272   -1.60835e-01   4.83482e-04 DIIS
   @DF-RHF iter   3:  -412.61568188152859   -8.10437e-02   8.68539e-05 DIIS
   @DF-RHF iter   4:  -412.61999294449578   -4.31106e-03   3.58578e-05 DIIS
   @DF-RHF iter   5:  -412.62090285082797   -9.09906e-04   7.37895e-06 DIIS
   @DF-RHF iter   6:  -412.62101129288010   -1.08442e-04   3.74787e-06 DIIS
   @DF-RHF iter   7:  -412.62103132580961   -2.00329e-05   1.52778e-06 DIIS
   @DF-RHF iter   8:  -412.62103487227046   -3.54646e-06   5.30861e-07 DIIS
   @DF-RHF iter   9:  -412.62103515430800   -2.82038e-07   2.19754e-07 DIIS
   @DF-RHF iter  10:  -412.62103522426440   -6.99564e-08   7.30114e-08 DIIS
   @DF-RHF iter  11:  -412.62103523290824   -8.64384e-09   2.43264e-08 DIIS
   @DF-RHF iter  12:  -412.62103523360645   -6.98208e-10   7.93162e-09 DIIS
  Energy and wave function converged.


  ==> Post-Iterations <==

    Orbital Energies [Eh]
    ---------------------

    Doubly Occupied:                                                      

       1A    -20.550394     2A    -20.542535     3A    -15.647858  
       4A    -15.631084     5A    -11.423540     6A    -11.384439  
       7A    -11.345085     8A    -11.259598     9A     -1.432718  
      10A     -1.391717    11A     -1.311638    12A     -1.244386  
      13A     -1.088435    14A     -0.932898    15A     -0.901726  
      16A     -0.805589    17A     -0.763340    18A     -0.713639  
      19A     -0.676557    20A     -0.667333    21A     -0.652886  
      22A     -0.613305    23A     -0.600825    24A     -0.568209  
      25A     -0.525767    26A     -0.484762    27A     -0.450140  
      28A     -0.437174    29A     -0.370168  

    Virtual:                                                              

      30A      0.010961    31A      0.025570    32A      0.027752  
      33A      0.033243    34A      0.045065    35A      0.046479  
      36A      0.050022    37A      0.050872    38A      0.056199  
      39A      0.067546    40A      0.068478    41A      0.076314  
      42A      0.078862    43A      0.080447    44A      0.084195  
      45A      0.084585    46A      0.091583    47A      0.091924  
      48A      0.096095    49A      0.099712    50A      0.105027  
      51A      0.109556    52A      0.115307    53A      0.118116  
      54A      0.121115    55A      0.123814    56A      0.126202  
      57A      0.130578    58A      0.133371    59A      0.135521  
      60A      0.137266    61A      0.140061    62A      0.144360  
      63A      0.146359    64A      0.149697    65A      0.157933  
      66A      0.159689    67A      0.165654    68A      0.167219  
      69A      0.170974    70A      0.173713    71A      0.176045  
      72A      0.179018    73A      0.186094    74A      0.190734  
      75A      0.192084    76A      0.194342    77A      0.203032  
      78A      0.204652    79A      0.208710    80A      0.211198  
      81A      0.214742    82A      0.218004    83A      0.223594  
      84A      0.225188    85A      0.229536    86A      0.234566  
      87A      0.236096    88A      0.238251    89A      0.240601  
      90A      0.249759    91A      0.252860    92A      0.258510  
      93A      0.260116    94A      0.263759    95A      0.265356  
      96A      0.268755    97A      0.274540    98A      0.276313  
      99A      0.280202   100A      0.284402   101A      0.287482  
     102A      0.289687   103A      0.290433   104A      0.293502  
     105A      0.297670   106A      0.302834   107A      0.305168  
     108A      0.306608   109A      0.310926   110A      0.314633  
     111A      0.318320   112A      0.328130   113A      0.331772  
     114A      0.337604   115A      0.338305   116A      0.340451  
     117A      0.345319   118A      0.349873   119A      0.355507  
     120A      0.358338   121A      0.365317   122A      0.365711  
     123A      0.371790   124A      0.382391   125A      0.384321  
     126A      0.385711   127A      0.391095   128A      0.392411  
     129A      0.398037   130A      0.399773   131A      0.404292  
     132A      0.408882   133A      0.412367   134A      0.415272  
     135A      0.418670   136A      0.423625   137A      0.426750  
     138A      0.431572   139A      0.432293   140A      0.437050  
     141A      0.437912   142A      0.445169   143A      0.446312  
     144A      0.451722   145A      0.456510   146A      0.458726  
     147A      0.460478   148A      0.462960   149A      0.467926  
     150A      0.472776   151A      0.476530   152A      0.480502  
     153A      0.482214   154A      0.487481   155A      0.489879  
     156A      0.495898   157A      0.498481   158A      0.500699  
     159A      0.503218   160A      0.506518   161A      0.510919  
     162A      0.515643   163A      0.516914   164A      0.519629  
     165A      0.524756   166A      0.527731   167A      0.529460  
     168A      0.531779   169A      0.533933   170A      0.542197  
     171A      0.549064   172A      0.549502   173A      0.552014  
     174A      0.557438   175A      0.558588   176A      0.562905  
     177A      0.571140   178A      0.577275   179A      0.580035  
     180A      0.587557   181A      0.589395   182A      0.595042  
     183A      0.598800   184A      0.601559   185A      0.605338  
     186A      0.618643   187A      0.620605   188A      0.624217  
     189A      0.629492   190A      0.636786   191A      0.640101  
     192A      0.643356   193A      0.649254   194A      0.650216  
     195A      0.653230   196A      0.659536   197A      0.666296  
     198A      0.669308   199A      0.676416   200A      0.683342  
     201A      0.686210   202A      0.689377   203A      0.696426  
     204A      0.703802   205A      0.704184   206A      0.713791  
     207A      0.716860   208A      0.723859   209A      0.726457  
     210A      0.735667   211A      0.739439   212A      0.740420  
     213A      0.747113   214A      0.748206   215A      0.754692  
     216A      0.760146   217A      0.764255   218A      0.767611  
     219A      0.773179   220A      0.777635   221A      0.779895  
     222A      0.788613   223A      0.791608   224A      0.799353  
     225A      0.801663   226A      0.807046   227A      0.810702  
     228A      0.814368   229A      0.819738   230A      0.829673  
     231A      0.835879   232A      0.836915   233A      0.839344  
     234A      0.842117   235A      0.850155   236A      0.856297  
     237A      0.856449   238A      0.859547   239A      0.864128  
     240A      0.865728   241A      0.871730   242A      0.879212  
     243A      0.886873   244A      0.890184   245A      0.893855  
     246A      0.900483   247A      0.903008   248A      0.905116  
     249A      0.906222   250A      0.911922   251A      0.918286  
     252A      0.920089   253A      0.930372   254A      0.931782  
     255A      0.935925   256A      0.939424   257A      0.945990  
     258A      0.949298   259A      0.952976   260A      0.960891  
     261A      0.961842   262A      0.964938   263A      0.969356  
     264A      0.971589   265A      0.973605   266A      0.979775  
     267A      0.983249   268A      0.990649   269A      0.995154  
     270A      1.000626   271A      1.002644   272A      1.010017  
     273A      1.012389   274A      1.018160   275A      1.021401  
     276A      1.024415   277A      1.029232   278A      1.035426  
     279A      1.042884   280A      1.048503   281A      1.052844  
     282A      1.054428   283A      1.061036   284A      1.069723  
     285A      1.070705   286A      1.076794   287A      1.083446  
     288A      1.086570   289A      1.090212   290A      1.093279  
     291A      1.100520   292A      1.103773   293A      1.109578  
     294A      1.119299   295A      1.124642   296A      1.131820  
     297A      1.134709   298A      1.139983   299A      1.141115  
     300A      1.147569   301A      1.149905   302A      1.154783  
     303A      1.163515   304A      1.166623   305A      1.171699  
     306A      1.175377   307A      1.177814   308A      1.186435  
     309A      1.189567   310A      1.191106   311A      1.201170  
     312A      1.204270   313A      1.210199   314A      1.220104  
     315A      1.221411   316A      1.224252   317A      1.230943  
     318A      1.233977   319A      1.237204   320A      1.241420  
     321A      1.246295   322A      1.254821   323A      1.260370  
     324A      1.264992   325A      1.266023   326A      1.272108  
     327A      1.278533   328A      1.281108   329A      1.283203  
     330A      1.290590   331A      1.298276   332A      1.303309  
     333A      1.303844   334A      1.307877   335A      1.318068  
     336A      1.321944   337A      1.327028   338A      1.331881  
     339A      1.344304   340A      1.347119   341A      1.355666  
     342A      1.358461   343A      1.360917   344A      1.373196  
     345A      1.374900   346A      1.381041   347A      1.386572  
     348A      1.387576   349A      1.394596   350A      1.396404  
     351A      1.404711   352A      1.409746   353A      1.419635  
     354A      1.422641   355A      1.430642   356A      1.433625  
     357A      1.436768   358A      1.442526   359A      1.447368  
     360A      1.456908   361A      1.466187   362A      1.468484  
     363A      1.475033   364A      1.476793   365A      1.488588  
     366A      1.492811   367A      1.497648   368A      1.499700  
     369A      1.504902   370A      1.511072   371A      1.519914  
     372A      1.524792   373A      1.531605   374A      1.537921  
     375A      1.541175   376A      1.544912   377A      1.553420  
     378A      1.553707   379A      1.556243   380A      1.566483  
     381A      1.569622   382A      1.581126   383A      1.584053  
     384A      1.594613   385A      1.598191   386A      1.605205  
     387A      1.608932   388A      1.616526   389A      1.619973  
     390A      1.627333   391A      1.635411   392A      1.638858  
     393A      1.646286   394A      1.652248   395A      1.654542  
     396A      1.660603   397A      1.663832   398A      1.673447  
     399A      1.677171   400A      1.679361   401A      1.683065  
     402A      1.690884   403A      1.693045   404A      1.701305  
     405A      1.706389   406A      1.711163   407A      1.718869  
     408A      1.723769   409A      1.732209   410A      1.736449  
     411A      1.739565   412A      1.743059   413A      1.750216  
     414A      1.760968   415A      1.770157   416A      1.772862  
     417A      1.777405   418A      1.782847   419A      1.787126  
     420A      1.793475   421A      1.802089   422A      1.807235  
     423A      1.812601   424A      1.815996   425A      1.825917  
     426A      1.830425   427A      1.831508   428A      1.836787  
     429A      1.849383   430A      1.855354   431A      1.857295  
     432A      1.861269   433A      1.870204   434A      1.876219  
     435A      1.885660   436A      1.892211   437A      1.894534  
     438A      1.907152   439A      1.907662   440A      1.914227  
     441A      1.922153   442A      1.928615   443A      1.933760  
     444A      1.939945   445A      1.944334   446A      1.948976  
     447A      1.949667   448A      1.964904   449A      1.967006  
     450A      1.974577   451A      1.983702   452A      1.987077  
     453A      2.000597   454A      2.009791   455A      2.010975  
     456A      2.026135   457A      2.027620   458A      2.032458  
     459A      2.041073   460A      2.042052   461A      2.049018  
     462A      2.058272   463A      2.064233   464A      2.073576  
     465A      2.080785   466A      2.086799   467A      2.092970  
     468A      2.096348   469A      2.105777   470A      2.116641  
     471A      2.120376   472A      2.124682   473A      2.131645  
     474A      2.138753   475A      2.142720   476A      2.154354  
     477A      2.162499   478A      2.166752   479A      2.172774  
     480A      2.174378   481A      2.177119   482A      2.189049  
     483A      2.197257   484A      2.201943   485A      2.210501  
     486A      2.213540   487A      2.223094   488A      2.227673  
     489A      2.235882   490A      2.237807   491A      2.245285  
     492A      2.248934   493A      2.255574   494A      2.263360  
     495A      2.276497   496A      2.278969   497A      2.285460  
     498A      2.290317   499A      2.295895   500A      2.311257  
     501A      2.324016   502A      2.328856   503A      2.332276  
     504A      2.339840   505A      2.350272   506A      2.354613  
     507A      2.361583   508A      2.365883   509A      2.377714  
     510A      2.379311   511A      2.387064   512A      2.395314  
     513A      2.406703   514A      2.413949   515A      2.421826  
     516A      2.427271   517A      2.433169   518A      2.442640  
     519A      2.443721   520A      2.452255   521A      2.464985  
     522A      2.470315   523A      2.474164   524A      2.478711  
     525A      2.493435   526A      2.504998   527A      2.517391  
     528A      2.519739   529A      2.525819   530A      2.533322  
     531A      2.536876   532A      2.544797   533A      2.547022  
     534A      2.557743   535A      2.561178   536A      2.567736  
     537A      2.570382   538A      2.586950   539A      2.592512  
     540A      2.598869   541A      2.602638   542A      2.610085  
     543A      2.627296   544A      2.628663   545A      2.635531  
     546A      2.654097   547A      2.656848   548A      2.663149  
     549A      2.667693   550A      2.672406   551A      2.680400  
     552A      2.687463   553A      2.698293   554A      2.700878  
     555A      2.712803   556A      2.722760   557A      2.730582  
     558A      2.736514   559A      2.738837   560A      2.751013  
     561A      2.770836   562A      2.772542   563A      2.776491  
     564A      2.785468   565A      2.792783   566A      2.797647  
     567A      2.805881   568A      2.821299   569A      2.824113  
     570A      2.838149   571A      2.847561   572A      2.854215  
     573A      2.857146   574A      2.862014   575A      2.878131  
     576A      2.883459   577A      2.893735   578A      2.897842  
     579A      2.908515   580A      2.915711   581A      2.922770  
     582A      2.925881   583A      2.940139   584A      2.950351  
     585A      2.954827   586A      2.969313   587A      2.972825  
     588A      2.988684   589A      3.002769   590A      3.007873  
     591A      3.014293   592A      3.025390   593A      3.034659  
     594A      3.039450   595A      3.052662   596A      3.056915  
     597A      3.073231   598A      3.080329   599A      3.085899  
     600A      3.091849   601A      3.094024   602A      3.108886  
     603A      3.115038   604A      3.125806   605A      3.126885  
     606A      3.137815   607A      3.142982   608A      3.159236  
     609A      3.164409   610A      3.171211   611A      3.182294  
     612A      3.195996   613A      3.203585   614A      3.214698  
     615A      3.230218   616A      3.243188   617A      3.254470  
     618A      3.262912   619A      3.280846   620A      3.285459  
     621A      3.301093   622A      3.312053   623A      3.319296  
     624A      3.329076   625A      3.348448   626A      3.362049  
     627A      3.371600   628A      3.375826   629A      3.380401  
     630A      3.398734   631A      3.419750   632A      3.432303  
     633A      3.445967   634A      3.450784   635A      3.458379  
     636A      3.485822   637A      3.499214   638A      3.504262  
     639A      3.517508   640A      3.535839   641A      3.546810  
     642A      3.558053   643A      3.573234   644A      3.577800  
     645A      3.599421   646A      3.611944   647A      3.626028  
     648A      3.657327   649A      3.670028   650A      3.680860  
     651A      3.695311   652A      3.708092   653A      3.714165  
     654A      3.738728   655A      3.744231   656A      3.749528  
     657A      3.764344   658A      3.786205   659A      3.787265  
     660A      3.803759   661A      3.814198   662A      3.822297  
     663A      3.830322   664A      3.850582   665A      3.863531  
     666A      3.875722   667A      3.877838   668A      3.889724  
     669A      3.897884   670A      3.907680   671A      3.934623  
     672A      3.939433   673A      3.949995   674A      3.959220  
     675A      3.975552   676A      3.984307   677A      4.000969  
     678A      4.007150   679A      4.038646   680A      4.050836  
     681A      4.059439   682A      4.072208   683A      4.084356  
     684A      4.100901   685A      4.108859   686A      4.127736  
     687A      4.138533   688A      4.153883   689A      4.182700  
     690A      4.186788   691A      4.198180   692A      4.209505  
     693A      4.213715   694A      4.232931   695A      4.239619  
     696A      4.248097   697A      4.266458   698A      4.267972  
     699A      4.283786   700A      4.293185   701A      4.301393  
     702A      4.316008   703A      4.323565   704A      4.336198  
     705A      4.348359   706A      4.354279   707A      4.365448  
     708A      4.377428   709A      4.387763   710A      4.397687  
     711A      4.404911   712A      4.410936   713A      4.420969  
     714A      4.428189   715A      4.434086   716A      4.446121  
     717A      4.451160   718A      4.472389   719A      4.481239  
     720A      4.491531   721A      4.509874   722A      4.512321  
     723A      4.538764   724A      4.550274   725A      4.559178  
     726A      4.571375   727A      4.575371   728A      4.586102  
     729A      4.604572   730A      4.630986   731A      4.634038  
     732A      4.644010   733A      4.658816   734A      4.668260  
     735A      4.675776   736A      4.682248   737A      4.694761  
     738A      4.702300   739A      4.703000   740A      4.709386  
     741A      4.712054   742A      4.731486   743A      4.737980  
     744A      4.755259   745A      4.761635   746A      4.766568  
     747A      4.769858   748A      4.785314   749A      4.796763  
     750A      4.807953   751A      4.818911   752A      4.824092  
     753A      4.837469   754A      4.848404   755A      4.868969  
     756A      4.881697   757A      4.888871   758A      4.898033  
     759A      4.902154   760A      4.911966   761A      4.928203  
     762A      4.932497   763A      4.939305   764A      4.948296  
     765A      4.953145   766A      4.967067   767A      4.975089  
     768A      4.986155   769A      4.999614   770A      5.010560  
     771A      5.013423   772A      5.026012   773A      5.035896  
     774A      5.039786   775A      5.048275   776A      5.067293  
     777A      5.069126   778A      5.073681   779A      5.076749  
     780A      5.083005   781A      5.090833   782A      5.106861  
     783A      5.122512   784A      5.128672   785A      5.140558  
     786A      5.150329   787A      5.157273   788A      5.166259  
     789A      5.174699   790A      5.179869   791A      5.186086  
     792A      5.195561   793A      5.204008   794A      5.218828  
     795A      5.234007   796A      5.238543   797A      5.248849  
     798A      5.256352   799A      5.275791   800A      5.282762  
     801A      5.298461   802A      5.320149   803A      5.328802  
     804A      5.335324   805A      5.340791   806A      5.351142  
     807A      5.369240   808A      5.373342   809A      5.395915  
     810A      5.407089   811A      5.422938   812A      5.439361  
     813A      5.442647   814A      5.460295   815A      5.462996  
     816A      5.479620   817A      5.486490   818A      5.496526  
     819A      5.501535   820A      5.522419   821A      5.530660  
     822A      5.535275   823A      5.545337   824A      5.565574  
     825A      5.570916   826A      5.578226   827A      5.597537  
     828A      5.616930   829A      5.620761   830A      5.627106  
     831A      5.647544   832A      5.661462   833A      5.667861  
     834A      5.688790   835A      5.698743   836A      5.709744  
     837A      5.732675   838A      5.742411   839A      5.782522  
     840A      5.796757   841A      5.806343   842A      5.819066  
     843A      5.827578   844A      5.832921   845A      5.838938  
     846A      5.850567   847A      5.882906   848A      5.899448  
     849A      5.920023   850A      5.933928   851A      5.937790  
     852A      5.959796   853A      5.973014   854A      5.992423  
     855A      6.010780   856A      6.032332   857A      6.039508  
     858A      6.069898   859A      6.074939   860A      6.086217  
     861A      6.102206   862A      6.105751   863A      6.119622  
     864A      6.159657   865A      6.162073   866A      6.188146  
     867A      6.199941   868A      6.208931   869A      6.239247  
     870A      6.246464   871A      6.277792   872A      6.287429  
     873A      6.294749   874A      6.328947   875A      6.360364  
     876A      6.368467   877A      6.379881   878A      6.466380  
     879A      6.490418   880A      6.512876   881A      6.528063  
     882A      6.535535   883A      6.542216   884A      6.560148  
     885A      6.570638   886A      6.574365   887A      6.598173  
     888A      6.602104   889A      6.616004   890A      6.629871  
     891A      6.652084   892A      6.660391   893A      6.669057  
     894A      6.720610   895A      6.740704   896A      6.759430  
     897A      6.773132   898A      6.795432   899A      6.802079  
     900A      6.807749   901A      6.820122   902A      6.830816  
     903A      6.844123   904A      6.855120   905A      6.857726  
     906A      6.871963   907A      6.884784   908A      6.897170  
     909A      6.922826   910A      6.943386   911A      6.955221  
     912A      6.975338   913A      6.986012   914A      7.010909  
     915A      7.012094   916A      7.024984   917A      7.031712  
     918A      7.048094   919A      7.065347   920A      7.107666  
     921A      7.119619   922A      7.125199   923A      7.145563  
     924A      7.191239   925A      7.220141   926A      7.235016  
     927A      7.258992   928A      7.288288   929A      7.308863  
     930A      7.372974   931A      7.380097   932A      7.411240  
     933A      7.428535   934A      7.436766   935A      7.461537  
     936A      7.488032   937A      7.499444   938A      7.511559  
     939A      7.533327   940A      7.547417   941A      7.552739  
     942A      7.577078   943A      7.591556   944A      7.625871  
     945A      7.640183   946A      7.655895   947A      7.667686  
     948A      7.684571   949A      7.709232   950A      7.715112  
     951A      7.723087   952A      7.744819   953A      7.752584  
     954A      7.801839   955A      7.817297   956A      7.859439  
     957A      7.868674   958A      7.885656   959A      7.906903  
     960A      7.909932   961A      7.928950   962A      7.962061  
     963A      7.974542   964A      7.981346   965A      8.002923  
     966A      8.017803   967A      8.022728   968A      8.027487  
     969A      8.045657   970A      8.061699   971A      8.070565  
     972A      8.103499   973A      8.129997   974A      8.134891  
     975A      8.218306   976A      8.256211   977A      8.326102  
     978A      8.361160   979A      8.411993   980A      8.461939  
     981A      8.488055   982A      8.569676   983A      8.707424  
     984A      8.818785   985A      8.870062   986A      8.966380  
     987A      9.026062   988A      9.050183   989A      9.266680  
     990A      9.334607   991A      9.384532   992A      9.664171  
     993A      9.704028   994A      9.738263   995A      9.778879  
     996A      9.850163   997A      9.968127   998A     10.190442  
     999A     10.300542  1000A     10.471396  1001A     10.772161  
    1002A     11.066543  1003A     11.147555  1004A     11.220985  
    1005A     11.292220  1006A     11.603684  1007A     11.698680  
    1008A     11.779182  1009A     11.886857  1010A     12.076753  
    1011A     12.106408  1012A     12.251241  1013A     12.365711  
    1014A     12.478842  1015A     12.618494  1016A     12.937543  
    1017A     12.990246  1018A     16.278015  1019A     16.320863  
    1020A     16.814283  1021A     17.234310  1022A     18.444041  
    1023A     20.058417  1024A     20.506072  1025A     21.232912  
    1026A     52.021726  1027A     52.384438  1028A     53.083705  
    1029A     54.766425  1030A     57.614451  1031A     60.628815  
    1032A     62.340808  1033A     62.693955  1034A     63.318533  
    1035A     64.814127  

    Final Occupation by Irrep:
              A 
    DOCC [    29 ]

  @DF-RHF Final Energy:  -412.62103523360645

   => Energetics <=

    Nuclear Repulsion Energy =            355.5011838885883435
    One-Electron Energy =               -1267.4089304254800936
    Two-Electron Energy =                 499.2867113032853013
    Total Energy =                       -412.6210352336064489

Computation Completed


Properties will be evaluated at   0.000000,   0.000000,   0.000000 [a0]

Properties computed using the SCF density matrix

  Nuclear Dipole Moment: [e a0]
     X:  -176.3547      Y:    -3.1003      Z:   -74.8113

  Electronic Dipole Moment: [e a0]
     X:   175.9159      Y:     1.1846      Z:    75.2313

  Dipole Moment: [e a0]
     X:    -0.4388      Y:    -1.9157      Z:     0.4200     Total:     2.0097

  Dipole Moment: [D]
     X:    -1.1153      Y:    -4.8693      Z:     1.0676     Total:     5.1082


*** tstop() called on node151.bme.utexas.edu at Sun Jan 14 11:43:11 2024
Module time:
	user time   =     505.64 seconds =       8.43 minutes
	system time =       4.54 seconds =       0.08 minutes
	total time  =         77 seconds =       1.28 minutes
Total time:
	user time   =    2389.50 seconds =      39.83 minutes
	system time =      26.86 seconds =       0.45 minutes
	total time  =        366 seconds =       6.10 minutes

*** tstart() called on node151.bme.utexas.edu
*** at Sun Jan 14 11:43:11 2024


  //>>>>>>>>>>>>>>>>>>>>>>>>>>>>>>>>>>>//
  //               DFMP2               //
  //<<<<<<<<<<<<<<<<<<<<<<<<<<<<<<<<<<<//

   => Loading Basis Set <=

    Name: (AUG-CC-PVTZ AUX)
    Role: RIFIT
    Keyword: DF_BASIS_MP2
    atoms 1, 4, 11, 14-15, 17, 24, 26-27 entry H          line    30 file /opt/anaconda/envs/psi4v1.5/share/psi4/basis/aug-cc-pvtz-ri.gbs 
    atoms 2, 5, 8-9, 12, 16, 20          entry N          line   206 file /opt/anaconda/envs/psi4v1.5/share/psi4/basis/aug-cc-pvtz-ri.gbs 
    atoms 3, 6-7, 10, 13, 18, 21, 23, 25 entry C          line   148 file /opt/anaconda/envs/psi4v1.5/share/psi4/basis/aug-cc-pvtz-ri.gbs 
    atoms 19, 22                         entry O          line   264 file /opt/anaconda/envs/psi4v1.5/share/psi4/basis/aug-cc-pvtz-ri.gbs 

	 --------------------------------------------------------
	                          DF-MP2                         
	      2nd-Order Density-Fitted Moller-Plesset Theory     
	              RMP2 Wavefunction,   8 Threads             
	                                                         
	        Rob Parrish, Justin Turney, Andy Simmonett,      
	           Ed Hohenstein, and C. David Sherrill          
	 --------------------------------------------------------

   => Auxiliary Basis Set <=

  Basis Set: (AUG-CC-PVTZ AUX)
    Blend: AUG-CC-PVTZ-RI
    Number of shells: 630
    Number of basis functions: 2322
    Number of Cartesian functions: 2943
    Spherical Harmonics?: true
    Max angular momentum: 4

	 --------------------------------------------------------
	                 NBF =  1035, NAUX =  2322
	 --------------------------------------------------------
	   CLASS    FOCC     OCC    AOCC    AVIR     VIR    FVIR
	   PAIRS       8      29      21    1006    1006       0
	 --------------------------------------------------------

	 Will attempt to load fitting metric from file 97.

	-----------------------------------------------------------
	 ==================> DF-MP2 Energies <==================== 
	-----------------------------------------------------------
	 Reference Energy          =    -412.6210352336064489 [Eh]
	 Singles Energy            =      -0.0000000000000000 [Eh]
	 Same-Spin Energy          =      -0.3926598153052928 [Eh]
	 Opposite-Spin Energy      =      -1.1133114241814595 [Eh]
	 Correlation Energy        =      -1.5059712394867524 [Eh]
	 Total Energy              =    -414.1270064730932177 [Eh]
	-----------------------------------------------------------
	 ================> DF-SCS-MP2 Energies <================== 
	-----------------------------------------------------------
	 SCS Same-Spin Scale       =       0.3333333333333333 [-]
	 SCS Opposite-Spin Scale   =       1.2000000000000000 [-]
	 SCS Same-Spin Energy      =      -0.1308866051017643 [Eh]
	 SCS Opposite-Spin Energy  =      -1.3359737090177513 [Eh]
	 SCS Correlation Energy    =      -1.4668603141195156 [Eh]
	 SCS Total Energy          =    -414.0878955477259638 [Eh]
	-----------------------------------------------------------


*** tstop() called on node151.bme.utexas.edu at Sun Jan 14 11:43:33 2024
Module time:
	user time   =     121.22 seconds =       2.02 minutes
	system time =       2.74 seconds =       0.05 minutes
	total time  =         22 seconds =       0.37 minutes
Total time:
	user time   =    2510.72 seconds =      41.85 minutes
	system time =      29.60 seconds =       0.49 minutes
	total time  =        388 seconds =       6.47 minutes
  Constructing Basis Sets for SAPT...

   => Loading Basis Set <=

    Name: (AUG-CC-PVTZ AUX)
    Role: RIFIT
    Keyword: DF_BASIS_SAPT
    atoms 1, 4, 11, 14-15, 17, 24, 26-27 entry H          line    30 file /opt/anaconda/envs/psi4v1.5/share/psi4/basis/aug-cc-pvtz-ri.gbs 
    atoms 2, 5, 8-9, 12, 16, 20          entry N          line   206 file /opt/anaconda/envs/psi4v1.5/share/psi4/basis/aug-cc-pvtz-ri.gbs 
    atoms 3, 6-7, 10, 13, 18, 21, 23, 25 entry C          line   148 file /opt/anaconda/envs/psi4v1.5/share/psi4/basis/aug-cc-pvtz-ri.gbs 
    atoms 19, 22                         entry O          line   264 file /opt/anaconda/envs/psi4v1.5/share/psi4/basis/aug-cc-pvtz-ri.gbs 


  //>>>>>>>>>>>>>>>>>>>>>>>>>>>>>>>>>>>//
  //           SAPT2+(3)DMP2           //
  //<<<<<<<<<<<<<<<<<<<<<<<<<<<<<<<<<<<//


*** tstart() called on node151.bme.utexas.edu
*** at Sun Jan 14 11:43:34 2024

      SAPT2+(3)  
    Ed Hohenstein
     6 June 2009

      Orbital Information
  --------------------------
    NSO        =      1035
    NMO        =      1035
    NRI        =      2322
    NOCC A     =        35
    NOCC B     =        29
    FOCC A     =        10
    FOCC B     =         8
    NVIR A     =      1000
    NVIR B     =      1006

    Estimated memory usage: 48553.4 MB

    Natural Orbital Cutoff:   1.000E-06
    Disp(T3) Truncation:            Yes
    CCD (vv|vv) Truncation:         Yes
    MBPT T2 Truncation:             Yes

    Monomer A: 500 virtual orbitals dropped
    Monomer B: 599 virtual orbitals dropped

    Elst10,r            =    -0.014427909567 [Eh]
    Exch10 (S^2)        =     0.028233128052 [Eh]
    Exch10              =     0.028299265054 [Eh]
    Ind20,r (A<-B)      =    -0.008149147826 [Eh]
    Ind20,r (B<-A)      =    -0.006198984224 [Eh]
    Ind20,r             =    -0.014348132050 [Eh]
    Exch-Ind20,r (A<-B) =     0.006697500007 [Eh]
    Exch-Ind20,r (B<-A) =     0.005795145629 [Eh]
    Exch-Ind20,r        =     0.012492645635 [Eh]
    Disp20              =    -0.033312649647 [Eh]
    Disp20 (NO)         =    -0.030883751570 [Eh]
    Exch-Disp20         =     0.004169999998 [Eh]
    Elst12,r            =     0.000402548463 [Eh]
    Exch11              =     0.000706850470 [Eh]
    Exch12              =     0.001134032222 [Eh]
    Ind22               =    -0.000157749400 [Eh]
    Disp21              =     0.010489915104 [Eh]
    Disp22 (SDQ)        =    -0.001419153630 [Eh]

    (i =   1 of  21)       1644 seconds
    (i =   2 of  21)       3525 seconds
    (i =   3 of  21)       5375 seconds
    (i =   4 of  21)       7163 seconds
    (i =   5 of  21)       9013 seconds
    (i =   6 of  21)      10848 seconds
    (i =   7 of  21)      12648 seconds
    (i =   8 of  21)      14444 seconds
    (i =   9 of  21)      16223 seconds
    (i =  10 of  21)      17983 seconds
    (i =  11 of  21)      19747 seconds
    (i =  12 of  21)      21516 seconds
    (i =  13 of  21)      23294 seconds
    (i =  14 of  21)      25095 seconds
    (i =  15 of  21)      26887 seconds
    (i =  16 of  21)      28676 seconds
    (i =  17 of  21)      30473 seconds
    (i =  18 of  21)      32268 seconds
    (i =  19 of  21)      34059 seconds
    (i =  20 of  21)      35965 seconds
    (i =  21 of  21)      37919 seconds

    Disp220 (T)         =    -0.003761555139 [Eh]

    (i =   1 of  25)       1195 seconds
    (i =   2 of  25)       2194 seconds
    (i =   3 of  25)       3192 seconds
    (i =   4 of  25)       4187 seconds
    (i =   5 of  25)       5179 seconds
    (i =   6 of  25)       6171 seconds
    (i =   7 of  25)       7164 seconds
    (i =   8 of  25)       8156 seconds
    (i =   9 of  25)       9151 seconds
    (i =  10 of  25)      10145 seconds
    (i =  11 of  25)      11140 seconds
    (i =  12 of  25)      12138 seconds
    (i =  13 of  25)      13135 seconds
    (i =  14 of  25)      14132 seconds
    (i =  15 of  25)      15128 seconds
    (i =  16 of  25)      16121 seconds
    (i =  17 of  25)      17110 seconds
    (i =  18 of  25)      18097 seconds
    (i =  19 of  25)      19086 seconds
    (i =  20 of  25)      20077 seconds
    (i =  21 of  25)      21068 seconds
    (i =  22 of  25)      22059 seconds
    (i =  23 of  25)      23047 seconds
    (i =  24 of  25)      24038 seconds
    (i =  25 of  25)      25028 seconds

    Disp202 (T)         =    -0.003628997781 [Eh]

    Disp22 (T)          =    -0.007390552920 [Eh]

    Est. Disp220 (T)    =    -0.004057388176 [Eh]
    Est. Disp202 (T)    =    -0.003914405651 [Eh]

    Est. Disp22 (T)     =    -0.007971793827 [Eh]
    Elst13,r            =     0.000499810459 [Eh]
    Disp30              =     0.000904795363 [Eh]

    SAPT Results 
  --------------------------------------------------------------------------------------------------------
    Electrostatics                -13.52555065 [mEh]      -8.48741117 [kcal/mol]     -35.51132833 [kJ/mol]
      Elst10,r                    -14.42790957 [mEh]      -9.05364994 [kcal/mol]     -37.88047135 [kJ/mol]
      Elst12,r                      0.40254846 [mEh]       0.25260297 [kcal/mol]       1.05689084 [kJ/mol]
      Elst13,r                      0.49981046 [mEh]       0.31363580 [kcal/mol]       1.31225218 [kJ/mol]

    Exchange                       30.14014775 [mEh]      18.91322825 [kcal/mol]      79.13294701 [kJ/mol]
      Exch10                       28.29926505 [mEh]      17.75805692 [kcal/mol]      74.29971016 [kJ/mol]
      Exch10(S^2)                  28.23312805 [mEh]      17.71655533 [kcal/mol]      74.12606749 [kJ/mol]
      Exch11(S^2)                   0.70685047 [mEh]       0.44355537 [kcal/mol]       1.85583565 [kJ/mol]
      Exch12(S^2)                   1.13403222 [mEh]       0.71161596 [kcal/mol]       2.97740119 [kJ/mol]

    Induction                      -2.96227008 [mEh]      -1.85885254 [kcal/mol]      -7.77743902 [kJ/mol]
      Ind20,r                     -14.34813205 [mEh]      -9.00358879 [kcal/mol]     -37.67101551 [kJ/mol]
      Ind22                        -0.15774940 [mEh]      -0.09898924 [kcal/mol]      -0.41417099 [kJ/mol]
      Exch-Ind20,r                 12.49264564 [mEh]       7.83925349 [kcal/mol]      32.79943660 [kJ/mol]
      Exch-Ind22                    0.13734940 [mEh]       0.08618805 [kcal/mol]       0.36061080 [kJ/mol]
      delta HF,r (2)               -1.86504902 [mEh]      -1.17033593 [kcal/mol]      -4.89668552 [kJ/mol]
      delta MP2,r (2)               0.77866535 [mEh]       0.48861988 [kcal/mol]       2.04438559 [kJ/mol]

    Dispersion                    -27.13888664 [mEh]     -17.02990847 [kcal/mol]     -71.25313706 [kJ/mol]
      Disp20                      -33.31264965 [mEh]     -20.90400325 [kcal/mol]     -87.46234960 [kJ/mol]
      Disp30                        0.90479536 [mEh]       0.56776766 [kcal/mol]       2.37553990 [kJ/mol]
      Disp21                       10.48991510 [mEh]       6.58252111 [kcal/mol]      27.54126831 [kJ/mol]
      Disp22 (SDQ)                 -1.41915363 [mEh]      -0.89053235 [kcal/mol]      -3.72598734 [kJ/mol]
      Disp22 (T)                   -7.39055292 [mEh]      -4.63764197 [kcal/mol]     -19.40389402 [kJ/mol]
      Est. Disp22 (T)              -7.97179383 [mEh]      -5.00237615 [kcal/mol]     -20.92994181 [kJ/mol]
      Exch-Disp20                   4.17000000 [mEh]       2.61671450 [kcal/mol]      10.94833349 [kJ/mol]

  Total HF                         10.15082006 [mEh]       6.36973575 [kcal/mol]      26.65097439 [kJ/mol]
  Total SAPT0                     -18.99182959 [mEh]     -11.91755299 [kcal/mol]     -49.86304173 [kJ/mol]
  Total SAPT2                     -16.76879844 [mEh]     -10.52257988 [kcal/mol]     -44.02647423 [kJ/mol]
  Total SAPT2+                    -15.66983079 [mEh]      -9.83296727 [kcal/mol]     -41.14113507 [kJ/mol]
  Total SAPT2+(3)                 -14.26522497 [mEh]      -8.95156381 [kcal/mol]     -37.45334299 [kJ/mol]
  Total SAPT2+dMP2                -14.89116544 [mEh]      -9.34434739 [kcal/mol]     -39.09674948 [kJ/mol]
  Total SAPT2+(3)dMP2             -13.48655962 [mEh]      -8.46294393 [kcal/mol]     -35.40895740 [kJ/mol]

  Special recipe for scaled SAPT0 (see Manual):
    Electrostatics sSAPT0         -14.42790957 [mEh]      -9.05364994 [kcal/mol]     -37.88047135 [kJ/mol]
    Exchange sSAPT0                28.29926505 [mEh]      17.75805692 [kcal/mol]      74.29971016 [kJ/mol]
    Induction sSAPT0               -3.63253635 [mEh]      -2.27945097 [kcal/mol]      -9.53722287 [kJ/mol]
    Dispersion sSAPT0             -29.11327587 [mEh]     -18.26885642 [kcal/mol]     -76.43689528 [kJ/mol]
  Total sSAPT0                    -18.87445674 [mEh]     -11.84390042 [kcal/mol]     -49.55487934 [kJ/mol]
  --------------------------------------------------------------------------------------------------------

*** tstop() called on node151.bme.utexas.edu at Mon Jan 15 08:22:05 2024
Module time:
	user time   =  478760.77 seconds =    7979.35 minutes
	system time =    1140.13 seconds =      19.00 minutes
	total time  =      74311 seconds =    1238.52 minutes
Total time:
	user time   =  481272.29 seconds =    8021.20 minutes
	system time =    1169.74 seconds =      19.50 minutes
	total time  =      74700 seconds =    1245.00 minutes

    Psi4 stopped on: Monday, 15 January 2024 08:22AM
    Psi4 wall time for execution: 20:45:00.48

*** Psi4 exiting successfully. Buy a developer a beer!
