
    -----------------------------------------------------------------------
          Psi4: An Open-Source Ab Initio Electronic Structure Package
                               Psi4 1.5 release

                         Git: Rev {HEAD} e9f4d6d 


    D. G. A. Smith, L. A. Burns, A. C. Simmonett, R. M. Parrish,
    M. C. Schieber, R. Galvelis, P. Kraus, H. Kruse, R. Di Remigio,
    A. Alenaizan, A. M. James, S. Lehtola, J. P. Misiewicz, M. Scheurer,
    R. A. Shaw, J. B. Schriber, Y. Xie, Z. L. Glick, D. A. Sirianni,
    J. S. O'Brien, J. M. Waldrop, A. Kumar, E. G. Hohenstein,
    B. P. Pritchard, B. R. Brooks, H. F. Schaefer III, A. Yu. Sokolov,
    K. Patkowski, A. E. DePrince III, U. Bozkaya, R. A. King,
    F. A. Evangelista, J. M. Turney, T. D. Crawford, C. D. Sherrill,
    J. Chem. Phys. 152(18) 184108 (2020). https://doi.org/10.1063/5.0006002

                            Additional Code Authors
    E. T. Seidl, C. L. Janssen, E. F. Valeev, M. L. Leininger,
    J. F. Gonthier, R. M. Richard, H. R. McAlexander, M. Saitow, X. Wang,
    P. Verma, M. H. Lechner, and A. Jiang

             Previous Authors, Complete List of Code Contributors,
                       and Citations for Specific Modules
    https://github.com/psi4/psi4/blob/master/codemeta.json
    https://github.com/psi4/psi4/graphs/contributors
    http://psicode.org/psi4manual/master/introduction.html#citing-psifour

    -----------------------------------------------------------------------


    Psi4 started on: Sunday, 14 January 2024 11:37AM

    Process ID: 2489640
    Host:       node158.bme.utexas.edu
    PSIDATADIR: /opt/anaconda/envs/psi4v1.5/share/psi4
    Memory:     500.0 MiB
    Threads:    8
    
  ==> Input File <==

--------------------------------------------------------------------------
memory 80GB

molecule {
0 1
H 0.73416 -2.73714 1.78907
N 1.07053 -2.05372 1.12076
C 1.83021 -2.28443 0.0011
H 2.0989 -3.28737 -0.30805
N 2.1882 -1.17806 -0.63497
C 1.63236 -0.17459 0.13508
C 1.64002 1.22903 0.00713
N 2.33434 1.86152 -0.98341
N 0.9933 1.96332 0.92822
C 0.35708 1.32479 1.9369
H -0.1597 1.96925 2.64406
N 0.26588 0.00787 2.16903
C 0.92611 -0.68744 1.22973
H 2.04429 2.82257 -1.13064
H 2.42428 1.32417 -1.83981
--
0 1
N -2.681544316666667 -1.0078368833333333 0.1204345
H -3.2193443166666666 -1.4483368833333334 0.8574745
C -2.6025343166666666 0.3772731166666667 0.20902450000000003
O -3.1681643166666666 1.0280831166666666 1.0762645
N -1.8314043166666667 0.9268331166666667 -0.8027154999999999
C -1.1235443166666665 0.2723231166666667 -1.8225955
O -0.4511843166666666 0.9163731166666668 -2.6280955
C -1.2822843166666666 -1.1730768833333334 -1.8027055
H -0.7744043166666666 -1.7572168833333335 -2.5584355
C -2.0402443166666666 -1.7515668833333333 -0.8419355
H -2.192874316666667 -2.8247668833333335 -0.7809355
H -1.6967543166666665 1.9338231166666666 -0.7425855
 units angstrom
 no_reorient
 symmetry c1
}
set
 {scf_type DF
 basis aug-cc-pvtz
 freeze_core True
 guess SAD
}
energy('sapt2+(3)dmp2')
--------------------------------------------------------------------------

  Memory set to  74.506 GiB by Python driver.

Scratch directory: /tmp/
   => Loading Basis Set <=

    Name: AUG-CC-PVTZ
    Role: ORBITAL
    Keyword: BASIS
    atoms 1, 4, 11, 14-15, 17, 24, 26-27 entry H          line    40 file /opt/anaconda/envs/psi4v1.5/share/psi4/basis/aug-cc-pvtz.gbs 
    atoms 2, 5, 8-9, 12, 16, 20          entry N          line   285 file /opt/anaconda/envs/psi4v1.5/share/psi4/basis/aug-cc-pvtz.gbs 
    atoms 3, 6-7, 10, 13, 18, 21, 23, 25 entry C          line   239 file /opt/anaconda/envs/psi4v1.5/share/psi4/basis/aug-cc-pvtz.gbs 
    atoms 19, 22                         entry O          line   331 file /opt/anaconda/envs/psi4v1.5/share/psi4/basis/aug-cc-pvtz.gbs 

   => Loading Basis Set <=

    Name: AUG-CC-PVTZ
    Role: ORBITAL
    Keyword: BASIS
    atoms 1, 4, 11, 14-15, 17, 24, 26-27 entry H          line    40 file /opt/anaconda/envs/psi4v1.5/share/psi4/basis/aug-cc-pvtz.gbs 
    atoms 2, 5, 8-9, 12, 16, 20          entry N          line   285 file /opt/anaconda/envs/psi4v1.5/share/psi4/basis/aug-cc-pvtz.gbs 
    atoms 3, 6-7, 10, 13, 18, 21, 23, 25 entry C          line   239 file /opt/anaconda/envs/psi4v1.5/share/psi4/basis/aug-cc-pvtz.gbs 
    atoms 19, 22                         entry O          line   331 file /opt/anaconda/envs/psi4v1.5/share/psi4/basis/aug-cc-pvtz.gbs 


  //>>>>>>>>>>>>>>>>>>>>>>>>>>>>>>>>>>>//
  //              Dimer HF             //
  //<<<<<<<<<<<<<<<<<<<<<<<<<<<<<<<<<<<//


*** tstart() called on node158.bme.utexas.edu
*** at Sun Jan 14 11:37:10 2024

   => Loading Basis Set <=

    Name: AUG-CC-PVTZ
    Role: ORBITAL
    Keyword: BASIS
    atoms 1, 4, 11, 14-15, 17, 24, 26-27 entry H          line    40 file /opt/anaconda/envs/psi4v1.5/share/psi4/basis/aug-cc-pvtz.gbs 
    atoms 2, 5, 8-9, 12, 16, 20          entry N          line   285 file /opt/anaconda/envs/psi4v1.5/share/psi4/basis/aug-cc-pvtz.gbs 
    atoms 3, 6-7, 10, 13, 18, 21, 23, 25 entry C          line   239 file /opt/anaconda/envs/psi4v1.5/share/psi4/basis/aug-cc-pvtz.gbs 
    atoms 19, 22                         entry O          line   331 file /opt/anaconda/envs/psi4v1.5/share/psi4/basis/aug-cc-pvtz.gbs 


         ---------------------------------------------------------
                                   SCF
               by Justin Turney, Rob Parrish, Andy Simmonett
                          and Daniel G. A. Smith
                              RHF Reference
                        8 Threads,  76293 MiB Core
         ---------------------------------------------------------

  ==> Geometry <==

    Molecular point group: c1
    Full point group: C1

    Geometry (in Angstrom), charge = 0, multiplicity = 1:

       Center              X                  Y                   Z               Mass       
    ------------   -----------------  -----------------  -----------------  -----------------
         H            0.871098221615    -2.736870330700     1.835362111918     1.007825032230
         N            1.207468221615    -2.053450330700     1.167052111918    14.003074004430
         C            1.967148221615    -2.284160330700     0.047392111918    12.000000000000
         H            2.235838221615    -3.287100330700    -0.261757888082     1.007825032230
         N            2.325138221615    -1.177790330700    -0.588677888082    14.003074004430
         C            1.769298221615    -0.174320330700     0.181372111918    12.000000000000
         C            1.776958221615     1.229299669300     0.053422111918    12.000000000000
         N            2.471278221615     1.861789669300    -0.937117888082    14.003074004430
         N            1.130238221615     1.963589669300     0.974512111918    14.003074004430
         C            0.494018221615     1.325059669300     1.983192111918    12.000000000000
         H           -0.022761778385     1.969519669300     2.690352111918     1.007825032230
         N            0.402818221615     0.008139669300     2.215322111918    14.003074004430
         C            1.063048221615    -0.687170330700     1.276022111918    12.000000000000
         H            2.181228221615     2.822839669300    -1.084347888082     1.007825032230
         H            2.561218221615     1.324439669300    -1.793517888082     1.007825032230
         N           -2.544606095051    -1.007567214033     0.166726611918    14.003074004430
         H           -3.082406095051    -1.448067214033     0.903766611918     1.007825032230
         C           -2.465596095051     0.377542785967     0.255316611918    12.000000000000
         O           -3.031226095051     1.028352785967     1.122556611918    15.994914619570
         N           -1.694466095051     0.927102785967    -0.756423388082    14.003074004430
         C           -0.986606095051     0.272592785967    -1.776303388082    12.000000000000
         O           -0.314246095051     0.916642785967    -2.581803388082    15.994914619570
         C           -1.145346095051    -1.172807214033    -1.756413388082    12.000000000000
         H           -0.637466095051    -1.756947214033    -2.512143388082     1.007825032230
         C           -1.903306095051    -1.751297214033    -0.795643388082    12.000000000000
         H           -2.055936095051    -2.824497214033    -0.734643388082     1.007825032230
         H           -1.559816095051     1.934092785967    -0.696293388082     1.007825032230

  Running in c1 symmetry.

  Rotational constants: A =      0.01936  B =      0.01377  C =      0.01343 [cm^-1]
  Rotational constants: A =    580.44720  B =    412.82755  C =    402.53820 [MHz]
  Nuclear repulsion = 1356.108596944769261

  Charge       = 0
  Multiplicity = 1
  Electrons    = 128
  Nalpha       = 64
  Nbeta        = 64

  ==> Algorithm <==

  SCF Algorithm Type is DF.
  DIIS enabled.
  MOM disabled.
  Fractional occupation disabled.
  Guess Type is SAD.
  Energy threshold   = 1.00e-08
  Density threshold  = 1.00e-08
  Integral threshold = 1.00e-12

  ==> Primary Basis <==

  Basis Set: AUG-CC-PVTZ
    Blend: AUG-CC-PVTZ
    Number of shells: 333
    Number of basis functions: 1035
    Number of Cartesian functions: 1215
    Spherical Harmonics?: true
    Max angular momentum: 3

   => Loading Basis Set <=

    Name: (AUG-CC-PVTZ AUX)
    Role: JKFIT
    Keyword: DF_BASIS_SCF
    atoms 1, 4, 11, 14-15, 17, 24, 26-27 entry H          line    70 file /opt/anaconda/envs/psi4v1.5/share/psi4/basis/aug-cc-pvtz-jkfit.gbs 
    atoms 2, 5, 8-9, 12, 16, 20          entry N          line   224 file /opt/anaconda/envs/psi4v1.5/share/psi4/basis/aug-cc-pvtz-jkfit.gbs 
    atoms 3, 6-7, 10, 13, 18, 21, 23, 25 entry C          line   162 file /opt/anaconda/envs/psi4v1.5/share/psi4/basis/aug-cc-pvtz-jkfit.gbs 
    atoms 19, 22                         entry O          line   286 file /opt/anaconda/envs/psi4v1.5/share/psi4/basis/aug-cc-pvtz-jkfit.gbs 

  ==> Integral Setup <==

  ==> DiskDFJK: Density-Fitted J/K Matrices <==

    J tasked:                  Yes
    K tasked:                  Yes
    wK tasked:                  No
    OpenMP threads:              8
    Integrals threads:           8
    Memory [MiB]:            57220
    Algorithm:                Core
    Integral Cache:           SAVE
    Schwarz Cutoff:          1E-12
    Fitting Condition:       1E-10

   => Auxiliary Basis Set <=

  Basis Set: (AUG-CC-PVTZ AUX)
    Blend: AUG-CC-PVTZ-JKFIT
    Number of shells: 666
    Number of basis functions: 2286
    Number of Cartesian functions: 2853
    Spherical Harmonics?: true
    Max angular momentum: 4

  Minimum eigenvalue in the overlap matrix is 8.0066024176E-07.
  Reciprocal condition number of the overlap matrix is 3.5309924390E-08.
    Using symmetric orthogonalization.

  ==> Pre-Iterations <==

  SCF Guess: Superposition of Atomic Densities via on-the-fly atomic UHF (no occupation information).

   -------------------------
    Irrep   Nso     Nmo    
   -------------------------
     A       1035    1035 
   -------------------------
    Total    1035    1035
   -------------------------

  ==> Iterations <==

                           Total Energy        Delta E     RMS |[F,P]|

   @DF-RHF iter SAD:  -876.50977867246888   -8.76510e+02   0.00000e+00 
   @DF-RHF iter   1:  -876.81729467919320   -3.07516e-01   9.62814e-04 DIIS
   @DF-RHF iter   2:  -877.16353372709068   -3.46239e-01   5.77971e-04 DIIS
   @DF-RHF iter   3:  -877.28863466711732   -1.25101e-01   1.27378e-04 DIIS
   @DF-RHF iter   4:  -877.29734812742004   -8.71346e-03   5.47626e-05 DIIS
   @DF-RHF iter   5:  -877.29917361686057   -1.82549e-03   1.05710e-05 DIIS
   @DF-RHF iter   6:  -877.29934024660020   -1.66630e-04   5.56076e-06 DIIS
   @DF-RHF iter   7:  -877.29938345942310   -4.32128e-05   2.33950e-06 DIIS
   @DF-RHF iter   8:  -877.29939169766317   -8.23824e-06   9.09192e-07 DIIS
   @DF-RHF iter   9:  -877.29939282683733   -1.12917e-06   3.76889e-07 DIIS
   @DF-RHF iter  10:  -877.29939305935102   -2.32514e-07   1.45836e-07 DIIS
   @DF-RHF iter  11:  -877.29939310085183   -4.15008e-08   6.78768e-08 DIIS
   @DF-RHF iter  12:  -877.29939310897032   -8.11849e-09   2.77364e-08 DIIS
   @DF-RHF iter  13:  -877.29939311040459   -1.43427e-09   1.13193e-08 DIIS
   @DF-RHF iter  14:  -877.29939311064902   -2.44427e-10   5.30220e-09 DIIS
  Energy and wave function converged.


  ==> Post-Iterations <==

    Orbital Energies [Eh]
    ---------------------

    Doubly Occupied:                                                      

       1A    -20.544015     2A    -20.540544     3A    -15.642964  
       4A    -15.640785     5A    -15.625689     6A    -15.576442  
       7A    -15.575502     8A    -15.565198     9A    -15.555690  
      10A    -11.417882    11A    -11.382501    12A    -11.341766  
      13A    -11.337393    14A    -11.331503    15A    -11.323653  
      16A    -11.315715    17A    -11.257450    18A    -11.255922  
      19A     -1.427180    20A     -1.389943    21A     -1.371573  
      22A     -1.306816    23A     -1.298945    24A     -1.245202  
      25A     -1.239842    26A     -1.188841    27A     -1.152828  
      28A     -1.084857    29A     -1.035497    30A     -0.929022  
      31A     -0.897611    32A     -0.895236    33A     -0.878472  
      34A     -0.851250    35A     -0.801086    36A     -0.774943  
      37A     -0.759475    38A     -0.732084    39A     -0.710049  
      40A     -0.696533    41A     -0.674034    42A     -0.671238  
      43A     -0.667644    44A     -0.648300    45A     -0.639783  
      46A     -0.631188    47A     -0.611120    48A     -0.608731  
      49A     -0.597566    50A     -0.593240    51A     -0.570505  
      52A     -0.554570    53A     -0.520490    54A     -0.500951  
      55A     -0.497775    56A     -0.479594    57A     -0.455687  
      58A     -0.448066    59A     -0.434580    60A     -0.429412  
      61A     -0.413187    62A     -0.378500    63A     -0.366180  
      64A     -0.314195  

    Virtual:                                                              

      65A      0.008056    66A      0.025234    67A      0.029260  
      68A      0.038286    69A      0.045882    70A      0.047715  
      71A      0.049600    72A      0.053001    73A      0.061327  
      74A      0.070368    75A      0.077267    76A      0.078552  
      77A      0.082334    78A      0.085879    79A      0.086425  
      80A      0.091362    81A      0.091969    82A      0.097319  
      83A      0.105252    84A      0.106342    85A      0.109531  
      86A      0.115119    87A      0.120678    88A      0.121252  
      89A      0.124041    90A      0.125683    91A      0.127295  
      92A      0.130911    93A      0.133867    94A      0.136096  
      95A      0.137531    96A      0.139601    97A      0.142352  
      98A      0.145395    99A      0.147202   100A      0.153297  
     101A      0.154643   102A      0.163031   103A      0.166414  
     104A      0.168848   105A      0.177403   106A      0.180901  
     107A      0.182904   108A      0.184611   109A      0.189349  
     110A      0.192704   111A      0.198186   112A      0.202064  
     113A      0.206972   114A      0.211246   115A      0.212834  
     116A      0.217615   117A      0.221565   118A      0.226252  
     119A      0.231430   120A      0.234571   121A      0.235345  
     122A      0.239856   123A      0.242951   124A      0.244668  
     125A      0.247088   126A      0.252974   127A      0.253446  
     128A      0.256905   129A      0.263709   130A      0.266995  
     131A      0.273449   132A      0.273878   133A      0.276662  
     134A      0.281084   135A      0.284496   136A      0.288761  
     137A      0.290660   138A      0.293170   139A      0.297639  
     140A      0.299401   141A      0.300890   142A      0.304528  
     143A      0.306235   144A      0.312509   145A      0.316877  
     146A      0.320064   147A      0.326204   148A      0.328810  
     149A      0.332843   150A      0.336398   151A      0.339125  
     152A      0.343249   153A      0.344608   154A      0.350594  
     155A      0.353600   156A      0.355099   157A      0.363182  
     158A      0.364017   159A      0.370338   160A      0.372062  
     161A      0.377003   162A      0.378865   163A      0.381749  
     164A      0.386322   165A      0.390932   166A      0.396325  
     167A      0.401126   168A      0.404190   169A      0.409198  
     170A      0.411799   171A      0.418742   172A      0.420424  
     173A      0.421066   174A      0.424754   175A      0.429656  
     176A      0.430766   177A      0.434125   178A      0.439578  
     179A      0.442522   180A      0.445454   181A      0.448842  
     182A      0.451121   183A      0.455815   184A      0.458105  
     185A      0.461641   186A      0.466032   187A      0.467368  
     188A      0.471140   189A      0.477445   190A      0.481249  
     191A      0.483370   192A      0.486178   193A      0.488319  
     194A      0.494163   195A      0.500074   196A      0.504210  
     197A      0.505980   198A      0.510613   199A      0.514334  
     200A      0.516013   201A      0.519283   202A      0.523233  
     203A      0.524760   204A      0.527913   205A      0.533451  
     206A      0.534205   207A      0.539519   208A      0.541415  
     209A      0.544997   210A      0.546980   211A      0.547697  
     212A      0.556421   213A      0.561190   214A      0.563878  
     215A      0.564624   216A      0.571163   217A      0.573195  
     218A      0.579582   219A      0.583304   220A      0.590384  
     221A      0.593535   222A      0.595972   223A      0.601155  
     224A      0.606791   225A      0.609208   226A      0.616225  
     227A      0.621148   228A      0.623914   229A      0.628614  
     230A      0.631552   231A      0.638923   232A      0.640950  
     233A      0.642375   234A      0.647199   235A      0.655834  
     236A      0.656759   237A      0.660514   238A      0.662932  
     239A      0.667271   240A      0.670283   241A      0.676053  
     242A      0.685214   243A      0.687041   244A      0.690025  
     245A      0.697504   246A      0.702953   247A      0.707751  
     248A      0.709687   249A      0.716412   250A      0.722705  
     251A      0.725427   252A      0.731548   253A      0.738153  
     254A      0.741133   255A      0.744338   256A      0.751960  
     257A      0.752601   258A      0.757464   259A      0.766092  
     260A      0.769522   261A      0.772662   262A      0.781550  
     263A      0.783376   264A      0.788316   265A      0.792777  
     266A      0.795227   267A      0.796088   268A      0.802384  
     269A      0.809634   270A      0.816826   271A      0.819179  
     272A      0.821901   273A      0.826800   274A      0.828432  
     275A      0.833340   276A      0.839044   277A      0.844493  
     278A      0.847419   279A      0.850987   280A      0.856751  
     281A      0.858249   282A      0.865426   283A      0.871922  
     284A      0.877540   285A      0.879397   286A      0.887046  
     287A      0.890238   288A      0.894758   289A      0.902574  
     290A      0.907774   291A      0.912836   292A      0.915483  
     293A      0.917364   294A      0.920565   295A      0.928727  
     296A      0.931576   297A      0.938710   298A      0.940469  
     299A      0.949792   300A      0.951818   301A      0.953086  
     302A      0.958895   303A      0.963179   304A      0.965136  
     305A      0.967082   306A      0.969259   307A      0.978468  
     308A      0.986702   309A      0.988021   310A      0.994924  
     311A      0.995184   312A      0.997463   313A      1.006036  
     314A      1.010270   315A      1.012030   316A      1.014446  
     317A      1.019939   318A      1.024338   319A      1.030095  
     320A      1.033574   321A      1.035936   322A      1.044055  
     323A      1.048342   324A      1.049797   325A      1.058873  
     326A      1.060529   327A      1.065397   328A      1.069788  
     329A      1.074777   330A      1.080887   331A      1.083928  
     332A      1.087463   333A      1.090745   334A      1.097971  
     335A      1.106108   336A      1.108214   337A      1.111401  
     338A      1.112590   339A      1.121071   340A      1.122309  
     341A      1.125567   342A      1.132617   343A      1.134301  
     344A      1.140675   345A      1.149478   346A      1.153095  
     347A      1.154073   348A      1.157415   349A      1.166208  
     350A      1.169973   351A      1.173563   352A      1.178853  
     353A      1.185738   354A      1.187382   355A      1.191737  
     356A      1.193908   357A      1.202363   358A      1.203363  
     359A      1.210429   360A      1.212021   361A      1.216210  
     362A      1.218023   363A      1.224483   364A      1.230087  
     365A      1.232238   366A      1.237049   367A      1.244854  
     368A      1.246516   369A      1.249321   370A      1.254122  
     371A      1.258339   372A      1.260890   373A      1.273191  
     374A      1.278281   375A      1.282022   376A      1.284565  
     377A      1.295215   378A      1.297813   379A      1.301410  
     380A      1.308333   381A      1.312696   382A      1.317868  
     383A      1.320359   384A      1.322202   385A      1.326869  
     386A      1.337665   387A      1.343530   388A      1.348336  
     389A      1.350133   390A      1.351281   391A      1.358665  
     392A      1.363322   393A      1.366468   394A      1.372814  
     395A      1.377375   396A      1.382466   397A      1.390411  
     398A      1.394177   399A      1.399167   400A      1.403419  
     401A      1.413277   402A      1.415986   403A      1.420686  
     404A      1.422393   405A      1.432003   406A      1.434426  
     407A      1.435867   408A      1.443023   409A      1.447870  
     410A      1.452135   411A      1.461023   412A      1.468975  
     413A      1.477382   414A      1.478643   415A      1.486661  
     416A      1.489524   417A      1.490915   418A      1.497119  
     419A      1.505063   420A      1.509683   421A      1.514623  
     422A      1.517303   423A      1.530739   424A      1.532820  
     425A      1.536703   426A      1.542187   427A      1.547100  
     428A      1.558951   429A      1.564574   430A      1.566233  
     431A      1.574724   432A      1.582216   433A      1.583833  
     434A      1.589910   435A      1.601287   436A      1.602663  
     437A      1.606093   438A      1.611051   439A      1.613022  
     440A      1.619371   441A      1.620252   442A      1.628164  
     443A      1.631753   444A      1.636950   445A      1.644233  
     446A      1.650510   447A      1.662959   448A      1.669354  
     449A      1.673406   450A      1.676683   451A      1.682715  
     452A      1.684909   453A      1.690128   454A      1.703741  
     455A      1.706786   456A      1.712263   457A      1.713669  
     458A      1.718001   459A      1.729632   460A      1.738181  
     461A      1.741147   462A      1.747306   463A      1.747695  
     464A      1.753846   465A      1.758377   466A      1.762391  
     467A      1.770796   468A      1.776622   469A      1.785149  
     470A      1.791113   471A      1.799565   472A      1.806251  
     473A      1.812696   474A      1.819634   475A      1.825030  
     476A      1.832537   477A      1.833789   478A      1.842388  
     479A      1.849300   480A      1.855550   481A      1.864261  
     482A      1.873757   483A      1.883055   484A      1.894040  
     485A      1.898723   486A      1.902400   487A      1.904074  
     488A      1.914239   489A      1.920199   490A      1.927192  
     491A      1.927816   492A      1.928802   493A      1.936239  
     494A      1.949289   495A      1.952136   496A      1.962770  
     497A      1.968025   498A      1.969552   499A      1.986660  
     500A      1.992080   501A      2.003605   502A      2.009375  
     503A      2.018512   504A      2.020018   505A      2.022593  
     506A      2.040984   507A      2.045332   508A      2.058452  
     509A      2.064156   510A      2.069997   511A      2.080767  
     512A      2.086095   513A      2.096584   514A      2.104092  
     515A      2.109165   516A      2.120892   517A      2.124087  
     518A      2.131161   519A      2.137787   520A      2.144693  
     521A      2.145865   522A      2.154677   523A      2.157033  
     524A      2.163811   525A      2.171634   526A      2.176153  
     527A      2.179938   528A      2.185786   529A      2.193664  
     530A      2.197155   531A      2.203190   532A      2.210130  
     533A      2.218127   534A      2.225337   535A      2.233380  
     536A      2.237228   537A      2.245083   538A      2.251695  
     539A      2.253283   540A      2.270675   541A      2.280422  
     542A      2.285257   543A      2.291551   544A      2.298637  
     545A      2.301711   546A      2.308503   547A      2.316833  
     548A      2.322935   549A      2.327850   550A      2.330140  
     551A      2.339430   552A      2.343799   553A      2.353524  
     554A      2.364828   555A      2.367261   556A      2.381878  
     557A      2.386189   558A      2.392731   559A      2.399337  
     560A      2.407470   561A      2.416587   562A      2.424819  
     563A      2.425332   564A      2.432139   565A      2.435096  
     566A      2.441849   567A      2.446780   568A      2.451843  
     569A      2.454813   570A      2.458822   571A      2.473079  
     572A      2.483708   573A      2.485590   574A      2.486772  
     575A      2.503145   576A      2.506024   577A      2.519594  
     578A      2.523772   579A      2.532824   580A      2.539163  
     581A      2.542117   582A      2.553572   583A      2.559430  
     584A      2.563529   585A      2.570987   586A      2.574927  
     587A      2.597520   588A      2.606790   589A      2.614682  
     590A      2.622081   591A      2.624931   592A      2.628019  
     593A      2.632341   594A      2.641684   595A      2.649274  
     596A      2.665705   597A      2.670457   598A      2.674495  
     599A      2.680772   600A      2.694686   601A      2.697150  
     602A      2.703353   603A      2.709743   604A      2.713980  
     605A      2.719381   606A      2.728048   607A      2.734938  
     608A      2.738568   609A      2.745336   610A      2.752145  
     611A      2.756874   612A      2.771937   613A      2.780851  
     614A      2.790079   615A      2.805526   616A      2.816249  
     617A      2.824541   618A      2.830147   619A      2.843941  
     620A      2.857091   621A      2.861921   622A      2.865418  
     623A      2.869834   624A      2.884522   625A      2.890856  
     626A      2.898154   627A      2.903314   628A      2.913243  
     629A      2.940379   630A      2.943226   631A      2.955825  
     632A      2.966875   633A      2.975290   634A      2.980701  
     635A      2.999795   636A      3.021134   637A      3.037356  
     638A      3.042894   639A      3.059680   640A      3.064818  
     641A      3.079428   642A      3.084579   643A      3.091432  
     644A      3.112800   645A      3.127033   646A      3.139603  
     647A      3.155091   648A      3.183899   649A      3.195633  
     650A      3.221542   651A      3.229151   652A      3.247036  
     653A      3.263472   654A      3.275698   655A      3.283850  
     656A      3.287605   657A      3.308888   658A      3.314946  
     659A      3.319818   660A      3.352399   661A      3.365441  
     662A      3.380375   663A      3.393457   664A      3.400230  
     665A      3.407147   666A      3.413123   667A      3.443823  
     668A      3.451669   669A      3.461893   670A      3.469669  
     671A      3.479350   672A      3.481963   673A      3.498940  
     674A      3.506631   675A      3.508972   676A      3.518407  
     677A      3.540770   678A      3.547047   679A      3.567116  
     680A      3.570207   681A      3.578578   682A      3.588074  
     683A      3.591204   684A      3.597691   685A      3.611715  
     686A      3.625212   687A      3.628855   688A      3.637321  
     689A      3.650193   690A      3.665597   691A      3.676106  
     692A      3.683714   693A      3.690002   694A      3.694201  
     695A      3.709185   696A      3.719337   697A      3.726955  
     698A      3.744098   699A      3.747898   700A      3.751769  
     701A      3.760059   702A      3.770983   703A      3.775660  
     704A      3.777986   705A      3.786231   706A      3.794481  
     707A      3.806283   708A      3.819281   709A      3.824318  
     710A      3.830381   711A      3.834453   712A      3.849546  
     713A      3.857796   714A      3.862663   715A      3.865576  
     716A      3.870330   717A      3.878111   718A      3.887514  
     719A      3.893018   720A      3.898441   721A      3.912818  
     722A      3.919808   723A      3.932006   724A      3.939276  
     725A      3.949490   726A      3.964346   727A      3.967499  
     728A      3.969283   729A      3.986082   730A      3.989563  
     731A      4.000760   732A      4.005150   733A      4.021427  
     734A      4.027277   735A      4.033398   736A      4.040002  
     737A      4.051036   738A      4.063901   739A      4.072495  
     740A      4.077509   741A      4.087556   742A      4.093114  
     743A      4.100967   744A      4.105788   745A      4.107892  
     746A      4.126151   747A      4.129978   748A      4.140622  
     749A      4.142500   750A      4.158218   751A      4.177524  
     752A      4.183263   753A      4.195851   754A      4.199837  
     755A      4.201092   756A      4.206007   757A      4.214591  
     758A      4.222221   759A      4.225208   760A      4.229834  
     761A      4.240786   762A      4.255867   763A      4.261959  
     764A      4.270287   765A      4.275665   766A      4.285194  
     767A      4.293219   768A      4.304875   769A      4.308303  
     770A      4.324538   771A      4.327610   772A      4.337862  
     773A      4.347498   774A      4.354351   775A      4.362695  
     776A      4.368299   777A      4.377910   778A      4.381803  
     779A      4.392365   780A      4.400041   781A      4.411177  
     782A      4.414412   783A      4.420901   784A      4.430623  
     785A      4.436279   786A      4.438251   787A      4.449531  
     788A      4.454088   789A      4.466495   790A      4.469782  
     791A      4.478288   792A      4.486169   793A      4.492773  
     794A      4.506795   795A      4.510922   796A      4.527850  
     797A      4.541475   798A      4.551658   799A      4.560125  
     800A      4.564738   801A      4.583115   802A      4.592950  
     803A      4.612839   804A      4.615177   805A      4.628443  
     806A      4.640019   807A      4.645269   808A      4.659294  
     809A      4.660979   810A      4.669785   811A      4.687909  
     812A      4.700793   813A      4.702830   814A      4.712284  
     815A      4.718699   816A      4.725572   817A      4.735814  
     818A      4.745475   819A      4.750963   820A      4.766619  
     821A      4.776946   822A      4.793816   823A      4.805170  
     824A      4.806964   825A      4.824800   826A      4.830003  
     827A      4.844462   828A      4.854355   829A      4.859874  
     830A      4.882454   831A      4.893745   832A      4.907161  
     833A      4.910418   834A      4.921936   835A      4.928342  
     836A      4.932269   837A      4.954942   838A      4.960079  
     839A      4.984041   840A      5.003012   841A      5.012920  
     842A      5.029381   843A      5.033088   844A      5.038862  
     845A      5.043009   846A      5.053636   847A      5.066654  
     848A      5.075776   849A      5.087775   850A      5.105401  
     851A      5.119153   852A      5.137072   853A      5.142422  
     854A      5.148621   855A      5.152896   856A      5.173332  
     857A      5.180404   858A      5.190604   859A      5.205011  
     860A      5.209618   861A      5.222401   862A      5.239254  
     863A      5.260630   864A      5.268543   865A      5.290610  
     866A      5.293549   867A      5.304998   868A      5.311458  
     869A      5.325533   870A      5.336766   871A      5.359944  
     872A      5.370948   873A      5.373337   874A      5.384294  
     875A      5.400698   876A      5.407162   877A      5.414271  
     878A      5.435627   879A      5.453021   880A      5.463801  
     881A      5.474729   882A      5.480273   883A      5.493606  
     884A      5.511144   885A      5.519529   886A      5.527523  
     887A      5.532830   888A      5.551641   889A      5.557205  
     890A      5.559689   891A      5.564674   892A      5.595382  
     893A      5.606600   894A      5.620118   895A      5.634848  
     896A      5.642979   897A      5.647865   898A      5.664132  
     899A      5.680837   900A      5.685725   901A      5.698775  
     902A      5.708296   903A      5.720753   904A      5.730559  
     905A      5.733735   906A      5.734297   907A      5.756694  
     908A      5.772838   909A      5.788795   910A      5.793181  
     911A      5.793533   912A      5.805879   913A      5.817798  
     914A      5.826703   915A      5.830206   916A      5.839648  
     917A      5.856703   918A      5.882552   919A      5.891023  
     920A      5.910901   921A      5.916025   922A      5.933237  
     923A      5.940173   924A      5.951384   925A      5.958735  
     926A      5.976194   927A      5.989561   928A      5.999150  
     929A      6.012270   930A      6.021498   931A      6.034430  
     932A      6.035838   933A      6.043748   934A      6.059630  
     935A      6.093194   936A      6.105906   937A      6.123154  
     938A      6.138876   939A      6.156995   940A      6.166243  
     941A      6.180500   942A      6.189720   943A      6.200707  
     944A      6.212421   945A      6.241651   946A      6.254437  
     947A      6.259097   948A      6.284352   949A      6.287191  
     950A      6.304465   951A      6.308796   952A      6.356440  
     953A      6.412797   954A      6.486952   955A      6.497517  
     956A      6.533730   957A      6.541923   958A      6.556839  
     959A      6.569226   960A      6.620031   961A      6.631347  
     962A      6.640721   963A      6.654939   964A      6.695248  
     965A      6.717275   966A      6.723164   967A      6.741458  
     968A      6.753305   969A      6.775751   970A      6.788559  
     971A      6.797593   972A      6.805937   973A      6.823072  
     974A      6.851656   975A      6.855496   976A      6.879144  
     977A      6.881505   978A      6.892636   979A      6.907060  
     980A      6.965358   981A      6.989416   982A      7.000579  
     983A      7.023253   984A      7.035641   985A      7.060521  
     986A      7.074202   987A      7.091351   988A      7.108381  
     989A      7.134803   990A      7.209152   991A      7.214166  
     992A      7.218057   993A      7.292125   994A      7.302447  
     995A      7.364298   996A      7.378359   997A      7.392069  
     998A      7.431409   999A      7.453136  1000A      7.456597  
    1001A      7.483564  1002A      7.494902  1003A      7.515770  
    1004A      7.597239  1005A      7.647643  1006A      7.733520  
    1007A      7.787884  1008A      7.804510  1009A      7.841958  
    1010A      7.865841  1011A      7.877091  1012A      7.907605  
    1013A      7.962829  1014A      8.001363  1015A      8.012266  
    1016A      8.049678  1017A      8.107858  1018A     16.091452  
    1019A     16.127470  1020A     16.185118  1021A     16.349952  
    1022A     16.499710  1023A     16.636863  1024A     17.103247  
    1025A     17.893258  1026A     18.310329  1027A     18.357899  
    1028A     19.134575  1029A     19.456886  1030A     19.595598  
    1031A     19.842813  1032A     20.177732  1033A     20.314161  
    1034A     21.030029  1035A     21.366369  

    Final Occupation by Irrep:
              A 
    DOCC [    64 ]

  @DF-RHF Final Energy:  -877.29939311064902

   => Energetics <=

    Nuclear Repulsion Energy =           1356.1085969447692605
    One-Electron Energy =               -3891.6071092956108259
    Two-Electron Energy =                1658.1991192401924309
    Total Energy =                       -877.2993931106489072

Computation Completed


Properties will be evaluated at   0.000000,   0.000000,   0.000000 [a0]

Properties computed using the SCF density matrix

  Nuclear Dipole Moment: [e a0]
     X:     0.4346      Y:    -3.7445      Z:    -1.5634

  Electronic Dipole Moment: [e a0]
     X:    -0.9335      Y:     1.0112      Z:     1.6322

  Dipole Moment: [e a0]
     X:    -0.4989      Y:    -2.7333      Z:     0.0689     Total:     2.7793

  Dipole Moment: [D]
     X:    -1.2680      Y:    -6.9473      Z:     0.1751     Total:     7.0642


*** tstop() called on node158.bme.utexas.edu at Sun Jan 14 11:38:58 2024
Module time:
	user time   =     724.53 seconds =      12.08 minutes
	system time =       7.98 seconds =       0.13 minutes
	total time  =        108 seconds =       1.80 minutes
Total time:
	user time   =     724.53 seconds =      12.08 minutes
	system time =       7.98 seconds =       0.13 minutes
	total time  =        108 seconds =       1.80 minutes

*** tstart() called on node158.bme.utexas.edu
*** at Sun Jan 14 11:38:58 2024


  //>>>>>>>>>>>>>>>>>>>>>>>>>>>>>>>>>>>//
  //               DFMP2               //
  //<<<<<<<<<<<<<<<<<<<<<<<<<<<<<<<<<<<//

   => Loading Basis Set <=

    Name: (AUG-CC-PVTZ AUX)
    Role: RIFIT
    Keyword: DF_BASIS_MP2
    atoms 1, 4, 11, 14-15, 17, 24, 26-27 entry H          line    30 file /opt/anaconda/envs/psi4v1.5/share/psi4/basis/aug-cc-pvtz-ri.gbs 
    atoms 2, 5, 8-9, 12, 16, 20          entry N          line   206 file /opt/anaconda/envs/psi4v1.5/share/psi4/basis/aug-cc-pvtz-ri.gbs 
    atoms 3, 6-7, 10, 13, 18, 21, 23, 25 entry C          line   148 file /opt/anaconda/envs/psi4v1.5/share/psi4/basis/aug-cc-pvtz-ri.gbs 
    atoms 19, 22                         entry O          line   264 file /opt/anaconda/envs/psi4v1.5/share/psi4/basis/aug-cc-pvtz-ri.gbs 

	 --------------------------------------------------------
	                          DF-MP2                         
	      2nd-Order Density-Fitted Moller-Plesset Theory     
	              RMP2 Wavefunction,   8 Threads             
	                                                         
	        Rob Parrish, Justin Turney, Andy Simmonett,      
	           Ed Hohenstein, and C. David Sherrill          
	 --------------------------------------------------------

   => Auxiliary Basis Set <=

  Basis Set: (AUG-CC-PVTZ AUX)
    Blend: AUG-CC-PVTZ-RI
    Number of shells: 630
    Number of basis functions: 2322
    Number of Cartesian functions: 2943
    Spherical Harmonics?: true
    Max angular momentum: 4

	 --------------------------------------------------------
	                 NBF =  1035, NAUX =  2322
	 --------------------------------------------------------
	   CLASS    FOCC     OCC    AOCC    AVIR     VIR    FVIR
	   PAIRS      18      64      46     971     971       0
	 --------------------------------------------------------

	 Will save fitting metric to file 97.

	-----------------------------------------------------------
	 ==================> DF-MP2 Energies <==================== 
	-----------------------------------------------------------
	 Reference Energy          =    -877.2993931106490209 [Eh]
	 Singles Energy            =      -0.0000000000000000 [Eh]
	 Same-Spin Energy          =      -0.8797690693429119 [Eh]
	 Opposite-Spin Energy      =      -2.4466330992293668 [Eh]
	 Correlation Energy        =      -3.3264021685722787 [Eh]
	 Total Energy              =    -880.6257952792212791 [Eh]
	-----------------------------------------------------------
	 ================> DF-SCS-MP2 Energies <================== 
	-----------------------------------------------------------
	 SCS Same-Spin Scale       =       0.3333333333333333 [-]
	 SCS Opposite-Spin Scale   =       1.2000000000000000 [-]
	 SCS Same-Spin Energy      =      -0.2932563564476373 [Eh]
	 SCS Opposite-Spin Energy  =      -2.9359597190752402 [Eh]
	 SCS Correlation Energy    =      -3.2292160755228774 [Eh]
	 SCS Total Energy          =    -880.5286091861719342 [Eh]
	-----------------------------------------------------------


*** tstop() called on node158.bme.utexas.edu at Sun Jan 14 11:39:31 2024
Module time:
	user time   =     198.57 seconds =       3.31 minutes
	system time =       3.30 seconds =       0.05 minutes
	total time  =         33 seconds =       0.55 minutes
Total time:
	user time   =     923.10 seconds =      15.38 minutes
	system time =      11.28 seconds =       0.19 minutes
	total time  =        141 seconds =       2.35 minutes

  //>>>>>>>>>>>>>>>>>>>>>>>>>>>>>>>>>>>//
  //            Monomer A HF           //
  //<<<<<<<<<<<<<<<<<<<<<<<<<<<<<<<<<<<//


*** tstart() called on node158.bme.utexas.edu
*** at Sun Jan 14 11:39:31 2024

   => Loading Basis Set <=

    Name: AUG-CC-PVTZ
    Role: ORBITAL
    Keyword: BASIS
    atoms 1, 4, 11, 14-15, 17, 24, 26-27 entry H          line    40 file /opt/anaconda/envs/psi4v1.5/share/psi4/basis/aug-cc-pvtz.gbs 
    atoms 2, 5, 8-9, 12, 16, 20          entry N          line   285 file /opt/anaconda/envs/psi4v1.5/share/psi4/basis/aug-cc-pvtz.gbs 
    atoms 3, 6-7, 10, 13, 18, 21, 23, 25 entry C          line   239 file /opt/anaconda/envs/psi4v1.5/share/psi4/basis/aug-cc-pvtz.gbs 
    atoms 19, 22                         entry O          line   331 file /opt/anaconda/envs/psi4v1.5/share/psi4/basis/aug-cc-pvtz.gbs 


         ---------------------------------------------------------
                                   SCF
               by Justin Turney, Rob Parrish, Andy Simmonett
                          and Daniel G. A. Smith
                              RHF Reference
                        8 Threads,  76293 MiB Core
         ---------------------------------------------------------

  ==> Geometry <==

    Molecular point group: c1
    Full point group: C1

    Geometry (in Angstrom), charge = 0, multiplicity = 1:

       Center              X                  Y                   Z               Mass       
    ------------   -----------------  -----------------  -----------------  -----------------
         H            0.871098221615    -2.736870330700     1.835362111918     1.007825032230
         N            1.207468221615    -2.053450330700     1.167052111918    14.003074004430
         C            1.967148221615    -2.284160330700     0.047392111918    12.000000000000
         H            2.235838221615    -3.287100330700    -0.261757888082     1.007825032230
         N            2.325138221615    -1.177790330700    -0.588677888082    14.003074004430
         C            1.769298221615    -0.174320330700     0.181372111918    12.000000000000
         C            1.776958221615     1.229299669300     0.053422111918    12.000000000000
         N            2.471278221615     1.861789669300    -0.937117888082    14.003074004430
         N            1.130238221615     1.963589669300     0.974512111918    14.003074004430
         C            0.494018221615     1.325059669300     1.983192111918    12.000000000000
         H           -0.022761778385     1.969519669300     2.690352111918     1.007825032230
         N            0.402818221615     0.008139669300     2.215322111918    14.003074004430
         C            1.063048221615    -0.687170330700     1.276022111918    12.000000000000
         H            2.181228221615     2.822839669300    -1.084347888082     1.007825032230
         H            2.561218221615     1.324439669300    -1.793517888082     1.007825032230
      Gh(N)          -2.544606095051    -1.007567214033     0.166726611918    14.003074004430
      Gh(H)          -3.082406095051    -1.448067214033     0.903766611918     1.007825032230
      Gh(C)          -2.465596095051     0.377542785967     0.255316611918    12.000000000000
      Gh(O)          -3.031226095051     1.028352785967     1.122556611918    15.994914619570
      Gh(N)          -1.694466095051     0.927102785967    -0.756423388082    14.003074004430
      Gh(C)          -0.986606095051     0.272592785967    -1.776303388082    12.000000000000
      Gh(O)          -0.314246095051     0.916642785967    -2.581803388082    15.994914619570
      Gh(C)          -1.145346095051    -1.172807214033    -1.756413388082    12.000000000000
      Gh(H)          -0.637466095051    -1.756947214033    -2.512143388082     1.007825032230
      Gh(C)          -1.903306095051    -1.751297214033    -0.795643388082    12.000000000000
      Gh(H)          -2.055936095051    -2.824497214033    -0.734643388082     1.007825032230
      Gh(H)          -1.559816095051     1.934092785967    -0.696293388082     1.007825032230

  Running in c1 symmetry.

  Rotational constants: A =      0.01936  B =      0.01377  C =      0.01343 [cm^-1]
  Rotational constants: A =    580.44720  B =    412.82755  C =    402.53820 [MHz]
  Nuclear repulsion =  501.509282475141219

  Charge       = 0
  Multiplicity = 1
  Electrons    = 70
  Nalpha       = 35
  Nbeta        = 35

  ==> Algorithm <==

  SCF Algorithm Type is DF.
  DIIS enabled.
  MOM disabled.
  Fractional occupation disabled.
  Guess Type is SAD.
  Energy threshold   = 1.00e-08
  Density threshold  = 1.00e-08
  Integral threshold = 1.00e-12

  ==> Primary Basis <==

  Basis Set: AUG-CC-PVTZ
    Blend: AUG-CC-PVTZ
    Number of shells: 333
    Number of basis functions: 1035
    Number of Cartesian functions: 1215
    Spherical Harmonics?: true
    Max angular momentum: 3

   => Loading Basis Set <=

    Name: (AUG-CC-PVTZ AUX)
    Role: JKFIT
    Keyword: DF_BASIS_SCF
    atoms 1, 4, 11, 14-15, 17, 24, 26-27 entry H          line    70 file /opt/anaconda/envs/psi4v1.5/share/psi4/basis/aug-cc-pvtz-jkfit.gbs 
    atoms 2, 5, 8-9, 12, 16, 20          entry N          line   224 file /opt/anaconda/envs/psi4v1.5/share/psi4/basis/aug-cc-pvtz-jkfit.gbs 
    atoms 3, 6-7, 10, 13, 18, 21, 23, 25 entry C          line   162 file /opt/anaconda/envs/psi4v1.5/share/psi4/basis/aug-cc-pvtz-jkfit.gbs 
    atoms 19, 22                         entry O          line   286 file /opt/anaconda/envs/psi4v1.5/share/psi4/basis/aug-cc-pvtz-jkfit.gbs 

  ==> Integral Setup <==

  ==> DiskDFJK: Density-Fitted J/K Matrices <==

    J tasked:                  Yes
    K tasked:                  Yes
    wK tasked:                  No
    OpenMP threads:              8
    Integrals threads:           8
    Memory [MiB]:            57220
    Algorithm:                Core
    Integral Cache:           LOAD
    Schwarz Cutoff:          1E-12
    Fitting Condition:       1E-10

   => Auxiliary Basis Set <=

  Basis Set: (AUG-CC-PVTZ AUX)
    Blend: AUG-CC-PVTZ-JKFIT
    Number of shells: 666
    Number of basis functions: 2286
    Number of Cartesian functions: 2853
    Spherical Harmonics?: true
    Max angular momentum: 4

  Minimum eigenvalue in the overlap matrix is 8.0066024176E-07.
  Reciprocal condition number of the overlap matrix is 3.5309924390E-08.
    Using symmetric orthogonalization.

  ==> Pre-Iterations <==

  SCF Guess: Superposition of Atomic Densities via on-the-fly atomic UHF (no occupation information).

   -------------------------
    Irrep   Nso     Nmo    
   -------------------------
     A       1035    1035 
   -------------------------
    Total    1035    1035
   -------------------------

  ==> Iterations <==

                           Total Energy        Delta E     RMS |[F,P]|

   @DF-RHF iter SAD:  -464.44778029417716   -4.64448e+02   0.00000e+00 
   @DF-RHF iter   1:  -464.44263506400193    5.14523e-03   6.45715e-04 DIIS
   @DF-RHF iter   2:  -464.63265269856896   -1.90018e-01   3.19858e-04 DIIS
   @DF-RHF iter   3:  -464.67663939305208   -4.39867e-02   7.35377e-05 DIIS
   @DF-RHF iter   4:  -464.68001341020550   -3.37402e-03   3.46491e-05 DIIS
   @DF-RHF iter   5:  -464.68068891929539   -6.75509e-04   6.97409e-06 DIIS
   @DF-RHF iter   6:  -464.68074611615174   -5.71969e-05   3.25962e-06 DIIS
   @DF-RHF iter   7:  -464.68076007586467   -1.39597e-05   1.28777e-06 DIIS
   @DF-RHF iter   8:  -464.68076292114523   -2.84528e-06   4.78880e-07 DIIS
   @DF-RHF iter   9:  -464.68076335311582   -4.31971e-07   2.54920e-07 DIIS
   @DF-RHF iter  10:  -464.68076346667664   -1.13561e-07   9.50845e-08 DIIS
   @DF-RHF iter  11:  -464.68076349113215   -2.44555e-08   4.05807e-08 DIIS
   @DF-RHF iter  12:  -464.68076349495544   -3.82329e-09   1.63595e-08 DIIS
   @DF-RHF iter  13:  -464.68076349553871   -5.83270e-10   5.87762e-09 DIIS
  Energy and wave function converged.


  ==> Post-Iterations <==

    Orbital Energies [Eh]
    ---------------------

    Doubly Occupied:                                                      

       1A    -15.636439     2A    -15.584288     3A    -15.573013  
       4A    -15.564178     5A    -15.555926     6A    -11.338108  
       7A    -11.329241     8A    -11.321261     9A    -11.314913  
      10A    -11.256525    11A     -1.368402    12A     -1.298861  
      13A     -1.246981    14A     -1.187590    15A     -1.153011  
      16A     -1.034048    17A     -0.894628    18A     -0.877437  
      19A     -0.847878    20A     -0.775308    21A     -0.733486  
      22A     -0.696437    23A     -0.672900    24A     -0.641558  
      25A     -0.630444    26A     -0.609817    27A     -0.592503  
      28A     -0.557578    29A     -0.500357    30A     -0.499187  
      31A     -0.454632    32A     -0.429776    33A     -0.412396  
      34A     -0.376466    35A     -0.313093  

    Virtual:                                                              

      36A      0.017448    37A      0.026602    38A      0.031232  
      39A      0.034423    40A      0.043235    41A      0.047318  
      42A      0.047998    43A      0.051064    44A      0.065377  
      45A      0.067264    46A      0.074223    47A      0.076714  
      48A      0.080545    49A      0.084893    50A      0.088837  
      51A      0.089642    52A      0.094876    53A      0.097701  
      54A      0.102857    55A      0.106830    56A      0.111780  
      57A      0.114224    58A      0.117379    59A      0.118236  
      60A      0.122372    61A      0.123012    62A      0.127359  
      63A      0.129916    64A      0.133800    65A      0.134918  
      66A      0.136957    67A      0.137998    68A      0.141733  
      69A      0.142519    70A      0.151884    71A      0.155768  
      72A      0.163645    73A      0.165739    74A      0.168450  
      75A      0.173686    76A      0.177939    77A      0.181508  
      78A      0.184474    79A      0.186635    80A      0.190818  
      81A      0.192607    82A      0.196420    83A      0.205211  
      84A      0.207194    85A      0.208281    86A      0.211184  
      87A      0.212880    88A      0.219817    89A      0.221325  
      90A      0.227531    91A      0.232363    92A      0.234910  
      93A      0.236063    94A      0.242176    95A      0.246244  
      96A      0.248106    97A      0.251256    98A      0.253700  
      99A      0.257574   100A      0.263158   101A      0.265866  
     102A      0.269868   103A      0.272290   104A      0.275041  
     105A      0.275716   106A      0.279243   107A      0.285206  
     108A      0.287634   109A      0.291349   110A      0.294320  
     111A      0.297708   112A      0.300545   113A      0.304857  
     114A      0.309718   115A      0.313888   116A      0.315829  
     117A      0.322061   118A      0.329836   119A      0.332729  
     120A      0.336590   121A      0.338662   122A      0.344243  
     123A      0.346665   124A      0.349927   125A      0.355049  
     126A      0.361254   127A      0.362966   128A      0.365379  
     129A      0.371968   130A      0.376227   131A      0.381950  
     132A      0.386253   133A      0.389303   134A      0.392479  
     135A      0.395726   136A      0.403014   137A      0.404421  
     138A      0.406859   139A      0.411675   140A      0.414738  
     141A      0.416161   142A      0.421870   143A      0.426695  
     144A      0.430960   145A      0.434920   146A      0.437479  
     147A      0.441721   148A      0.441991   149A      0.444918  
     150A      0.448082   151A      0.452137   152A      0.457058  
     153A      0.460163   154A      0.462838   155A      0.468155  
     156A      0.471179   157A      0.478167   158A      0.481449  
     159A      0.484144   160A      0.485981   161A      0.487525  
     162A      0.489836   163A      0.495853   164A      0.503028  
     165A      0.504224   166A      0.506472   167A      0.510323  
     168A      0.515648   169A      0.517053   170A      0.519453  
     171A      0.523535   172A      0.527665   173A      0.534103  
     174A      0.534793   175A      0.535687   176A      0.544561  
     177A      0.546895   178A      0.553924   179A      0.556358  
     180A      0.557953   181A      0.561552   182A      0.564743  
     183A      0.570879   184A      0.572832   185A      0.580913  
     186A      0.587158   187A      0.588501   188A      0.593211  
     189A      0.597855   190A      0.599976   191A      0.605217  
     192A      0.609990   193A      0.612483   194A      0.616315  
     195A      0.622265   196A      0.624256   197A      0.628770  
     198A      0.630384   199A      0.641445   200A      0.643174  
     201A      0.645005   202A      0.652527   203A      0.654572  
     204A      0.656923   205A      0.661060   206A      0.661564  
     207A      0.668726   208A      0.675693   209A      0.679861  
     210A      0.684082   211A      0.689834   212A      0.696320  
     213A      0.700516   214A      0.705992   215A      0.712686  
     216A      0.717067   217A      0.719231   218A      0.727136  
     219A      0.729206   220A      0.736774   221A      0.738738  
     222A      0.747372   223A      0.754099   224A      0.759446  
     225A      0.761206   226A      0.767661   227A      0.769467  
     228A      0.773520   229A      0.776918   230A      0.783185  
     231A      0.786728   232A      0.791797   233A      0.795135  
     234A      0.798215   235A      0.808192   236A      0.811475  
     237A      0.815444   238A      0.819641   239A      0.825784  
     240A      0.829013   241A      0.833144   242A      0.838483  
     243A      0.843664   244A      0.848904   245A      0.850099  
     246A      0.851628   247A      0.856760   248A      0.866714  
     249A      0.868792   250A      0.882728   251A      0.884417  
     252A      0.895632   253A      0.896661   254A      0.899856  
     255A      0.901418   256A      0.907101   257A      0.909465  
     258A      0.916607   259A      0.917042   260A      0.925557  
     261A      0.931408   262A      0.936649   263A      0.937201  
     264A      0.950105   265A      0.953690   266A      0.956784  
     267A      0.959981   268A      0.962174   269A      0.966228  
     270A      0.973116   271A      0.978349   272A      0.981717  
     273A      0.986751   274A      0.991502   275A      0.997050  
     276A      0.998235   277A      1.002274   278A      1.005582  
     279A      1.010642   280A      1.013069   281A      1.016653  
     282A      1.024806   283A      1.031131   284A      1.033290  
     285A      1.038943   286A      1.041705   287A      1.048219  
     288A      1.051733   289A      1.055978   290A      1.057531  
     291A      1.064413   292A      1.068652   293A      1.072548  
     294A      1.077330   295A      1.078802   296A      1.083098  
     297A      1.085253   298A      1.091491   299A      1.093819  
     300A      1.102096   301A      1.104147   302A      1.115110  
     303A      1.120570   304A      1.122051   305A      1.124993  
     306A      1.127641   307A      1.130484   308A      1.139367  
     309A      1.147766   310A      1.151897   311A      1.156046  
     312A      1.157621   313A      1.159730   314A      1.167842  
     315A      1.172363   316A      1.180384   317A      1.180997  
     318A      1.184470   319A      1.189583   320A      1.196552  
     321A      1.202233   322A      1.206551   323A      1.210030  
     324A      1.214557   325A      1.216245   326A      1.223922  
     327A      1.227844   328A      1.232439   329A      1.233626  
     330A      1.240957   331A      1.242198   332A      1.247296  
     333A      1.251406   334A      1.255630   335A      1.261834  
     336A      1.263707   337A      1.271034   338A      1.274267  
     339A      1.275422   340A      1.280943   341A      1.287772  
     342A      1.293555   343A      1.297522   344A      1.303485  
     345A      1.310358   346A      1.312501   347A      1.318506  
     348A      1.322112   349A      1.329031   350A      1.333707  
     351A      1.336281   352A      1.344080   353A      1.347819  
     354A      1.355944   355A      1.360621   356A      1.364700  
     357A      1.369067   358A      1.372394   359A      1.384315  
     360A      1.386605   361A      1.390382   362A      1.393422  
     363A      1.400468   364A      1.406394   365A      1.412057  
     366A      1.413351   367A      1.419583   368A      1.426234  
     369A      1.428480   370A      1.435185   371A      1.440279  
     372A      1.450715   373A      1.456913   374A      1.458375  
     375A      1.460714   376A      1.467617   377A      1.473296  
     378A      1.475005   379A      1.487533   380A      1.490109  
     381A      1.494588   382A      1.502228   383A      1.508177  
     384A      1.511264   385A      1.518451   386A      1.530579  
     387A      1.540106   388A      1.545445   389A      1.546161  
     390A      1.548249   391A      1.555192   392A      1.558635  
     393A      1.562828   394A      1.574753   395A      1.577698  
     396A      1.587907   397A      1.596432   398A      1.599962  
     399A      1.611105   400A      1.611457   401A      1.620191  
     402A      1.623745   403A      1.626333   404A      1.634281  
     405A      1.637450   406A      1.648777   407A      1.654632  
     408A      1.660701   409A      1.670112   410A      1.671499  
     411A      1.674823   412A      1.687829   413A      1.691542  
     414A      1.695189   415A      1.699243   416A      1.700471  
     417A      1.707072   418A      1.718285   419A      1.725121  
     420A      1.728679   421A      1.735099   422A      1.737858  
     423A      1.744637   424A      1.748572   425A      1.755193  
     426A      1.762307   427A      1.768286   428A      1.771457  
     429A      1.773987   430A      1.786163   431A      1.788657  
     432A      1.793814   433A      1.800634   434A      1.808096  
     435A      1.811369   436A      1.818423   437A      1.832680  
     438A      1.835618   439A      1.851925   440A      1.853207  
     441A      1.857013   442A      1.859569   443A      1.863630  
     444A      1.872522   445A      1.880097   446A      1.887273  
     447A      1.889454   448A      1.891888   449A      1.901900  
     450A      1.908172   451A      1.917343   452A      1.930283  
     453A      1.931638   454A      1.940986   455A      1.945090  
     456A      1.955918   457A      1.957592   458A      1.966857  
     459A      1.969486   460A      1.979761   461A      1.981847  
     462A      1.989928   463A      1.992326   464A      2.001091  
     465A      2.006570   466A      2.016603   467A      2.033062  
     468A      2.035141   469A      2.041348   470A      2.044634  
     471A      2.053028   472A      2.058706   473A      2.073852  
     474A      2.080442   475A      2.083932   476A      2.091476  
     477A      2.096357   478A      2.102730   479A      2.106493  
     480A      2.112213   481A      2.117475   482A      2.121813  
     483A      2.135862   484A      2.145236   485A      2.151442  
     486A      2.151936   487A      2.156127   488A      2.163624  
     489A      2.171423   490A      2.180613   491A      2.185241  
     492A      2.190186   493A      2.197788   494A      2.208810  
     495A      2.209291   496A      2.214523   497A      2.219440  
     498A      2.234207   499A      2.238921   500A      2.248031  
     501A      2.254714   502A      2.261293   503A      2.265335  
     504A      2.271616   505A      2.275371   506A      2.282450  
     507A      2.291069   508A      2.300169   509A      2.306158  
     510A      2.317494   511A      2.321541   512A      2.323594  
     513A      2.330399   514A      2.335485   515A      2.348522  
     516A      2.355385   517A      2.356429   518A      2.361259  
     519A      2.369962   520A      2.375700   521A      2.380621  
     522A      2.391086   523A      2.399087   524A      2.402167  
     525A      2.405702   526A      2.409022   527A      2.419671  
     528A      2.429930   529A      2.437671   530A      2.446006  
     531A      2.458017   532A      2.461277   533A      2.469546  
     534A      2.474550   535A      2.481413   536A      2.486404  
     537A      2.491917   538A      2.504775   539A      2.510964  
     540A      2.524314   541A      2.532113   542A      2.539031  
     543A      2.547073   544A      2.561426   545A      2.564426  
     546A      2.565329   547A      2.571820   548A      2.578621  
     549A      2.590116   550A      2.596214   551A      2.602511  
     552A      2.616285   553A      2.625549   554A      2.630328  
     555A      2.633176   556A      2.642145   557A      2.651472  
     558A      2.664299   559A      2.667149   560A      2.674049  
     561A      2.682323   562A      2.692749   563A      2.697239  
     564A      2.703113   565A      2.712232   566A      2.718514  
     567A      2.729643   568A      2.731370   569A      2.738674  
     570A      2.742097   571A      2.762181   572A      2.766350  
     573A      2.778221   574A      2.780064   575A      2.789714  
     576A      2.800191   577A      2.814924   578A      2.823434  
     579A      2.827248   580A      2.832241   581A      2.841745  
     582A      2.849305   583A      2.855235   584A      2.860741  
     585A      2.868859   586A      2.874179   587A      2.881873  
     588A      2.892822   589A      2.899263   590A      2.909941  
     591A      2.913754   592A      2.917246   593A      2.925259  
     594A      2.932819   595A      2.937719   596A      2.947252  
     597A      2.961100   598A      2.968592   599A      2.982276  
     600A      2.988512   601A      2.997342   602A      3.008909  
     603A      3.017054   604A      3.028704   605A      3.033396  
     606A      3.057418   607A      3.067635   608A      3.075071  
     609A      3.078731   610A      3.105009   611A      3.112227  
     612A      3.126584   613A      3.146727   614A      3.163806  
     615A      3.173982   616A      3.182065   617A      3.185821  
     618A      3.202838   619A      3.229681   620A      3.237658  
     621A      3.248852   622A      3.253991   623A      3.284795  
     624A      3.289842   625A      3.296870   626A      3.301846  
     627A      3.315716   628A      3.331066   629A      3.358872  
     630A      3.374048   631A      3.389508   632A      3.395802  
     633A      3.407309   634A      3.420158   635A      3.438778  
     636A      3.452876   637A      3.460030   638A      3.474324  
     639A      3.480169   640A      3.487092   641A      3.522490  
     642A      3.530395   643A      3.535977   644A      3.541655  
     645A      3.565332   646A      3.571882   647A      3.592482  
     648A      3.597601   649A      3.610240   650A      3.618830  
     651A      3.624636   652A      3.644178   653A      3.648036  
     654A      3.655194   655A      3.662151   656A      3.682999  
     657A      3.687655   658A      3.701585   659A      3.705752  
     660A      3.717565   661A      3.730315   662A      3.740759  
     663A      3.758001   664A      3.766392   665A      3.773151  
     666A      3.790422   667A      3.794459   668A      3.805236  
     669A      3.816318   670A      3.822538   671A      3.835521  
     672A      3.840742   673A      3.843646   674A      3.855774  
     675A      3.867163   676A      3.871473   677A      3.872972  
     678A      3.906412   679A      3.910070   680A      3.912652  
     681A      3.940639   682A      3.951500   683A      3.959258  
     684A      3.968906   685A      3.980773   686A      3.983436  
     687A      3.994820   688A      4.003525   689A      4.013096  
     690A      4.017708   691A      4.027565   692A      4.043291  
     693A      4.061949   694A      4.066164   695A      4.071118  
     696A      4.074398   697A      4.094603   698A      4.104610  
     699A      4.115735   700A      4.128563   701A      4.136151  
     702A      4.137879   703A      4.148569   704A      4.164060  
     705A      4.166651   706A      4.182839   707A      4.194234  
     708A      4.197840   709A      4.206616   710A      4.215254  
     711A      4.218204   712A      4.232472   713A      4.240838  
     714A      4.254577   715A      4.260225   716A      4.268966  
     717A      4.274546   718A      4.277005   719A      4.300108  
     720A      4.305762   721A      4.311363   722A      4.328775  
     723A      4.335645   724A      4.339516   725A      4.349886  
     726A      4.364622   727A      4.370919   728A      4.378744  
     729A      4.387354   730A      4.396087   731A      4.404708  
     732A      4.414315   733A      4.421572   734A      4.429747  
     735A      4.442375   736A      4.446987   737A      4.454230  
     738A      4.470781   739A      4.475974   740A      4.478441  
     741A      4.498709   742A      4.514876   743A      4.517901  
     744A      4.532452   745A      4.546660   746A      4.550839  
     747A      4.555490   748A      4.567537   749A      4.571630  
     750A      4.590144   751A      4.599357   752A      4.614324  
     753A      4.618855   754A      4.631326   755A      4.641701  
     756A      4.654152   757A      4.661073   758A      4.677436  
     759A      4.690871   760A      4.696559   761A      4.708694  
     762A      4.712649   763A      4.732251   764A      4.736234  
     765A      4.744876   766A      4.754514   767A      4.767091  
     768A      4.775422   769A      4.785467   770A      4.805223  
     771A      4.816982   772A      4.827798   773A      4.834042  
     774A      4.837582   775A      4.844696   776A      4.869640  
     777A      4.876659   778A      4.891764   779A      4.895974  
     780A      4.911327   781A      4.917018   782A      4.917898  
     783A      4.933523   784A      4.944330   785A      4.961545  
     786A      4.983807   787A      5.000689   788A      5.005056  
     789A      5.015444   790A      5.024858   791A      5.027320  
     792A      5.037924   793A      5.045034   794A      5.057534  
     795A      5.068232   796A      5.079221   797A      5.091933  
     798A      5.097276   799A      5.109016   800A      5.128269  
     801A      5.139605   802A      5.150822   803A      5.164218  
     804A      5.172319   805A      5.178094   806A      5.180880  
     807A      5.199979   808A      5.212201   809A      5.218482  
     810A      5.225748   811A      5.261954   812A      5.267425  
     813A      5.276168   814A      5.283971   815A      5.286147  
     816A      5.301857   817A      5.310239   818A      5.319192  
     819A      5.333179   820A      5.335435   821A      5.344802  
     822A      5.353913   823A      5.359744   824A      5.373373  
     825A      5.391471   826A      5.396292   827A      5.406682  
     828A      5.417538   829A      5.426174   830A      5.428592  
     831A      5.440637   832A      5.461748   833A      5.476241  
     834A      5.479432   835A      5.498351   836A      5.519553  
     837A      5.526465   838A      5.530635   839A      5.553565  
     840A      5.561333   841A      5.567271   842A      5.571928  
     843A      5.597550   844A      5.611943   845A      5.617008  
     846A      5.628648   847A      5.640387   848A      5.647420  
     849A      5.653972   850A      5.685140   851A      5.688189  
     852A      5.698629   853A      5.718384   854A      5.722503  
     855A      5.733682   856A      5.740189   857A      5.753252  
     858A      5.764160   859A      5.771132   860A      5.780176  
     861A      5.793219   862A      5.803656   863A      5.824131  
     864A      5.835753   865A      5.839712   866A      5.853032  
     867A      5.865783   868A      5.885323   869A      5.890837  
     870A      5.917616   871A      5.928993   872A      5.937744  
     873A      5.948125   874A      5.957107   875A      5.960135  
     876A      5.963221   877A      5.977483   878A      5.995044  
     879A      6.011197   880A      6.020367   881A      6.025031  
     882A      6.036640   883A      6.049986   884A      6.094173  
     885A      6.111252   886A      6.121942   887A      6.141797  
     888A      6.163147   889A      6.169066   890A      6.187948  
     891A      6.203278   892A      6.211811   893A      6.218888  
     894A      6.240452   895A      6.247112   896A      6.259706  
     897A      6.270406   898A      6.281828   899A      6.303663  
     900A      6.327529   901A      6.387873   902A      6.409928  
     903A      6.438913   904A      6.469465   905A      6.482027  
     906A      6.490696   907A      6.501834   908A      6.534847  
     909A      6.551808   910A      6.559827   911A      6.608390  
     912A      6.619455   913A      6.636648   914A      6.651981  
     915A      6.657442   916A      6.668302   917A      6.707177  
     918A      6.718010   919A      6.731680   920A      6.748613  
     921A      6.768167   922A      6.799458   923A      6.813455  
     924A      6.842553   925A      6.853651   926A      6.870497  
     927A      6.881433   928A      6.912559   929A      6.939872  
     930A      6.965485   931A      6.985555   932A      6.996763  
     933A      7.029716   934A      7.060102   935A      7.088169  
     936A      7.109164   937A      7.132373   938A      7.185602  
     939A      7.208902   940A      7.241476   941A      7.296457  
     942A      7.302254   943A      7.376558   944A      7.378074  
     945A      7.393387   946A      7.450865   947A      7.477619  
     948A      7.500850   949A      7.573938   950A      7.595749  
     951A      7.606065   952A      7.632053   953A      7.659431  
     954A      7.663539   955A      7.676539   956A      7.705566  
     957A      7.711279   958A      7.746544   959A      7.788315  
     960A      7.811704   961A      7.822191   962A      7.847912  
     963A      7.874629   964A      7.884555   965A      7.895987  
     966A      7.926299   967A      7.971818   968A      7.988077  
     969A      8.035640   970A      8.052211   971A      8.067312  
     972A      8.193541   973A      8.248810   974A      8.286662  
     975A      8.326613   976A      8.338153   977A      8.420103  
     978A      8.572091   979A      8.691833   980A      8.723663  
     981A      8.746585   982A      8.899238   983A      9.036664  
     984A      9.112679   985A      9.209008   986A      9.307686  
     987A      9.555684   988A      9.587038   989A      9.621770  
     990A      9.876849   991A      9.985042   992A     10.008039  
     993A     10.049744   994A     10.067900   995A     10.290488  
     996A     10.295363   997A     10.384991   998A     10.424706  
     999A     10.460020  1000A     10.547128  1001A     10.568345  
    1002A     11.000949  1003A     11.249320  1004A     11.349569  
    1005A     11.513115  1006A     12.053107  1007A     12.060979  
    1008A     12.102065  1009A     12.116635  1010A     12.345725  
    1011A     12.472571  1012A     12.689976  1013A     12.884434  
    1014A     13.407870  1015A     13.629406  1016A     14.208377  
    1017A     14.229354  1018A     16.169917  1019A     16.350176  
    1020A     16.490541  1021A     17.888817  1022A     18.319875  
    1023A     19.145233  1024A     19.467410  1025A     19.597133  
    1026A     20.128288  1027A     21.353438  1028A     52.246142  
    1029A     52.304913  1030A     54.839665  1031A     56.293263  
    1032A     60.860710  1033A     61.042968  1034A     69.466766  
    1035A     70.185127  

    Final Occupation by Irrep:
              A 
    DOCC [    35 ]

  @DF-RHF Final Energy:  -464.68076349553871

   => Energetics <=

    Nuclear Repulsion Energy =            501.5092824751412195
    One-Electron Energy =               -1625.8227565363283702
    Two-Electron Energy =                 659.6327105656484946
    Total Energy =                       -464.6807634955387130

Computation Completed


Properties will be evaluated at   0.000000,   0.000000,   0.000000 [a0]

Properties computed using the SCF density matrix

  Nuclear Dipole Moment: [e a0]
     X:   194.6570      Y:     1.4381      Z:    80.2229

  Electronic Dipole Moment: [e a0]
     X:  -194.8150      Y:    -2.4525      Z:   -80.5482

  Dipole Moment: [e a0]
     X:    -0.1580      Y:    -1.0144      Z:    -0.3253     Total:     1.0769

  Dipole Moment: [D]
     X:    -0.4017      Y:    -2.5783      Z:    -0.8268     Total:     2.7373


*** tstop() called on node158.bme.utexas.edu at Sun Jan 14 11:40:45 2024
Module time:
	user time   =     511.48 seconds =       8.52 minutes
	system time =       3.54 seconds =       0.06 minutes
	total time  =         74 seconds =       1.23 minutes
Total time:
	user time   =    1434.61 seconds =      23.91 minutes
	system time =      14.82 seconds =       0.25 minutes
	total time  =        215 seconds =       3.58 minutes

*** tstart() called on node158.bme.utexas.edu
*** at Sun Jan 14 11:40:45 2024


  //>>>>>>>>>>>>>>>>>>>>>>>>>>>>>>>>>>>//
  //               DFMP2               //
  //<<<<<<<<<<<<<<<<<<<<<<<<<<<<<<<<<<<//

   => Loading Basis Set <=

    Name: (AUG-CC-PVTZ AUX)
    Role: RIFIT
    Keyword: DF_BASIS_MP2
    atoms 1, 4, 11, 14-15, 17, 24, 26-27 entry H          line    30 file /opt/anaconda/envs/psi4v1.5/share/psi4/basis/aug-cc-pvtz-ri.gbs 
    atoms 2, 5, 8-9, 12, 16, 20          entry N          line   206 file /opt/anaconda/envs/psi4v1.5/share/psi4/basis/aug-cc-pvtz-ri.gbs 
    atoms 3, 6-7, 10, 13, 18, 21, 23, 25 entry C          line   148 file /opt/anaconda/envs/psi4v1.5/share/psi4/basis/aug-cc-pvtz-ri.gbs 
    atoms 19, 22                         entry O          line   264 file /opt/anaconda/envs/psi4v1.5/share/psi4/basis/aug-cc-pvtz-ri.gbs 

	 --------------------------------------------------------
	                          DF-MP2                         
	      2nd-Order Density-Fitted Moller-Plesset Theory     
	              RMP2 Wavefunction,   8 Threads             
	                                                         
	        Rob Parrish, Justin Turney, Andy Simmonett,      
	           Ed Hohenstein, and C. David Sherrill          
	 --------------------------------------------------------

   => Auxiliary Basis Set <=

  Basis Set: (AUG-CC-PVTZ AUX)
    Blend: AUG-CC-PVTZ-RI
    Number of shells: 630
    Number of basis functions: 2322
    Number of Cartesian functions: 2943
    Spherical Harmonics?: true
    Max angular momentum: 4

	 --------------------------------------------------------
	                 NBF =  1035, NAUX =  2322
	 --------------------------------------------------------
	   CLASS    FOCC     OCC    AOCC    AVIR     VIR    FVIR
	   PAIRS      10      35      25    1000    1000       0
	 --------------------------------------------------------

	 Will attempt to load fitting metric from file 97.

	-----------------------------------------------------------
	 ==================> DF-MP2 Energies <==================== 
	-----------------------------------------------------------
	 Reference Energy          =    -464.6807634955387130 [Eh]
	 Singles Energy            =      -0.0000000000000000 [Eh]
	 Same-Spin Energy          =      -0.4789590897467653 [Eh]
	 Opposite-Spin Energy      =      -1.3256413288351114 [Eh]
	 Correlation Energy        =      -1.8046004185818767 [Eh]
	 Total Energy              =    -466.4853639141205690 [Eh]
	-----------------------------------------------------------
	 ================> DF-SCS-MP2 Energies <================== 
	-----------------------------------------------------------
	 SCS Same-Spin Scale       =       0.3333333333333333 [-]
	 SCS Opposite-Spin Scale   =       1.2000000000000000 [-]
	 SCS Same-Spin Energy      =      -0.1596530299155884 [Eh]
	 SCS Opposite-Spin Energy  =      -1.5907695946021336 [Eh]
	 SCS Correlation Energy    =      -1.7504226245177221 [Eh]
	 SCS Total Energy          =    -466.4311861200564522 [Eh]
	-----------------------------------------------------------


*** tstop() called on node158.bme.utexas.edu at Sun Jan 14 11:41:07 2024
Module time:
	user time   =     115.42 seconds =       1.92 minutes
	system time =       2.58 seconds =       0.04 minutes
	total time  =         22 seconds =       0.37 minutes
Total time:
	user time   =    1550.04 seconds =      25.83 minutes
	system time =      17.40 seconds =       0.29 minutes
	total time  =        237 seconds =       3.95 minutes

  //>>>>>>>>>>>>>>>>>>>>>>>>>>>>>>>>>>>//
  //            Monomer B HF           //
  //<<<<<<<<<<<<<<<<<<<<<<<<<<<<<<<<<<<//


*** tstart() called on node158.bme.utexas.edu
*** at Sun Jan 14 11:41:07 2024

   => Loading Basis Set <=

    Name: AUG-CC-PVTZ
    Role: ORBITAL
    Keyword: BASIS
    atoms 1, 4, 11, 14-15, 17, 24, 26-27 entry H          line    40 file /opt/anaconda/envs/psi4v1.5/share/psi4/basis/aug-cc-pvtz.gbs 
    atoms 2, 5, 8-9, 12, 16, 20          entry N          line   285 file /opt/anaconda/envs/psi4v1.5/share/psi4/basis/aug-cc-pvtz.gbs 
    atoms 3, 6-7, 10, 13, 18, 21, 23, 25 entry C          line   239 file /opt/anaconda/envs/psi4v1.5/share/psi4/basis/aug-cc-pvtz.gbs 
    atoms 19, 22                         entry O          line   331 file /opt/anaconda/envs/psi4v1.5/share/psi4/basis/aug-cc-pvtz.gbs 


         ---------------------------------------------------------
                                   SCF
               by Justin Turney, Rob Parrish, Andy Simmonett
                          and Daniel G. A. Smith
                              RHF Reference
                        8 Threads,  76293 MiB Core
         ---------------------------------------------------------

  ==> Geometry <==

    Molecular point group: c1
    Full point group: C1

    Geometry (in Angstrom), charge = 0, multiplicity = 1:

       Center              X                  Y                   Z               Mass       
    ------------   -----------------  -----------------  -----------------  -----------------
      Gh(H)           0.871098221615    -2.736870330700     1.835362111918     1.007825032230
      Gh(N)           1.207468221615    -2.053450330700     1.167052111918    14.003074004430
      Gh(C)           1.967148221615    -2.284160330700     0.047392111918    12.000000000000
      Gh(H)           2.235838221615    -3.287100330700    -0.261757888082     1.007825032230
      Gh(N)           2.325138221615    -1.177790330700    -0.588677888082    14.003074004430
      Gh(C)           1.769298221615    -0.174320330700     0.181372111918    12.000000000000
      Gh(C)           1.776958221615     1.229299669300     0.053422111918    12.000000000000
      Gh(N)           2.471278221615     1.861789669300    -0.937117888082    14.003074004430
      Gh(N)           1.130238221615     1.963589669300     0.974512111918    14.003074004430
      Gh(C)           0.494018221615     1.325059669300     1.983192111918    12.000000000000
      Gh(H)          -0.022761778385     1.969519669300     2.690352111918     1.007825032230
      Gh(N)           0.402818221615     0.008139669300     2.215322111918    14.003074004430
      Gh(C)           1.063048221615    -0.687170330700     1.276022111918    12.000000000000
      Gh(H)           2.181228221615     2.822839669300    -1.084347888082     1.007825032230
      Gh(H)           2.561218221615     1.324439669300    -1.793517888082     1.007825032230
         N           -2.544606095051    -1.007567214033     0.166726611918    14.003074004430
         H           -3.082406095051    -1.448067214033     0.903766611918     1.007825032230
         C           -2.465596095051     0.377542785967     0.255316611918    12.000000000000
         O           -3.031226095051     1.028352785967     1.122556611918    15.994914619570
         N           -1.694466095051     0.927102785967    -0.756423388082    14.003074004430
         C           -0.986606095051     0.272592785967    -1.776303388082    12.000000000000
         O           -0.314246095051     0.916642785967    -2.581803388082    15.994914619570
         C           -1.145346095051    -1.172807214033    -1.756413388082    12.000000000000
         H           -0.637466095051    -1.756947214033    -2.512143388082     1.007825032230
         C           -1.903306095051    -1.751297214033    -0.795643388082    12.000000000000
         H           -2.055936095051    -2.824497214033    -0.734643388082     1.007825032230
         H           -1.559816095051     1.934092785967    -0.696293388082     1.007825032230

  Running in c1 symmetry.

  Rotational constants: A =      0.01936  B =      0.01377  C =      0.01343 [cm^-1]
  Rotational constants: A =    580.44720  B =    412.82755  C =    402.53820 [MHz]
  Nuclear repulsion =  355.501183888588344

  Charge       = 0
  Multiplicity = 1
  Electrons    = 58
  Nalpha       = 29
  Nbeta        = 29

  ==> Algorithm <==

  SCF Algorithm Type is DF.
  DIIS enabled.
  MOM disabled.
  Fractional occupation disabled.
  Guess Type is SAD.
  Energy threshold   = 1.00e-08
  Density threshold  = 1.00e-08
  Integral threshold = 1.00e-12

  ==> Primary Basis <==

  Basis Set: AUG-CC-PVTZ
    Blend: AUG-CC-PVTZ
    Number of shells: 333
    Number of basis functions: 1035
    Number of Cartesian functions: 1215
    Spherical Harmonics?: true
    Max angular momentum: 3

   => Loading Basis Set <=

    Name: (AUG-CC-PVTZ AUX)
    Role: JKFIT
    Keyword: DF_BASIS_SCF
    atoms 1, 4, 11, 14-15, 17, 24, 26-27 entry H          line    70 file /opt/anaconda/envs/psi4v1.5/share/psi4/basis/aug-cc-pvtz-jkfit.gbs 
    atoms 2, 5, 8-9, 12, 16, 20          entry N          line   224 file /opt/anaconda/envs/psi4v1.5/share/psi4/basis/aug-cc-pvtz-jkfit.gbs 
    atoms 3, 6-7, 10, 13, 18, 21, 23, 25 entry C          line   162 file /opt/anaconda/envs/psi4v1.5/share/psi4/basis/aug-cc-pvtz-jkfit.gbs 
    atoms 19, 22                         entry O          line   286 file /opt/anaconda/envs/psi4v1.5/share/psi4/basis/aug-cc-pvtz-jkfit.gbs 

  ==> Integral Setup <==

  ==> DiskDFJK: Density-Fitted J/K Matrices <==

    J tasked:                  Yes
    K tasked:                  Yes
    wK tasked:                  No
    OpenMP threads:              8
    Integrals threads:           8
    Memory [MiB]:            57220
    Algorithm:                Core
    Integral Cache:           LOAD
    Schwarz Cutoff:          1E-12
    Fitting Condition:       1E-10

   => Auxiliary Basis Set <=

  Basis Set: (AUG-CC-PVTZ AUX)
    Blend: AUG-CC-PVTZ-JKFIT
    Number of shells: 666
    Number of basis functions: 2286
    Number of Cartesian functions: 2853
    Spherical Harmonics?: true
    Max angular momentum: 4

  Minimum eigenvalue in the overlap matrix is 8.0066024176E-07.
  Reciprocal condition number of the overlap matrix is 3.5309924390E-08.
    Using symmetric orthogonalization.

  ==> Pre-Iterations <==

  SCF Guess: Superposition of Atomic Densities via on-the-fly atomic UHF (no occupation information).

   -------------------------
    Irrep   Nso     Nmo    
   -------------------------
     A       1035    1035 
   -------------------------
    Total    1035    1035
   -------------------------

  ==> Iterations <==

                           Total Energy        Delta E     RMS |[F,P]|

   @DF-RHF iter SAD:  -411.86334544062561   -4.11863e+02   0.00000e+00 
   @DF-RHF iter   1:  -412.37370873842809   -5.10363e-01   7.20359e-04 DIIS
   @DF-RHF iter   2:  -412.53452897853009   -1.60820e-01   4.83502e-04 DIIS
   @DF-RHF iter   3:  -412.61558134030582   -8.10524e-02   8.68554e-05 DIIS
   @DF-RHF iter   4:  -412.61989253463571   -4.31119e-03   3.58539e-05 DIIS
   @DF-RHF iter   5:  -412.62080233047578   -9.09796e-04   7.37856e-06 DIIS
   @DF-RHF iter   6:  -412.62091076434331   -1.08434e-04   3.74799e-06 DIIS
   @DF-RHF iter   7:  -412.62093079622127   -2.00319e-05   1.52755e-06 DIIS
   @DF-RHF iter   8:  -412.62093434158612   -3.54536e-06   5.30840e-07 DIIS
   @DF-RHF iter   9:  -412.62093462352550   -2.81939e-07   2.19703e-07 DIIS
   @DF-RHF iter  10:  -412.62093469346985   -6.99443e-08   7.29972e-08 DIIS
   @DF-RHF iter  11:  -412.62093470210391   -8.63406e-09   2.43226e-08 DIIS
   @DF-RHF iter  12:  -412.62093470280104   -6.97128e-10   7.92906e-09 DIIS
  Energy and wave function converged.


  ==> Post-Iterations <==

    Orbital Energies [Eh]
    ---------------------

    Doubly Occupied:                                                      

       1A    -20.550412     2A    -20.542552     3A    -15.647866  
       4A    -15.631088     5A    -11.423546     6A    -11.384443  
       7A    -11.345084     8A    -11.259598     9A     -1.432727  
      10A     -1.391728    11A     -1.311645    12A     -1.244393  
      13A     -1.088437    14A     -0.932904    15A     -0.901734  
      16A     -0.805595    17A     -0.763347    18A     -0.713645  
      19A     -0.676564    20A     -0.667334    21A     -0.652893  
      22A     -0.613314    23A     -0.600831    24A     -0.568211  
      25A     -0.525768    26A     -0.484771    27A     -0.450148  
      28A     -0.437176    29A     -0.370169  

    Virtual:                                                              

      30A      0.010970    31A      0.025015    32A      0.027645  
      33A      0.033154    34A      0.044278    35A      0.046247  
      36A      0.049938    37A      0.050600    38A      0.056044  
      39A      0.066606    40A      0.067383    41A      0.076252  
      42A      0.078776    43A      0.080079    44A      0.083449  
      45A      0.083982    46A      0.090852    47A      0.091452  
      48A      0.095259    49A      0.099065    50A      0.104467  
      51A      0.108600    52A      0.115139    53A      0.117896  
      54A      0.120286    55A      0.123176    56A      0.125275  
      57A      0.130581    58A      0.132799    59A      0.134660  
      60A      0.137049    61A      0.139159    62A      0.142885  
      63A      0.146390    64A      0.149709    65A      0.156075  
      66A      0.157934    67A      0.164293    68A      0.165736  
      69A      0.169235    70A      0.170965    71A      0.174450  
      72A      0.176808    73A      0.185090    74A      0.189383  
      75A      0.190414    76A      0.194456    77A      0.199879  
      78A      0.202341    79A      0.207764    80A      0.210286  
      81A      0.213778    82A      0.216605    83A      0.221561  
      84A      0.223652    85A      0.227567    86A      0.232510  
      87A      0.235449    88A      0.237262    89A      0.239674  
      90A      0.249565    91A      0.251214    92A      0.254376  
      93A      0.257808    94A      0.261133    95A      0.264094  
      96A      0.268331    97A      0.273509    98A      0.274962  
      99A      0.277283   100A      0.282533   101A      0.285567  
     102A      0.288345   103A      0.289445   104A      0.292106  
     105A      0.295225   106A      0.300298   107A      0.302725  
     108A      0.304501   109A      0.308141   110A      0.312931  
     111A      0.315483   112A      0.327473   113A      0.329157  
     114A      0.333172   115A      0.334414   116A      0.337639  
     117A      0.343176   118A      0.346656   119A      0.352005  
     120A      0.354768   121A      0.360798   122A      0.363342  
     123A      0.370521   124A      0.377299   125A      0.379760  
     126A      0.383434   127A      0.388485   128A      0.388692  
     129A      0.392217   130A      0.395656   131A      0.399160  
     132A      0.401854   133A      0.406547   134A      0.414856  
     135A      0.416414   136A      0.419025   137A      0.422490  
     138A      0.426971   139A      0.430261   140A      0.434003  
     141A      0.436997   142A      0.440710   143A      0.441958  
     144A      0.447715   145A      0.449778   146A      0.455121  
     147A      0.456858   148A      0.459717   149A      0.463511  
     150A      0.467903   151A      0.471681   152A      0.472456  
     153A      0.477225   154A      0.482754   155A      0.484343  
     156A      0.486355   157A      0.493403   158A      0.495077  
     159A      0.500086   160A      0.503129   161A      0.505538  
     162A      0.509298   163A      0.510401   164A      0.513492  
     165A      0.518454   166A      0.521211   167A      0.524325  
     168A      0.528159   169A      0.529463   170A      0.536813  
     171A      0.542179   172A      0.543705   173A      0.548298  
     174A      0.551370   175A      0.552736   176A      0.556189  
     177A      0.565212   178A      0.571871   179A      0.574128  
     180A      0.583113   181A      0.585028   182A      0.590692  
     183A      0.591657   184A      0.593873   185A      0.597662  
     186A      0.609999   187A      0.616041   188A      0.620667  
     189A      0.622309   190A      0.629187   191A      0.632607  
     192A      0.633876   193A      0.642344   194A      0.645760  
     195A      0.647845   196A      0.652093   197A      0.656772  
     198A      0.663304   199A      0.666718   200A      0.674366  
     201A      0.680705   202A      0.683883   203A      0.689029  
     204A      0.693893   205A      0.701187   206A      0.709028  
     207A      0.711353   208A      0.718384   209A      0.720395  
     210A      0.724918   211A      0.730638   212A      0.735455  
     213A      0.738059   214A      0.741056   215A      0.744351  
     216A      0.749737   217A      0.753837   218A      0.760991  
     219A      0.767996   220A      0.769945   221A      0.773246  
     222A      0.779681   223A      0.785720   224A      0.789023  
     225A      0.794503   226A      0.797296   227A      0.800947  
     228A      0.807904   229A      0.816609   230A      0.822660  
     231A      0.825398   232A      0.827465   233A      0.829078  
     234A      0.837186   235A      0.837866   236A      0.845755  
     237A      0.848780   238A      0.853009   239A      0.856832  
     240A      0.863465   241A      0.866274   242A      0.869734  
     243A      0.877559   244A      0.879456   245A      0.882406  
     246A      0.888106   247A      0.892302   248A      0.893766  
     249A      0.897224   250A      0.903500   251A      0.908839  
     252A      0.915017   253A      0.918680   254A      0.919380  
     255A      0.928117   256A      0.929869   257A      0.934827  
     258A      0.939590   259A      0.941848   260A      0.947048  
     261A      0.950730   262A      0.954406   263A      0.955695  
     264A      0.960154   265A      0.966317   266A      0.968525  
     267A      0.977920   268A      0.978623   269A      0.981180  
     270A      0.985546   271A      0.991438   272A      0.997555  
     273A      1.001363   274A      1.007178   275A      1.009981  
     276A      1.014863   277A      1.017711   278A      1.025110  
     279A      1.027312   280A      1.034385   281A      1.040279  
     282A      1.042114   283A      1.046182   284A      1.053297  
     285A      1.056079   286A      1.066000   287A      1.070778  
     288A      1.074555   289A      1.077865   290A      1.083628  
     291A      1.085831   292A      1.091409   293A      1.098840  
     294A      1.106850   295A      1.112294   296A      1.116648  
     297A      1.117337   298A      1.124312   299A      1.125719  
     300A      1.133718   301A      1.137516   302A      1.144653  
     303A      1.149289   304A      1.150977   305A      1.155988  
     306A      1.157343   307A      1.168503   308A      1.172664  
     309A      1.175960   310A      1.178088   311A      1.183673  
     312A      1.183995   313A      1.190531   314A      1.197205  
     315A      1.204944   316A      1.210533   317A      1.211449  
     318A      1.220724   319A      1.225350   320A      1.228120  
     321A      1.234434   322A      1.239228   323A      1.244005  
     324A      1.247648   325A      1.251633   326A      1.260135  
     327A      1.262198   328A      1.265726   329A      1.269270  
     330A      1.270571   331A      1.282439   332A      1.288312  
     333A      1.292342   334A      1.293758   335A      1.300021  
     336A      1.308363   337A      1.315082   338A      1.317132  
     339A      1.319066   340A      1.329171   341A      1.331122  
     342A      1.336940   343A      1.340413   344A      1.347501  
     345A      1.353573   346A      1.356735   347A      1.364497  
     348A      1.372583   349A      1.377676   350A      1.384119  
     351A      1.386918   352A      1.389752   353A      1.396274  
     354A      1.403789   355A      1.412442   356A      1.413670  
     357A      1.419733   358A      1.420891   359A      1.426024  
     360A      1.428212   361A      1.444828   362A      1.450212  
     363A      1.456511   364A      1.464578   365A      1.467471  
     366A      1.472416   367A      1.476220   368A      1.480737  
     369A      1.493385   370A      1.497431   371A      1.499488  
     372A      1.508425   373A      1.512031   374A      1.517368  
     375A      1.522976   376A      1.524499   377A      1.527256  
     378A      1.533471   379A      1.542500   380A      1.547394  
     381A      1.551745   382A      1.553724   383A      1.559524  
     384A      1.570991   385A      1.574346   386A      1.586398  
     387A      1.591787   388A      1.598365   389A      1.607554  
     390A      1.608552   391A      1.616948   392A      1.618075  
     393A      1.625723   394A      1.631258   395A      1.635521  
     396A      1.639777   397A      1.643131   398A      1.648810  
     399A      1.652745   400A      1.659936   401A      1.665308  
     402A      1.673210   403A      1.678720   404A      1.682772  
     405A      1.689311   406A      1.691406   407A      1.692623  
     408A      1.701230   409A      1.712464   410A      1.715167  
     411A      1.725556   412A      1.728575   413A      1.735213  
     414A      1.740335   415A      1.749406   416A      1.752994  
     417A      1.758778   418A      1.764693   419A      1.765833  
     420A      1.771216   421A      1.780215   422A      1.787956  
     423A      1.789888   424A      1.797504   425A      1.805223  
     426A      1.809124   427A      1.818776   428A      1.823352  
     429A      1.831105   430A      1.832088   431A      1.837436  
     432A      1.844885   433A      1.847941   434A      1.851726  
     435A      1.861594   436A      1.862515   437A      1.873594  
     438A      1.878660   439A      1.889170   440A      1.896776  
     441A      1.900952   442A      1.908674   443A      1.911620  
     444A      1.922649   445A      1.925505   446A      1.927939  
     447A      1.938336   448A      1.946199   449A      1.949342  
     450A      1.954931   451A      1.964336   452A      1.966686  
     453A      1.967680   454A      1.978196   455A      1.982240  
     456A      1.986162   457A      1.993999   458A      2.003290  
     459A      2.010785   460A      2.023407   461A      2.032596  
     462A      2.034861   463A      2.039803   464A      2.047185  
     465A      2.054458   466A      2.061636   467A      2.067047  
     468A      2.069068   469A      2.080641   470A      2.082192  
     471A      2.094261   472A      2.103274   473A      2.106217  
     474A      2.110613   475A      2.115108   476A      2.133702  
     477A      2.136233   478A      2.145422   479A      2.147797  
     480A      2.155253   481A      2.158808   482A      2.163352  
     483A      2.176271   484A      2.181069   485A      2.183948  
     486A      2.193392   487A      2.199218   488A      2.205625  
     489A      2.208756   490A      2.219896   491A      2.225313  
     492A      2.227608   493A      2.236691   494A      2.244185  
     495A      2.252031   496A      2.257576   497A      2.266516  
     498A      2.273569   499A      2.276051   500A      2.289910  
     501A      2.293731   502A      2.299738   503A      2.306696  
     504A      2.309552   505A      2.317135   506A      2.324680  
     507A      2.328208   508A      2.341842   509A      2.349407  
     510A      2.354227   511A      2.364274   512A      2.372878  
     513A      2.382130   514A      2.387528   515A      2.401423  
     516A      2.410392   517A      2.413632   518A      2.419607  
     519A      2.426672   520A      2.427416   521A      2.431152  
     522A      2.438869   523A      2.446365   524A      2.457780  
     525A      2.462377   526A      2.472579   527A      2.483881  
     528A      2.493104   529A      2.502947   530A      2.505142  
     531A      2.510491   532A      2.516141   533A      2.528198  
     534A      2.535865   535A      2.539062   536A      2.549951  
     537A      2.552682   538A      2.560718   539A      2.565674  
     540A      2.578650   541A      2.586121   542A      2.592467  
     543A      2.594653   544A      2.601385   545A      2.615724  
     546A      2.625363   547A      2.629254   548A      2.637730  
     549A      2.642035   550A      2.650652   551A      2.658405  
     552A      2.664489   553A      2.672065   554A      2.676576  
     555A      2.683841   556A      2.695496   557A      2.702870  
     558A      2.708412   559A      2.711526   560A      2.727388  
     561A      2.737579   562A      2.741987   563A      2.748800  
     564A      2.754895   565A      2.763617   566A      2.766716  
     567A      2.781190   568A      2.791527   569A      2.800461  
     570A      2.809249   571A      2.818655   572A      2.828678  
     573A      2.830501   574A      2.835240   575A      2.861413  
     576A      2.866942   577A      2.868499   578A      2.875594  
     579A      2.877546   580A      2.895003   581A      2.898329  
     582A      2.909090   583A      2.911396   584A      2.923771  
     585A      2.929767   586A      2.935340   587A      2.950326  
     588A      2.953978   589A      2.966725   590A      2.973215  
     591A      2.987700   592A      2.989663   593A      3.005401  
     594A      3.016732   595A      3.023422   596A      3.038367  
     597A      3.045197   598A      3.047430   599A      3.055574  
     600A      3.073560   601A      3.080077   602A      3.083782  
     603A      3.094577   604A      3.098504   605A      3.105508  
     606A      3.116381   607A      3.124815   608A      3.135946  
     609A      3.142794   610A      3.146235   611A      3.162211  
     612A      3.164640   613A      3.172048   614A      3.185496  
     615A      3.199723   616A      3.210728   617A      3.226143  
     618A      3.243156   619A      3.254222   620A      3.264939  
     621A      3.278119   622A      3.285517   623A      3.300996  
     624A      3.311530   625A      3.313691   626A      3.321205  
     627A      3.345339   628A      3.353495   629A      3.365238  
     630A      3.366816   631A      3.377658   632A      3.406687  
     633A      3.419099   634A      3.423284   635A      3.433648  
     636A      3.460715   637A      3.466847   638A      3.475017  
     639A      3.489421   640A      3.502601   641A      3.511033  
     642A      3.520098   643A      3.539979   644A      3.552341  
     645A      3.570575   646A      3.578689   647A      3.602826  
     648A      3.619968   649A      3.631594   650A      3.656776  
     651A      3.671785   652A      3.684307   653A      3.689653  
     654A      3.704325   655A      3.708447   656A      3.722811  
     657A      3.738007   658A      3.745675   659A      3.763601  
     660A      3.764702   661A      3.781251   662A      3.786948  
     663A      3.803524   664A      3.821628   665A      3.837393  
     666A      3.847841   667A      3.856025   668A      3.872485  
     669A      3.880875   670A      3.884841   671A      3.900782  
     672A      3.916111   673A      3.924050   674A      3.928327  
     675A      3.950734   676A      3.958998   677A      3.968182  
     678A      3.977402   679A      3.992631   680A      4.012404  
     681A      4.035507   682A      4.045155   683A      4.060025  
     684A      4.082905   685A      4.095718   686A      4.114301  
     687A      4.124505   688A      4.136381   689A      4.161689  
     690A      4.173285   691A      4.174959   692A      4.184443  
     693A      4.192564   694A      4.202723   695A      4.212740  
     696A      4.218259   697A      4.243023   698A      4.246795  
     699A      4.257436   700A      4.275312   701A      4.279136  
     702A      4.295034   703A      4.296710   704A      4.307367  
     705A      4.321840   706A      4.337640   707A      4.344706  
     708A      4.350936   709A      4.356081   710A      4.368676  
     711A      4.380197   712A      4.387776   713A      4.397307  
     714A      4.400068   715A      4.407890   716A      4.417937  
     717A      4.425145   718A      4.440496   719A      4.450999  
     720A      4.461648   721A      4.490469   722A      4.493224  
     723A      4.509170   724A      4.526120   725A      4.532046  
     726A      4.543315   727A      4.548036   728A      4.578513  
     729A      4.585080   730A      4.595129   731A      4.612970  
     732A      4.623164   733A      4.627723   734A      4.630509  
     735A      4.639228   736A      4.657536   737A      4.671028  
     738A      4.676908   739A      4.687396   740A      4.690161  
     741A      4.692926   742A      4.703264   743A      4.710110  
     744A      4.720898   745A      4.736761   746A      4.744545  
     747A      4.751903   748A      4.754983   749A      4.770046  
     750A      4.776451   751A      4.792779   752A      4.799334  
     753A      4.813326   754A      4.813666   755A      4.824159  
     756A      4.852630   757A      4.860127   758A      4.872753  
     759A      4.879322   760A      4.881413   761A      4.887737  
     762A      4.910009   763A      4.924189   764A      4.926785  
     765A      4.933508   766A      4.936889   767A      4.946364  
     768A      4.963031   769A      4.970459   770A      4.985303  
     771A      4.990894   772A      4.998003   773A      5.013989  
     774A      5.015419   775A      5.023151   776A      5.038217  
     777A      5.046802   778A      5.048071   779A      5.054283  
     780A      5.058136   781A      5.063353   782A      5.072672  
     783A      5.091036   784A      5.099631   785A      5.108499  
     786A      5.118657   787A      5.122924   788A      5.134887  
     789A      5.143529   790A      5.149733   791A      5.159035  
     792A      5.166931   793A      5.175214   794A      5.186133  
     795A      5.198679   796A      5.201422   797A      5.215359  
     798A      5.229579   799A      5.250275   800A      5.257895  
     801A      5.265878   802A      5.279055   803A      5.280735  
     804A      5.298193   805A      5.311190   806A      5.323512  
     807A      5.328612   808A      5.352357   809A      5.360316  
     810A      5.379352   811A      5.385563   812A      5.407940  
     813A      5.416410   814A      5.431043   815A      5.440619  
     816A      5.452831   817A      5.462466   818A      5.480645  
     819A      5.489339   820A      5.505562   821A      5.512718  
     822A      5.516001   823A      5.520227   824A      5.534251  
     825A      5.548399   826A      5.559458   827A      5.569432  
     828A      5.579649   829A      5.593723   830A      5.607716  
     831A      5.614456   832A      5.640476   833A      5.641799  
     834A      5.659037   835A      5.667481   836A      5.686604  
     837A      5.713784   838A      5.717583   839A      5.772002  
     840A      5.781930   841A      5.788740   842A      5.801795  
     843A      5.809544   844A      5.819202   845A      5.822693  
     846A      5.840577   847A      5.868102   848A      5.886590  
     849A      5.894569   850A      5.898162   851A      5.917586  
     852A      5.933117   853A      5.965109   854A      5.986138  
     855A      5.997020   856A      6.019139   857A      6.025809  
     858A      6.043823   859A      6.065561   860A      6.072110  
     861A      6.086158   862A      6.095368   863A      6.110345  
     864A      6.128046   865A      6.150869   866A      6.161673  
     867A      6.176410   868A      6.191161   869A      6.207576  
     870A      6.224892   871A      6.251404   872A      6.274797  
     873A      6.280756   874A      6.312742   875A      6.342597  
     876A      6.350851   877A      6.365347   878A      6.447527  
     879A      6.478433   880A      6.497897   881A      6.506864  
     882A      6.522096   883A      6.529524   884A      6.533481  
     885A      6.547474   886A      6.557987   887A      6.577867  
     888A      6.583329   889A      6.593423   890A      6.615683  
     891A      6.623217   892A      6.639686   893A      6.660147  
     894A      6.697032   895A      6.707470   896A      6.738804  
     897A      6.758179   898A      6.769730   899A      6.777351  
     900A      6.788744   901A      6.792725   902A      6.803078  
     903A      6.814779   904A      6.833706   905A      6.850154  
     906A      6.856646   907A      6.870633   908A      6.884757  
     909A      6.888372   910A      6.912696   911A      6.938738  
     912A      6.962409   913A      6.968493   914A      6.981882  
     915A      6.994085   916A      6.998842   917A      7.002090  
     918A      7.010853   919A      7.036154   920A      7.074877  
     921A      7.101223   922A      7.106140   923A      7.114890  
     924A      7.161327   925A      7.201513   926A      7.215789  
     927A      7.241823   928A      7.274745   929A      7.291196  
     930A      7.355089   931A      7.357961   932A      7.371961  
     933A      7.407655   934A      7.422914   935A      7.440269  
     936A      7.466677   937A      7.474410   938A      7.478071  
     939A      7.495997   940A      7.505714   941A      7.523078  
     942A      7.544054   943A      7.567215   944A      7.597170  
     945A      7.617395   946A      7.643909   947A      7.647647  
     948A      7.664253   949A      7.688724   950A      7.697734  
     951A      7.707106   952A      7.729850   953A      7.733758  
     954A      7.780382   955A      7.794754   956A      7.837009  
     957A      7.848593   958A      7.862365   959A      7.876608  
     960A      7.894906   961A      7.908487   962A      7.943108  
     963A      7.959439   964A      7.960190   965A      7.978263  
     966A      7.997058   967A      8.003939   968A      8.007670  
     969A      8.016343   970A      8.046119   971A      8.053209  
     972A      8.079161   973A      8.107043   974A      8.125185  
     975A      8.209666   976A      8.237934   977A      8.314582  
     978A      8.348558   979A      8.398290   980A      8.438883  
     981A      8.475860   982A      8.559394   983A      8.689630  
     984A      8.808253   985A      8.854024   986A      8.950623  
     987A      9.016725   988A      9.044404   989A      9.246373  
     990A      9.323369   991A      9.367915   992A      9.630029  
     993A      9.663460   994A      9.666584   995A      9.747667  
     996A      9.810407   997A      9.933112   998A     10.171793  
     999A     10.272062  1000A     10.453540  1001A     10.753057  
    1002A     11.053058  1003A     11.102637  1004A     11.197450  
    1005A     11.264448  1006A     11.577096  1007A     11.672137  
    1008A     11.740011  1009A     11.867416  1010A     12.059020  
    1011A     12.085274  1012A     12.228277  1013A     12.343102  
    1014A     12.437845  1015A     12.589875  1016A     12.904272  
    1017A     12.962573  1018A     16.114017  1019A     16.176016  
    1020A     16.630928  1021A     17.104888  1022A     18.352892  
    1023A     19.867154  1024A     20.303837  1025A     21.021656  
    1026A     51.800467  1027A     52.153077  1028A     52.856158  
    1029A     54.529440  1030A     57.135033  1031A     60.367051  
    1032A     61.921990  1033A     62.489196  1034A     63.029418  
    1035A     64.541820  

    Final Occupation by Irrep:
              A 
    DOCC [    29 ]

  @DF-RHF Final Energy:  -412.62093470280104

   => Energetics <=

    Nuclear Repulsion Energy =            355.5011838885883435
    One-Electron Energy =               -1267.4083736391226012
    Two-Electron Energy =                 499.2862550477332206
    Total Energy =                       -412.6209347028010370

Computation Completed


Properties will be evaluated at   0.000000,   0.000000,   0.000000 [a0]

Properties computed using the SCF density matrix

  Nuclear Dipole Moment: [e a0]
     X:  -194.2223      Y:    -5.1826      Z:   -81.7863

  Electronic Dipole Moment: [e a0]
     X:   193.7836      Y:     3.2667      Z:    82.2062

  Dipole Moment: [e a0]
     X:    -0.4388      Y:    -1.9159      Z:     0.4200     Total:     2.0099

  Dipole Moment: [D]
     X:    -1.1152      Y:    -4.8697      Z:     1.0675     Total:     5.1086


*** tstop() called on node158.bme.utexas.edu at Sun Jan 14 11:42:13 2024
Module time:
	user time   =     450.33 seconds =       7.51 minutes
	system time =       3.41 seconds =       0.06 minutes
	total time  =         66 seconds =       1.10 minutes
Total time:
	user time   =    2000.39 seconds =      33.34 minutes
	system time =      20.81 seconds =       0.35 minutes
	total time  =        303 seconds =       5.05 minutes

*** tstart() called on node158.bme.utexas.edu
*** at Sun Jan 14 11:42:13 2024


  //>>>>>>>>>>>>>>>>>>>>>>>>>>>>>>>>>>>//
  //               DFMP2               //
  //<<<<<<<<<<<<<<<<<<<<<<<<<<<<<<<<<<<//

   => Loading Basis Set <=

    Name: (AUG-CC-PVTZ AUX)
    Role: RIFIT
    Keyword: DF_BASIS_MP2
    atoms 1, 4, 11, 14-15, 17, 24, 26-27 entry H          line    30 file /opt/anaconda/envs/psi4v1.5/share/psi4/basis/aug-cc-pvtz-ri.gbs 
    atoms 2, 5, 8-9, 12, 16, 20          entry N          line   206 file /opt/anaconda/envs/psi4v1.5/share/psi4/basis/aug-cc-pvtz-ri.gbs 
    atoms 3, 6-7, 10, 13, 18, 21, 23, 25 entry C          line   148 file /opt/anaconda/envs/psi4v1.5/share/psi4/basis/aug-cc-pvtz-ri.gbs 
    atoms 19, 22                         entry O          line   264 file /opt/anaconda/envs/psi4v1.5/share/psi4/basis/aug-cc-pvtz-ri.gbs 

	 --------------------------------------------------------
	                          DF-MP2                         
	      2nd-Order Density-Fitted Moller-Plesset Theory     
	              RMP2 Wavefunction,   8 Threads             
	                                                         
	        Rob Parrish, Justin Turney, Andy Simmonett,      
	           Ed Hohenstein, and C. David Sherrill          
	 --------------------------------------------------------

   => Auxiliary Basis Set <=

  Basis Set: (AUG-CC-PVTZ AUX)
    Blend: AUG-CC-PVTZ-RI
    Number of shells: 630
    Number of basis functions: 2322
    Number of Cartesian functions: 2943
    Spherical Harmonics?: true
    Max angular momentum: 4

	 --------------------------------------------------------
	                 NBF =  1035, NAUX =  2322
	 --------------------------------------------------------
	   CLASS    FOCC     OCC    AOCC    AVIR     VIR    FVIR
	   PAIRS       8      29      21    1006    1006       0
	 --------------------------------------------------------

	 Will attempt to load fitting metric from file 97.

	-----------------------------------------------------------
	 ==================> DF-MP2 Energies <==================== 
	-----------------------------------------------------------
	 Reference Energy          =    -412.6209347028010370 [Eh]
	 Singles Energy            =      -0.0000000000000000 [Eh]
	 Same-Spin Energy          =      -0.3925887512903106 [Eh]
	 Opposite-Spin Energy      =      -1.1128149902247690 [Eh]
	 Correlation Energy        =      -1.5054037415150796 [Eh]
	 Total Energy              =    -414.1263384443161044 [Eh]
	-----------------------------------------------------------
	 ================> DF-SCS-MP2 Energies <================== 
	-----------------------------------------------------------
	 SCS Same-Spin Scale       =       0.3333333333333333 [-]
	 SCS Opposite-Spin Scale   =       1.2000000000000000 [-]
	 SCS Same-Spin Energy      =      -0.1308629170967702 [Eh]
	 SCS Opposite-Spin Energy  =      -1.3353779882697228 [Eh]
	 SCS Correlation Energy    =      -1.4662409053664929 [Eh]
	 SCS Total Energy          =    -414.0871756081675130 [Eh]
	-----------------------------------------------------------


*** tstop() called on node158.bme.utexas.edu at Sun Jan 14 11:42:34 2024
Module time:
	user time   =     109.08 seconds =       1.82 minutes
	system time =       2.49 seconds =       0.04 minutes
	total time  =         21 seconds =       0.35 minutes
Total time:
	user time   =    2109.47 seconds =      35.16 minutes
	system time =      23.30 seconds =       0.39 minutes
	total time  =        324 seconds =       5.40 minutes
  Constructing Basis Sets for SAPT...

   => Loading Basis Set <=

    Name: (AUG-CC-PVTZ AUX)
    Role: RIFIT
    Keyword: DF_BASIS_SAPT
    atoms 1, 4, 11, 14-15, 17, 24, 26-27 entry H          line    30 file /opt/anaconda/envs/psi4v1.5/share/psi4/basis/aug-cc-pvtz-ri.gbs 
    atoms 2, 5, 8-9, 12, 16, 20          entry N          line   206 file /opt/anaconda/envs/psi4v1.5/share/psi4/basis/aug-cc-pvtz-ri.gbs 
    atoms 3, 6-7, 10, 13, 18, 21, 23, 25 entry C          line   148 file /opt/anaconda/envs/psi4v1.5/share/psi4/basis/aug-cc-pvtz-ri.gbs 
    atoms 19, 22                         entry O          line   264 file /opt/anaconda/envs/psi4v1.5/share/psi4/basis/aug-cc-pvtz-ri.gbs 


  //>>>>>>>>>>>>>>>>>>>>>>>>>>>>>>>>>>>//
  //           SAPT2+(3)DMP2           //
  //<<<<<<<<<<<<<<<<<<<<<<<<<<<<<<<<<<<//


*** tstart() called on node158.bme.utexas.edu
*** at Sun Jan 14 11:42:34 2024

      SAPT2+(3)  
    Ed Hohenstein
     6 June 2009

      Orbital Information
  --------------------------
    NSO        =      1035
    NMO        =      1035
    NRI        =      2322
    NOCC A     =        35
    NOCC B     =        29
    FOCC A     =        10
    FOCC B     =         8
    NVIR A     =      1000
    NVIR B     =      1006

    Estimated memory usage: 48553.4 MB

    Natural Orbital Cutoff:   1.000E-06
    Disp(T3) Truncation:            Yes
    CCD (vv|vv) Truncation:         Yes
    MBPT T2 Truncation:             Yes

    Monomer A: 504 virtual orbitals dropped
    Monomer B: 604 virtual orbitals dropped

    Elst10,r            =    -0.006015806520 [Eh]
    Exch10 (S^2)        =     0.009995532038 [Eh]
    Exch10              =     0.010002067388 [Eh]
    Ind20,r (A<-B)      =    -0.002965021853 [Eh]
    Ind20,r (B<-A)      =    -0.002111238230 [Eh]
    Ind20,r             =    -0.005076260083 [Eh]
    Exch-Ind20,r (A<-B) =     0.002149435815 [Eh]
    Exch-Ind20,r (B<-A) =     0.001904931479 [Eh]
    Exch-Ind20,r        =     0.004054367294 [Eh]
    Disp20              =    -0.019739414783 [Eh]
    Disp20 (NO)         =    -0.018464535432 [Eh]
    Exch-Disp20         =     0.001698796220 [Eh]
    Elst12,r            =     0.000489468337 [Eh]
    Exch11              =     0.000226991296 [Eh]
    Exch12              =     0.000618504728 [Eh]
    Ind22               =     0.000046117003 [Eh]
    Disp21              =     0.006412925007 [Eh]
    Disp22 (SDQ)        =    -0.000895056923 [Eh]

    (i =   1 of  21)       2336 seconds
    (i =   2 of  21)       4704 seconds
    (i =   3 of  21)       7507 seconds
    (i =   4 of  21)      10576 seconds
    (i =   5 of  21)      13559 seconds
    (i =   6 of  21)      16568 seconds
    (i =   7 of  21)      19583 seconds
    (i =   8 of  21)      22722 seconds
    (i =   9 of  21)      25846 seconds
    (i =  10 of  21)      28969 seconds
    (i =  11 of  21)      32017 seconds
    (i =  12 of  21)      35104 seconds
    (i =  13 of  21)      38211 seconds
    (i =  14 of  21)      41328 seconds
    (i =  15 of  21)      44481 seconds
    (i =  16 of  21)      47521 seconds
    (i =  17 of  21)      50637 seconds
    (i =  18 of  21)      53764 seconds
    (i =  19 of  21)      56847 seconds
    (i =  20 of  21)      59932 seconds
    (i =  21 of  21)      62981 seconds

    Disp220 (T)         =    -0.002323208761 [Eh]

    (i =   1 of  25)       1926 seconds
    (i =   2 of  25)       3803 seconds
    (i =   3 of  25)       5737 seconds
    (i =   4 of  25)       7694 seconds
    (i =   5 of  25)       9577 seconds
    (i =   6 of  25)      11504 seconds
    (i =   7 of  25)      13459 seconds
    (i =   8 of  25)      15413 seconds
    (i =   9 of  25)      17378 seconds
    (i =  10 of  25)      19343 seconds
    (i =  11 of  25)      21298 seconds
    (i =  12 of  25)      23243 seconds
    (i =  13 of  25)      25194 seconds
    (i =  14 of  25)      27136 seconds
    (i =  15 of  25)      29083 seconds
    (i =  16 of  25)      31016 seconds
    (i =  17 of  25)      32947 seconds
    (i =  18 of  25)      34866 seconds
    (i =  19 of  25)      36779 seconds
    (i =  20 of  25)      38653 seconds
    (i =  21 of  25)      40547 seconds
    (i =  22 of  25)      42436 seconds
    (i =  23 of  25)      44379 seconds
    (i =  24 of  25)      46277 seconds
    (i =  25 of  25)      48217 seconds

    Disp202 (T)         =    -0.002241788647 [Eh]

    Disp22 (T)          =    -0.004564997408 [Eh]

    Est. Disp220 (T)    =    -0.002483614144 [Eh]
    Est. Disp202 (T)    =    -0.002396572398 [Eh]

    Est. Disp22 (T)     =    -0.004880186542 [Eh]
    Elst13,r            =     0.000114279960 [Eh]
    Disp30              =     0.000445566756 [Eh]

    SAPT Results 
  --------------------------------------------------------------------------------------------------------
    Electrostatics                 -5.41205822 [mEh]      -3.39611781 [kcal/mol]     -14.20935691 [kJ/mol]
      Elst10,r                     -6.01580652 [mEh]      -3.77497558 [kcal/mol]     -15.79449784 [kJ/mol]
      Elst12,r                      0.48946834 [mEh]       0.30714602 [kcal/mol]       1.28509894 [kJ/mol]
      Elst13,r                      0.11427996 [mEh]       0.07171176 [kcal/mol]       0.30004199 [kJ/mol]

    Exchange                       10.84756341 [mEh]       6.80694881 [kcal/mol]      28.48027382 [kJ/mol]
      Exch10                       10.00206739 [mEh]       6.27639204 [kcal/mol]      26.26042431 [kJ/mol]
      Exch10(S^2)                   9.99553204 [mEh]       6.27229105 [kcal/mol]      26.24326575 [kJ/mol]
      Exch11(S^2)                   0.22699130 [mEh]       0.14243919 [kcal/mol]       0.59596557 [kJ/mol]
      Exch12(S^2)                   0.61850473 [mEh]       0.38811758 [kcal/mol]       1.62388394 [kJ/mol]

    Induction                      -1.37352745 [mEh]      -0.86190149 [kcal/mol]      -3.60619583 [kJ/mol]
      Ind20,r                      -5.07626008 [mEh]      -3.18540129 [kcal/mol]     -13.32771901 [kJ/mol]
      Ind22                         0.04611700 [mEh]       0.02893886 [kcal/mol]       0.12108017 [kJ/mol]
      Exch-Ind20,r                  4.05436729 [mEh]       2.54415389 [kcal/mol]      10.64473986 [kJ/mol]
      Exch-Ind22                   -0.03683327 [mEh]      -0.02311323 [kcal/mol]      -0.09670574 [kJ/mol]
      delta HF,r (2)               -0.65928039 [mEh]      -0.41370469 [kcal/mol]      -1.73094042 [kJ/mol]
      delta MP2,r (2)               0.29836200 [mEh]       0.18722498 [kcal/mol]       0.78334931 [kJ/mol]

    Dispersion                    -16.95737026 [mEh]     -10.64091049 [kcal/mol]     -44.52156950 [kJ/mol]
      Disp20                      -19.73941478 [mEh]     -12.38666978 [kcal/mol]     -51.82582637 [kJ/mol]
      Disp30                        0.44556676 [mEh]       0.27959736 [kcal/mol]       1.16983536 [kJ/mol]
      Disp21                        6.41292501 [mEh]       4.02417120 [kcal/mol]      16.83713229 [kJ/mol]
      Disp22 (SDQ)                 -0.89505692 [mEh]      -0.56165670 [kcal/mol]      -2.34997163 [kJ/mol]
      Disp22 (T)                   -4.56499741 [mEh]      -2.86457912 [kcal/mol]     -11.98539904 [kJ/mol]
      Est. Disp22 (T)              -4.88018654 [mEh]      -3.06236329 [kcal/mol]     -12.81292800 [kJ/mol]
      Exch-Disp20                   1.69879622 [mEh]       1.06601072 [kcal/mol]       4.46018886 [kJ/mol]

  Total HF                          2.30508769 [mEh]       1.44646436 [kcal/mol]       6.05200690 [kJ/mol]
  Total SAPT0                     -15.73553087 [mEh]      -9.87419470 [kcal/mol]     -41.31363061 [kJ/mol]
  Total SAPT2                     -14.39128278 [mEh]      -9.03066628 [kcal/mol]     -37.78430773 [kJ/mol]
  Total SAPT2+                    -13.75360124 [mEh]      -8.63051508 [kcal/mol]     -36.11007508 [kJ/mol]
  Total SAPT2+(3)                 -13.19375452 [mEh]      -8.27920596 [kcal/mol]     -34.64019772 [kJ/mol]
  Total SAPT2+dMP2                -13.45523924 [mEh]      -8.44329010 [kcal/mol]     -35.32672576 [kJ/mol]
  Total SAPT2+(3)dMP2             -12.89539253 [mEh]      -8.09198098 [kcal/mol]     -33.85684841 [kJ/mol]

  Special recipe for scaled SAPT0 (see Manual):
    Electrostatics sSAPT0          -6.01580652 [mEh]      -3.77497558 [kcal/mol]     -15.79449784 [kJ/mol]
    Exchange sSAPT0                10.00206739 [mEh]       6.27639204 [kcal/mol]      26.26042431 [kJ/mol]
    Induction sSAPT0               -1.67321541 [mEh]      -1.04995852 [kcal/mol]      -4.39302646 [kJ/mol]
    Dispersion sSAPT0             -18.03728423 [mEh]     -11.31856673 [kcal/mol]     -47.35688321 [kJ/mol]
  Total sSAPT0                    -15.72423877 [mEh]      -9.86710880 [kcal/mol]     -41.28398320 [kJ/mol]
  --------------------------------------------------------------------------------------------------------

*** tstop() called on node158.bme.utexas.edu at Mon Jan 15 23:32:55 2024
Module time:
	user time   =  717910.30 seconds =   11965.17 minutes
	system time =    2264.78 seconds =      37.75 minutes
	total time  =     129021 seconds =    2150.35 minutes
Total time:
	user time   =  720020.55 seconds =   12000.34 minutes
	system time =    2288.09 seconds =      38.13 minutes
	total time  =     129345 seconds =    2155.75 minutes

    Psi4 stopped on: Monday, 15 January 2024 11:32PM
    Psi4 wall time for execution: 1 day, 11:55:45.44

*** Psi4 exiting successfully. Buy a developer a beer!
