
    -----------------------------------------------------------------------
          Psi4: An Open-Source Ab Initio Electronic Structure Package
                               Psi4 1.5 release

                         Git: Rev {HEAD} e9f4d6d 


    D. G. A. Smith, L. A. Burns, A. C. Simmonett, R. M. Parrish,
    M. C. Schieber, R. Galvelis, P. Kraus, H. Kruse, R. Di Remigio,
    A. Alenaizan, A. M. James, S. Lehtola, J. P. Misiewicz, M. Scheurer,
    R. A. Shaw, J. B. Schriber, Y. Xie, Z. L. Glick, D. A. Sirianni,
    J. S. O'Brien, J. M. Waldrop, A. Kumar, E. G. Hohenstein,
    B. P. Pritchard, B. R. Brooks, H. F. Schaefer III, A. Yu. Sokolov,
    K. Patkowski, A. E. DePrince III, U. Bozkaya, R. A. King,
    F. A. Evangelista, J. M. Turney, T. D. Crawford, C. D. Sherrill,
    J. Chem. Phys. 152(18) 184108 (2020). https://doi.org/10.1063/5.0006002

                            Additional Code Authors
    E. T. Seidl, C. L. Janssen, E. F. Valeev, M. L. Leininger,
    J. F. Gonthier, R. M. Richard, H. R. McAlexander, M. Saitow, X. Wang,
    P. Verma, M. H. Lechner, and A. Jiang

             Previous Authors, Complete List of Code Contributors,
                       and Citations for Specific Modules
    https://github.com/psi4/psi4/blob/master/codemeta.json
    https://github.com/psi4/psi4/graphs/contributors
    http://psicode.org/psi4manual/master/introduction.html#citing-psifour

    -----------------------------------------------------------------------


    Psi4 started on: Sunday, 14 January 2024 11:37AM

    Process ID: 3143198
    Host:       node153.bme.utexas.edu
    PSIDATADIR: /opt/anaconda/envs/psi4v1.5/share/psi4
    Memory:     500.0 MiB
    Threads:    8
    
  ==> Input File <==

--------------------------------------------------------------------------
memory 80GB

molecule {
0 1
H 0.73416 -2.73714 1.78907
N 1.07053 -2.05372 1.12076
C 1.83021 -2.28443 0.0011
H 2.0989 -3.28737 -0.30805
N 2.1882 -1.17806 -0.63497
C 1.63236 -0.17459 0.13508
C 1.64002 1.22903 0.00713
N 2.33434 1.86152 -0.98341
N 0.9933 1.96332 0.92822
C 0.35708 1.32479 1.9369
H -0.1597 1.96925 2.64406
N 0.26588 0.00787 2.16903
C 0.92611 -0.68744 1.22973
H 2.04429 2.82257 -1.13064
H 2.42428 1.32417 -1.83981
--
0 1
N -2.5324221583333335 -0.9904584416666666 0.17864724999999998
H -3.0702221583333333 -1.4309584416666667 0.91568725
C -2.4534121583333333 0.3946515583333334 0.26723725000000004
O -3.0190421583333333 1.0454615583333333 1.13447725
N -1.6822821583333334 0.9442115583333333 -0.74450275
C -0.9744221583333333 0.2897015583333334 -1.76438275
O -0.3020621583333333 0.9337515583333333 -2.56988275
C -1.1331621583333333 -1.1556984416666667 -1.74449275
H -0.6252821583333333 -1.7398384416666668 -2.50022275
C -1.8911221583333333 -1.7341884416666666 -0.78372275
H -2.0437521583333336 -2.807388441666667 -0.7227227500000001
H -1.5476321583333332 1.9512015583333333 -0.6843727500000001
 units angstrom
 no_reorient
 symmetry c1
}
set
 {scf_type DF
 basis aug-cc-pvtz
 freeze_core True
 guess SAD
}
energy('sapt2+(3)dmp2')
--------------------------------------------------------------------------

  Memory set to  74.506 GiB by Python driver.

Scratch directory: /tmp/
   => Loading Basis Set <=

    Name: AUG-CC-PVTZ
    Role: ORBITAL
    Keyword: BASIS
    atoms 1, 4, 11, 14-15, 17, 24, 26-27 entry H          line    40 file /opt/anaconda/envs/psi4v1.5/share/psi4/basis/aug-cc-pvtz.gbs 
    atoms 2, 5, 8-9, 12, 16, 20          entry N          line   285 file /opt/anaconda/envs/psi4v1.5/share/psi4/basis/aug-cc-pvtz.gbs 
    atoms 3, 6-7, 10, 13, 18, 21, 23, 25 entry C          line   239 file /opt/anaconda/envs/psi4v1.5/share/psi4/basis/aug-cc-pvtz.gbs 
    atoms 19, 22                         entry O          line   331 file /opt/anaconda/envs/psi4v1.5/share/psi4/basis/aug-cc-pvtz.gbs 

   => Loading Basis Set <=

    Name: AUG-CC-PVTZ
    Role: ORBITAL
    Keyword: BASIS
    atoms 1, 4, 11, 14-15, 17, 24, 26-27 entry H          line    40 file /opt/anaconda/envs/psi4v1.5/share/psi4/basis/aug-cc-pvtz.gbs 
    atoms 2, 5, 8-9, 12, 16, 20          entry N          line   285 file /opt/anaconda/envs/psi4v1.5/share/psi4/basis/aug-cc-pvtz.gbs 
    atoms 3, 6-7, 10, 13, 18, 21, 23, 25 entry C          line   239 file /opt/anaconda/envs/psi4v1.5/share/psi4/basis/aug-cc-pvtz.gbs 
    atoms 19, 22                         entry O          line   331 file /opt/anaconda/envs/psi4v1.5/share/psi4/basis/aug-cc-pvtz.gbs 


  //>>>>>>>>>>>>>>>>>>>>>>>>>>>>>>>>>>>//
  //              Dimer HF             //
  //<<<<<<<<<<<<<<<<<<<<<<<<<<<<<<<<<<<//


*** tstart() called on node153.bme.utexas.edu
*** at Sun Jan 14 11:37:05 2024

   => Loading Basis Set <=

    Name: AUG-CC-PVTZ
    Role: ORBITAL
    Keyword: BASIS
    atoms 1, 4, 11, 14-15, 17, 24, 26-27 entry H          line    40 file /opt/anaconda/envs/psi4v1.5/share/psi4/basis/aug-cc-pvtz.gbs 
    atoms 2, 5, 8-9, 12, 16, 20          entry N          line   285 file /opt/anaconda/envs/psi4v1.5/share/psi4/basis/aug-cc-pvtz.gbs 
    atoms 3, 6-7, 10, 13, 18, 21, 23, 25 entry C          line   239 file /opt/anaconda/envs/psi4v1.5/share/psi4/basis/aug-cc-pvtz.gbs 
    atoms 19, 22                         entry O          line   331 file /opt/anaconda/envs/psi4v1.5/share/psi4/basis/aug-cc-pvtz.gbs 


         ---------------------------------------------------------
                                   SCF
               by Justin Turney, Rob Parrish, Andy Simmonett
                          and Daniel G. A. Smith
                              RHF Reference
                        8 Threads,  76293 MiB Core
         ---------------------------------------------------------

  ==> Geometry <==

    Molecular point group: c1
    Full point group: C1

    Geometry (in Angstrom), charge = 0, multiplicity = 1:

       Center              X                  Y                   Z               Mass       
    ------------   -----------------  -----------------  -----------------  -----------------
         H            0.803485992589    -2.744749744405     1.808968356428     1.007825032230
         N            1.139855992589    -2.061329744405     1.140658356428    14.003074004430
         C            1.899535992589    -2.292039744405     0.020998356428    12.000000000000
         H            2.168225992589    -3.294979744405    -0.288151643572     1.007825032230
         N            2.257525992589    -1.185669744405    -0.615071643572    14.003074004430
         C            1.701685992589    -0.182199744405     0.154978356428    12.000000000000
         C            1.709345992589     1.221420255595     0.027028356428    12.000000000000
         N            2.403665992589     1.853910255595    -0.963511643572    14.003074004430
         N            1.062625992589     1.955710255595     0.948118356428    14.003074004430
         C            0.426405992589     1.317180255595     1.956798356428    12.000000000000
         H           -0.090374007411     1.961640255595     2.663958356428     1.007825032230
         N            0.335205992589     0.000260255595     2.188928356428    14.003074004430
         C            0.995435992589    -0.695049744405     1.249628356428    12.000000000000
         H            2.113615992589     2.814960255595    -1.110741643572     1.007825032230
         H            2.493605992589     1.316560255595    -1.819911643572     1.007825032230
         N           -2.463096165745    -0.998068186071     0.198545606428    14.003074004430
         H           -3.000896165745    -1.438568186071     0.935585606428     1.007825032230
         C           -2.384086165745     0.387041813929     0.287135606428    12.000000000000
         O           -2.949716165745     1.037851813929     1.154375606428    15.994914619570
         N           -1.612956165745     0.936601813929    -0.724604393572    14.003074004430
         C           -0.905096165745     0.282091813929    -1.744484393572    12.000000000000
         O           -0.232736165745     0.926141813929    -2.549984393572    15.994914619570
         C           -1.063836165745    -1.163308186071    -1.724594393572    12.000000000000
         H           -0.555956165745    -1.747448186071    -2.480324393572     1.007825032230
         C           -1.821796165745    -1.741798186071    -0.763824393572    12.000000000000
         H           -1.974426165745    -2.814998186071    -0.702824393572     1.007825032230
         H           -1.478306165745     1.943591813929    -0.664474393572     1.007825032230

  Running in c1 symmetry.

  Rotational constants: A =      0.01947  B =      0.01457  C =      0.01413 [cm^-1]
  Rotational constants: A =    583.76518  B =    436.72332  C =    423.70260 [MHz]
  Nuclear repulsion = 1372.472667757024283

  Charge       = 0
  Multiplicity = 1
  Electrons    = 128
  Nalpha       = 64
  Nbeta        = 64

  ==> Algorithm <==

  SCF Algorithm Type is DF.
  DIIS enabled.
  MOM disabled.
  Fractional occupation disabled.
  Guess Type is SAD.
  Energy threshold   = 1.00e-08
  Density threshold  = 1.00e-08
  Integral threshold = 1.00e-12

  ==> Primary Basis <==

  Basis Set: AUG-CC-PVTZ
    Blend: AUG-CC-PVTZ
    Number of shells: 333
    Number of basis functions: 1035
    Number of Cartesian functions: 1215
    Spherical Harmonics?: true
    Max angular momentum: 3

   => Loading Basis Set <=

    Name: (AUG-CC-PVTZ AUX)
    Role: JKFIT
    Keyword: DF_BASIS_SCF
    atoms 1, 4, 11, 14-15, 17, 24, 26-27 entry H          line    70 file /opt/anaconda/envs/psi4v1.5/share/psi4/basis/aug-cc-pvtz-jkfit.gbs 
    atoms 2, 5, 8-9, 12, 16, 20          entry N          line   224 file /opt/anaconda/envs/psi4v1.5/share/psi4/basis/aug-cc-pvtz-jkfit.gbs 
    atoms 3, 6-7, 10, 13, 18, 21, 23, 25 entry C          line   162 file /opt/anaconda/envs/psi4v1.5/share/psi4/basis/aug-cc-pvtz-jkfit.gbs 
    atoms 19, 22                         entry O          line   286 file /opt/anaconda/envs/psi4v1.5/share/psi4/basis/aug-cc-pvtz-jkfit.gbs 

  ==> Integral Setup <==

  ==> DiskDFJK: Density-Fitted J/K Matrices <==

    J tasked:                  Yes
    K tasked:                  Yes
    wK tasked:                  No
    OpenMP threads:              8
    Integrals threads:           8
    Memory [MiB]:            57220
    Algorithm:                Core
    Integral Cache:           SAVE
    Schwarz Cutoff:          1E-12
    Fitting Condition:       1E-10

   => Auxiliary Basis Set <=

  Basis Set: (AUG-CC-PVTZ AUX)
    Blend: AUG-CC-PVTZ-JKFIT
    Number of shells: 666
    Number of basis functions: 2286
    Number of Cartesian functions: 2853
    Spherical Harmonics?: true
    Max angular momentum: 4

  Minimum eigenvalue in the overlap matrix is 7.7200788438E-07.
  Reciprocal condition number of the overlap matrix is 3.3183828931E-08.
    Using symmetric orthogonalization.

  ==> Pre-Iterations <==

  SCF Guess: Superposition of Atomic Densities via on-the-fly atomic UHF (no occupation information).

   -------------------------
    Irrep   Nso     Nmo    
   -------------------------
     A       1035    1035 
   -------------------------
    Total    1035    1035
   -------------------------

  ==> Iterations <==

                           Total Energy        Delta E     RMS |[F,P]|

   @DF-RHF iter SAD:  -876.58561508226910   -8.76586e+02   0.00000e+00 
   @DF-RHF iter   1:  -876.81572836618523   -2.30113e-01   9.61331e-04 DIIS
   @DF-RHF iter   2:  -877.16124451700523   -3.45516e-01   5.76164e-04 DIIS
   @DF-RHF iter   3:  -877.28583210973204   -1.24588e-01   1.27821e-04 DIIS
   @DF-RHF iter   4:  -877.29459086727843   -8.75876e-03   5.51522e-05 DIIS
   @DF-RHF iter   5:  -877.29643681037010   -1.84594e-03   1.06812e-05 DIIS
   @DF-RHF iter   6:  -877.29660491773961   -1.68107e-04   5.64722e-06 DIIS
   @DF-RHF iter   7:  -877.29664929275157   -4.43750e-05   2.37771e-06 DIIS
   @DF-RHF iter   8:  -877.29665771070984   -8.41796e-06   9.27152e-07 DIIS
   @DF-RHF iter   9:  -877.29665889911462   -1.18840e-06   3.79764e-07 DIIS
   @DF-RHF iter  10:  -877.29665913710460   -2.37990e-07   1.49920e-07 DIIS
   @DF-RHF iter  11:  -877.29665918008618   -4.29816e-08   6.98920e-08 DIIS
   @DF-RHF iter  12:  -877.29665918882506   -8.73888e-09   2.82044e-08 DIIS
   @DF-RHF iter  13:  -877.29665919032743   -1.50237e-09   1.15460e-08 DIIS
   @DF-RHF iter  14:  -877.29665919058471   -2.57273e-10   5.36080e-09 DIIS
  Energy and wave function converged.


  ==> Post-Iterations <==

    Orbital Energies [Eh]
    ---------------------

    Doubly Occupied:                                                      

       1A    -20.543204     2A    -20.540234     3A    -15.642169  
       4A    -15.641409     5A    -15.624857     6A    -15.575882  
       7A    -15.575417     8A    -15.565382     9A    -15.555753  
      10A    -11.417205    11A    -11.382271    12A    -11.340955  
      13A    -11.337383    14A    -11.331957    15A    -11.324161  
      16A    -11.315969    17A    -11.257677    18A    -11.255104  
      19A     -1.426632    20A     -1.389997    21A     -1.372163  
      22A     -1.306188    23A     -1.299238    24A     -1.245187  
      25A     -1.239343    26A     -1.189162    27A     -1.152998  
      28A     -1.084278    29A     -1.035948    30A     -0.928465  
      31A     -0.897310    32A     -0.895359    33A     -0.878832  
      34A     -0.851827    35A     -0.800446    36A     -0.775080  
      37A     -0.758942    38A     -0.732077    39A     -0.709541  
      40A     -0.696743    41A     -0.674155    42A     -0.672294  
      43A     -0.668977    44A     -0.647752    45A     -0.638036  
      46A     -0.631228    47A     -0.610960    48A     -0.608633  
      49A     -0.597128    50A     -0.593421    51A     -0.572681  
      52A     -0.553918    53A     -0.519491    54A     -0.501260  
      55A     -0.496794    56A     -0.479019    57A     -0.456033  
      58A     -0.447953    59A     -0.435285    60A     -0.429164  
      61A     -0.413449    62A     -0.378894    63A     -0.365270  
      64A     -0.314536  

    Virtual:                                                              

      65A      0.007976    66A      0.025430    67A      0.029201  
      68A      0.038348    69A      0.046235    70A      0.047870  
      71A      0.049615    72A      0.053196    73A      0.061569  
      74A      0.070696    75A      0.077846    76A      0.078639  
      77A      0.082666    78A      0.085714    79A      0.086721  
      80A      0.091268    81A      0.092259    82A      0.097235  
      83A      0.105380    84A      0.106567    85A      0.109535  
      86A      0.115060    87A      0.120957    88A      0.121574  
      89A      0.124110    90A      0.126096    91A      0.127433  
      92A      0.131396    93A      0.133919    94A      0.136071  
      95A      0.137699    96A      0.139952    97A      0.142496  
      98A      0.145707    99A      0.147520   100A      0.153617  
     101A      0.155996   102A      0.163353   103A      0.167079  
     104A      0.169649   105A      0.178360   106A      0.181657  
     107A      0.183410   108A      0.185346   109A      0.189853  
     110A      0.192987   111A      0.198171   112A      0.203225  
     113A      0.207327   114A      0.211450   115A      0.214369  
     116A      0.218500   117A      0.222454   118A      0.226961  
     119A      0.231884   120A      0.235914   121A      0.237354  
     122A      0.241441   123A      0.244026   124A      0.246390  
     125A      0.249959   126A      0.254021   127A      0.254818  
     128A      0.258100   129A      0.264434   130A      0.267374  
     131A      0.274029   132A      0.276603   133A      0.277733  
     134A      0.282118   135A      0.285616   136A      0.289247  
     137A      0.290888   138A      0.294850   139A      0.298554  
     140A      0.300610   141A      0.302102   142A      0.305971  
     143A      0.307339   144A      0.313199   145A      0.316612  
     146A      0.320574   147A      0.326520   148A      0.331423  
     149A      0.334298   150A      0.339008   151A      0.340807  
     152A      0.345058   153A      0.347442   154A      0.351388  
     155A      0.356166   156A      0.358342   157A      0.363080  
     158A      0.365325   159A      0.371139   160A      0.375155  
     161A      0.378194   162A      0.380894   163A      0.383088  
     164A      0.389091   165A      0.392203   166A      0.398180  
     167A      0.403085   168A      0.408610   169A      0.411084  
     170A      0.414264   171A      0.419808   172A      0.420870  
     173A      0.422958   174A      0.427711   175A      0.431839  
     176A      0.433246   177A      0.436261   178A      0.442452  
     179A      0.444407   180A      0.447393   181A      0.452061  
     182A      0.453902   183A      0.458174   184A      0.460089  
     185A      0.464626   186A      0.467759   187A      0.470428  
     188A      0.473802   189A      0.480020   190A      0.482823  
     191A      0.486210   192A      0.487778   193A      0.491155  
     194A      0.496302   195A      0.504568   196A      0.506937  
     197A      0.509735   198A      0.513004   199A      0.515568  
     200A      0.517755   201A      0.521729   202A      0.526517  
     203A      0.526764   204A      0.530149   205A      0.536563  
     206A      0.537966   207A      0.540644   208A      0.543835  
     209A      0.547172   210A      0.550512   211A      0.551990  
     212A      0.557246   213A      0.563724   214A      0.565078  
     215A      0.567421   216A      0.572676   217A      0.577654  
     218A      0.580277   219A      0.586355   220A      0.593995  
     221A      0.595164   222A      0.600231   223A      0.600740  
     224A      0.611126   225A      0.612021   226A      0.616819  
     227A      0.622853   228A      0.626275   229A      0.628914  
     230A      0.635046   231A      0.639287   232A      0.642422  
     233A      0.645352   234A      0.649682   235A      0.659761  
     236A      0.661107   237A      0.662283   238A      0.665154  
     239A      0.670251   240A      0.671455   241A      0.678300  
     242A      0.688017   243A      0.688686   244A      0.695139  
     245A      0.699077   246A      0.704711   247A      0.712686  
     248A      0.713918   249A      0.719272   250A      0.726658  
     251A      0.727346   252A      0.735247   253A      0.740522  
     254A      0.744994   255A      0.749545   256A      0.752464  
     257A      0.754332   258A      0.761196   259A      0.769284  
     260A      0.772714   261A      0.779702   262A      0.784590  
     263A      0.785933   264A      0.792193   265A      0.797301  
     266A      0.798115   267A      0.802130   268A      0.809047  
     269A      0.813493   270A      0.817223   271A      0.822869  
     272A      0.824972   273A      0.829915   274A      0.832083  
     275A      0.840232   276A      0.842734   277A      0.849252  
     278A      0.852504   279A      0.856995   280A      0.859579  
     281A      0.865231   282A      0.871684   283A      0.876115  
     284A      0.883245   285A      0.887787   286A      0.891108  
     287A      0.894361   288A      0.900504   289A      0.909324  
     290A      0.914371   291A      0.918669   292A      0.921160  
     293A      0.925052   294A      0.930539   295A      0.932345  
     296A      0.934216   297A      0.942802   298A      0.946498  
     299A      0.955122   300A      0.957660   301A      0.959568  
     302A      0.962367   303A      0.966222   304A      0.971191  
     305A      0.972878   306A      0.975836   307A      0.982130  
     308A      0.989112   309A      0.992058   310A      0.998735  
     311A      1.002759   312A      1.003497   313A      1.012207  
     314A      1.014137   315A      1.018240   316A      1.019678  
     317A      1.026683   318A      1.029639   319A      1.036119  
     320A      1.038816   321A      1.041935   322A      1.047125  
     323A      1.052776   324A      1.056610   325A      1.062820  
     326A      1.067754   327A      1.072615   328A      1.079489  
     329A      1.081028   330A      1.087904   331A      1.091621  
     332A      1.096632   333A      1.097806   334A      1.107038  
     335A      1.110406   336A      1.117085   337A      1.118630  
     338A      1.124008   339A      1.125526   340A      1.130552  
     341A      1.135401   342A      1.138840   343A      1.142622  
     344A      1.145077   345A      1.155432   346A      1.155730  
     347A      1.160854   348A      1.165693   349A      1.172732  
     350A      1.174922   351A      1.178299   352A      1.181922  
     353A      1.190036   354A      1.194725   355A      1.196312  
     356A      1.203215   357A      1.207911   358A      1.213036  
     359A      1.214103   360A      1.218691   361A      1.221998  
     362A      1.226523   363A      1.231770   364A      1.234626  
     365A      1.240670   366A      1.244550   367A      1.250192  
     368A      1.254033   369A      1.260889   370A      1.262731  
     371A      1.266880   372A      1.271391   373A      1.283239  
     374A      1.289821   375A      1.291909   376A      1.293590  
     377A      1.302413   378A      1.309836   379A      1.314871  
     380A      1.317286   381A      1.321186   382A      1.323664  
     383A      1.327191   384A      1.328926   385A      1.333427  
     386A      1.343186   387A      1.352225   388A      1.358278  
     389A      1.360076   390A      1.361658   391A      1.363733  
     392A      1.370776   393A      1.374972   394A      1.385726  
     395A      1.387681   396A      1.391181   397A      1.397656  
     398A      1.405974   399A      1.412434   400A      1.414039  
     401A      1.423523   402A      1.424180   403A      1.432203  
     404A      1.435319   405A      1.437762   406A      1.440866  
     407A      1.448205   408A      1.452625   409A      1.460631  
     410A      1.464392   411A      1.472139   412A      1.476074  
     413A      1.483863   414A      1.488808   415A      1.491575  
     416A      1.493641   417A      1.496923   418A      1.504266  
     419A      1.513531   420A      1.518445   421A      1.522842  
     422A      1.527806   423A      1.542071   424A      1.544211  
     425A      1.547402   426A      1.552922   427A      1.555909  
     428A      1.569933   429A      1.575344   430A      1.575785  
     431A      1.582833   432A      1.586193   433A      1.593134  
     434A      1.600160   435A      1.605347   436A      1.609505  
     437A      1.613935   438A      1.616230   439A      1.620670  
     440A      1.626217   441A      1.633603   442A      1.637260  
     443A      1.643053   444A      1.649899   445A      1.656393  
     446A      1.666435   447A      1.669643   448A      1.675680  
     449A      1.679604   450A      1.687050   451A      1.689204  
     452A      1.694740   453A      1.701484   454A      1.714085  
     455A      1.716238   456A      1.724048   457A      1.729227  
     458A      1.732704   459A      1.741012   460A      1.744836  
     461A      1.747361   462A      1.750336   463A      1.755112  
     464A      1.762611   465A      1.766778   466A      1.775478  
     467A      1.789595   468A      1.791886   469A      1.795445  
     470A      1.801112   471A      1.812514   472A      1.824604  
     473A      1.827873   474A      1.834038   475A      1.837313  
     476A      1.844137   477A      1.847535   478A      1.855580  
     479A      1.862368   480A      1.869491   481A      1.880311  
     482A      1.888790   483A      1.896036   484A      1.901833  
     485A      1.902921   486A      1.910111   487A      1.916222  
     488A      1.926457   489A      1.930757   490A      1.936052  
     491A      1.937767   492A      1.939476   493A      1.951179  
     494A      1.960108   495A      1.962003   496A      1.976245  
     497A      1.977418   498A      1.987812   499A      1.997251  
     500A      2.003019   501A      2.019767   502A      2.024341  
     503A      2.028785   504A      2.030300   505A      2.041943  
     506A      2.049084   507A      2.061815   508A      2.066647  
     509A      2.070154   510A      2.082992   511A      2.084261  
     512A      2.095559   513A      2.104120   514A      2.111115  
     515A      2.120112   516A      2.130546   517A      2.132835  
     518A      2.141152   519A      2.147892   520A      2.151655  
     521A      2.155116   522A      2.159547   523A      2.168218  
     524A      2.170152   525A      2.178854   526A      2.185363  
     527A      2.188784   528A      2.196866   529A      2.203801  
     530A      2.212327   531A      2.213131   532A      2.221539  
     533A      2.227559   534A      2.234217   535A      2.237964  
     536A      2.245955   537A      2.256872   538A      2.258821  
     539A      2.266359   540A      2.280999   541A      2.289667  
     542A      2.299028   543A      2.303674   544A      2.309841  
     545A      2.312861   546A      2.314318   547A      2.324986  
     548A      2.329769   549A      2.336778   550A      2.344319  
     551A      2.350514   552A      2.354089   553A      2.359338  
     554A      2.374804   555A      2.378302   556A      2.391850  
     557A      2.397426   558A      2.406788   559A      2.409130  
     560A      2.415472   561A      2.429383   562A      2.430903  
     563A      2.436602   564A      2.445462   565A      2.451742  
     566A      2.458196   567A      2.458474   568A      2.461921  
     569A      2.466768   570A      2.476695   571A      2.482161  
     572A      2.492466   573A      2.492748   574A      2.509612  
     575A      2.511311   576A      2.524671   577A      2.528690  
     578A      2.533386   579A      2.534679   580A      2.549196  
     581A      2.552235   582A      2.567331   583A      2.571736  
     584A      2.581685   585A      2.585577   586A      2.588005  
     587A      2.603758   588A      2.618193   589A      2.626250  
     590A      2.632482   591A      2.636774   592A      2.644804  
     593A      2.648363   594A      2.653265   595A      2.661789  
     596A      2.668195   597A      2.679672   598A      2.684437  
     599A      2.695163   600A      2.700150   601A      2.704992  
     602A      2.711831   603A      2.720190   604A      2.729053  
     605A      2.730773   606A      2.739072   607A      2.746528  
     608A      2.748618   609A      2.758887   610A      2.772076  
     611A      2.774529   612A      2.785604   613A      2.798643  
     614A      2.801476   615A      2.811837   616A      2.826589  
     617A      2.834700   618A      2.837362   619A      2.850920  
     620A      2.868007   621A      2.875495   622A      2.877316  
     623A      2.881113   624A      2.897585   625A      2.902866  
     626A      2.907871   627A      2.917381   628A      2.925156  
     629A      2.955651   630A      2.959435   631A      2.965844  
     632A      2.977489   633A      2.988629   634A      2.995148  
     635A      3.011480   636A      3.033054   637A      3.049371  
     638A      3.054157   639A      3.069001   640A      3.076148  
     641A      3.087853   642A      3.095884   643A      3.102076  
     644A      3.123188   645A      3.133485   646A      3.143947  
     647A      3.167691   648A      3.196401   649A      3.205362  
     650A      3.228995   651A      3.247116   652A      3.267324  
     653A      3.271047   654A      3.280147   655A      3.294638  
     656A      3.305205   657A      3.313670   658A      3.326033  
     659A      3.332892   660A      3.364934   661A      3.375703  
     662A      3.383640   663A      3.404955   664A      3.407766  
     665A      3.419526   666A      3.429122   667A      3.455113  
     668A      3.465344   669A      3.468735   670A      3.484092  
     671A      3.487801   672A      3.493757   673A      3.513094  
     674A      3.521081   675A      3.533134   676A      3.543997  
     677A      3.554495   678A      3.559021   679A      3.565256  
     680A      3.582365   681A      3.602005   682A      3.604152  
     683A      3.608348   684A      3.622987   685A      3.627998  
     686A      3.637944   687A      3.639884   688A      3.656366  
     689A      3.671132   690A      3.679692   691A      3.689057  
     692A      3.696313   693A      3.708212   694A      3.711997  
     695A      3.717308   696A      3.731609   697A      3.745267  
     698A      3.757174   699A      3.759668   700A      3.765812  
     701A      3.772806   702A      3.786281   703A      3.790639  
     704A      3.793310   705A      3.795208   706A      3.818028  
     707A      3.820564   708A      3.829477   709A      3.837664  
     710A      3.849044   711A      3.851773   712A      3.862304  
     713A      3.866253   714A      3.868931   715A      3.879397  
     716A      3.882230   717A      3.897100   718A      3.904365  
     719A      3.908225   720A      3.918470   721A      3.923080  
     722A      3.938348   723A      3.944976   724A      3.949435  
     725A      3.963111   726A      3.971781   727A      3.984616  
     728A      3.988277   729A      3.999301   730A      4.004888  
     731A      4.015143   732A      4.021106   733A      4.027062  
     734A      4.039607   735A      4.046898   736A      4.052661  
     737A      4.059251   738A      4.079022   739A      4.085392  
     740A      4.092233   741A      4.099715   742A      4.102886  
     743A      4.114302   744A      4.119124   745A      4.128681  
     746A      4.141045   747A      4.145483   748A      4.151541  
     749A      4.156388   750A      4.170769   751A      4.184114  
     752A      4.192821   753A      4.204933   754A      4.211596  
     755A      4.215639   756A      4.224971   757A      4.232718  
     758A      4.238305   759A      4.242814   760A      4.245825  
     761A      4.257582   762A      4.265018   763A      4.270956  
     764A      4.282048   765A      4.291742   766A      4.293278  
     767A      4.305107   768A      4.317710   769A      4.325455  
     770A      4.331958   771A      4.337077   772A      4.349688  
     773A      4.364248   774A      4.366853   775A      4.371892  
     776A      4.375471   777A      4.386802   778A      4.394272  
     779A      4.404606   780A      4.413010   781A      4.420300  
     782A      4.425631   783A      4.431548   784A      4.444725  
     785A      4.450379   786A      4.451462   787A      4.461089  
     788A      4.470425   789A      4.477367   790A      4.483105  
     791A      4.490799   792A      4.502588   793A      4.507636  
     794A      4.522288   795A      4.526493   796A      4.538813  
     797A      4.559383   798A      4.564333   799A      4.570100  
     800A      4.582557   801A      4.589007   802A      4.603690  
     803A      4.620064   804A      4.630894   805A      4.643421  
     806A      4.651461   807A      4.658770   808A      4.668260  
     809A      4.680988   810A      4.687211   811A      4.703336  
     812A      4.705167   813A      4.710799   814A      4.718741  
     815A      4.729518   816A      4.740870   817A      4.744016  
     818A      4.755800   819A      4.772151   820A      4.778744  
     821A      4.790758   822A      4.805579   823A      4.818333  
     824A      4.821759   825A      4.833285   826A      4.837652  
     827A      4.856733   828A      4.864696   829A      4.878843  
     830A      4.898835   831A      4.904319   832A      4.912998  
     833A      4.925606   834A      4.929649   835A      4.942000  
     836A      4.944279   837A      4.968533   838A      4.971869  
     839A      4.996912   840A      5.013356   841A      5.020034  
     842A      5.034357   843A      5.038552   844A      5.048543  
     845A      5.053811   846A      5.062666   847A      5.078437  
     848A      5.089144   849A      5.096203   850A      5.114533  
     851A      5.128009   852A      5.141642   853A      5.155238  
     854A      5.159290   855A      5.162378   856A      5.180702  
     857A      5.186241   858A      5.208261   859A      5.214008  
     860A      5.222042   861A      5.236229   862A      5.254226  
     863A      5.267065   864A      5.277685   865A      5.299356  
     866A      5.303173   867A      5.311550   868A      5.323775  
     869A      5.338735   870A      5.347490   871A      5.367548  
     872A      5.380983   873A      5.382957   874A      5.393276  
     875A      5.407797   876A      5.414328   877A      5.422074  
     878A      5.442975   879A      5.463081   880A      5.472446  
     881A      5.481954   882A      5.487692   883A      5.499467  
     884A      5.523107   885A      5.529568   886A      5.537055  
     887A      5.544604   888A      5.557043   889A      5.564157  
     890A      5.572791   891A      5.578016   892A      5.605199  
     893A      5.616555   894A      5.630336   895A      5.640402  
     896A      5.649439   897A      5.661274   898A      5.674355  
     899A      5.688935   900A      5.691279   901A      5.714873  
     902A      5.715268   903A      5.731784   904A      5.734943  
     905A      5.739934   906A      5.745656   907A      5.765894  
     908A      5.781421   909A      5.797152   910A      5.802097  
     911A      5.804826   912A      5.813083   913A      5.825224  
     914A      5.831273   915A      5.842457   916A      5.846138  
     917A      5.864242   918A      5.895691   919A      5.897517  
     920A      5.919989   921A      5.929320   922A      5.940133  
     923A      5.948799   924A      5.959651   925A      5.965270  
     926A      5.984847   927A      5.994339   928A      6.005418  
     929A      6.020346   930A      6.029720   931A      6.041257  
     932A      6.043227   933A      6.053308   934A      6.071080  
     935A      6.105014   936A      6.112373   937A      6.133377  
     938A      6.147880   939A      6.165632   940A      6.174983  
     941A      6.195943   942A      6.197383   943A      6.204416  
     944A      6.221286   945A      6.249412   946A      6.260813  
     947A      6.265735   948A      6.291060   949A      6.295979  
     950A      6.311510   951A      6.317174   952A      6.377158  
     953A      6.421589   954A      6.493917   955A      6.503176  
     956A      6.534894   957A      6.551673   958A      6.561900  
     959A      6.577433   960A      6.626545   961A      6.641506  
     962A      6.647634   963A      6.660039   964A      6.704671  
     965A      6.727339   966A      6.731594   967A      6.741443  
     968A      6.766205   969A      6.797009   970A      6.801142  
     971A      6.808201   972A      6.819698   973A      6.831529  
     974A      6.858343   975A      6.866569   976A      6.886002  
     977A      6.892569   978A      6.902726   979A      6.911917  
     980A      6.972815   981A      6.995589   982A      7.009924  
     983A      7.032782   984A      7.043728   985A      7.067670  
     986A      7.087467   987A      7.099899   988A      7.114249  
     989A      7.146084   990A      7.219727   991A      7.224571  
     992A      7.227001   993A      7.299723   994A      7.309403  
     995A      7.374465   996A      7.384483   997A      7.400947  
     998A      7.441991   999A      7.458983  1000A      7.475551  
    1001A      7.498840  1002A      7.506219  1003A      7.531246  
    1004A      7.599181  1005A      7.652221  1006A      7.741181  
    1007A      7.802400  1008A      7.815138  1009A      7.849819  
    1010A      7.876848  1011A      7.884403  1012A      7.918239  
    1013A      7.972455  1014A      8.012178  1015A      8.020000  
    1016A      8.055726  1017A      8.116296  1018A     16.135581  
    1019A     16.178195  1020A     16.239242  1021A     16.387274  
    1022A     16.549541  1023A     16.698746  1024A     17.154890  
    1025A     17.940294  1026A     18.383391  1027A     18.402299  
    1028A     19.193860  1029A     19.517616  1030A     19.656436  
    1031A     19.914742  1032A     20.268473  1033A     20.412046  
    1034A     21.129693  1035A     21.464562  

    Final Occupation by Irrep:
              A 
    DOCC [    64 ]

  @DF-RHF Final Energy:  -877.29665919058471

   => Energetics <=

    Nuclear Repulsion Energy =           1372.4726677570242828
    One-Electron Energy =               -3924.3405032466725970
    Two-Electron Energy =                1674.5711762990636089
    Total Energy =                       -877.2966591905847054

Computation Completed


Properties will be evaluated at   0.000000,   0.000000,   0.000000 [a0]

Properties computed using the SCF density matrix

  Nuclear Dipole Moment: [e a0]
     X:     0.4247      Y:    -3.7456      Z:    -1.5673

  Electronic Dipole Moment: [e a0]
     X:    -0.9109      Y:     1.0211      Z:     1.6401

  Dipole Moment: [e a0]
     X:    -0.4863      Y:    -2.7245      Z:     0.0728     Total:     2.7685

  Dipole Moment: [D]
     X:    -1.2360      Y:    -6.9250      Z:     0.1851     Total:     7.0369


*** tstop() called on node153.bme.utexas.edu at Sun Jan 14 11:40:12 2024
Module time:
	user time   =    1327.63 seconds =      22.13 minutes
	system time =      10.39 seconds =       0.17 minutes
	total time  =        187 seconds =       3.12 minutes
Total time:
	user time   =    1327.63 seconds =      22.13 minutes
	system time =      10.39 seconds =       0.17 minutes
	total time  =        187 seconds =       3.12 minutes

*** tstart() called on node153.bme.utexas.edu
*** at Sun Jan 14 11:40:12 2024


  //>>>>>>>>>>>>>>>>>>>>>>>>>>>>>>>>>>>//
  //               DFMP2               //
  //<<<<<<<<<<<<<<<<<<<<<<<<<<<<<<<<<<<//

   => Loading Basis Set <=

    Name: (AUG-CC-PVTZ AUX)
    Role: RIFIT
    Keyword: DF_BASIS_MP2
    atoms 1, 4, 11, 14-15, 17, 24, 26-27 entry H          line    30 file /opt/anaconda/envs/psi4v1.5/share/psi4/basis/aug-cc-pvtz-ri.gbs 
    atoms 2, 5, 8-9, 12, 16, 20          entry N          line   206 file /opt/anaconda/envs/psi4v1.5/share/psi4/basis/aug-cc-pvtz-ri.gbs 
    atoms 3, 6-7, 10, 13, 18, 21, 23, 25 entry C          line   148 file /opt/anaconda/envs/psi4v1.5/share/psi4/basis/aug-cc-pvtz-ri.gbs 
    atoms 19, 22                         entry O          line   264 file /opt/anaconda/envs/psi4v1.5/share/psi4/basis/aug-cc-pvtz-ri.gbs 

	 --------------------------------------------------------
	                          DF-MP2                         
	      2nd-Order Density-Fitted Moller-Plesset Theory     
	              RMP2 Wavefunction,   8 Threads             
	                                                         
	        Rob Parrish, Justin Turney, Andy Simmonett,      
	           Ed Hohenstein, and C. David Sherrill          
	 --------------------------------------------------------

   => Auxiliary Basis Set <=

  Basis Set: (AUG-CC-PVTZ AUX)
    Blend: AUG-CC-PVTZ-RI
    Number of shells: 630
    Number of basis functions: 2322
    Number of Cartesian functions: 2943
    Spherical Harmonics?: true
    Max angular momentum: 4

	 --------------------------------------------------------
	                 NBF =  1035, NAUX =  2322
	 --------------------------------------------------------
	   CLASS    FOCC     OCC    AOCC    AVIR     VIR    FVIR
	   PAIRS      18      64      46     971     971       0
	 --------------------------------------------------------

	 Will save fitting metric to file 97.

	-----------------------------------------------------------
	 ==================> DF-MP2 Energies <==================== 
	-----------------------------------------------------------
	 Reference Energy          =    -877.2966591905847054 [Eh]
	 Singles Energy            =      -0.0000000000000000 [Eh]
	 Same-Spin Energy          =      -0.8819426002880646 [Eh]
	 Opposite-Spin Energy      =      -2.4492452115671837 [Eh]
	 Correlation Energy        =      -3.3311878118552483 [Eh]
	 Total Energy              =    -880.6278470024399212 [Eh]
	-----------------------------------------------------------
	 ================> DF-SCS-MP2 Energies <================== 
	-----------------------------------------------------------
	 SCS Same-Spin Scale       =       0.3333333333333333 [-]
	 SCS Opposite-Spin Scale   =       1.2000000000000000 [-]
	 SCS Same-Spin Energy      =      -0.2939808667626882 [Eh]
	 SCS Opposite-Spin Energy  =      -2.9390942538806204 [Eh]
	 SCS Correlation Energy    =      -3.2330751206433086 [Eh]
	 SCS Total Energy          =    -880.5297343112280259 [Eh]
	-----------------------------------------------------------


*** tstop() called on node153.bme.utexas.edu at Sun Jan 14 11:40:52 2024
Module time:
	user time   =     234.70 seconds =       3.91 minutes
	system time =       5.42 seconds =       0.09 minutes
	total time  =         40 seconds =       0.67 minutes
Total time:
	user time   =    1562.33 seconds =      26.04 minutes
	system time =      15.81 seconds =       0.26 minutes
	total time  =        227 seconds =       3.78 minutes

  //>>>>>>>>>>>>>>>>>>>>>>>>>>>>>>>>>>>//
  //            Monomer A HF           //
  //<<<<<<<<<<<<<<<<<<<<<<<<<<<<<<<<<<<//


*** tstart() called on node153.bme.utexas.edu
*** at Sun Jan 14 11:40:52 2024

   => Loading Basis Set <=

    Name: AUG-CC-PVTZ
    Role: ORBITAL
    Keyword: BASIS
    atoms 1, 4, 11, 14-15, 17, 24, 26-27 entry H          line    40 file /opt/anaconda/envs/psi4v1.5/share/psi4/basis/aug-cc-pvtz.gbs 
    atoms 2, 5, 8-9, 12, 16, 20          entry N          line   285 file /opt/anaconda/envs/psi4v1.5/share/psi4/basis/aug-cc-pvtz.gbs 
    atoms 3, 6-7, 10, 13, 18, 21, 23, 25 entry C          line   239 file /opt/anaconda/envs/psi4v1.5/share/psi4/basis/aug-cc-pvtz.gbs 
    atoms 19, 22                         entry O          line   331 file /opt/anaconda/envs/psi4v1.5/share/psi4/basis/aug-cc-pvtz.gbs 


         ---------------------------------------------------------
                                   SCF
               by Justin Turney, Rob Parrish, Andy Simmonett
                          and Daniel G. A. Smith
                              RHF Reference
                        8 Threads,  76293 MiB Core
         ---------------------------------------------------------

  ==> Geometry <==

    Molecular point group: c1
    Full point group: C1

    Geometry (in Angstrom), charge = 0, multiplicity = 1:

       Center              X                  Y                   Z               Mass       
    ------------   -----------------  -----------------  -----------------  -----------------
         H            0.803485992589    -2.744749744405     1.808968356428     1.007825032230
         N            1.139855992589    -2.061329744405     1.140658356428    14.003074004430
         C            1.899535992589    -2.292039744405     0.020998356428    12.000000000000
         H            2.168225992589    -3.294979744405    -0.288151643572     1.007825032230
         N            2.257525992589    -1.185669744405    -0.615071643572    14.003074004430
         C            1.701685992589    -0.182199744405     0.154978356428    12.000000000000
         C            1.709345992589     1.221420255595     0.027028356428    12.000000000000
         N            2.403665992589     1.853910255595    -0.963511643572    14.003074004430
         N            1.062625992589     1.955710255595     0.948118356428    14.003074004430
         C            0.426405992589     1.317180255595     1.956798356428    12.000000000000
         H           -0.090374007411     1.961640255595     2.663958356428     1.007825032230
         N            0.335205992589     0.000260255595     2.188928356428    14.003074004430
         C            0.995435992589    -0.695049744405     1.249628356428    12.000000000000
         H            2.113615992589     2.814960255595    -1.110741643572     1.007825032230
         H            2.493605992589     1.316560255595    -1.819911643572     1.007825032230
      Gh(N)          -2.463096165745    -0.998068186071     0.198545606428    14.003074004430
      Gh(H)          -3.000896165745    -1.438568186071     0.935585606428     1.007825032230
      Gh(C)          -2.384086165745     0.387041813929     0.287135606428    12.000000000000
      Gh(O)          -2.949716165745     1.037851813929     1.154375606428    15.994914619570
      Gh(N)          -1.612956165745     0.936601813929    -0.724604393572    14.003074004430
      Gh(C)          -0.905096165745     0.282091813929    -1.744484393572    12.000000000000
      Gh(O)          -0.232736165745     0.926141813929    -2.549984393572    15.994914619570
      Gh(C)          -1.063836165745    -1.163308186071    -1.724594393572    12.000000000000
      Gh(H)          -0.555956165745    -1.747448186071    -2.480324393572     1.007825032230
      Gh(C)          -1.821796165745    -1.741798186071    -0.763824393572    12.000000000000
      Gh(H)          -1.974426165745    -2.814998186071    -0.702824393572     1.007825032230
      Gh(H)          -1.478306165745     1.943591813929    -0.664474393572     1.007825032230

  Running in c1 symmetry.

  Rotational constants: A =      0.01947  B =      0.01457  C =      0.01413 [cm^-1]
  Rotational constants: A =    583.76518  B =    436.72332  C =    423.70260 [MHz]
  Nuclear repulsion =  501.509282475141219

  Charge       = 0
  Multiplicity = 1
  Electrons    = 70
  Nalpha       = 35
  Nbeta        = 35

  ==> Algorithm <==

  SCF Algorithm Type is DF.
  DIIS enabled.
  MOM disabled.
  Fractional occupation disabled.
  Guess Type is SAD.
  Energy threshold   = 1.00e-08
  Density threshold  = 1.00e-08
  Integral threshold = 1.00e-12

  ==> Primary Basis <==

  Basis Set: AUG-CC-PVTZ
    Blend: AUG-CC-PVTZ
    Number of shells: 333
    Number of basis functions: 1035
    Number of Cartesian functions: 1215
    Spherical Harmonics?: true
    Max angular momentum: 3

   => Loading Basis Set <=

    Name: (AUG-CC-PVTZ AUX)
    Role: JKFIT
    Keyword: DF_BASIS_SCF
    atoms 1, 4, 11, 14-15, 17, 24, 26-27 entry H          line    70 file /opt/anaconda/envs/psi4v1.5/share/psi4/basis/aug-cc-pvtz-jkfit.gbs 
    atoms 2, 5, 8-9, 12, 16, 20          entry N          line   224 file /opt/anaconda/envs/psi4v1.5/share/psi4/basis/aug-cc-pvtz-jkfit.gbs 
    atoms 3, 6-7, 10, 13, 18, 21, 23, 25 entry C          line   162 file /opt/anaconda/envs/psi4v1.5/share/psi4/basis/aug-cc-pvtz-jkfit.gbs 
    atoms 19, 22                         entry O          line   286 file /opt/anaconda/envs/psi4v1.5/share/psi4/basis/aug-cc-pvtz-jkfit.gbs 

  ==> Integral Setup <==

  ==> DiskDFJK: Density-Fitted J/K Matrices <==

    J tasked:                  Yes
    K tasked:                  Yes
    wK tasked:                  No
    OpenMP threads:              8
    Integrals threads:           8
    Memory [MiB]:            57220
    Algorithm:                Core
    Integral Cache:           LOAD
    Schwarz Cutoff:          1E-12
    Fitting Condition:       1E-10

   => Auxiliary Basis Set <=

  Basis Set: (AUG-CC-PVTZ AUX)
    Blend: AUG-CC-PVTZ-JKFIT
    Number of shells: 666
    Number of basis functions: 2286
    Number of Cartesian functions: 2853
    Spherical Harmonics?: true
    Max angular momentum: 4

  Minimum eigenvalue in the overlap matrix is 7.7200788438E-07.
  Reciprocal condition number of the overlap matrix is 3.3183828931E-08.
    Using symmetric orthogonalization.

  ==> Pre-Iterations <==

  SCF Guess: Superposition of Atomic Densities via on-the-fly atomic UHF (no occupation information).

   -------------------------
    Irrep   Nso     Nmo    
   -------------------------
     A       1035    1035 
   -------------------------
    Total    1035    1035
   -------------------------

  ==> Iterations <==

                           Total Energy        Delta E     RMS |[F,P]|

   @DF-RHF iter SAD:  -464.44778074175844   -4.64448e+02   0.00000e+00 
   @DF-RHF iter   1:  -464.44266546410978    5.11528e-03   6.45721e-04 DIIS
   @DF-RHF iter   2:  -464.63268865435987   -1.90023e-01   3.19865e-04 DIIS
   @DF-RHF iter   3:  -464.67667701377439   -4.39884e-02   7.35384e-05 DIIS
   @DF-RHF iter   4:  -464.68005105371566   -3.37404e-03   3.46504e-05 DIIS
   @DF-RHF iter   5:  -464.68072660101006   -6.75547e-04   6.97423e-06 DIIS
   @DF-RHF iter   6:  -464.68078379925419   -5.71982e-05   3.25965e-06 DIIS
   @DF-RHF iter   7:  -464.68079775872161   -1.39595e-05   1.28783e-06 DIIS
   @DF-RHF iter   8:  -464.68080060412848   -2.84541e-06   4.78893e-07 DIIS
   @DF-RHF iter   9:  -464.68080103612897   -4.32000e-07   2.54933e-07 DIIS
   @DF-RHF iter  10:  -464.68080114969700   -1.13568e-07   9.50871e-08 DIIS
   @DF-RHF iter  11:  -464.68080117415872   -2.44617e-08   4.05821e-08 DIIS
   @DF-RHF iter  12:  -464.68080117798104   -3.82232e-09   1.63610e-08 DIIS
   @DF-RHF iter  13:  -464.68080117856573   -5.84691e-10   5.87774e-09 DIIS
  Energy and wave function converged.


  ==> Post-Iterations <==

    Orbital Energies [Eh]
    ---------------------

    Doubly Occupied:                                                      

       1A    -15.636436     2A    -15.584287     3A    -15.573010  
       4A    -15.564175     5A    -15.555924     6A    -11.338107  
       7A    -11.329239     8A    -11.321260     9A    -11.314913  
      10A    -11.256526    11A     -1.368401    12A     -1.298860  
      13A     -1.246980    14A     -1.187588    15A     -1.153009  
      16A     -1.034047    17A     -0.894627    18A     -0.877436  
      19A     -0.847876    20A     -0.775306    21A     -0.733484  
      22A     -0.696435    23A     -0.672898    24A     -0.641557  
      25A     -0.630442    26A     -0.609815    27A     -0.592500  
      28A     -0.557579    29A     -0.500356    30A     -0.499186  
      31A     -0.454631    32A     -0.429776    33A     -0.412395  
      34A     -0.376466    35A     -0.313093  

    Virtual:                                                              

      36A      0.017565    37A      0.026773    38A      0.031395  
      39A      0.034550    40A      0.043273    41A      0.047538  
      42A      0.048248    43A      0.051250    44A      0.065477  
      45A      0.067488    46A      0.074773    47A      0.077759  
      48A      0.080784    49A      0.085160    50A      0.088838  
      51A      0.089987    52A      0.095118    53A      0.097750  
      54A      0.103586    55A      0.107204    56A      0.111836  
      57A      0.114805    58A      0.117668    59A      0.118566  
      60A      0.122360    61A      0.123384    62A      0.127714  
      63A      0.129987    64A      0.133801    65A      0.135399  
      66A      0.137604    67A      0.138121    68A      0.141887  
      69A      0.142590    70A      0.152682    71A      0.155768  
      72A      0.164304    73A      0.166777    74A      0.169266  
      75A      0.174399    76A      0.178653    77A      0.182467  
      78A      0.185435    79A      0.187279    80A      0.192369  
      81A      0.193276    82A      0.197419    83A      0.205950  
      84A      0.208049    85A      0.208822    86A      0.211713  
      87A      0.214484    88A      0.220665    89A      0.221862  
      90A      0.228616    91A      0.233394    92A      0.235419  
      93A      0.237340    94A      0.242745    95A      0.247174  
      96A      0.249217    97A      0.252186    98A      0.254759  
      99A      0.259090   100A      0.264674   101A      0.266571  
     102A      0.270479   103A      0.273308   104A      0.274798  
     105A      0.276665   106A      0.280738   107A      0.286364  
     108A      0.287255   109A      0.292286   110A      0.294980  
     111A      0.299078   112A      0.302496   113A      0.306269  
     114A      0.310830   115A      0.315668   116A      0.316974  
     117A      0.323288   118A      0.331210   119A      0.333896  
     120A      0.338329   121A      0.340100   122A      0.344700  
     123A      0.348882   124A      0.349974   125A      0.357252  
     126A      0.362597   127A      0.364020   128A      0.367850  
     129A      0.373456   130A      0.377224   131A      0.383806  
     132A      0.388659   133A      0.390758   134A      0.394508  
     135A      0.397025   136A      0.404327   137A      0.406081  
     138A      0.409112   139A      0.414506   140A      0.416489  
     141A      0.418371   142A      0.423603   143A      0.428386  
     144A      0.431794   145A      0.435844   146A      0.439907  
     147A      0.444097   148A      0.445112   149A      0.447233  
     150A      0.449701   151A      0.455799   152A      0.460838  
     153A      0.463037   154A      0.466342   155A      0.470234  
     156A      0.473453   157A      0.481127   158A      0.483886  
     159A      0.486113   160A      0.488048   161A      0.490079  
     162A      0.491521   163A      0.500790   164A      0.505119  
     165A      0.507520   166A      0.508343   167A      0.512640  
     168A      0.517546   169A      0.519658   170A      0.522813  
     171A      0.525303   172A      0.531832   173A      0.535319  
     174A      0.537202   175A      0.539336   176A      0.547832  
     177A      0.549982   178A      0.555451   179A      0.558968  
     180A      0.561187   181A      0.565161   182A      0.568324  
     183A      0.574106   184A      0.576553   185A      0.582952  
     186A      0.589344   187A      0.590793   188A      0.595710  
     189A      0.601411   190A      0.601980   191A      0.609245  
     192A      0.614300   193A      0.615697   194A      0.617141  
     195A      0.623413   196A      0.626511   197A      0.632404  
     198A      0.633563   199A      0.642423   200A      0.645363  
     201A      0.648371   202A      0.653789   203A      0.658487  
     204A      0.659886   205A      0.664494   206A      0.665859  
     207A      0.671320   208A      0.679019   209A      0.682277  
     210A      0.687236   211A      0.691940   212A      0.700554  
     213A      0.706277   214A      0.709919   215A      0.717237  
     216A      0.721655   217A      0.723357   218A      0.731308  
     219A      0.734012   220A      0.741533   221A      0.743024  
     222A      0.751464   223A      0.757155   224A      0.763463  
     225A      0.768055   226A      0.770204   227A      0.773384  
     228A      0.774167   229A      0.781091   230A      0.788461  
     231A      0.788993   232A      0.795196   233A      0.798479  
     234A      0.803250   235A      0.812442   236A      0.815320  
     237A      0.821350   238A      0.824546   239A      0.829827  
     240A      0.831378   241A      0.837088   242A      0.842383  
     243A      0.847441   244A      0.852056   245A      0.854475  
     246A      0.856380   247A      0.862489   248A      0.871391  
     249A      0.875311   250A      0.888271   251A      0.889657  
     252A      0.898321   253A      0.901667   254A      0.904150  
     255A      0.906962   256A      0.913663   257A      0.917433  
     258A      0.921224   259A      0.923491   260A      0.929120  
     261A      0.936979   262A      0.940143   263A      0.945482  
     264A      0.952497   265A      0.959641   266A      0.961918  
     267A      0.965947   268A      0.967966   269A      0.971726  
     270A      0.978822   271A      0.982911   272A      0.987599  
     273A      0.991032   274A      0.996979   275A      1.000962  
     276A      1.003288   277A      1.011201   278A      1.012743  
     279A      1.017413   280A      1.021082   281A      1.023160  
     282A      1.030161   283A      1.035485   284A      1.040681  
     285A      1.044310   286A      1.045678   287A      1.052730  
     288A      1.059940   289A      1.062051   290A      1.066523  
     291A      1.069382   292A      1.075225   293A      1.080057  
     294A      1.085016   295A      1.086216   296A      1.089953  
     297A      1.092410   298A      1.096627   299A      1.100987  
     300A      1.104670   301A      1.108905   302A      1.121278  
     303A      1.123428   304A      1.126436   305A      1.131338  
     306A      1.138415   307A      1.138902   308A      1.147473  
     309A      1.153794   310A      1.157565   311A      1.163067  
     312A      1.166343   313A      1.170035   314A      1.172741  
     315A      1.176825   316A      1.185424   317A      1.188393  
     318A      1.191954   319A      1.197964   320A      1.201192  
     321A      1.208099   322A      1.211005   323A      1.213805  
     324A      1.217395   325A      1.219281   326A      1.231042  
     327A      1.234092   328A      1.238269   329A      1.242912  
     330A      1.244536   331A      1.248627   332A      1.254662  
     333A      1.260888   334A      1.265380   335A      1.269281  
     336A      1.271924   337A      1.277961   338A      1.282636  
     339A      1.285116   340A      1.292410   341A      1.299651  
     342A      1.306056   343A      1.308795   344A      1.311492  
     345A      1.316143   346A      1.321065   347A      1.325584  
     348A      1.330299   349A      1.335086   350A      1.341111  
     351A      1.344083   352A      1.354574   353A      1.361218  
     354A      1.365424   355A      1.369099   356A      1.374154  
     357A      1.384197   358A      1.385815   359A      1.392128  
     360A      1.395874   361A      1.400519   362A      1.405168  
     363A      1.408217   364A      1.414664   365A      1.421792  
     366A      1.425413   367A      1.431282   368A      1.434686  
     369A      1.442626   370A      1.443986   371A      1.450237  
     372A      1.457933   373A      1.464947   374A      1.471961  
     375A      1.475149   376A      1.479412   377A      1.481020  
     378A      1.486662   379A      1.493624   380A      1.499170  
     381A      1.505926   382A      1.508288   383A      1.517725  
     384A      1.521764   385A      1.531182   386A      1.534421  
     387A      1.548531   388A      1.553764   389A      1.553949  
     390A      1.560623   391A      1.562512   392A      1.568716  
     393A      1.571522   394A      1.587646   395A      1.591664  
     396A      1.594097   397A      1.604403   398A      1.608795  
     399A      1.617310   400A      1.622730   401A      1.626825  
     402A      1.633411   403A      1.637314   404A      1.643909  
     405A      1.656389   406A      1.657663   407A      1.666480  
     408A      1.672138   409A      1.676509   410A      1.681589  
     411A      1.685499   412A      1.695018   413A      1.701412  
     414A      1.706217   415A      1.708729   416A      1.712647  
     417A      1.720142   418A      1.724073   419A      1.734368  
     420A      1.741419   421A      1.743693   422A      1.746724  
     423A      1.755094   424A      1.756949   425A      1.762643  
     426A      1.767877   427A      1.778763   428A      1.783160  
     429A      1.785414   430A      1.798070   431A      1.798659  
     432A      1.804332   433A      1.810304   434A      1.819321  
     435A      1.821411   436A      1.829240   437A      1.839682  
     438A      1.844685   439A      1.857905   440A      1.863631  
     441A      1.864921   442A      1.872357   443A      1.876608  
     444A      1.886136   445A      1.887803   446A      1.895616  
     447A      1.901637   448A      1.910883   449A      1.915082  
     450A      1.922250   451A      1.925702   452A      1.941881  
     453A      1.946670   454A      1.952656   455A      1.957318  
     456A      1.961821   457A      1.974202   458A      1.978003  
     459A      1.979143   460A      1.989647   461A      1.998690  
     462A      2.001047   463A      2.007905   464A      2.016013  
     465A      2.022941   466A      2.028502   467A      2.038861  
     468A      2.046758   469A      2.052495   470A      2.055197  
     471A      2.066508   472A      2.071182   473A      2.087209  
     474A      2.096948   475A      2.099695   476A      2.101506  
     477A      2.108435   478A      2.113087   479A      2.117039  
     480A      2.119105   481A      2.126561   482A      2.130583  
     483A      2.142472   484A      2.153041   485A      2.158021  
     486A      2.166217   487A      2.172554   488A      2.175677  
     489A      2.181310   490A      2.185951   491A      2.195923  
     492A      2.199262   493A      2.209685   494A      2.211839  
     495A      2.222378   496A      2.229347   497A      2.234265  
     498A      2.241863   499A      2.249541   500A      2.257294  
     501A      2.266809   502A      2.274865   503A      2.279481  
     504A      2.282032   505A      2.290368   506A      2.294900  
     507A      2.300445   508A      2.309445   509A      2.315120  
     510A      2.322605   511A      2.326945   512A      2.341463  
     513A      2.345314   514A      2.348948   515A      2.357590  
     516A      2.363765   517A      2.371595   518A      2.374496  
     519A      2.385113   520A      2.388530   521A      2.396596  
     522A      2.406086   523A      2.409837   524A      2.415785  
     525A      2.418763   526A      2.424834   527A      2.436223  
     528A      2.443028   529A      2.448498   530A      2.457004  
     531A      2.464311   532A      2.476321   533A      2.479921  
     534A      2.489336   535A      2.492177   536A      2.495746  
     537A      2.508142   538A      2.518009   539A      2.518992  
     540A      2.538502   541A      2.539223   542A      2.550874  
     543A      2.560464   544A      2.570925   545A      2.574844  
     546A      2.577826   547A      2.586377   548A      2.592584  
     549A      2.600930   550A      2.606465   551A      2.611986  
     552A      2.628429   553A      2.636649   554A      2.640988  
     555A      2.645944   556A      2.657533   557A      2.661051  
     558A      2.672074   559A      2.680385   560A      2.687282  
     561A      2.691812   562A      2.702329   563A      2.709615  
     564A      2.714155   565A      2.721451   566A      2.728359  
     567A      2.736179   568A      2.739930   569A      2.752837  
     570A      2.756184   571A      2.773842   572A      2.776290  
     573A      2.792325   574A      2.795524   575A      2.801442  
     576A      2.813239   577A      2.825138   578A      2.834643  
     579A      2.840899   580A      2.845579   581A      2.850655  
     582A      2.853792   583A      2.866195   584A      2.876302  
     585A      2.885508   586A      2.888046   587A      2.898944  
     588A      2.902943   589A      2.914586   590A      2.919901  
     591A      2.926864   592A      2.932568   593A      2.943107  
     594A      2.947085   595A      2.952787   596A      2.961201  
     597A      2.981196   598A      2.988108   599A      2.996758  
     600A      3.003099   601A      3.016174   602A      3.017880  
     603A      3.029476   604A      3.036548   605A      3.041573  
     606A      3.068961   607A      3.078021   608A      3.081896  
     609A      3.097496   610A      3.118509   611A      3.122200  
     612A      3.136696   613A      3.161595   614A      3.175177  
     615A      3.183758   616A      3.195458   617A      3.200766  
     618A      3.215280   619A      3.239290   620A      3.244147  
     621A      3.258763   622A      3.259442   623A      3.293653  
     624A      3.298031   625A      3.307499   626A      3.312858  
     627A      3.328124   628A      3.343374   629A      3.370934  
     630A      3.376798   631A      3.403227   632A      3.406538  
     633A      3.425176   634A      3.444842   635A      3.452042  
     636A      3.469875   637A      3.473197   638A      3.484239  
     639A      3.490865   640A      3.498972   641A      3.536442  
     642A      3.542818   643A      3.552048   644A      3.573144  
     645A      3.577202   646A      3.582570   647A      3.604120  
     648A      3.612154   649A      3.618522   650A      3.633990  
     651A      3.642075   652A      3.655520   653A      3.668061  
     654A      3.668887   655A      3.680662   656A      3.692444  
     657A      3.698440   658A      3.711773   659A      3.715197  
     660A      3.732761   661A      3.740247   662A      3.745690  
     663A      3.771544   664A      3.776157   665A      3.782932  
     666A      3.798205   667A      3.799898   668A      3.819346  
     669A      3.824920   670A      3.837381   671A      3.846775  
     672A      3.856630   673A      3.862956   674A      3.864960  
     675A      3.881548   676A      3.883196   677A      3.895084  
     678A      3.917486   679A      3.926819   680A      3.934736  
     681A      3.953776   682A      3.959327   683A      3.971910  
     684A      3.980998   685A      3.991502   686A      3.992666  
     687A      3.999512   688A      4.015735   689A      4.027296  
     690A      4.030875   691A      4.042831   692A      4.052621  
     693A      4.069100   694A      4.076188   695A      4.079268  
     696A      4.092051   697A      4.103213   698A      4.115966  
     699A      4.129093   700A      4.142624   701A      4.146550  
     702A      4.150931   703A      4.163649   704A      4.170587  
     705A      4.176731   706A      4.194640   707A      4.206797  
     708A      4.212513   709A      4.217182   710A      4.223719  
     711A      4.234958   712A      4.250620   713A      4.254896  
     714A      4.262188   715A      4.270689   716A      4.283435  
     717A      4.285621   718A      4.294423   719A      4.311168  
     720A      4.322701   721A      4.331565   722A      4.344138  
     723A      4.351283   724A      4.358735   725A      4.361348  
     726A      4.376516   727A      4.380788   728A      4.389517  
     729A      4.396197   730A      4.407697   731A      4.415011  
     732A      4.424985   733A      4.431270   734A      4.434285  
     735A      4.447726   736A      4.457845   737A      4.463220  
     738A      4.478242   739A      4.488269   740A      4.494614  
     741A      4.511141   742A      4.519261   743A      4.535594  
     744A      4.543878   745A      4.550332   746A      4.566650  
     747A      4.572145   748A      4.584925   749A      4.587752  
     750A      4.608562   751A      4.617865   752A      4.625284  
     753A      4.636554   754A      4.641994   755A      4.649889  
     756A      4.661224   757A      4.677241   758A      4.700652  
     759A      4.703058   760A      4.715277   761A      4.723250  
     762A      4.730585   763A      4.746387   764A      4.753793  
     765A      4.759184   766A      4.770527   767A      4.781750  
     768A      4.790960   769A      4.800385   770A      4.814271  
     771A      4.822331   772A      4.836679   773A      4.842161  
     774A      4.846622   775A      4.856013   776A      4.876532  
     777A      4.891975   778A      4.903552   779A      4.914962  
     780A      4.918467   781A      4.924562   782A      4.938408  
     783A      4.950502   784A      4.956868   785A      4.975560  
     786A      4.997632   787A      5.008050   788A      5.016208  
     789A      5.022715   790A      5.034391   791A      5.043623  
     792A      5.047066   793A      5.055221   794A      5.067561  
     795A      5.086815   796A      5.087686   797A      5.103874  
     798A      5.114428   799A      5.119143   800A      5.144279  
     801A      5.150646   802A      5.161256   803A      5.174199  
     804A      5.180765   805A      5.189034   806A      5.195887  
     807A      5.211331   808A      5.215531   809A      5.234315  
     810A      5.240799   811A      5.274218   812A      5.277357  
     813A      5.284110   814A      5.295968   815A      5.297529  
     816A      5.313642   817A      5.321176   818A      5.334359  
     819A      5.343226   820A      5.353798   821A      5.362222  
     822A      5.368924   823A      5.373989   824A      5.382906  
     825A      5.402822   826A      5.407545   827A      5.420924  
     828A      5.427918   829A      5.438079   830A      5.442072  
     831A      5.446894   832A      5.474542   833A      5.483930  
     834A      5.485979   835A      5.508591   836A      5.529240  
     837A      5.540673   838A      5.546313   839A      5.559459  
     840A      5.568839   841A      5.575023   842A      5.578640  
     843A      5.610015   844A      5.621432   845A      5.626577  
     846A      5.637766   847A      5.647503   848A      5.653215  
     849A      5.662124   850A      5.690965   851A      5.693903  
     852A      5.707801   853A      5.728831   854A      5.729353  
     855A      5.744840   856A      5.748192   857A      5.761212  
     858A      5.774929   859A      5.782493   860A      5.792679  
     861A      5.801793   862A      5.812347   863A      5.834548  
     864A      5.844543   865A      5.845811   866A      5.861532  
     867A      5.874748   868A      5.889203   869A      5.899750  
     870A      5.923360   871A      5.938098   872A      5.946107  
     873A      5.954555   874A      5.965245   875A      5.970215  
     876A      5.972975   877A      5.983282   878A      6.003763  
     879A      6.018323   880A      6.024278   881A      6.034113  
     882A      6.041885   883A      6.058192   884A      6.104768  
     885A      6.118406   886A      6.132948   887A      6.153047  
     888A      6.172810   889A      6.182015   890A      6.200164  
     891A      6.208618   892A      6.216622   893A      6.226109  
     894A      6.244363   895A      6.254995   896A      6.264678  
     897A      6.280026   898A      6.292118   899A      6.311264  
     900A      6.337213   901A      6.397481   902A      6.416586  
     903A      6.454859   904A      6.476286   905A      6.489132  
     906A      6.496654   907A      6.509076   908A      6.536604  
     909A      6.556616   910A      6.573906   911A      6.621284  
     912A      6.629400   913A      6.645630   914A      6.658935  
     915A      6.668392   916A      6.674732   917A      6.717583  
     918A      6.722941   919A      6.738465   920A      6.752929  
     921A      6.775675   922A      6.805840   923A      6.822121  
     924A      6.860488   925A      6.868698   926A      6.885304  
     927A      6.891896   928A      6.923716   929A      6.946723  
     930A      6.982420   931A      6.993633   932A      7.010513  
     933A      7.035656   934A      7.067539   935A      7.095735  
     936A      7.135426   937A      7.157283   938A      7.204203  
     939A      7.215471   940A      7.268501   941A      7.299234  
     942A      7.317456   943A      7.382090   944A      7.384245  
     945A      7.398965   946A      7.456036   947A      7.488099  
     948A      7.527532   949A      7.588598   950A      7.597701  
     951A      7.613451   952A      7.641294   953A      7.669828  
     954A      7.679353   955A      7.690734   956A      7.716973  
     957A      7.732048   958A      7.759095   959A      7.801996  
     960A      7.824402   961A      7.834278   962A      7.856852  
     963A      7.881052   964A      7.893416   965A      7.907178  
     966A      7.937695   967A      7.978010   968A      8.002377  
     969A      8.048879   970A      8.066684   971A      8.086773  
     972A      8.214663   973A      8.260027   974A      8.294788  
     975A      8.338925   976A      8.346258   977A      8.425891  
     978A      8.576949   979A      8.701159   980A      8.731343  
     981A      8.754652   982A      8.906488   983A      9.041306  
     984A      9.119978   985A      9.212921   986A      9.315630  
     987A      9.579920   988A      9.605259   989A      9.656218  
     990A      9.902289   991A     10.003843   992A     10.025519  
     993A     10.063868   994A     10.081052   995A     10.307045  
     996A     10.313566   997A     10.404746   998A     10.433520  
     999A     10.471733  1000A     10.556176  1001A     10.579978  
    1002A     11.010843  1003A     11.256031  1004A     11.368076  
    1005A     11.524648  1006A     12.058874  1007A     12.081993  
    1008A     12.120199  1009A     12.141079  1010A     12.367545  
    1011A     12.483712  1012A     12.699373  1013A     12.890691  
    1014A     13.436404  1015A     13.648032  1016A     14.213974  
    1017A     14.240012  1018A     16.205518  1019A     16.386289  
    1020A     16.528124  1021A     17.934921  1022A     18.394927  
    1023A     19.204672  1024A     19.532094  1025A     19.661622  
    1026A     20.192456  1027A     21.450983  1028A     52.349086  
    1029A     52.435465  1030A     55.002107  1031A     56.532718  
    1032A     61.024070  1033A     61.163008  1034A     69.617343  
    1035A     70.362514  

    Final Occupation by Irrep:
              A 
    DOCC [    35 ]

  @DF-RHF Final Energy:  -464.68080117856573

   => Energetics <=

    Nuclear Repulsion Energy =            501.5092824751412195
    One-Electron Energy =               -1625.8229272729611239
    Two-Electron Energy =                 659.6328436192542313
    Total Energy =                       -464.6808011785657300

Computation Completed


Properties will be evaluated at   0.000000,   0.000000,   0.000000 [a0]

Properties computed using the SCF density matrix

  Nuclear Dipole Moment: [e a0]
     X:   185.7132      Y:     0.3958      Z:    76.7315

  Electronic Dipole Moment: [e a0]
     X:  -185.8712      Y:    -1.4102      Z:   -77.0568

  Dipole Moment: [e a0]
     X:    -0.1580      Y:    -1.0144      Z:    -0.3253     Total:     1.0769

  Dipole Moment: [D]
     X:    -0.4016      Y:    -2.5783      Z:    -0.8267     Total:     2.7373


*** tstop() called on node153.bme.utexas.edu at Sun Jan 14 11:43:40 2024
Module time:
	user time   =    1216.45 seconds =      20.27 minutes
	system time =       5.00 seconds =       0.08 minutes
	total time  =        168 seconds =       2.80 minutes
Total time:
	user time   =    2778.81 seconds =      46.31 minutes
	system time =      20.81 seconds =       0.35 minutes
	total time  =        395 seconds =       6.58 minutes

*** tstart() called on node153.bme.utexas.edu
*** at Sun Jan 14 11:43:40 2024


  //>>>>>>>>>>>>>>>>>>>>>>>>>>>>>>>>>>>//
  //               DFMP2               //
  //<<<<<<<<<<<<<<<<<<<<<<<<<<<<<<<<<<<//

   => Loading Basis Set <=

    Name: (AUG-CC-PVTZ AUX)
    Role: RIFIT
    Keyword: DF_BASIS_MP2
    atoms 1, 4, 11, 14-15, 17, 24, 26-27 entry H          line    30 file /opt/anaconda/envs/psi4v1.5/share/psi4/basis/aug-cc-pvtz-ri.gbs 
    atoms 2, 5, 8-9, 12, 16, 20          entry N          line   206 file /opt/anaconda/envs/psi4v1.5/share/psi4/basis/aug-cc-pvtz-ri.gbs 
    atoms 3, 6-7, 10, 13, 18, 21, 23, 25 entry C          line   148 file /opt/anaconda/envs/psi4v1.5/share/psi4/basis/aug-cc-pvtz-ri.gbs 
    atoms 19, 22                         entry O          line   264 file /opt/anaconda/envs/psi4v1.5/share/psi4/basis/aug-cc-pvtz-ri.gbs 

	 --------------------------------------------------------
	                          DF-MP2                         
	      2nd-Order Density-Fitted Moller-Plesset Theory     
	              RMP2 Wavefunction,   8 Threads             
	                                                         
	        Rob Parrish, Justin Turney, Andy Simmonett,      
	           Ed Hohenstein, and C. David Sherrill          
	 --------------------------------------------------------

   => Auxiliary Basis Set <=

  Basis Set: (AUG-CC-PVTZ AUX)
    Blend: AUG-CC-PVTZ-RI
    Number of shells: 630
    Number of basis functions: 2322
    Number of Cartesian functions: 2943
    Spherical Harmonics?: true
    Max angular momentum: 4

	 --------------------------------------------------------
	                 NBF =  1035, NAUX =  2322
	 --------------------------------------------------------
	   CLASS    FOCC     OCC    AOCC    AVIR     VIR    FVIR
	   PAIRS      10      35      25    1000    1000       0
	 --------------------------------------------------------

	 Will attempt to load fitting metric from file 97.

	-----------------------------------------------------------
	 ==================> DF-MP2 Energies <==================== 
	-----------------------------------------------------------
	 Reference Energy          =    -464.6808011785657300 [Eh]
	 Singles Energy            =      -0.0000000000000000 [Eh]
	 Same-Spin Energy          =      -0.4789947586287248 [Eh]
	 Opposite-Spin Energy      =      -1.3258687464010630 [Eh]
	 Correlation Energy        =      -1.8048635050297879 [Eh]
	 Total Energy              =    -466.4856646835955303 [Eh]
	-----------------------------------------------------------
	 ================> DF-SCS-MP2 Energies <================== 
	-----------------------------------------------------------
	 SCS Same-Spin Scale       =       0.3333333333333333 [-]
	 SCS Opposite-Spin Scale   =       1.2000000000000000 [-]
	 SCS Same-Spin Energy      =      -0.1596649195429083 [Eh]
	 SCS Opposite-Spin Energy  =      -1.5910424956812756 [Eh]
	 SCS Correlation Energy    =      -1.7507074152241839 [Eh]
	 SCS Total Energy          =    -466.4315085937898857 [Eh]
	-----------------------------------------------------------


*** tstop() called on node153.bme.utexas.edu at Sun Jan 14 11:44:05 2024
Module time:
	user time   =     129.66 seconds =       2.16 minutes
	system time =       4.41 seconds =       0.07 minutes
	total time  =         25 seconds =       0.42 minutes
Total time:
	user time   =    2908.48 seconds =      48.47 minutes
	system time =      25.22 seconds =       0.42 minutes
	total time  =        420 seconds =       7.00 minutes

  //>>>>>>>>>>>>>>>>>>>>>>>>>>>>>>>>>>>//
  //            Monomer B HF           //
  //<<<<<<<<<<<<<<<<<<<<<<<<<<<<<<<<<<<//


*** tstart() called on node153.bme.utexas.edu
*** at Sun Jan 14 11:44:05 2024

   => Loading Basis Set <=

    Name: AUG-CC-PVTZ
    Role: ORBITAL
    Keyword: BASIS
    atoms 1, 4, 11, 14-15, 17, 24, 26-27 entry H          line    40 file /opt/anaconda/envs/psi4v1.5/share/psi4/basis/aug-cc-pvtz.gbs 
    atoms 2, 5, 8-9, 12, 16, 20          entry N          line   285 file /opt/anaconda/envs/psi4v1.5/share/psi4/basis/aug-cc-pvtz.gbs 
    atoms 3, 6-7, 10, 13, 18, 21, 23, 25 entry C          line   239 file /opt/anaconda/envs/psi4v1.5/share/psi4/basis/aug-cc-pvtz.gbs 
    atoms 19, 22                         entry O          line   331 file /opt/anaconda/envs/psi4v1.5/share/psi4/basis/aug-cc-pvtz.gbs 


         ---------------------------------------------------------
                                   SCF
               by Justin Turney, Rob Parrish, Andy Simmonett
                          and Daniel G. A. Smith
                              RHF Reference
                        8 Threads,  76293 MiB Core
         ---------------------------------------------------------

  ==> Geometry <==

    Molecular point group: c1
    Full point group: C1

    Geometry (in Angstrom), charge = 0, multiplicity = 1:

       Center              X                  Y                   Z               Mass       
    ------------   -----------------  -----------------  -----------------  -----------------
      Gh(H)           0.803485992589    -2.744749744405     1.808968356428     1.007825032230
      Gh(N)           1.139855992589    -2.061329744405     1.140658356428    14.003074004430
      Gh(C)           1.899535992589    -2.292039744405     0.020998356428    12.000000000000
      Gh(H)           2.168225992589    -3.294979744405    -0.288151643572     1.007825032230
      Gh(N)           2.257525992589    -1.185669744405    -0.615071643572    14.003074004430
      Gh(C)           1.701685992589    -0.182199744405     0.154978356428    12.000000000000
      Gh(C)           1.709345992589     1.221420255595     0.027028356428    12.000000000000
      Gh(N)           2.403665992589     1.853910255595    -0.963511643572    14.003074004430
      Gh(N)           1.062625992589     1.955710255595     0.948118356428    14.003074004430
      Gh(C)           0.426405992589     1.317180255595     1.956798356428    12.000000000000
      Gh(H)          -0.090374007411     1.961640255595     2.663958356428     1.007825032230
      Gh(N)           0.335205992589     0.000260255595     2.188928356428    14.003074004430
      Gh(C)           0.995435992589    -0.695049744405     1.249628356428    12.000000000000
      Gh(H)           2.113615992589     2.814960255595    -1.110741643572     1.007825032230
      Gh(H)           2.493605992589     1.316560255595    -1.819911643572     1.007825032230
         N           -2.463096165745    -0.998068186071     0.198545606428    14.003074004430
         H           -3.000896165745    -1.438568186071     0.935585606428     1.007825032230
         C           -2.384086165745     0.387041813929     0.287135606428    12.000000000000
         O           -2.949716165745     1.037851813929     1.154375606428    15.994914619570
         N           -1.612956165745     0.936601813929    -0.724604393572    14.003074004430
         C           -0.905096165745     0.282091813929    -1.744484393572    12.000000000000
         O           -0.232736165745     0.926141813929    -2.549984393572    15.994914619570
         C           -1.063836165745    -1.163308186071    -1.724594393572    12.000000000000
         H           -0.555956165745    -1.747448186071    -2.480324393572     1.007825032230
         C           -1.821796165745    -1.741798186071    -0.763824393572    12.000000000000
         H           -1.974426165745    -2.814998186071    -0.702824393572     1.007825032230
         H           -1.478306165745     1.943591813929    -0.664474393572     1.007825032230

  Running in c1 symmetry.

  Rotational constants: A =      0.01947  B =      0.01457  C =      0.01413 [cm^-1]
  Rotational constants: A =    583.76518  B =    436.72332  C =    423.70260 [MHz]
  Nuclear repulsion =  355.501183888588400

  Charge       = 0
  Multiplicity = 1
  Electrons    = 58
  Nalpha       = 29
  Nbeta        = 29

  ==> Algorithm <==

  SCF Algorithm Type is DF.
  DIIS enabled.
  MOM disabled.
  Fractional occupation disabled.
  Guess Type is SAD.
  Energy threshold   = 1.00e-08
  Density threshold  = 1.00e-08
  Integral threshold = 1.00e-12

  ==> Primary Basis <==

  Basis Set: AUG-CC-PVTZ
    Blend: AUG-CC-PVTZ
    Number of shells: 333
    Number of basis functions: 1035
    Number of Cartesian functions: 1215
    Spherical Harmonics?: true
    Max angular momentum: 3

   => Loading Basis Set <=

    Name: (AUG-CC-PVTZ AUX)
    Role: JKFIT
    Keyword: DF_BASIS_SCF
    atoms 1, 4, 11, 14-15, 17, 24, 26-27 entry H          line    70 file /opt/anaconda/envs/psi4v1.5/share/psi4/basis/aug-cc-pvtz-jkfit.gbs 
    atoms 2, 5, 8-9, 12, 16, 20          entry N          line   224 file /opt/anaconda/envs/psi4v1.5/share/psi4/basis/aug-cc-pvtz-jkfit.gbs 
    atoms 3, 6-7, 10, 13, 18, 21, 23, 25 entry C          line   162 file /opt/anaconda/envs/psi4v1.5/share/psi4/basis/aug-cc-pvtz-jkfit.gbs 
    atoms 19, 22                         entry O          line   286 file /opt/anaconda/envs/psi4v1.5/share/psi4/basis/aug-cc-pvtz-jkfit.gbs 

  ==> Integral Setup <==

  ==> DiskDFJK: Density-Fitted J/K Matrices <==

    J tasked:                  Yes
    K tasked:                  Yes
    wK tasked:                  No
    OpenMP threads:              8
    Integrals threads:           8
    Memory [MiB]:            57220
    Algorithm:                Core
    Integral Cache:           LOAD
    Schwarz Cutoff:          1E-12
    Fitting Condition:       1E-10

   => Auxiliary Basis Set <=

  Basis Set: (AUG-CC-PVTZ AUX)
    Blend: AUG-CC-PVTZ-JKFIT
    Number of shells: 666
    Number of basis functions: 2286
    Number of Cartesian functions: 2853
    Spherical Harmonics?: true
    Max angular momentum: 4

  Minimum eigenvalue in the overlap matrix is 7.7200788438E-07.
  Reciprocal condition number of the overlap matrix is 3.3183828931E-08.
    Using symmetric orthogonalization.

  ==> Pre-Iterations <==

  SCF Guess: Superposition of Atomic Densities via on-the-fly atomic UHF (no occupation information).

   -------------------------
    Irrep   Nso     Nmo    
   -------------------------
     A       1035    1035 
   -------------------------
    Total    1035    1035
   -------------------------

  ==> Iterations <==

                           Total Energy        Delta E     RMS |[F,P]|

   @DF-RHF iter SAD:  -411.86334578202667   -4.11863e+02   0.00000e+00 
   @DF-RHF iter   1:  -412.37375173507144   -5.10406e-01   7.20359e-04 DIIS
   @DF-RHF iter   2:  -412.53457920437359   -1.60827e-01   4.83492e-04 DIIS
   @DF-RHF iter   3:  -412.61562739163003   -8.10482e-02   8.68546e-05 DIIS
   @DF-RHF iter   4:  -412.61993852681184   -4.31114e-03   3.58557e-05 DIIS
   @DF-RHF iter   5:  -412.62084837493120   -9.09848e-04   7.37874e-06 DIIS
   @DF-RHF iter   6:  -412.62095681237196   -1.08437e-04   3.74794e-06 DIIS
   @DF-RHF iter   7:  -412.62097684483854   -2.00325e-05   1.52766e-06 DIIS
   @DF-RHF iter   8:  -412.62098039073589   -3.54590e-06   5.30851e-07 DIIS
   @DF-RHF iter   9:  -412.62098067272302   -2.81987e-07   2.19727e-07 DIIS
   @DF-RHF iter  10:  -412.62098074267647   -6.99534e-08   7.30040e-08 DIIS
   @DF-RHF iter  11:  -412.62098075130871   -8.63224e-09   2.43246e-08 DIIS
   @DF-RHF iter  12:  -412.62098075201129   -7.02585e-10   7.93030e-09 DIIS
  Energy and wave function converged.


  ==> Post-Iterations <==

    Orbital Energies [Eh]
    ---------------------

    Doubly Occupied:                                                      

       1A    -20.550403     2A    -20.542543     3A    -15.647862  
       4A    -15.631085     5A    -11.423543     6A    -11.384441  
       7A    -11.345084     8A    -11.259598     9A     -1.432723  
      10A     -1.391722    11A     -1.311642    12A     -1.244390  
      13A     -1.088436    14A     -0.932901    15A     -0.901730  
      16A     -0.805592    17A     -0.763344    18A     -0.713642  
      19A     -0.676561    20A     -0.667333    21A     -0.652890  
      22A     -0.613309    23A     -0.600828    24A     -0.568210  
      25A     -0.525767    26A     -0.484767    27A     -0.450144  
      28A     -0.437174    29A     -0.370168  

    Virtual:                                                              

      30A      0.010965    31A      0.025293    32A      0.027698  
      33A      0.033198    34A      0.044663    35A      0.046366  
      36A      0.049977    37A      0.050738    38A      0.056109  
      39A      0.067149    40A      0.067871    41A      0.076300  
      42A      0.078823    43A      0.080266    44A      0.083811  
      45A      0.084272    46A      0.091363    47A      0.091525  
      48A      0.095667    49A      0.099395    50A      0.104745  
      51A      0.109035    52A      0.115215    53A      0.118001  
      54A      0.120706    55A      0.123525    56A      0.125740  
      57A      0.130581    58A      0.133135    59A      0.135027  
      60A      0.137178    61A      0.139570    62A      0.143643  
      63A      0.146361    64A      0.149701    65A      0.157039  
      66A      0.158777    67A      0.165007    68A      0.166451  
      69A      0.170203    70A      0.172269    71A      0.175246  
      72A      0.177767    73A      0.185645    74A      0.190179  
      75A      0.191182    76A      0.194376    77A      0.201423  
      78A      0.203632    79A      0.208075    80A      0.210721  
      81A      0.214265    82A      0.217349    83A      0.222780  
      84A      0.224091    85A      0.228550    86A      0.233467  
      87A      0.235748    88A      0.237791    89A      0.240169  
      90A      0.250634    91A      0.251297    92A      0.256485  
      93A      0.258841    94A      0.262477    95A      0.264572  
      96A      0.268523    97A      0.274007    98A      0.276880  
      99A      0.277921   100A      0.283575   101A      0.286519  
     102A      0.288937   103A      0.290070   104A      0.292729  
     105A      0.296388   106A      0.302259   107A      0.304266  
     108A      0.304681   109A      0.309463   110A      0.313643  
     111A      0.316746   112A      0.327961   113A      0.330508  
     114A      0.335423   115A      0.337070   116A      0.337863  
     117A      0.344262   118A      0.348306   119A      0.354226  
     120A      0.356174   121A      0.362965   122A      0.364505  
     123A      0.371155   124A      0.380076   125A      0.382057  
     126A      0.384054   127A      0.389656   128A      0.390627  
     129A      0.395006   130A      0.398133   131A      0.401288  
     132A      0.406013   133A      0.408800   134A      0.415172  
     135A      0.417512   136A      0.421193   137A      0.424179  
     138A      0.429488   139A      0.431242   140A      0.435523  
     141A      0.437143   142A      0.442865   143A      0.443915  
     144A      0.449666   145A      0.454062   146A      0.457507  
     147A      0.458957   148A      0.459960   149A      0.465957  
     150A      0.470028   151A      0.474095   152A      0.476635  
     153A      0.479673   154A      0.485522   155A      0.486421  
     156A      0.491017   157A      0.496023   158A      0.498425  
     159A      0.501061   160A      0.505160   161A      0.508022  
     162A      0.512572   163A      0.514625   164A      0.515591  
     165A      0.521818   166A      0.524138   167A      0.527410  
     168A      0.528949   169A      0.531799   170A      0.539572  
     171A      0.545835   172A      0.546708   173A      0.549889  
     174A      0.554761   175A      0.555543   176A      0.559356  
     177A      0.568258   178A      0.575384   179A      0.576410  
     180A      0.585828   181A      0.587705   182A      0.592484  
     183A      0.594627   184A      0.597507   185A      0.601704  
     186A      0.614525   187A      0.617983   188A      0.622089  
     189A      0.626051   190A      0.632730   191A      0.636495  
     192A      0.639330   193A      0.645205   194A      0.649636  
     195A      0.650149   196A      0.654431   197A      0.662431  
     198A      0.665108   199A      0.672730   200A      0.678444  
     201A      0.682761   202A      0.687332   203A      0.691607  
     204A      0.698563   205A      0.703265   206A      0.712474  
     207A      0.713297   208A      0.721650   209A      0.724117  
     210A      0.731705   211A      0.734432   212A      0.738838  
     213A      0.741174   214A      0.743637   215A      0.749370  
     216A      0.754466   217A      0.758555   218A      0.765515  
     219A      0.771006   220A      0.773260   221A      0.776082  
     222A      0.784063   223A      0.789115   224A      0.794938  
     225A      0.797864   226A      0.803695   227A      0.804134  
     228A      0.810117   229A      0.819004   230A      0.824054  
     231A      0.830566   232A      0.833134   233A      0.834339  
     234A      0.838941   235A      0.844077   236A      0.850554  
     237A      0.852753   238A      0.856421   239A      0.859874  
     240A      0.863806   241A      0.869819   242A      0.872808  
     243A      0.883232   244A      0.884924   245A      0.889012  
     246A      0.894524   247A      0.897194   248A      0.898591  
     249A      0.900495   250A      0.908075   251A      0.913906  
     252A      0.916563   253A      0.924077   254A      0.925890  
     255A      0.931713   256A      0.935280   257A      0.940982  
     258A      0.944020   259A      0.947167   260A      0.954571  
     261A      0.955912   262A      0.958350   263A      0.963354  
     264A      0.965580   265A      0.968698   266A      0.975367  
     267A      0.980227   268A      0.985352   269A      0.987141  
     270A      0.995722   271A      0.997727   272A      1.000637  
     273A      1.006439   274A      1.011122   275A      1.015297  
     276A      1.018778   277A      1.023022   278A      1.030148  
     279A      1.035286   280A      1.040580   281A      1.045695  
     282A      1.048092   283A      1.056557   284A      1.060185  
     285A      1.063007   286A      1.071171   287A      1.077320  
     288A      1.081048   289A      1.084839   290A      1.087826  
     291A      1.092631   292A      1.097509   293A      1.102641  
     294A      1.115611   295A      1.117437   296A      1.124786  
     297A      1.126236   298A      1.131522   299A      1.133396  
     300A      1.141052   301A      1.143417   302A      1.149423  
     303A      1.156790   304A      1.159738   305A      1.165371  
     306A      1.169811   307A      1.170958   308A      1.178800  
     309A      1.182156   310A      1.184030   311A      1.189475  
     312A      1.195401   313A      1.201779   314A      1.209112  
     315A      1.214728   316A      1.216108   317A      1.217046  
     318A      1.225198   319A      1.233955   320A      1.236632  
     321A      1.241321   322A      1.243020   323A      1.249966  
     324A      1.255432   325A      1.258813   326A      1.265057  
     327A      1.269830   328A      1.273751   329A      1.274470  
     330A      1.282365   331A      1.291027   332A      1.296001  
     333A      1.297617   334A      1.300983   335A      1.310193  
     336A      1.315719   337A      1.319144   338A      1.324992  
     339A      1.332217   340A      1.341468   341A      1.343257  
     342A      1.346647   343A      1.350306   344A      1.358656  
     345A      1.364931   346A      1.367136   347A      1.376751  
     348A      1.381354   349A      1.385220   350A      1.389465  
     351A      1.392934   352A      1.404572   353A      1.407082  
     354A      1.414813   355A      1.421789   356A      1.425768  
     357A      1.427384   358A      1.428889   359A      1.436605  
     360A      1.446690   361A      1.447607   362A      1.458482  
     363A      1.469026   364A      1.472111   365A      1.476903  
     366A      1.481724   367A      1.488074   368A      1.494498  
     369A      1.497601   370A      1.503531   371A      1.511686  
     372A      1.514987   373A      1.520046   374A      1.528219  
     375A      1.532637   376A      1.535592   377A      1.541744  
     378A      1.544051   379A      1.548236   380A      1.556515  
     381A      1.558927   382A      1.566718   383A      1.567977  
     384A      1.582405   385A      1.584501   386A      1.595869  
     387A      1.599088   388A      1.604728   389A      1.615980  
     390A      1.617729   391A      1.624632   392A      1.631206  
     393A      1.634134   394A      1.639215   395A      1.643719  
     396A      1.653197   397A      1.654070   398A      1.660457  
     399A      1.664656   400A      1.669391   401A      1.677081  
     402A      1.680319   403A      1.684000   404A      1.692476  
     405A      1.697960   406A      1.702636   407A      1.705956  
     408A      1.710030   409A      1.720284   410A      1.724022  
     411A      1.728049   412A      1.737295   413A      1.741304  
     414A      1.749848   415A      1.761005   416A      1.761646  
     417A      1.767315   418A      1.770152   419A      1.780169  
     420A      1.782466   421A      1.788671   422A      1.794915  
     423A      1.803062   424A      1.807557   425A      1.815557  
     426A      1.816808   427A      1.825643   428A      1.830625  
     429A      1.841383   430A      1.845285   431A      1.848240  
     432A      1.852078   433A      1.858540   434A      1.863610  
     435A      1.871151   436A      1.877393   437A      1.884097  
     438A      1.891940   439A      1.902360   440A      1.904661  
     441A      1.908580   442A      1.917355   443A      1.923372  
     444A      1.930618   445A      1.932722   446A      1.934392  
     447A      1.943825   448A      1.957409   449A      1.959806  
     450A      1.963973   451A      1.972699   452A      1.979502  
     453A      1.985852   454A      1.992630   455A      1.995443  
     456A      2.002856   457A      2.012850   458A      2.018491  
     459A      2.026068   460A      2.036734   461A      2.039983  
     462A      2.044876   463A      2.050948   464A      2.059347  
     465A      2.070771   466A      2.072405   467A      2.075337  
     468A      2.080540   469A      2.089525   470A      2.107259  
     471A      2.107721   472A      2.112674   473A      2.116735  
     474A      2.120856   475A      2.126780   476A      2.146691  
     477A      2.150561   478A      2.155411   479A      2.158129  
     480A      2.162889   481A      2.166362   482A      2.173244  
     483A      2.187019   484A      2.190371   485A      2.200909  
     486A      2.204521   487A      2.207529   488A      2.214157  
     489A      2.222302   490A      2.225699   491A      2.234983  
     492A      2.238056   493A      2.245131   494A      2.254258  
     495A      2.263278   496A      2.270672   497A      2.273390  
     498A      2.274881   499A      2.287864   500A      2.304282  
     501A      2.310222   502A      2.315635   503A      2.318580  
     504A      2.324728   505A      2.331833   506A      2.338434  
     507A      2.338811   508A      2.357180   509A      2.362300  
     510A      2.367130   511A      2.372430   512A      2.382340  
     513A      2.397403   514A      2.400076   515A      2.411405  
     516A      2.417003   517A      2.423089   518A      2.429375  
     519A      2.434078   520A      2.442462   521A      2.446516  
     522A      2.455798   523A      2.457485   524A      2.466168  
     525A      2.480707   526A      2.487072   527A      2.505552  
     528A      2.505912   529A      2.511044   530A      2.517581  
     531A      2.525431   532A      2.531308   533A      2.535652  
     534A      2.544931   535A      2.549058   536A      2.559209  
     537A      2.562351   538A      2.572575   539A      2.575193  
     540A      2.587091   541A      2.596381   542A      2.597833  
     543A      2.604480   544A      2.614966   545A      2.622122  
     546A      2.637366   547A      2.641525   548A      2.650225  
     549A      2.654983   550A      2.666249   551A      2.671672  
     552A      2.676773   553A      2.680337   554A      2.689980  
     555A      2.697795   556A      2.702535   557A      2.715144  
     558A      2.720864   559A      2.726452   560A      2.733570  
     561A      2.753111   562A      2.756749   563A      2.764741  
     564A      2.769152   565A      2.776189   566A      2.784406  
     567A      2.793377   568A      2.807589   569A      2.814852  
     570A      2.824660   571A      2.832866   572A      2.838329  
     573A      2.843351   574A      2.846331   575A      2.869490  
     576A      2.877789   577A      2.878457   578A      2.883869  
     579A      2.886924   580A      2.905215   581A      2.909488  
     582A      2.917022   583A      2.922928   584A      2.938817  
     585A      2.942581   586A      2.950693   587A      2.957185  
     588A      2.978457   589A      2.986575   590A      2.989900  
     591A      2.996292   592A      2.999822   593A      3.021090  
     594A      3.026634   595A      3.035788   596A      3.046944  
     597A      3.059159   598A      3.065525   599A      3.071182  
     600A      3.079524   601A      3.088936   602A      3.095598  
     603A      3.103064   604A      3.108920   605A      3.114431  
     606A      3.120543   607A      3.130475   608A      3.148937  
     609A      3.149776   610A      3.157688   611A      3.173461  
     612A      3.182016   613A      3.188552   614A      3.193283  
     615A      3.214227   616A      3.225142   617A      3.239802  
     618A      3.252506   619A      3.266478   620A      3.279342  
     621A      3.287943   622A      3.298748   623A      3.314338  
     624A      3.318047   625A      3.327805   626A      3.337430  
     627A      3.362395   628A      3.365039   629A      3.370620  
     630A      3.382523   631A      3.390857   632A      3.417065  
     633A      3.432973   634A      3.434054   635A      3.442977  
     636A      3.474384   637A      3.483026   638A      3.490424  
     639A      3.505653   640A      3.514610   641A      3.530726  
     642A      3.534523   643A      3.556357   644A      3.563113  
     645A      3.590400   646A      3.592945   647A      3.609338  
     648A      3.639247   649A      3.650480   650A      3.669185  
     651A      3.685251   652A      3.697456   653A      3.703119  
     654A      3.722148   655A      3.726054   656A      3.737139  
     657A      3.749319   658A      3.760961   659A      3.776818  
     660A      3.780472   661A      3.796558   662A      3.806242  
     663A      3.813980   664A      3.834416   665A      3.850568  
     666A      3.858061   667A      3.868866   668A      3.879258  
     669A      3.886161   670A      3.895517   671A      3.918120  
     672A      3.924968   673A      3.938047   674A      3.941329  
     675A      3.960623   676A      3.972100   677A      3.986241  
     678A      3.987933   679A      4.012543   680A      4.027503  
     681A      4.049563   682A      4.055656   683A      4.071269  
     684A      4.092050   685A      4.101105   686A      4.123579  
     687A      4.128851   688A      4.142636   689A      4.171850  
     690A      4.181851   691A      4.184736   692A      4.192737  
     693A      4.204443   694A      4.216237   695A      4.226032  
     696A      4.231513   697A      4.256111   698A      4.259353  
     699A      4.270888   700A      4.284371   701A      4.291835  
     702A      4.305889   703A      4.308670   704A      4.320221  
     705A      4.332396   706A      4.347608   707A      4.351260  
     708A      4.366446   709A      4.369996   710A      4.382195  
     711A      4.391556   712A      4.401486   713A      4.406338  
     714A      4.413997   715A      4.418355   716A      4.431649  
     717A      4.434350   718A      4.457736   719A      4.463787  
     720A      4.473533   721A      4.500400   722A      4.505660  
     723A      4.517835   724A      4.535791   725A      4.545369  
     726A      4.551840   727A      4.561236   728A      4.579830  
     729A      4.597599   730A      4.605133   731A      4.623830  
     732A      4.633192   733A      4.640102   734A      4.653276  
     735A      4.661860   736A      4.665387   737A      4.683671  
     738A      4.688365   739A      4.693944   740A      4.698255  
     741A      4.699644   742A      4.713120   743A      4.721637  
     744A      4.736361   745A      4.750984   746A      4.756328  
     747A      4.758925   748A      4.765700   749A      4.785476  
     750A      4.790205   751A      4.807869   752A      4.812048  
     753A      4.822623   754A      4.831386   755A      4.837385  
     756A      4.866198   757A      4.873226   758A      4.883841  
     759A      4.889325   760A      4.892503   761A      4.906390  
     762A      4.920233   763A      4.931122   764A      4.937806  
     765A      4.941899   766A      4.949764   767A      4.954122  
     768A      4.973298   769A      4.984494   770A      4.998514  
     771A      5.001705   772A      5.009431   773A      5.021887  
     774A      5.032225   775A      5.038695   776A      5.046662  
     777A      5.056669   778A      5.060270   779A      5.062937  
     780A      5.071347   781A      5.076302   782A      5.084069  
     783A      5.109217   784A      5.112481   785A      5.128220  
     786A      5.130946   787A      5.141320   788A      5.147774  
     789A      5.157543   790A      5.162756   791A      5.168829  
     792A      5.178743   793A      5.188115   794A      5.200303  
     795A      5.215862   796A      5.217441   797A      5.231396  
     798A      5.246402   799A      5.262143   800A      5.265271  
     801A      5.282634   802A      5.298396   803A      5.304958  
     804A      5.310267   805A      5.325299   806A      5.333926  
     807A      5.348491   808A      5.362230   809A      5.379408  
     810A      5.387447   811A      5.409770   812A      5.416907  
     813A      5.427029   814A      5.445588   815A      5.450796  
     816A      5.462779   817A      5.474413   818A      5.489220  
     819A      5.493142   820A      5.512443   821A      5.521835  
     822A      5.523378   823A      5.532346   824A      5.549806  
     825A      5.557383   826A      5.566781   827A      5.581893  
     828A      5.598566   829A      5.606358   830A      5.615680  
     831A      5.629059   832A      5.649644   833A      5.652535  
     834A      5.672580   835A      5.682597   836A      5.695444  
     837A      5.722061   838A      5.726739   839A      5.776904  
     840A      5.788418   841A      5.797679   842A      5.809151  
     843A      5.818908   844A      5.826771   845A      5.828920  
     846A      5.845607   847A      5.873199   848A      5.892165  
     849A      5.907032   850A      5.915229   851A      5.924673  
     852A      5.945316   853A      5.968987   854A      5.987286  
     855A      6.002886   856A      6.025343   857A      6.032031  
     858A      6.055329   859A      6.069401   860A      6.077804  
     861A      6.092082   862A      6.098349   863A      6.114348  
     864A      6.144311   865A      6.156140   866A      6.176104  
     867A      6.184039   868A      6.199435   869A      6.226294  
     870A      6.231532   871A      6.263335   872A      6.284603  
     873A      6.285535   874A      6.317342   875A      6.350818  
     876A      6.358584   877A      6.371676   878A      6.454947  
     879A      6.483674   880A      6.504317   881A      6.516656  
     882A      6.528070   883A      6.535723   884A      6.542675  
     885A      6.559404   886A      6.562807   887A      6.586319  
     888A      6.593984   889A      6.601909   890A      6.623140  
     891A      6.635823   892A      6.648250   893A      6.663356  
     894A      6.711654   895A      6.720404   896A      6.746504  
     897A      6.765687   898A      6.782931   899A      6.789809  
     900A      6.798280   901A      6.800987   902A      6.821670  
     903A      6.824117   904A      6.845144   905A      6.854865  
     906A      6.862308   907A      6.873529   908A      6.891113  
     909A      6.904118   910A      6.926460   911A      6.945243  
     912A      6.968318   913A      6.976117   914A      6.995689  
     915A      7.005979   916A      7.007738   917A      7.012683  
     918A      7.021130   919A      7.050272   920A      7.091209  
     921A      7.110138   922A      7.113665   923A      7.127989  
     924A      7.176016   925A      7.210266   926A      7.225113  
     927A      7.250598   928A      7.280059   929A      7.299545  
     930A      7.363482   931A      7.366210   932A      7.386399  
     933A      7.417222   934A      7.428962   935A      7.447251  
     936A      7.476381   937A      7.487582   938A      7.497700  
     939A      7.514165   940A      7.524374   941A      7.534261  
     942A      7.561287   943A      7.578078   944A      7.607800  
     945A      7.626640   946A      7.650478   947A      7.653497  
     948A      7.672217   949A      7.698935   950A      7.705147  
     951A      7.713773   952A      7.736556   953A      7.742131  
     954A      7.790851   955A      7.804998   956A      7.846864  
     957A      7.859130   958A      7.872058   959A      7.890800  
     960A      7.901425   961A      7.918055   962A      7.950968  
     963A      7.968188   964A      7.968918   965A      7.989130  
     966A      8.006033   967A      8.013214   968A      8.015819  
     969A      8.029582   970A      8.053723   971A      8.060093  
     972A      8.090140   973A      8.116985   974A      8.128725  
     975A      8.213431   976A      8.245539   977A      8.319414  
     978A      8.354088   979A      8.404221   980A      8.447789  
     981A      8.481475   982A      8.564268   983A      8.697410  
     984A      8.812691   985A      8.861185   986A      8.958449  
     987A      9.021057   988A      9.047012   989A      9.255024  
     990A      9.328487   991A      9.374629   992A      9.644947  
     993A      9.682201   994A      9.695245   995A      9.760850  
     996A      9.826956   997A      9.947371   998A     10.179571  
     999A     10.283705  1000A     10.461403  1001A     10.761437  
    1002A     11.059319  1003A     11.123551  1004A     11.209358  
    1005A     11.276959  1006A     11.590398  1007A     11.683830  
    1008A     11.757956  1009A     11.874783  1010A     12.067354  
    1011A     12.095096  1012A     12.237752  1013A     12.353914  
    1014A     12.454174  1015A     12.602172  1016A     12.918573  
    1017A     12.975262  1018A     16.190038  1019A     16.226106  
    1020A     16.709436  1021A     17.161841  1022A     18.394258  
    1023A     19.955314  1024A     20.396772  1025A     21.119088  
    1026A     51.892763  1027A     52.256929  1028A     52.965400  
    1029A     54.637499  1030A     57.347579  1031A     60.485166  
    1032A     62.097976  1033A     62.579837  1034A     63.152640  
    1035A     64.664449  

    Final Occupation by Irrep:
              A 
    DOCC [    29 ]

  @DF-RHF Final Energy:  -412.62098075201129

   => Energetics <=

    Nuclear Repulsion Energy =            355.5011838885884004
    One-Electron Energy =               -1267.4086484379979538
    Two-Electron Energy =                 499.2864837973982048
    Total Energy =                       -412.6209807520112918

Computation Completed


Properties will be evaluated at   0.000000,   0.000000,   0.000000 [a0]

Properties computed using the SCF density matrix

  Nuclear Dipole Moment: [e a0]
     X:  -185.2885      Y:    -4.1415      Z:   -78.2988

  Electronic Dipole Moment: [e a0]
     X:   184.8497      Y:     2.2257      Z:    78.7188

  Dipole Moment: [e a0]
     X:    -0.4388      Y:    -1.9158      Z:     0.4200     Total:     2.0098

  Dipole Moment: [D]
     X:    -1.1153      Y:    -4.8695      Z:     1.0675     Total:     5.1084


*** tstop() called on node153.bme.utexas.edu at Sun Jan 14 11:46:23 2024
Module time:
	user time   =     989.10 seconds =      16.48 minutes
	system time =       4.31 seconds =       0.07 minutes
	total time  =        138 seconds =       2.30 minutes
Total time:
	user time   =    3897.60 seconds =      64.96 minutes
	system time =      29.53 seconds =       0.49 minutes
	total time  =        558 seconds =       9.30 minutes

*** tstart() called on node153.bme.utexas.edu
*** at Sun Jan 14 11:46:23 2024


  //>>>>>>>>>>>>>>>>>>>>>>>>>>>>>>>>>>>//
  //               DFMP2               //
  //<<<<<<<<<<<<<<<<<<<<<<<<<<<<<<<<<<<//

   => Loading Basis Set <=

    Name: (AUG-CC-PVTZ AUX)
    Role: RIFIT
    Keyword: DF_BASIS_MP2
    atoms 1, 4, 11, 14-15, 17, 24, 26-27 entry H          line    30 file /opt/anaconda/envs/psi4v1.5/share/psi4/basis/aug-cc-pvtz-ri.gbs 
    atoms 2, 5, 8-9, 12, 16, 20          entry N          line   206 file /opt/anaconda/envs/psi4v1.5/share/psi4/basis/aug-cc-pvtz-ri.gbs 
    atoms 3, 6-7, 10, 13, 18, 21, 23, 25 entry C          line   148 file /opt/anaconda/envs/psi4v1.5/share/psi4/basis/aug-cc-pvtz-ri.gbs 
    atoms 19, 22                         entry O          line   264 file /opt/anaconda/envs/psi4v1.5/share/psi4/basis/aug-cc-pvtz-ri.gbs 

	 --------------------------------------------------------
	                          DF-MP2                         
	      2nd-Order Density-Fitted Moller-Plesset Theory     
	              RMP2 Wavefunction,   8 Threads             
	                                                         
	        Rob Parrish, Justin Turney, Andy Simmonett,      
	           Ed Hohenstein, and C. David Sherrill          
	 --------------------------------------------------------

   => Auxiliary Basis Set <=

  Basis Set: (AUG-CC-PVTZ AUX)
    Blend: AUG-CC-PVTZ-RI
    Number of shells: 630
    Number of basis functions: 2322
    Number of Cartesian functions: 2943
    Spherical Harmonics?: true
    Max angular momentum: 4

	 --------------------------------------------------------
	                 NBF =  1035, NAUX =  2322
	 --------------------------------------------------------
	   CLASS    FOCC     OCC    AOCC    AVIR     VIR    FVIR
	   PAIRS       8      29      21    1006    1006       0
	 --------------------------------------------------------

	 Will attempt to load fitting metric from file 97.

	-----------------------------------------------------------
	 ==================> DF-MP2 Energies <==================== 
	-----------------------------------------------------------
	 Reference Energy          =    -412.6209807520112918 [Eh]
	 Singles Energy            =      -0.0000000000000000 [Eh]
	 Same-Spin Energy          =      -0.3926213636963295 [Eh]
	 Opposite-Spin Energy      =      -1.1130438291318663 [Eh]
	 Correlation Energy        =      -1.5056651928281957 [Eh]
	 Total Energy              =    -414.1266459448394812 [Eh]
	-----------------------------------------------------------
	 ================> DF-SCS-MP2 Energies <================== 
	-----------------------------------------------------------
	 SCS Same-Spin Scale       =       0.3333333333333333 [-]
	 SCS Opposite-Spin Scale   =       1.2000000000000000 [-]
	 SCS Same-Spin Energy      =      -0.1308737878987765 [Eh]
	 SCS Opposite-Spin Energy  =      -1.3356525949582394 [Eh]
	 SCS Correlation Energy    =      -1.4665263828570159 [Eh]
	 SCS Total Energy          =    -414.0875071348683036 [Eh]
	-----------------------------------------------------------


*** tstop() called on node153.bme.utexas.edu at Sun Jan 14 11:46:48 2024
Module time:
	user time   =     124.47 seconds =       2.07 minutes
	system time =       4.44 seconds =       0.07 minutes
	total time  =         25 seconds =       0.42 minutes
Total time:
	user time   =    4022.07 seconds =      67.03 minutes
	system time =      33.97 seconds =       0.57 minutes
	total time  =        583 seconds =       9.72 minutes
  Constructing Basis Sets for SAPT...

   => Loading Basis Set <=

    Name: (AUG-CC-PVTZ AUX)
    Role: RIFIT
    Keyword: DF_BASIS_SAPT
    atoms 1, 4, 11, 14-15, 17, 24, 26-27 entry H          line    30 file /opt/anaconda/envs/psi4v1.5/share/psi4/basis/aug-cc-pvtz-ri.gbs 
    atoms 2, 5, 8-9, 12, 16, 20          entry N          line   206 file /opt/anaconda/envs/psi4v1.5/share/psi4/basis/aug-cc-pvtz-ri.gbs 
    atoms 3, 6-7, 10, 13, 18, 21, 23, 25 entry C          line   148 file /opt/anaconda/envs/psi4v1.5/share/psi4/basis/aug-cc-pvtz-ri.gbs 
    atoms 19, 22                         entry O          line   264 file /opt/anaconda/envs/psi4v1.5/share/psi4/basis/aug-cc-pvtz-ri.gbs 


  //>>>>>>>>>>>>>>>>>>>>>>>>>>>>>>>>>>>//
  //           SAPT2+(3)DMP2           //
  //<<<<<<<<<<<<<<<<<<<<<<<<<<<<<<<<<<<//


*** tstart() called on node153.bme.utexas.edu
*** at Sun Jan 14 11:46:48 2024

      SAPT2+(3)  
    Ed Hohenstein
     6 June 2009

      Orbital Information
  --------------------------
    NSO        =      1035
    NMO        =      1035
    NRI        =      2322
    NOCC A     =        35
    NOCC B     =        29
    FOCC A     =        10
    FOCC B     =         8
    NVIR A     =      1000
    NVIR B     =      1006

    Estimated memory usage: 48553.4 MB

    Natural Orbital Cutoff:   1.000E-06
    Disp(T3) Truncation:            Yes
    CCD (vv|vv) Truncation:         Yes
    MBPT T2 Truncation:             Yes

    Monomer A: 502 virtual orbitals dropped
    Monomer B: 602 virtual orbitals dropped

    Elst10,r            =    -0.009266558464 [Eh]
    Exch10 (S^2)        =     0.016844043598 [Eh]
    Exch10              =     0.016865495773 [Eh]
    Ind20,r (A<-B)      =    -0.004877942025 [Eh]
    Ind20,r (B<-A)      =    -0.003606070103 [Eh]
    Ind20,r             =    -0.008484012128 [Eh]
    Exch-Ind20,r (A<-B) =     0.003800533454 [Eh]
    Exch-Ind20,r (B<-A) =     0.003323308368 [Eh]
    Exch-Ind20,r        =     0.007123841823 [Eh]
    Disp20              =    -0.025542361799 [Eh]
    Disp20 (NO)         =    -0.023773899170 [Eh]
    Exch-Disp20         =     0.002671890496 [Eh]
    Elst12,r            =     0.000478606740 [Eh]
    Exch11              =     0.000408768848 [Eh]
    Exch12              =     0.000854198638 [Eh]
    Ind22               =    -0.000021114509 [Eh]
    Disp21              =     0.008160641333 [Eh]
    Disp22 (SDQ)        =    -0.001118410200 [Eh]

    (i =   1 of  21)       2219 seconds
    (i =   2 of  21)       4422 seconds
    (i =   3 of  21)       6619 seconds
    (i =   4 of  21)       8819 seconds
    (i =   5 of  21)      11018 seconds
    (i =   6 of  21)      13210 seconds
    (i =   7 of  21)      15390 seconds
    (i =   8 of  21)      17570 seconds
    (i =   9 of  21)      19779 seconds
    (i =  10 of  21)      21992 seconds
    (i =  11 of  21)      24212 seconds
    (i =  12 of  21)      26433 seconds
    (i =  13 of  21)      28652 seconds
    (i =  14 of  21)      30876 seconds
    (i =  15 of  21)      33087 seconds
    (i =  16 of  21)      35306 seconds
    (i =  17 of  21)      37525 seconds
    (i =  18 of  21)      39725 seconds
    (i =  19 of  21)      41881 seconds
    (i =  20 of  21)      44045 seconds
    (i =  21 of  21)      46216 seconds

    Disp220 (T)         =    -0.002947102966 [Eh]

    (i =   1 of  25)       1331 seconds
    (i =   2 of  25)       2661 seconds
    (i =   3 of  25)       3988 seconds
    (i =   4 of  25)       5318 seconds
    (i =   5 of  25)       6648 seconds
    (i =   6 of  25)       7977 seconds
    (i =   7 of  25)       9306 seconds
    (i =   8 of  25)      10629 seconds
    (i =   9 of  25)      11953 seconds
    (i =  10 of  25)      13275 seconds
    (i =  11 of  25)      14591 seconds
    (i =  12 of  25)      15896 seconds
    (i =  13 of  25)      17202 seconds
    (i =  14 of  25)      18509 seconds
    (i =  15 of  25)      19814 seconds
    (i =  16 of  25)      21120 seconds
    (i =  17 of  25)      22450 seconds
    (i =  18 of  25)      23792 seconds
    (i =  19 of  25)      25140 seconds
    (i =  20 of  25)      26489 seconds
    (i =  21 of  25)      27828 seconds
    (i =  22 of  25)      29159 seconds
    (i =  23 of  25)      30495 seconds
    (i =  24 of  25)      31833 seconds
    (i =  25 of  25)      33169 seconds

    Disp202 (T)         =    -0.002843331434 [Eh]

    Disp22 (T)          =    -0.005790434400 [Eh]

    Est. Disp220 (T)    =    -0.003166328320 [Eh]
    Est. Disp202 (T)    =    -0.003054837563 [Eh]

    Est. Disp22 (T)     =    -0.006221165883 [Eh]
    Elst13,r            =     0.000262272470 [Eh]
    Disp30              =     0.000636290467 [Eh]

    SAPT Results 
  --------------------------------------------------------------------------------------------------------
    Electrostatics                 -8.52567925 [mEh]      -5.34994450 [kcal/mol]     -22.38416780 [kJ/mol]
      Elst10,r                     -9.26655846 [mEh]      -5.81485323 [kcal/mol]     -24.32934590 [kJ/mol]
      Elst12,r                      0.47860674 [mEh]       0.30033026 [kcal/mol]       1.25658182 [kJ/mol]
      Elst13,r                      0.26227247 [mEh]       0.16457846 [kcal/mol]       0.68859628 [kJ/mol]

    Exchange                       18.12846326 [mEh]      11.37578244 [kcal/mol]      47.59627373 [kJ/mol]
      Exch10                       16.86549577 [mEh]      10.58325838 [kcal/mol]      44.28035305 [kJ/mol]
      Exch10(S^2)                  16.84404360 [mEh]      10.56979693 [kcal/mol]      44.22403037 [kJ/mol]
      Exch11(S^2)                   0.40876885 [mEh]       0.25650632 [kcal/mol]       1.07322246 [kJ/mol]
      Exch12(S^2)                   0.85419864 [mEh]       0.53601774 [kcal/mol]       2.24269822 [kJ/mol]

    Induction                      -2.00641424 [mEh]      -1.25904394 [kcal/mol]      -5.26783986 [kJ/mol]
      Ind20,r                      -8.48401213 [mEh]      -5.32379799 [kcal/mol]     -22.27477077 [kJ/mol]
      Ind22                        -0.02111451 [mEh]      -0.01324955 [kcal/mol]      -0.05543614 [kJ/mol]
      Exch-Ind20,r                  7.12384182 [mEh]       4.47027823 [kcal/mol]      18.70364413 [kJ/mol]
      Exch-Ind22                    0.01772940 [mEh]       0.01112537 [kcal/mol]       0.04654853 [kJ/mol]
      delta HF,r (2)               -1.11602701 [mEh]      -0.70031752 [kcal/mol]      -2.93012852 [kJ/mol]
      delta MP2,r (2)               0.47316819 [mEh]       0.29691752 [kcal/mol]       1.24230291 [kJ/mol]

    Dispersion                    -21.41311559 [mEh]     -13.43693289 [kcal/mol]     -56.22012722 [kJ/mol]
      Disp20                      -25.54236180 [mEh]     -16.02807401 [kcal/mol]     -67.06146166 [kJ/mol]
      Disp30                        0.63629047 [mEh]       0.39927830 [kcal/mol]       1.67058039 [kJ/mol]
      Disp21                        8.16064133 [mEh]       5.12087975 [kcal/mol]      21.42576087 [kJ/mol]
      Disp22 (SDQ)                 -1.11841020 [mEh]      -0.70181300 [kcal/mol]      -2.93638558 [kJ/mol]
      Disp22 (T)                   -5.79043440 [mEh]      -3.63355244 [kcal/mol]     -15.20278342 [kJ/mol]
      Est. Disp22 (T)              -6.22116588 [mEh]      -3.90384053 [kcal/mol]     -16.33366877 [kJ/mol]
      Exch-Disp20                   2.67189050 [mEh]       1.67663660 [kcal/mol]       7.01504753 [kJ/mol]

  Total HF                          5.12273999 [mEh]       3.21456788 [kcal/mol]      13.44975200 [kJ/mol]
  Total SAPT0                     -17.74773131 [mEh]     -11.13686954 [kcal/mol]     -46.59666214 [kJ/mol]
  Total SAPT2                     -16.00954220 [mEh]     -10.04613940 [kcal/mol]     -42.03304724 [kJ/mol]
  Total SAPT2+                    -15.18847695 [mEh]      -9.53091318 [kcal/mol]     -39.87734073 [kJ/mol]
  Total SAPT2+(3)                 -14.28991401 [mEh]      -8.96705642 [kcal/mol]     -37.51816406 [kJ/mol]
  Total SAPT2+dMP2                -14.71530875 [mEh]      -9.23399565 [kcal/mol]     -38.63503781 [kJ/mol]
  Total SAPT2+(3)dMP2             -13.81674582 [mEh]      -8.67013890 [kcal/mol]     -36.27586115 [kJ/mol]

  Special recipe for scaled SAPT0 (see Manual):
    Electrostatics sSAPT0          -9.26655846 [mEh]      -5.81485323 [kcal/mol]     -24.32934590 [kJ/mol]
    Exchange sSAPT0                16.86549577 [mEh]      10.58325838 [kcal/mol]      44.28035305 [kJ/mol]
    Induction sSAPT0               -2.44894437 [mEh]      -1.53673579 [kcal/mol]      -6.42970255 [kJ/mol]
    Dispersion sSAPT0             -22.86024973 [mEh]     -14.34502328 [kcal/mol]     -60.01957739 [kJ/mol]
  Total sSAPT0                    -17.71025679 [mEh]     -11.11335392 [kcal/mol]     -46.49827279 [kJ/mol]
  --------------------------------------------------------------------------------------------------------

*** tstop() called on node153.bme.utexas.edu at Mon Jan 15 13:28:03 2024
Module time:
	user time   =  644592.91 seconds =   10743.22 minutes
	system time =    1529.31 seconds =      25.49 minutes
	total time  =      92475 seconds =    1541.25 minutes
Total time:
	user time   =  648615.75 seconds =   10810.26 minutes
	system time =    1563.30 seconds =      26.06 minutes
	total time  =      93058 seconds =    1550.97 minutes

    Psi4 stopped on: Monday, 15 January 2024 01:28PM
    Psi4 wall time for execution: 1 day, 1:50:58.12

*** Psi4 exiting successfully. Buy a developer a beer!
