27
A-U.log	Energy: -550307.7088902
H          0.73416       -2.73714        1.78907
N          1.07053       -2.05372        1.12076
C          1.83021       -2.28443        0.00110
H          2.09890       -3.28737       -0.30805
N          2.18820       -1.17806       -0.63497
C          1.63236       -0.17459        0.13508
C          1.64002        1.22903        0.00713
N          2.33434        1.86152       -0.98341
N          0.99330        1.96332        0.92822
C          0.35708        1.32479        1.93690
H         -0.15970        1.96925        2.64406
N          0.26588        0.00787        2.16903
C          0.92611       -0.68744        1.22973
H          2.04429        2.82257       -1.13064
H          2.42428        1.32417       -1.83981
N         -2.38330       -0.97308        0.23686
H         -2.92110       -1.41358        0.97390
C         -2.30429        0.41203        0.32545
O         -2.86992        1.06284        1.19269
N         -1.53316        0.96159       -0.68629
C         -0.82530        0.30708       -1.70617
O         -0.15294        0.95113       -2.51167
C         -0.98404       -1.13832       -1.68628
H         -0.47616       -1.72246       -2.44201
C         -1.74200       -1.71681       -0.72551
H         -1.89463       -2.79001       -0.66451
H         -1.39851        1.96858       -0.62616
