26

N -3.03884 -0.9687 0.33208
H -3.57861 -1.82748 0.33777
C -1.63886 -1.1418 0.38238
O -1.18434 -2.28982 0.41202
N -0.88054 0.00214 0.38701
C -1.45608 1.18451 0.22429
N -0.63949 2.27533 0.20443
C -2.87972 1.36852 0.14159
H -3.32983 2.3485 0.03593
C -3.64067 0.24462 0.20126
H -4.72528 0.24993 0.15145
H 0.33671 2.06799 -0.02621
H -1.01076 3.109 -0.23402
N 1.5418666923076922 -1.2752993461538462 -1.1888347307692309
H 0.9223566923076923 -1.7927693461538463 -1.803814730769231
C 1.5336166923076924 0.11558065384615383 -1.3945547307692308
O 0.9443766923076924 0.5858006538461539 -2.3662047307692307
N 2.211996692307692 0.8782806538461538 -0.4593647307692308
C 2.7231466923076924 0.29297065384615384 0.6101852692307692
N 3.4063766923076924 1.0986906538461538 1.4870052692307691
C 2.6503466923076924 -1.1089493461538462 0.8731952692307693
H 3.047006692307692 -1.5486293461538463 1.7801352692307693
C 1.9884466923076924 -1.8568693461538464 -0.04874473076923077
H 1.8063466923076923 -2.9199393461538463 0.057405269230769225
H 3.242986692307692 2.090260653846154 1.355255269230769
H 3.458276692307692 0.7970806538461539 2.451285269230769
