
    -----------------------------------------------------------------------
          Psi4: An Open-Source Ab Initio Electronic Structure Package
                               Psi4 1.5 release

                         Git: Rev {HEAD} e9f4d6d 


    D. G. A. Smith, L. A. Burns, A. C. Simmonett, R. M. Parrish,
    M. C. Schieber, R. Galvelis, P. Kraus, H. Kruse, R. Di Remigio,
    A. Alenaizan, A. M. James, S. Lehtola, J. P. Misiewicz, M. Scheurer,
    R. A. Shaw, J. B. Schriber, Y. Xie, Z. L. Glick, D. A. Sirianni,
    J. S. O'Brien, J. M. Waldrop, A. Kumar, E. G. Hohenstein,
    B. P. Pritchard, B. R. Brooks, H. F. Schaefer III, A. Yu. Sokolov,
    K. Patkowski, A. E. DePrince III, U. Bozkaya, R. A. King,
    F. A. Evangelista, J. M. Turney, T. D. Crawford, C. D. Sherrill,
    J. Chem. Phys. 152(18) 184108 (2020). https://doi.org/10.1063/5.0006002

                            Additional Code Authors
    E. T. Seidl, C. L. Janssen, E. F. Valeev, M. L. Leininger,
    J. F. Gonthier, R. M. Richard, H. R. McAlexander, M. Saitow, X. Wang,
    P. Verma, M. H. Lechner, and A. Jiang

             Previous Authors, Complete List of Code Contributors,
                       and Citations for Specific Modules
    https://github.com/psi4/psi4/blob/master/codemeta.json
    https://github.com/psi4/psi4/graphs/contributors
    http://psicode.org/psi4manual/master/introduction.html#citing-psifour

    -----------------------------------------------------------------------


    Psi4 started on: Sunday, 14 January 2024 10:15AM

    Process ID: 2811267
    Host:       node165.bme.utexas.edu
    PSIDATADIR: /opt/anaconda/envs/psi4v1.5/share/psi4
    Memory:     500.0 MiB
    Threads:    8
    
  ==> Input File <==

--------------------------------------------------------------------------
memory 50GB

molecule {
0 1
N -3.03884 -0.9687 0.33208
H -3.57861 -1.82748 0.33777
C -1.63886 -1.1418 0.38238
O -1.18434 -2.28982 0.41202
N -0.88054 0.00214 0.38701
C -1.45608 1.18451 0.22429
N -0.63949 2.27533 0.20443
C -2.87972 1.36852 0.14159
H -3.32983 2.3485 0.03593
C -3.64067 0.24462 0.20126
H -4.72528 0.24993 0.15145
H 0.33671 2.06799 -0.02621
H -1.01076 3.109 -0.23402
--
0 1
N 2.588450153846154 -1.4816460769230768 -1.2107583846153847
H 1.968940153846154 -1.999116076923077 -1.8257383846153847
C 2.580200153846154 -0.09076607692307692 -1.4164783846153846
O 1.990960153846154 0.3794539230769231 -2.3881283846153845
N 3.258580153846154 0.671933923076923 -0.48128838461538465
C 3.769730153846154 0.08662392307692307 0.5882616153846153
N 4.4529601538461545 0.8923439230769232 1.4650816153846153
C 3.696930153846154 -1.3152960769230768 0.8512716153846154
H 4.093590153846154 -1.7549760769230769 1.7582116153846155
C 3.0350301538461544 -2.063216076923077 -0.07066838461538463
H 2.8529301538461542 -3.126286076923077 0.03548161538461536
H 4.289570153846154 1.8839139230769233 1.3333316153846153
H 4.504860153846154 0.5907339230769231 2.4293616153846154
 units angstrom
 no_reorient
 symmetry c1
}
set
 {scf_type DF
 basis aug-cc-pvtz
 freeze_core True
 guess SAD
}
energy('sapt2+(3)dmp2')
--------------------------------------------------------------------------

  Memory set to  46.566 GiB by Python driver.

Scratch directory: /tmp/
   => Loading Basis Set <=

    Name: AUG-CC-PVTZ
    Role: ORBITAL
    Keyword: BASIS
    atoms 1, 5, 7, 14, 18, 20         entry N          line   285 file /opt/anaconda/envs/psi4v1.5/share/psi4/basis/aug-cc-pvtz.gbs 
    atoms 2, 9, 11-13, 15, 22, 24-26  entry H          line    40 file /opt/anaconda/envs/psi4v1.5/share/psi4/basis/aug-cc-pvtz.gbs 
    atoms 3, 6, 8, 10, 16, 19, 21, 23 entry C          line   239 file /opt/anaconda/envs/psi4v1.5/share/psi4/basis/aug-cc-pvtz.gbs 
    atoms 4, 17                       entry O          line   331 file /opt/anaconda/envs/psi4v1.5/share/psi4/basis/aug-cc-pvtz.gbs 

   => Loading Basis Set <=

    Name: AUG-CC-PVTZ
    Role: ORBITAL
    Keyword: BASIS
    atoms 1, 5, 7, 14, 18, 20         entry N          line   285 file /opt/anaconda/envs/psi4v1.5/share/psi4/basis/aug-cc-pvtz.gbs 
    atoms 2, 9, 11-13, 15, 22, 24-26  entry H          line    40 file /opt/anaconda/envs/psi4v1.5/share/psi4/basis/aug-cc-pvtz.gbs 
    atoms 3, 6, 8, 10, 16, 19, 21, 23 entry C          line   239 file /opt/anaconda/envs/psi4v1.5/share/psi4/basis/aug-cc-pvtz.gbs 
    atoms 4, 17                       entry O          line   331 file /opt/anaconda/envs/psi4v1.5/share/psi4/basis/aug-cc-pvtz.gbs 


  //>>>>>>>>>>>>>>>>>>>>>>>>>>>>>>>>>>>//
  //              Dimer HF             //
  //<<<<<<<<<<<<<<<<<<<<<<<<<<<<<<<<<<<//


*** tstart() called on node165.bme.utexas.edu
*** at Sun Jan 14 10:15:36 2024

   => Loading Basis Set <=

    Name: AUG-CC-PVTZ
    Role: ORBITAL
    Keyword: BASIS
    atoms 1, 5, 7, 14, 18, 20         entry N          line   285 file /opt/anaconda/envs/psi4v1.5/share/psi4/basis/aug-cc-pvtz.gbs 
    atoms 2, 9, 11-13, 15, 22, 24-26  entry H          line    40 file /opt/anaconda/envs/psi4v1.5/share/psi4/basis/aug-cc-pvtz.gbs 
    atoms 3, 6, 8, 10, 16, 19, 21, 23 entry C          line   239 file /opt/anaconda/envs/psi4v1.5/share/psi4/basis/aug-cc-pvtz.gbs 
    atoms 4, 17                       entry O          line   331 file /opt/anaconda/envs/psi4v1.5/share/psi4/basis/aug-cc-pvtz.gbs 


         ---------------------------------------------------------
                                   SCF
               by Justin Turney, Rob Parrish, Andy Simmonett
                          and Daniel G. A. Smith
                              RHF Reference
                        8 Threads,  47683 MiB Core
         ---------------------------------------------------------

  ==> Geometry <==

    Molecular point group: c1
    Full point group: C1

    Geometry (in Angstrom), charge = 0, multiplicity = 1:

       Center              X                  Y                   Z               Mass       
    ------------   -----------------  -----------------  -----------------  -----------------
         N           -3.670748108777    -0.832538588238     0.363617549666    14.003074004430
         H           -4.210518108777    -1.691318588238     0.369307549666     1.007825032230
         C           -2.270768108777    -1.005638588238     0.413917549666    12.000000000000
         O           -1.816248108777    -2.153658588238     0.443557549666    15.994914619570
         N           -1.512448108777     0.138301411762     0.418547549666    14.003074004430
         C           -2.087988108777     1.320671411762     0.255827549666    12.000000000000
         N           -1.271398108777     2.411491411762     0.235967549666    14.003074004430
         C           -3.511628108777     1.504681411762     0.173127549666    12.000000000000
         H           -3.961738108777     2.484661411762     0.067467549666     1.007825032230
         C           -4.272578108777     0.380781411762     0.232797549666    12.000000000000
         H           -5.357188108777     0.386091411762     0.182987549666     1.007825032230
         H           -0.295198108777     2.204151411762     0.005327549666     1.007825032230
         H           -1.642668108777     3.245161411762    -0.202482450334     1.007825032230
         N            1.956542045069    -1.345484665161    -1.179220834950    14.003074004430
         H            1.337032045069    -1.862954665161    -1.794200834950     1.007825032230
         C            1.948292045069     0.045395334839    -1.384940834950    12.000000000000
         O            1.359052045069     0.515615334839    -2.356590834950    15.994914619570
         N            2.626672045069     0.808095334839    -0.449750834950    14.003074004430
         C            3.137822045069     0.222785334839     0.619799165050    12.000000000000
         N            3.821052045069     1.028505334839     1.496619165050    14.003074004430
         C            3.065022045069    -1.179134665161     0.882809165050    12.000000000000
         H            3.461682045069    -1.618814665161     1.789749165050     1.007825032230
         C            2.403122045069    -1.927054665161    -0.039130834950    12.000000000000
         H            2.221022045069    -2.990124665161     0.067019165050     1.007825032230
         H            3.657662045069     2.020075334839     1.364869165050     1.007825032230
         H            3.872952045069     0.726895334839     2.460899165050     1.007825032230

  Running in c1 symmetry.

  Rotational constants: A =      0.02875  B =      0.00921  C =      0.00838 [cm^-1]
  Rotational constants: A =    861.76306  B =    276.02139  C =    251.36511 [MHz]
  Nuclear repulsion = 1036.799086152819200

  Charge       = 0
  Multiplicity = 1
  Electrons    = 116
  Nalpha       = 58
  Nbeta        = 58

  ==> Algorithm <==

  SCF Algorithm Type is DF.
  DIIS enabled.
  MOM disabled.
  Fractional occupation disabled.
  Guess Type is SAD.
  Energy threshold   = 1.00e-08
  Density threshold  = 1.00e-08
  Integral threshold = 1.00e-12

  ==> Primary Basis <==

  Basis Set: AUG-CC-PVTZ
    Blend: AUG-CC-PVTZ
    Number of shells: 314
    Number of basis functions: 966
    Number of Cartesian functions: 1130
    Spherical Harmonics?: true
    Max angular momentum: 3

   => Loading Basis Set <=

    Name: (AUG-CC-PVTZ AUX)
    Role: JKFIT
    Keyword: DF_BASIS_SCF
    atoms 1, 5, 7, 14, 18, 20         entry N          line   224 file /opt/anaconda/envs/psi4v1.5/share/psi4/basis/aug-cc-pvtz-jkfit.gbs 
    atoms 2, 9, 11-13, 15, 22, 24-26  entry H          line    70 file /opt/anaconda/envs/psi4v1.5/share/psi4/basis/aug-cc-pvtz-jkfit.gbs 
    atoms 3, 6, 8, 10, 16, 19, 21, 23 entry C          line   162 file /opt/anaconda/envs/psi4v1.5/share/psi4/basis/aug-cc-pvtz-jkfit.gbs 
    atoms 4, 17                       entry O          line   286 file /opt/anaconda/envs/psi4v1.5/share/psi4/basis/aug-cc-pvtz-jkfit.gbs 

  ==> Integral Setup <==

  ==> DiskDFJK: Density-Fitted J/K Matrices <==

    J tasked:                  Yes
    K tasked:                  Yes
    wK tasked:                  No
    OpenMP threads:              8
    Integrals threads:           8
    Memory [MiB]:            35762
    Algorithm:                Core
    Integral Cache:           SAVE
    Schwarz Cutoff:          1E-12
    Fitting Condition:       1E-10

   => Auxiliary Basis Set <=

  Basis Set: (AUG-CC-PVTZ AUX)
    Blend: AUG-CC-PVTZ-JKFIT
    Number of shells: 620
    Number of basis functions: 2124
    Number of Cartesian functions: 2646
    Spherical Harmonics?: true
    Max angular momentum: 4

  Minimum eigenvalue in the overlap matrix is 2.0161123155E-06.
  Reciprocal condition number of the overlap matrix is 1.1498803820E-07.
    Using symmetric orthogonalization.

  ==> Pre-Iterations <==

  SCF Guess: Superposition of Atomic Densities via on-the-fly atomic UHF (no occupation information).

   -------------------------
    Irrep   Nso     Nmo    
   -------------------------
     A        966     966 
   -------------------------
    Total     966     966
   -------------------------

  ==> Iterations <==

                           Total Energy        Delta E     RMS |[F,P]|

   @DF-RHF iter SAD:  -784.22799253037374   -7.84228e+02   0.00000e+00 
   @DF-RHF iter   1:  -785.03365511571701   -8.05663e-01   1.06287e-03 DIIS
   @DF-RHF iter   2:  -785.41004144056831   -3.76386e-01   5.97670e-04 DIIS
   @DF-RHF iter   3:  -785.52400783507971   -1.13966e-01   1.11900e-04 DIIS
   @DF-RHF iter   4:  -785.53059413524818   -6.58630e-03   5.08499e-05 DIIS
   @DF-RHF iter   5:  -785.53199014204222   -1.39601e-03   1.05149e-05 DIIS
   @DF-RHF iter   6:  -785.53213889569849   -1.48754e-04   5.49185e-06 DIIS
   @DF-RHF iter   7:  -785.53217507234206   -3.61766e-05   2.03008e-06 DIIS
   @DF-RHF iter   8:  -785.53218184607158   -6.77373e-06   7.01727e-07 DIIS
   @DF-RHF iter   9:  -785.53218249300312   -6.46932e-07   2.97964e-07 DIIS
   @DF-RHF iter  10:  -785.53218261431869   -1.21316e-07   1.01953e-07 DIIS
   @DF-RHF iter  11:  -785.53218263210647   -1.77878e-08   3.00632e-08 DIIS
   @DF-RHF iter  12:  -785.53218263340000   -1.29353e-09   1.01501e-08 DIIS
   @DF-RHF iter  13:  -785.53218263353529   -1.35287e-10   4.45354e-09 DIIS
  Energy and wave function converged.


  ==> Post-Iterations <==

    Orbital Energies [Eh]
    ---------------------

    Doubly Occupied:                                                      

       1A    -20.503363     2A    -20.494142     3A    -15.624340  
       4A    -15.611015     5A    -15.588382     6A    -15.586179  
       7A    -15.540951     8A    -15.535169     9A    -11.372658  
      10A    -11.362231    11A    -11.351222    12A    -11.342818  
      13A    -11.331679    14A    -11.318830    15A    -11.247152  
      16A    -11.233090    17A     -1.380023    18A     -1.372194  
      19A     -1.293180    20A     -1.286380    21A     -1.259791  
      22A     -1.252606    23A     -1.166451    24A     -1.158980  
      25A     -1.064776    26A     -1.054488    27A     -0.899743  
      28A     -0.891376    29A     -0.873731    30A     -0.864548  
      31A     -0.762206    32A     -0.752031    33A     -0.748816  
      34A     -0.745562    35A     -0.711118    36A     -0.702874  
      37A     -0.667647    38A     -0.664144    39A     -0.626775  
      40A     -0.621871    41A     -0.619874    42A     -0.609156  
      43A     -0.605669    44A     -0.595301    45A     -0.589200  
      46A     -0.579793    47A     -0.533670    48A     -0.527305  
      49A     -0.488860    50A     -0.477185    51A     -0.442394  
      52A     -0.436046    53A     -0.420302    54A     -0.411998  
      55A     -0.385591    56A     -0.383005    57A     -0.344671  
      58A     -0.333080  

    Virtual:                                                              

      59A      0.018443    60A      0.025491    61A      0.029120  
      62A      0.036267    63A      0.041475    64A      0.049414  
      65A      0.055665    66A      0.060656    67A      0.066757  
      68A      0.067840    69A      0.076297    70A      0.083929  
      71A      0.090287    72A      0.091328    73A      0.095860  
      74A      0.098666    75A      0.098944    76A      0.102033  
      77A      0.102925    78A      0.107616    79A      0.109825  
      80A      0.112405    81A      0.115715    82A      0.119844  
      83A      0.125519    84A      0.128167    85A      0.132150  
      86A      0.134046    87A      0.135378    88A      0.139235  
      89A      0.141817    90A      0.145434    91A      0.154928  
      92A      0.157736    93A      0.159064    94A      0.165750  
      95A      0.166383    96A      0.171599    97A      0.174300  
      98A      0.175106    99A      0.179219   100A      0.180234  
     101A      0.189146   102A      0.191317   103A      0.194617  
     104A      0.200846   105A      0.204253   106A      0.212066  
     107A      0.213004   108A      0.220323   109A      0.221963  
     110A      0.228897   111A      0.232957   112A      0.236635  
     113A      0.239185   114A      0.243527   115A      0.246258  
     116A      0.252383   117A      0.254307   118A      0.256749  
     119A      0.262478   120A      0.264836   121A      0.269946  
     122A      0.272568   123A      0.275897   124A      0.279418  
     125A      0.284566   126A      0.287192   127A      0.292064  
     128A      0.295246   129A      0.297443   130A      0.298136  
     131A      0.302004   132A      0.304995   133A      0.309619  
     134A      0.313450   135A      0.319710   136A      0.324083  
     137A      0.326402   138A      0.328143   139A      0.334882  
     140A      0.336166   141A      0.342339   142A      0.344458  
     143A      0.347894   144A      0.350657   145A      0.354270  
     146A      0.358868   147A      0.364864   148A      0.370178  
     149A      0.370359   150A      0.375515   151A      0.381322  
     152A      0.386903   153A      0.389766   154A      0.391199  
     155A      0.394343   156A      0.396389   157A      0.402456  
     158A      0.406540   159A      0.410651   160A      0.413178  
     161A      0.415743   162A      0.417816   163A      0.419693  
     164A      0.426140   165A      0.428964   166A      0.430368  
     167A      0.433114   168A      0.437556   169A      0.441179  
     170A      0.442200   171A      0.447444   172A      0.450484  
     173A      0.451736   174A      0.457338   175A      0.458258  
     176A      0.462166   177A      0.464939   178A      0.469316  
     179A      0.477510   180A      0.480343   181A      0.483236  
     182A      0.485332   183A      0.489664   184A      0.491715  
     185A      0.496119   186A      0.499262   187A      0.502536  
     188A      0.506893   189A      0.509960   190A      0.515369  
     191A      0.519344   192A      0.521044   193A      0.526943  
     194A      0.531026   195A      0.534033   196A      0.535146  
     197A      0.540965   198A      0.543543   199A      0.550749  
     200A      0.554470   201A      0.561637   202A      0.562364  
     203A      0.563654   204A      0.572100   205A      0.575012  
     206A      0.580171   207A      0.582346   208A      0.583534  
     209A      0.600183   210A      0.603359   211A      0.609567  
     212A      0.612708   213A      0.617633   214A      0.619645  
     215A      0.620840   216A      0.626751   217A      0.632787  
     218A      0.642812   219A      0.643821   220A      0.647895  
     221A      0.649664   222A      0.657819   223A      0.663015  
     224A      0.667457   225A      0.669717   226A      0.678465  
     227A      0.680358   228A      0.685004   229A      0.691216  
     230A      0.693519   231A      0.697273   232A      0.703236  
     233A      0.709771   234A      0.712455   235A      0.717430  
     236A      0.717882   237A      0.723769   238A      0.727710  
     239A      0.731044   240A      0.732748   241A      0.734873  
     242A      0.739919   243A      0.742845   244A      0.746541  
     245A      0.754760   246A      0.762263   247A      0.766287  
     248A      0.777809   249A      0.779534   250A      0.781442  
     251A      0.787715   252A      0.790334   253A      0.792628  
     254A      0.797349   255A      0.805124   256A      0.810937  
     257A      0.813200   258A      0.817034   259A      0.822681  
     260A      0.828640   261A      0.832677   262A      0.838287  
     263A      0.842158   264A      0.849364   265A      0.854810  
     266A      0.861228   267A      0.864909   268A      0.867258  
     269A      0.870173   270A      0.875564   271A      0.880094  
     272A      0.888210   273A      0.892135   274A      0.894279  
     275A      0.898568   276A      0.902577   277A      0.907663  
     278A      0.910145   279A      0.917006   280A      0.919342  
     281A      0.924383   282A      0.924811   283A      0.933658  
     284A      0.938286   285A      0.946175   286A      0.949993  
     287A      0.953153   288A      0.958281   289A      0.964307  
     290A      0.969550   291A      0.974379   292A      0.979525  
     293A      0.984210   294A      0.985466   295A      0.987964  
     296A      0.990351   297A      0.995675   298A      0.997924  
     299A      1.000562   300A      1.005678   301A      1.013650  
     302A      1.020615   303A      1.021726   304A      1.027235  
     305A      1.032434   306A      1.040077   307A      1.042747  
     308A      1.048422   309A      1.048720   310A      1.053290  
     311A      1.060230   312A      1.065956   313A      1.068938  
     314A      1.072156   315A      1.075976   316A      1.079099  
     317A      1.081034   318A      1.086821   319A      1.088189  
     320A      1.095868   321A      1.098872   322A      1.102350  
     323A      1.109327   324A      1.111504   325A      1.116913  
     326A      1.120243   327A      1.121110   328A      1.121835  
     329A      1.131845   330A      1.139256   331A      1.142222  
     332A      1.147154   333A      1.152722   334A      1.156889  
     335A      1.162331   336A      1.164681   337A      1.167559  
     338A      1.171143   339A      1.175716   340A      1.183577  
     341A      1.187121   342A      1.190109   343A      1.190878  
     344A      1.202599   345A      1.204167   346A      1.211402  
     347A      1.213092   348A      1.216803   349A      1.219705  
     350A      1.226823   351A      1.229116   352A      1.229658  
     353A      1.239621   354A      1.243316   355A      1.245052  
     356A      1.251101   357A      1.253929   358A      1.255539  
     359A      1.259855   360A      1.269503   361A      1.279500  
     362A      1.281215   363A      1.288150   364A      1.292984  
     365A      1.300337   366A      1.304268   367A      1.309110  
     368A      1.315394   369A      1.324074   370A      1.327823  
     371A      1.332960   372A      1.337084   373A      1.343418  
     374A      1.353906   375A      1.356623   376A      1.361319  
     377A      1.365974   378A      1.371398   379A      1.372880  
     380A      1.381585   381A      1.387765   382A      1.395345  
     383A      1.397831   384A      1.399969   385A      1.409621  
     386A      1.416634   387A      1.417218   388A      1.428223  
     389A      1.432265   390A      1.439876   391A      1.442412  
     392A      1.448305   393A      1.452487   394A      1.463403  
     395A      1.468130   396A      1.469608   397A      1.474070  
     398A      1.476517   399A      1.485300   400A      1.494346  
     401A      1.501714   402A      1.504945   403A      1.510338  
     404A      1.513005   405A      1.518902   406A      1.521139  
     407A      1.522956   408A      1.534362   409A      1.537355  
     410A      1.541416   411A      1.544876   412A      1.555219  
     413A      1.559935   414A      1.567267   415A      1.575817  
     416A      1.577793   417A      1.588702   418A      1.597914  
     419A      1.601161   420A      1.604371   421A      1.609501  
     422A      1.617207   423A      1.621538   424A      1.626757  
     425A      1.637983   426A      1.639954   427A      1.658117  
     428A      1.659129   429A      1.662301   430A      1.666620  
     431A      1.672059   432A      1.678462   433A      1.684162  
     434A      1.692618   435A      1.698678   436A      1.707832  
     437A      1.713533   438A      1.719059   439A      1.732614  
     440A      1.735968   441A      1.741576   442A      1.754084  
     443A      1.762129   444A      1.763956   445A      1.767739  
     446A      1.777713   447A      1.782981   448A      1.798624  
     449A      1.800210   450A      1.803626   451A      1.818413  
     452A      1.820969   453A      1.830190   454A      1.842166  
     455A      1.847239   456A      1.856881   457A      1.860132  
     458A      1.868797   459A      1.877217   460A      1.880652  
     461A      1.883092   462A      1.889376   463A      1.892069  
     464A      1.896517   465A      1.908245   466A      1.910854  
     467A      1.923076   468A      1.935187   469A      1.939440  
     470A      1.957788   471A      1.964059   472A      1.969117  
     473A      1.977326   474A      1.982038   475A      1.998179  
     476A      2.006357   477A      2.012927   478A      2.017393  
     479A      2.033835   480A      2.040333   481A      2.045732  
     482A      2.052288   483A      2.057645   484A      2.065802  
     485A      2.072665   486A      2.075036   487A      2.078372  
     488A      2.090579   489A      2.093783   490A      2.101039  
     491A      2.115079   492A      2.120089   493A      2.127351  
     494A      2.130443   495A      2.144835   496A      2.149145  
     497A      2.149563   498A      2.155885   499A      2.162699  
     500A      2.176058   501A      2.176750   502A      2.189044  
     503A      2.192644   504A      2.205342   505A      2.213996  
     506A      2.216985   507A      2.225781   508A      2.228872  
     509A      2.240285   510A      2.255040   511A      2.258188  
     512A      2.263443   513A      2.269605   514A      2.283026  
     515A      2.287262   516A      2.296462   517A      2.301525  
     518A      2.315353   519A      2.317437   520A      2.332463  
     521A      2.336202   522A      2.346376   523A      2.351881  
     524A      2.360275   525A      2.366259   526A      2.375739  
     527A      2.379912   528A      2.382060   529A      2.394076  
     530A      2.401442   531A      2.407200   532A      2.416503  
     533A      2.421558   534A      2.424862   535A      2.436515  
     536A      2.444238   537A      2.446626   538A      2.461879  
     539A      2.468892   540A      2.476376   541A      2.478689  
     542A      2.497855   543A      2.505265   544A      2.509345  
     545A      2.519984   546A      2.527881   547A      2.537664  
     548A      2.544425   549A      2.551041   550A      2.554537  
     551A      2.568197   552A      2.573730   553A      2.578810  
     554A      2.581728   555A      2.589388   556A      2.596638  
     557A      2.612928   558A      2.621445   559A      2.639305  
     560A      2.640291   561A      2.643459   562A      2.649708  
     563A      2.659991   564A      2.670341   565A      2.690707  
     566A      2.698519   567A      2.704773   568A      2.716951  
     569A      2.719136   570A      2.723387   571A      2.726721  
     572A      2.734798   573A      2.745418   574A      2.755645  
     575A      2.758864   576A      2.766698   577A      2.769158  
     578A      2.782764   579A      2.787972   580A      2.806586  
     581A      2.808463   582A      2.814630   583A      2.829855  
     584A      2.841755   585A      2.849580   586A      2.862563  
     587A      2.880064   588A      2.886164   589A      2.895808  
     590A      2.916012   591A      2.932450   592A      2.947388  
     593A      2.966690   594A      2.993695   595A      3.001524  
     596A      3.015329   597A      3.023319   598A      3.037640  
     599A      3.045189   600A      3.063030   601A      3.072342  
     602A      3.080585   603A      3.082395   604A      3.109166  
     605A      3.117259   606A      3.138813   607A      3.166880  
     608A      3.179412   609A      3.189115   610A      3.204760  
     611A      3.209247   612A      3.230241   613A      3.237099  
     614A      3.268362   615A      3.287276   616A      3.300964  
     617A      3.304488   618A      3.317580   619A      3.325982  
     620A      3.334425   621A      3.340061   622A      3.359275  
     623A      3.365942   624A      3.381354   625A      3.387622  
     626A      3.393657   627A      3.416130   628A      3.428269  
     629A      3.457363   630A      3.463120   631A      3.475530  
     632A      3.483739   633A      3.497368   634A      3.503214  
     635A      3.513967   636A      3.520839   637A      3.532973  
     638A      3.533903   639A      3.548590   640A      3.563495  
     641A      3.566753   642A      3.583279   643A      3.593568  
     644A      3.613895   645A      3.620299   646A      3.627372  
     647A      3.636600   648A      3.637047   649A      3.652951  
     650A      3.657776   651A      3.671354   652A      3.679354  
     653A      3.688553   654A      3.704701   655A      3.705062  
     656A      3.719178   657A      3.730969   658A      3.735225  
     659A      3.753882   660A      3.765721   661A      3.774127  
     662A      3.785951   663A      3.794355   664A      3.803163  
     665A      3.808939   666A      3.812409   667A      3.819092  
     668A      3.830917   669A      3.844718   670A      3.847290  
     671A      3.853550   672A      3.862382   673A      3.870333  
     674A      3.883869   675A      3.908406   676A      3.910656  
     677A      3.915552   678A      3.923650   679A      3.937859  
     680A      3.951945   681A      3.953627   682A      3.971246  
     683A      3.979777   684A      3.986882   685A      4.006705  
     686A      4.009706   687A      4.014307   688A      4.021465  
     689A      4.033384   690A      4.034141   691A      4.047507  
     692A      4.053034   693A      4.053469   694A      4.068806  
     695A      4.073207   696A      4.085143   697A      4.113054  
     698A      4.119998   699A      4.124987   700A      4.133287  
     701A      4.136555   702A      4.146735   703A      4.149880  
     704A      4.156629   705A      4.163510   706A      4.170940  
     707A      4.173081   708A      4.176993   709A      4.206032  
     710A      4.215223   711A      4.226499   712A      4.235998  
     713A      4.250171   714A      4.253879   715A      4.262670  
     716A      4.267400   717A      4.273424   718A      4.281443  
     719A      4.289805   720A      4.293273   721A      4.308124  
     722A      4.310201   723A      4.328132   724A      4.331060  
     725A      4.348706   726A      4.363627   727A      4.368313  
     728A      4.375667   729A      4.387941   730A      4.391105  
     731A      4.398355   732A      4.404241   733A      4.408223  
     734A      4.420843   735A      4.429824   736A      4.436916  
     737A      4.441491   738A      4.445530   739A      4.448722  
     740A      4.461754   741A      4.474571   742A      4.483315  
     743A      4.487194   744A      4.501879   745A      4.511919  
     746A      4.545116   747A      4.548068   748A      4.566625  
     749A      4.575298   750A      4.606649   751A      4.621630  
     752A      4.631024   753A      4.631838   754A      4.635504  
     755A      4.651508   756A      4.655046   757A      4.671476  
     758A      4.676806   759A      4.688340   760A      4.690850  
     761A      4.693474   762A      4.710029   763A      4.720132  
     764A      4.720822   765A      4.734000   766A      4.749737  
     767A      4.755438   768A      4.773260   769A      4.786755  
     770A      4.787570   771A      4.805984   772A      4.813500  
     773A      4.825700   774A      4.837131   775A      4.844454  
     776A      4.858543   777A      4.865519   778A      4.882930  
     779A      4.888855   780A      4.901894   781A      4.913492  
     782A      4.926053   783A      4.935464   784A      4.948595  
     785A      4.950309   786A      4.963730   787A      4.975391  
     788A      4.987723   789A      5.007421   790A      5.018646  
     791A      5.020374   792A      5.026995   793A      5.045370  
     794A      5.061132   795A      5.073645   796A      5.092799  
     797A      5.099894   798A      5.105583   799A      5.110538  
     800A      5.119084   801A      5.123774   802A      5.145567  
     803A      5.155350   804A      5.190253   805A      5.205053  
     806A      5.213426   807A      5.225780   808A      5.241223  
     809A      5.245249   810A      5.267958   811A      5.292566  
     812A      5.297226   813A      5.310423   814A      5.316862  
     815A      5.322017   816A      5.335260   817A      5.349223  
     818A      5.355800   819A      5.371456   820A      5.377047  
     821A      5.388227   822A      5.400143   823A      5.405032  
     824A      5.418437   825A      5.444420   826A      5.454223  
     827A      5.467328   828A      5.472139   829A      5.475517  
     830A      5.487290   831A      5.491796   832A      5.499676  
     833A      5.535563   834A      5.546983   835A      5.557833  
     836A      5.563603   837A      5.587790   838A      5.596700  
     839A      5.598908   840A      5.609545   841A      5.623374  
     842A      5.637317   843A      5.676668   844A      5.679045  
     845A      5.696541   846A      5.704334   847A      5.743440  
     848A      5.746836   849A      5.751472   850A      5.762107  
     851A      5.796587   852A      5.808390   853A      5.815744  
     854A      5.817986   855A      5.832819   856A      5.842097  
     857A      5.851163   858A      5.863059   859A      5.872564  
     860A      5.887213   861A      5.910532   862A      5.913563  
     863A      5.924296   864A      5.940522   865A      5.953717  
     866A      5.958911   867A      5.989952   868A      6.003305  
     869A      6.012939   870A      6.019395   871A      6.049055  
     872A      6.061140   873A      6.092722   874A      6.096853  
     875A      6.101194   876A      6.129017   877A      6.133677  
     878A      6.140451   879A      6.164285   880A      6.171092  
     881A      6.178945   882A      6.184762   883A      6.212915  
     884A      6.216744   885A      6.241062   886A      6.248918  
     887A      6.265206   888A      6.296736   889A      6.396747  
     890A      6.423663   891A      6.468060   892A      6.476007  
     893A      6.540714   894A      6.547526   895A      6.594126  
     896A      6.608546   897A      6.662370   898A      6.673175  
     899A      6.695654   900A      6.706359   901A      6.712451  
     902A      6.714695   903A      6.729631   904A      6.740078  
     905A      6.766605   906A      6.784323   907A      6.796304  
     908A      6.803405   909A      6.810638   910A      6.830688  
     911A      6.867927   912A      6.887587   913A      6.892673  
     914A      6.906867   915A      6.917052   916A      6.927613  
     917A      7.023788   918A      7.031473   919A      7.038688  
     920A      7.054871   921A      7.064200   922A      7.074959  
     923A      7.122712   924A      7.148788   925A      7.214616  
     926A      7.237968   927A      7.251547   928A      7.274451  
     929A      7.352806   930A      7.359636   931A      7.401549  
     932A      7.414701   933A      7.419225   934A      7.445260  
     935A      7.467289   936A      7.483939   937A      7.644511  
     938A      7.650323   939A      7.701600   940A      7.747215  
     941A      7.768103   942A      7.786090   943A      7.845751  
     944A      7.859919   945A      7.916985   946A      7.928235  
     947A      7.949663   948A      7.974158   949A      8.046329  
     950A      8.063653   951A     15.657964   952A     15.835528  
     953A     15.858780   954A     15.925497   955A     16.362432  
     956A     16.443102   957A     17.662278   958A     17.729963  
     959A     18.164442   960A     18.200688   961A     19.327073  
     962A     19.397801   963A     20.063946   964A     20.119396  
     965A     20.397799   966A     20.542141  

    Final Occupation by Irrep:
              A 
    DOCC [    58 ]

  @DF-RHF Final Energy:  -785.53218263353529

   => Energetics <=

    Nuclear Repulsion Energy =           1036.7990861528191999
    One-Electron Energy =               -3131.3672758007937773
    Two-Electron Energy =                1309.0360070144392921
    Total Energy =                       -785.5321826335352853

Computation Completed


Properties will be evaluated at   0.000000,   0.000000,   0.000000 [a0]

Properties computed using the SCF density matrix

  Nuclear Dipole Moment: [e a0]
     X:    -0.8675      Y:     2.7080      Z:     4.0296

  Electronic Dipole Moment: [e a0]
     X:    -0.5852      Y:    -2.4316      Z:    -2.5147

  Dipole Moment: [e a0]
     X:    -1.4527      Y:     0.2764      Z:     1.5149     Total:     2.1170

  Dipole Moment: [D]
     X:    -3.6924      Y:     0.7025      Z:     3.8505     Total:     5.3809


*** tstop() called on node165.bme.utexas.edu at Sun Jan 14 10:16:38 2024
Module time:
	user time   =     421.72 seconds =       7.03 minutes
	system time =      12.74 seconds =       0.21 minutes
	total time  =         62 seconds =       1.03 minutes
Total time:
	user time   =     421.72 seconds =       7.03 minutes
	system time =      12.74 seconds =       0.21 minutes
	total time  =         62 seconds =       1.03 minutes

*** tstart() called on node165.bme.utexas.edu
*** at Sun Jan 14 10:16:38 2024


  //>>>>>>>>>>>>>>>>>>>>>>>>>>>>>>>>>>>//
  //               DFMP2               //
  //<<<<<<<<<<<<<<<<<<<<<<<<<<<<<<<<<<<//

   => Loading Basis Set <=

    Name: (AUG-CC-PVTZ AUX)
    Role: RIFIT
    Keyword: DF_BASIS_MP2
    atoms 1, 5, 7, 14, 18, 20         entry N          line   206 file /opt/anaconda/envs/psi4v1.5/share/psi4/basis/aug-cc-pvtz-ri.gbs 
    atoms 2, 9, 11-13, 15, 22, 24-26  entry H          line    30 file /opt/anaconda/envs/psi4v1.5/share/psi4/basis/aug-cc-pvtz-ri.gbs 
    atoms 3, 6, 8, 10, 16, 19, 21, 23 entry C          line   148 file /opt/anaconda/envs/psi4v1.5/share/psi4/basis/aug-cc-pvtz-ri.gbs 
    atoms 4, 17                       entry O          line   264 file /opt/anaconda/envs/psi4v1.5/share/psi4/basis/aug-cc-pvtz-ri.gbs 

	 --------------------------------------------------------
	                          DF-MP2                         
	      2nd-Order Density-Fitted Moller-Plesset Theory     
	              RMP2 Wavefunction,   8 Threads             
	                                                         
	        Rob Parrish, Justin Turney, Andy Simmonett,      
	           Ed Hohenstein, and C. David Sherrill          
	 --------------------------------------------------------

   => Auxiliary Basis Set <=

  Basis Set: (AUG-CC-PVTZ AUX)
    Blend: AUG-CC-PVTZ-RI
    Number of shells: 588
    Number of basis functions: 2156
    Number of Cartesian functions: 2726
    Spherical Harmonics?: true
    Max angular momentum: 4

	 --------------------------------------------------------
	                 NBF =   966, NAUX =  2156
	 --------------------------------------------------------
	   CLASS    FOCC     OCC    AOCC    AVIR     VIR    FVIR
	   PAIRS      16      58      42     908     908       0
	 --------------------------------------------------------

	 Will save fitting metric to file 97.

	-----------------------------------------------------------
	 ==================> DF-MP2 Energies <==================== 
	-----------------------------------------------------------
	 Reference Energy          =    -785.5321826335352853 [Eh]
	 Singles Energy            =      -0.0000000000000000 [Eh]
	 Same-Spin Energy          =      -0.7705455544406528 [Eh]
	 Opposite-Spin Energy      =      -2.1937911742283700 [Eh]
	 Correlation Energy        =      -2.9643367286690228 [Eh]
	 Total Energy              =    -788.4965193622042534 [Eh]
	-----------------------------------------------------------
	 ================> DF-SCS-MP2 Energies <================== 
	-----------------------------------------------------------
	 SCS Same-Spin Scale       =       0.3333333333333333 [-]
	 SCS Opposite-Spin Scale   =       1.2000000000000000 [-]
	 SCS Same-Spin Energy      =      -0.2568485181468843 [Eh]
	 SCS Opposite-Spin Energy  =      -2.6325494090740440 [Eh]
	 SCS Correlation Energy    =      -2.8893979272209283 [Eh]
	 SCS Total Energy          =    -788.4215805607561833 [Eh]
	-----------------------------------------------------------


*** tstop() called on node165.bme.utexas.edu at Sun Jan 14 10:17:03 2024
Module time:
	user time   =     127.60 seconds =       2.13 minutes
	system time =       6.44 seconds =       0.11 minutes
	total time  =         25 seconds =       0.42 minutes
Total time:
	user time   =     549.33 seconds =       9.16 minutes
	system time =      19.18 seconds =       0.32 minutes
	total time  =         87 seconds =       1.45 minutes

  //>>>>>>>>>>>>>>>>>>>>>>>>>>>>>>>>>>>//
  //            Monomer A HF           //
  //<<<<<<<<<<<<<<<<<<<<<<<<<<<<<<<<<<<//


*** tstart() called on node165.bme.utexas.edu
*** at Sun Jan 14 10:17:03 2024

   => Loading Basis Set <=

    Name: AUG-CC-PVTZ
    Role: ORBITAL
    Keyword: BASIS
    atoms 1, 5, 7, 14, 18, 20         entry N          line   285 file /opt/anaconda/envs/psi4v1.5/share/psi4/basis/aug-cc-pvtz.gbs 
    atoms 2, 9, 11-13, 15, 22, 24-26  entry H          line    40 file /opt/anaconda/envs/psi4v1.5/share/psi4/basis/aug-cc-pvtz.gbs 
    atoms 3, 6, 8, 10, 16, 19, 21, 23 entry C          line   239 file /opt/anaconda/envs/psi4v1.5/share/psi4/basis/aug-cc-pvtz.gbs 
    atoms 4, 17                       entry O          line   331 file /opt/anaconda/envs/psi4v1.5/share/psi4/basis/aug-cc-pvtz.gbs 


         ---------------------------------------------------------
                                   SCF
               by Justin Turney, Rob Parrish, Andy Simmonett
                          and Daniel G. A. Smith
                              RHF Reference
                        8 Threads,  47683 MiB Core
         ---------------------------------------------------------

  ==> Geometry <==

    Molecular point group: c1
    Full point group: C1

    Geometry (in Angstrom), charge = 0, multiplicity = 1:

       Center              X                  Y                   Z               Mass       
    ------------   -----------------  -----------------  -----------------  -----------------
         N           -3.670748108777    -0.832538588238     0.363617549666    14.003074004430
         H           -4.210518108777    -1.691318588238     0.369307549666     1.007825032230
         C           -2.270768108777    -1.005638588238     0.413917549666    12.000000000000
         O           -1.816248108777    -2.153658588238     0.443557549666    15.994914619570
         N           -1.512448108777     0.138301411762     0.418547549666    14.003074004430
         C           -2.087988108777     1.320671411762     0.255827549666    12.000000000000
         N           -1.271398108777     2.411491411762     0.235967549666    14.003074004430
         C           -3.511628108777     1.504681411762     0.173127549666    12.000000000000
         H           -3.961738108777     2.484661411762     0.067467549666     1.007825032230
         C           -4.272578108777     0.380781411762     0.232797549666    12.000000000000
         H           -5.357188108777     0.386091411762     0.182987549666     1.007825032230
         H           -0.295198108777     2.204151411762     0.005327549666     1.007825032230
         H           -1.642668108777     3.245161411762    -0.202482450334     1.007825032230
      Gh(N)           1.956542045069    -1.345484665161    -1.179220834950    14.003074004430
      Gh(H)           1.337032045069    -1.862954665161    -1.794200834950     1.007825032230
      Gh(C)           1.948292045069     0.045395334839    -1.384940834950    12.000000000000
      Gh(O)           1.359052045069     0.515615334839    -2.356590834950    15.994914619570
      Gh(N)           2.626672045069     0.808095334839    -0.449750834950    14.003074004430
      Gh(C)           3.137822045069     0.222785334839     0.619799165050    12.000000000000
      Gh(N)           3.821052045069     1.028505334839     1.496619165050    14.003074004430
      Gh(C)           3.065022045069    -1.179134665161     0.882809165050    12.000000000000
      Gh(H)           3.461682045069    -1.618814665161     1.789749165050     1.007825032230
      Gh(C)           2.403122045069    -1.927054665161    -0.039130834950    12.000000000000
      Gh(H)           2.221022045069    -2.990124665161     0.067019165050     1.007825032230
      Gh(H)           3.657662045069     2.020075334839     1.364869165050     1.007825032230
      Gh(H)           3.872952045069     0.726895334839     2.460899165050     1.007825032230

  Running in c1 symmetry.

  Rotational constants: A =      0.02875  B =      0.00921  C =      0.00838 [cm^-1]
  Rotational constants: A =    861.76306  B =    276.02139  C =    251.36511 [MHz]
  Nuclear repulsion =  355.430451312674961

  Charge       = 0
  Multiplicity = 1
  Electrons    = 58
  Nalpha       = 29
  Nbeta        = 29

  ==> Algorithm <==

  SCF Algorithm Type is DF.
  DIIS enabled.
  MOM disabled.
  Fractional occupation disabled.
  Guess Type is SAD.
  Energy threshold   = 1.00e-08
  Density threshold  = 1.00e-08
  Integral threshold = 1.00e-12

  ==> Primary Basis <==

  Basis Set: AUG-CC-PVTZ
    Blend: AUG-CC-PVTZ
    Number of shells: 314
    Number of basis functions: 966
    Number of Cartesian functions: 1130
    Spherical Harmonics?: true
    Max angular momentum: 3

   => Loading Basis Set <=

    Name: (AUG-CC-PVTZ AUX)
    Role: JKFIT
    Keyword: DF_BASIS_SCF
    atoms 1, 5, 7, 14, 18, 20         entry N          line   224 file /opt/anaconda/envs/psi4v1.5/share/psi4/basis/aug-cc-pvtz-jkfit.gbs 
    atoms 2, 9, 11-13, 15, 22, 24-26  entry H          line    70 file /opt/anaconda/envs/psi4v1.5/share/psi4/basis/aug-cc-pvtz-jkfit.gbs 
    atoms 3, 6, 8, 10, 16, 19, 21, 23 entry C          line   162 file /opt/anaconda/envs/psi4v1.5/share/psi4/basis/aug-cc-pvtz-jkfit.gbs 
    atoms 4, 17                       entry O          line   286 file /opt/anaconda/envs/psi4v1.5/share/psi4/basis/aug-cc-pvtz-jkfit.gbs 

  ==> Integral Setup <==

  ==> DiskDFJK: Density-Fitted J/K Matrices <==

    J tasked:                  Yes
    K tasked:                  Yes
    wK tasked:                  No
    OpenMP threads:              8
    Integrals threads:           8
    Memory [MiB]:            35762
    Algorithm:                Core
    Integral Cache:           LOAD
    Schwarz Cutoff:          1E-12
    Fitting Condition:       1E-10

   => Auxiliary Basis Set <=

  Basis Set: (AUG-CC-PVTZ AUX)
    Blend: AUG-CC-PVTZ-JKFIT
    Number of shells: 620
    Number of basis functions: 2124
    Number of Cartesian functions: 2646
    Spherical Harmonics?: true
    Max angular momentum: 4

  Minimum eigenvalue in the overlap matrix is 2.0161123155E-06.
  Reciprocal condition number of the overlap matrix is 1.1498803820E-07.
    Using symmetric orthogonalization.

  ==> Pre-Iterations <==

  SCF Guess: Superposition of Atomic Densities via on-the-fly atomic UHF (no occupation information).

   -------------------------
    Irrep   Nso     Nmo    
   -------------------------
     A        966     966 
   -------------------------
    Total     966     966
   -------------------------

  ==> Iterations <==

                           Total Energy        Delta E     RMS |[F,P]|

   @DF-RHF iter SAD:  -392.08795597835802   -3.92088e+02   0.00000e+00 
   @DF-RHF iter   1:  -392.50758892780959   -4.19633e-01   7.56329e-04 DIIS
   @DF-RHF iter   2:  -392.69712471542061   -1.89536e-01   4.32672e-04 DIIS
   @DF-RHF iter   3:  -392.75672937815011   -5.96047e-02   8.15989e-05 DIIS
   @DF-RHF iter   4:  -392.76016217703653   -3.43280e-03   3.67831e-05 DIIS
   @DF-RHF iter   5:  -392.76090141679788   -7.39240e-04   7.57695e-06 DIIS
   @DF-RHF iter   6:  -392.76097875170632   -7.73349e-05   3.94702e-06 DIIS
   @DF-RHF iter   7:  -392.76099768969425   -1.89380e-05   1.49387e-06 DIIS
   @DF-RHF iter   8:  -392.76100127776510   -3.58807e-06   5.17434e-07 DIIS
   @DF-RHF iter   9:  -392.76100163906847   -3.61303e-07   2.21431e-07 DIIS
   @DF-RHF iter  10:  -392.76100170581992   -6.67515e-08   7.59335e-08 DIIS
   @DF-RHF iter  11:  -392.76100171572608   -9.90616e-09   2.18645e-08 DIIS
   @DF-RHF iter  12:  -392.76100171643918   -7.13101e-10   7.28647e-09 DIIS
  Energy and wave function converged.


  ==> Post-Iterations <==

    Orbital Energies [Eh]
    ---------------------

    Doubly Occupied:                                                      

       1A    -20.501776     2A    -15.626622     3A    -15.600000  
       4A    -15.545514     5A    -11.372739     6A    -11.356937  
       7A    -11.335921     8A    -11.251223     9A     -1.379824  
      10A     -1.297224    11A     -1.264997    12A     -1.172727  
      13A     -1.068891    14A     -0.904234    15A     -0.878395  
      16A     -0.765114    17A     -0.758107    18A     -0.717904  
      19A     -0.675057    20A     -0.629347    21A     -0.624533  
      22A     -0.611246    23A     -0.589406    24A     -0.541136  
      25A     -0.488801    26A     -0.442907    27A     -0.421266  
      28A     -0.392878    29A     -0.346131  

    Virtual:                                                              

      30A      0.014427    31A      0.021633    32A      0.029076  
      33A      0.038397    34A      0.042049    35A      0.047058  
      36A      0.055557    37A      0.059647    38A      0.063374  
      39A      0.064148    40A      0.071217    41A      0.078056  
      42A      0.081526    43A      0.082029    44A      0.091687  
      45A      0.093740    46A      0.096344    47A      0.097949  
      48A      0.100162    49A      0.102782    50A      0.104980  
      51A      0.109426    52A      0.112604    53A      0.116354  
      54A      0.123832    55A      0.127998    56A      0.130583  
      57A      0.134229    58A      0.135948    59A      0.138261  
      60A      0.143770    61A      0.147635    62A      0.150302  
      63A      0.155360    64A      0.159305    65A      0.163300  
      66A      0.166465    67A      0.166917    68A      0.174587  
      69A      0.177022    70A      0.178122    71A      0.184141  
      72A      0.185851    73A      0.188064    74A      0.192636  
      75A      0.200252    76A      0.204783    77A      0.210369  
      78A      0.211968    79A      0.215602    80A      0.219406  
      81A      0.220660    82A      0.225934    83A      0.230293  
      84A      0.234111    85A      0.238546    86A      0.243981  
      87A      0.248947    88A      0.250633    89A      0.254032  
      90A      0.256606    91A      0.261682    92A      0.263747  
      93A      0.268734    94A      0.274517    95A      0.279315  
      96A      0.281297    97A      0.282561    98A      0.285979  
      99A      0.290591   100A      0.296122   101A      0.299064  
     102A      0.301362   103A      0.303790   104A      0.308932  
     105A      0.313053   106A      0.315723   107A      0.320092  
     108A      0.326234   109A      0.331291   110A      0.334126  
     111A      0.344845   112A      0.345580   113A      0.349345  
     114A      0.352467   115A      0.354385   116A      0.360793  
     117A      0.362640   118A      0.367667   119A      0.368192  
     120A      0.372722   121A      0.375390   122A      0.384405  
     123A      0.387328   124A      0.389121   125A      0.393584  
     126A      0.396823   127A      0.398425   128A      0.403390  
     129A      0.407582   130A      0.412346   131A      0.416004  
     132A      0.419363   133A      0.422163   134A      0.425403  
     135A      0.428705   136A      0.431555   137A      0.436412  
     138A      0.439465   139A      0.440680   140A      0.443248  
     141A      0.445346   142A      0.447368   143A      0.454882  
     144A      0.458322   145A      0.460527   146A      0.462530  
     147A      0.466440   148A      0.467347   149A      0.472499  
     150A      0.475545   151A      0.482659   152A      0.485056  
     153A      0.490036   154A      0.491815   155A      0.494123  
     156A      0.499227   157A      0.504729   158A      0.507084  
     159A      0.515190   160A      0.517003   161A      0.521537  
     162A      0.523608   163A      0.524386   164A      0.526136  
     165A      0.531600   166A      0.535220   167A      0.542660  
     168A      0.545109   169A      0.550977   170A      0.555088  
     171A      0.563060   172A      0.571205   173A      0.573936  
     174A      0.581022   175A      0.583596   176A      0.591284  
     177A      0.594061   178A      0.599478   179A      0.605948  
     180A      0.610050   181A      0.612955   182A      0.614881  
     183A      0.621926   184A      0.624132   185A      0.632459  
     186A      0.639637   187A      0.643617   188A      0.651298  
     189A      0.655235   190A      0.656282   191A      0.661100  
     192A      0.664886   193A      0.673128   194A      0.679883  
     195A      0.683735   196A      0.688408   197A      0.694249  
     198A      0.701087   199A      0.707937   200A      0.708025  
     201A      0.711450   202A      0.717063   203A      0.720089  
     204A      0.722716   205A      0.728940   206A      0.730223  
     207A      0.735215   208A      0.742020   209A      0.748260  
     210A      0.753033   211A      0.755608   212A      0.760941  
     213A      0.764610   214A      0.769460   215A      0.773188  
     216A      0.779851   217A      0.783415   218A      0.786149  
     219A      0.788399   220A      0.791552   221A      0.797244  
     222A      0.800899   223A      0.808855   224A      0.813841  
     225A      0.819964   226A      0.822244   227A      0.832352  
     228A      0.832413   229A      0.835403   230A      0.840269  
     231A      0.843842   232A      0.851530   233A      0.854600  
     234A      0.859437   235A      0.867490   236A      0.870213  
     237A      0.873286   238A      0.879957   239A      0.885456  
     240A      0.888655   241A      0.892568   242A      0.898878  
     243A      0.905422   244A      0.906582   245A      0.907430  
     246A      0.912466   247A      0.918281   248A      0.922694  
     249A      0.927775   250A      0.935038   251A      0.937299  
     252A      0.941838   253A      0.945726   254A      0.949609  
     255A      0.954703   256A      0.956607   257A      0.964121  
     258A      0.971755   259A      0.978988   260A      0.981501  
     261A      0.985218   262A      0.988777   263A      0.992156  
     264A      0.997839   265A      1.002154   266A      1.007350  
     267A      1.013812   268A      1.018191   269A      1.027701  
     270A      1.030396   271A      1.033187   272A      1.037918  
     273A      1.041475   274A      1.047605   275A      1.053712  
     276A      1.054485   277A      1.060935   278A      1.062038  
     279A      1.074140   280A      1.075848   281A      1.081221  
     282A      1.084242   283A      1.090643   284A      1.094387  
     285A      1.096484   286A      1.098904   287A      1.104233  
     288A      1.109722   289A      1.114853   290A      1.120396  
     291A      1.126926   292A      1.130846   293A      1.133132  
     294A      1.137796   295A      1.139060   296A      1.141316  
     297A      1.146792   298A      1.151882   299A      1.159847  
     300A      1.162747   301A      1.165017   302A      1.168076  
     303A      1.176246   304A      1.181729   305A      1.184164  
     306A      1.185908   307A      1.189598   308A      1.193616  
     309A      1.200922   310A      1.206118   311A      1.210247  
     312A      1.216500   313A      1.220470   314A      1.222178  
     315A      1.230638   316A      1.238027   317A      1.242762  
     318A      1.244448   319A      1.248243   320A      1.256547  
     321A      1.257802   322A      1.266227   323A      1.276007  
     324A      1.282628   325A      1.284570   326A      1.289250  
     327A      1.292869   328A      1.296595   329A      1.297889  
     330A      1.303463   331A      1.315525   332A      1.323876  
     333A      1.328748   334A      1.333489   335A      1.338267  
     336A      1.346081   337A      1.354884   338A      1.361265  
     339A      1.363510   340A      1.367669   341A      1.372394  
     342A      1.376561   343A      1.381399   344A      1.391506  
     345A      1.393196   346A      1.397706   347A      1.403674  
     348A      1.411247   349A      1.422240   350A      1.426540  
     351A      1.428211   352A      1.435484   353A      1.437905  
     354A      1.443648   355A      1.447909   356A      1.454748  
     357A      1.457905   358A      1.471764   359A      1.477999  
     360A      1.479757   361A      1.483806   362A      1.487603  
     363A      1.493531   364A      1.499151   365A      1.506845  
     366A      1.512039   367A      1.517439   368A      1.521188  
     369A      1.530584   370A      1.535731   371A      1.540914  
     372A      1.542713   373A      1.550241   374A      1.558153  
     375A      1.560757   376A      1.565379   377A      1.578579  
     378A      1.585214   379A      1.596847   380A      1.599132  
     381A      1.599990   382A      1.606594   383A      1.611540  
     384A      1.620031   385A      1.624908   386A      1.633597  
     387A      1.639692   388A      1.650662   389A      1.655646  
     390A      1.657016   391A      1.662340   392A      1.666688  
     393A      1.667597   394A      1.682450   395A      1.687900  
     396A      1.691210   397A      1.701190   398A      1.711093  
     399A      1.720055   400A      1.727482   401A      1.732957  
     402A      1.736182   403A      1.743719   404A      1.749634  
     405A      1.755019   406A      1.762448   407A      1.769049  
     408A      1.772347   409A      1.785612   410A      1.789627  
     411A      1.792687   412A      1.800966   413A      1.811288  
     414A      1.816659   415A      1.823560   416A      1.829428  
     417A      1.834202   418A      1.843688   419A      1.848296  
     420A      1.857353   421A      1.858828   422A      1.861377  
     423A      1.865837   424A      1.873652   425A      1.878224  
     426A      1.882140   427A      1.890472   428A      1.896366  
     429A      1.898355   430A      1.913310   431A      1.921091  
     432A      1.923821   433A      1.944670   434A      1.948537  
     435A      1.959418   436A      1.966890   437A      1.970889  
     438A      1.972082   439A      1.984417   440A      1.995986  
     441A      2.001040   442A      2.006876   443A      2.015759  
     444A      2.020061   445A      2.032772   446A      2.034358  
     447A      2.043884   448A      2.047862   449A      2.049886  
     450A      2.065809   451A      2.072781   452A      2.074576  
     453A      2.087853   454A      2.094417   455A      2.099233  
     456A      2.100658   457A      2.116474   458A      2.128675  
     459A      2.142260   460A      2.144372   461A      2.153595  
     462A      2.156843   463A      2.166641   464A      2.171943  
     465A      2.172311   466A      2.182780   467A      2.208139  
     468A      2.208915   469A      2.212985   470A      2.221057  
     471A      2.226376   472A      2.236372   473A      2.242973  
     474A      2.247646   475A      2.261910   476A      2.266131  
     477A      2.279331   478A      2.283332   479A      2.295605  
     480A      2.300269   481A      2.309266   482A      2.317930  
     483A      2.326534   484A      2.331163   485A      2.337317  
     486A      2.342353   487A      2.352488   488A      2.353977  
     489A      2.362666   490A      2.368525   491A      2.374411  
     492A      2.388103   493A      2.395232   494A      2.404711  
     495A      2.409140   496A      2.417504   497A      2.421566  
     498A      2.430678   499A      2.433259   500A      2.446141  
     501A      2.453652   502A      2.463597   503A      2.466700  
     504A      2.470488   505A      2.485379   506A      2.490305  
     507A      2.507524   508A      2.523246   509A      2.526321  
     510A      2.528922   511A      2.539423   512A      2.549213  
     513A      2.553667   514A      2.558926   515A      2.566238  
     516A      2.579484   517A      2.594057   518A      2.598795  
     519A      2.607895   520A      2.618362   521A      2.627104  
     522A      2.640501   523A      2.644329   524A      2.651728  
     525A      2.661527   526A      2.669878   527A      2.672172  
     528A      2.694983   529A      2.698024   530A      2.711573  
     531A      2.716443   532A      2.720217   533A      2.728870  
     534A      2.732649   535A      2.734641   536A      2.746173  
     537A      2.752452   538A      2.767302   539A      2.774666  
     540A      2.779599   541A      2.788351   542A      2.795940  
     543A      2.803256   544A      2.815719   545A      2.826441  
     546A      2.830041   547A      2.837750   548A      2.843368  
     549A      2.858459   550A      2.862309   551A      2.868141  
     552A      2.887759   553A      2.897079   554A      2.904895  
     555A      2.912472   556A      2.925721   557A      2.941821  
     558A      2.957204   559A      2.959698   560A      2.975977  
     561A      2.981555   562A      2.988980   563A      2.991389  
     564A      3.013918   565A      3.024634   566A      3.033809  
     567A      3.041047   568A      3.054347   569A      3.062154  
     570A      3.072259   571A      3.078911   572A      3.087927  
     573A      3.092593   574A      3.110271   575A      3.134661  
     576A      3.141878   577A      3.148126   578A      3.171917  
     579A      3.185939   580A      3.198183   581A      3.210629  
     582A      3.225125   583A      3.229906   584A      3.260606  
     585A      3.278938   586A      3.288967   587A      3.299102  
     588A      3.311754   589A      3.320818   590A      3.335451  
     591A      3.347923   592A      3.350897   593A      3.358843  
     594A      3.369843   595A      3.378730   596A      3.386443  
     597A      3.411930   598A      3.431214   599A      3.445655  
     600A      3.463908   601A      3.471032   602A      3.484595  
     603A      3.496333   604A      3.499887   605A      3.532911  
     606A      3.537980   607A      3.544259   608A      3.564490  
     609A      3.575405   610A      3.600020   611A      3.610128  
     612A      3.615540   613A      3.631777   614A      3.635698  
     615A      3.655877   616A      3.664405   617A      3.682645  
     618A      3.697245   619A      3.721762   620A      3.728987  
     621A      3.740933   622A      3.751996   623A      3.756389  
     624A      3.770878   625A      3.796896   626A      3.802307  
     627A      3.807782   628A      3.827756   629A      3.839589  
     630A      3.852061   631A      3.857991   632A      3.865812  
     633A      3.872572   634A      3.895591   635A      3.908899  
     636A      3.911183   637A      3.931587   638A      3.947003  
     639A      3.980194   640A      3.991144   641A      4.001219  
     642A      4.005575   643A      4.024877   644A      4.039977  
     645A      4.059059   646A      4.064051   647A      4.086064  
     648A      4.096502   649A      4.105846   650A      4.111711  
     651A      4.118098   652A      4.123059   653A      4.134563  
     654A      4.146593   655A      4.152441   656A      4.165241  
     657A      4.180217   658A      4.200620   659A      4.210533  
     660A      4.223049   661A      4.242609   662A      4.250822  
     663A      4.258265   664A      4.262211   665A      4.270329  
     666A      4.277714   667A      4.282843   668A      4.302907  
     669A      4.314643   670A      4.318433   671A      4.324905  
     672A      4.341187   673A      4.358947   674A      4.368020  
     675A      4.371586   676A      4.380190   677A      4.388682  
     678A      4.405713   679A      4.417050   680A      4.426153  
     681A      4.435414   682A      4.437436   683A      4.453099  
     684A      4.466739   685A      4.480906   686A      4.485962  
     687A      4.503802   688A      4.506856   689A      4.539842  
     690A      4.541853   691A      4.551948   692A      4.564733  
     693A      4.575207   694A      4.578203   695A      4.600900  
     696A      4.610953   697A      4.618236   698A      4.628288  
     699A      4.639629   700A      4.647160   701A      4.663025  
     702A      4.676602   703A      4.679302   704A      4.684384  
     705A      4.688133   706A      4.693316   707A      4.702598  
     708A      4.712438   709A      4.730315   710A      4.741395  
     711A      4.760674   712A      4.778201   713A      4.785230  
     714A      4.791782   715A      4.800925   716A      4.816564  
     717A      4.829770   718A      4.834994   719A      4.839061  
     720A      4.845582   721A      4.860611   722A      4.875910  
     723A      4.877760   724A      4.897290   725A      4.902835  
     726A      4.929628   727A      4.936451   728A      4.943808  
     729A      4.950804   730A      4.962506   731A      4.973839  
     732A      4.988592   733A      4.999409   734A      5.001812  
     735A      5.008346   736A      5.016543   737A      5.020917  
     738A      5.044440   739A      5.057533   740A      5.062328  
     741A      5.068169   742A      5.079150   743A      5.089923  
     744A      5.095336   745A      5.110483   746A      5.111409  
     747A      5.117271   748A      5.138533   749A      5.146716  
     750A      5.159002   751A      5.161029   752A      5.185317  
     753A      5.202226   754A      5.217821   755A      5.223041  
     756A      5.225570   757A      5.241585   758A      5.273636  
     759A      5.284652   760A      5.287707   761A      5.311765  
     762A      5.320378   763A      5.326640   764A      5.329863  
     765A      5.347541   766A      5.352295   767A      5.361363  
     768A      5.374464   769A      5.386239   770A      5.395389  
     771A      5.402439   772A      5.418524   773A      5.434627  
     774A      5.439606   775A      5.449447   776A      5.467167  
     777A      5.473074   778A      5.486196   779A      5.494843  
     780A      5.506945   781A      5.537062   782A      5.548474  
     783A      5.554970   784A      5.561930   785A      5.574877  
     786A      5.583042   787A      5.590759   788A      5.606040  
     789A      5.637269   790A      5.646356   791A      5.672880  
     792A      5.680814   793A      5.686334   794A      5.705759  
     795A      5.741286   796A      5.752880   797A      5.759515  
     798A      5.794255   799A      5.799071   800A      5.809560  
     801A      5.822456   802A      5.829102   803A      5.840267  
     804A      5.849121   805A      5.869369   806A      5.896534  
     807A      5.901496   808A      5.917901   809A      5.933656  
     810A      5.947643   811A      5.965515   812A      5.985465  
     813A      5.998148   814A      6.002332   815A      6.017019  
     816A      6.045887   817A      6.057185   818A      6.063832  
     819A      6.085037   820A      6.093596   821A      6.104290  
     822A      6.121029   823A      6.130431   824A      6.152781  
     825A      6.164354   826A      6.168531   827A      6.204659  
     828A      6.211940   829A      6.232955   830A      6.246843  
     831A      6.258544   832A      6.274323   833A      6.331388  
     834A      6.362037   835A      6.390195   836A      6.417388  
     837A      6.467697   838A      6.491011   839A      6.513578  
     840A      6.537325   841A      6.542538   842A      6.563824  
     843A      6.591800   844A      6.640810   845A      6.666550  
     846A      6.677838   847A      6.697046   848A      6.706923  
     849A      6.711886   850A      6.723078   851A      6.737449  
     852A      6.771071   853A      6.776053   854A      6.790129  
     855A      6.798899   856A      6.805982   857A      6.831805  
     858A      6.861118   859A      6.884152   860A      6.899014  
     861A      6.909776   862A      6.910764   863A      6.932475  
     864A      6.940381   865A      7.016349   866A      7.022203  
     867A      7.030827   868A      7.034559   869A      7.050748  
     870A      7.059593   871A      7.143971   872A      7.176757  
     873A      7.218281   874A      7.249067   875A      7.275629  
     876A      7.285340   877A      7.350903   878A      7.400148  
     879A      7.419178   880A      7.423824   881A      7.437814  
     882A      7.454970   883A      7.470535   884A      7.533567  
     885A      7.544350   886A      7.585799   887A      7.589431  
     888A      7.623577   889A      7.647499   890A      7.657214  
     891A      7.673740   892A      7.705595   893A      7.719386  
     894A      7.755352   895A      7.770128   896A      7.812370  
     897A      7.838183   898A      7.850801   899A      7.871037  
     900A      7.902913   901A      7.917086   902A      7.929569  
     903A      7.943700   904A      7.956948   905A      7.963343  
     906A      7.997049   907A      8.045844   908A      8.051451  
     909A      8.088665   910A      8.106503   911A      8.209448  
     912A      8.230878   913A      8.276491   914A      8.357063  
     915A      8.374559   916A      8.570599   917A      8.649087  
     918A      8.684143   919A      8.818042   920A      8.876397  
     921A      8.951961   922A      9.180993   923A      9.252138  
     924A      9.346201   925A      9.536046   926A      9.616298  
     927A      9.646566   928A      9.745219   929A      9.828766  
     930A      9.995749   931A     10.040790   932A     10.179475  
     933A     10.264967   934A     10.361837   935A     10.456967  
     936A     10.818075   937A     10.967357   938A     11.114436  
     939A     11.328284   940A     11.426375   941A     11.676139  
     942A     11.698614   943A     11.999494   944A     12.035043  
     945A     12.274915   946A     12.463506   947A     12.725825  
     948A     12.891164   949A     13.421978   950A     14.113881  
     951A     15.675654   952A     15.837604   953A     16.360783  
     954A     17.717536   955A     18.162955   956A     19.353708  
     957A     20.114479   958A     20.532726   959A     51.126612  
     960A     51.547091   961A     53.440278   962A     55.217824  
     963A     60.034380   964A     60.976676   965A     63.505171  
     966A     68.968924  

    Final Occupation by Irrep:
              A 
    DOCC [    29 ]

  @DF-RHF Final Energy:  -392.76100171643918

   => Energetics <=

    Nuclear Repulsion Energy =            355.4304513126749612
    One-Electron Energy =               -1239.2611801800524063
    Two-Electron Energy =                 491.0697271509383199
    Total Energy =                       -392.7610017164391820

Computation Completed


Properties will be evaluated at   0.000000,   0.000000,   0.000000 [a0]

Properties computed using the SCF density matrix

  Nuclear Dipole Moment: [e a0]
     X:  -279.7498      Y:    27.6339      Z:    33.1685

  Electronic Dipole Moment: [e a0]
     X:   277.8835      Y:   -25.4918      Z:   -33.7697

  Dipole Moment: [e a0]
     X:    -1.8664      Y:     2.1421      Z:    -0.6012     Total:     2.9040

  Dipole Moment: [D]
     X:    -4.7438      Y:     5.4448      Z:    -1.5281     Total:     7.3813


*** tstop() called on node165.bme.utexas.edu at Sun Jan 14 10:17:46 2024
Module time:
	user time   =     297.95 seconds =       4.97 minutes
	system time =       6.35 seconds =       0.11 minutes
	total time  =         43 seconds =       0.72 minutes
Total time:
	user time   =     847.30 seconds =      14.12 minutes
	system time =      25.53 seconds =       0.43 minutes
	total time  =        130 seconds =       2.17 minutes

*** tstart() called on node165.bme.utexas.edu
*** at Sun Jan 14 10:17:46 2024


  //>>>>>>>>>>>>>>>>>>>>>>>>>>>>>>>>>>>//
  //               DFMP2               //
  //<<<<<<<<<<<<<<<<<<<<<<<<<<<<<<<<<<<//

   => Loading Basis Set <=

    Name: (AUG-CC-PVTZ AUX)
    Role: RIFIT
    Keyword: DF_BASIS_MP2
    atoms 1, 5, 7, 14, 18, 20         entry N          line   206 file /opt/anaconda/envs/psi4v1.5/share/psi4/basis/aug-cc-pvtz-ri.gbs 
    atoms 2, 9, 11-13, 15, 22, 24-26  entry H          line    30 file /opt/anaconda/envs/psi4v1.5/share/psi4/basis/aug-cc-pvtz-ri.gbs 
    atoms 3, 6, 8, 10, 16, 19, 21, 23 entry C          line   148 file /opt/anaconda/envs/psi4v1.5/share/psi4/basis/aug-cc-pvtz-ri.gbs 
    atoms 4, 17                       entry O          line   264 file /opt/anaconda/envs/psi4v1.5/share/psi4/basis/aug-cc-pvtz-ri.gbs 

	 --------------------------------------------------------
	                          DF-MP2                         
	      2nd-Order Density-Fitted Moller-Plesset Theory     
	              RMP2 Wavefunction,   8 Threads             
	                                                         
	        Rob Parrish, Justin Turney, Andy Simmonett,      
	           Ed Hohenstein, and C. David Sherrill          
	 --------------------------------------------------------

   => Auxiliary Basis Set <=

  Basis Set: (AUG-CC-PVTZ AUX)
    Blend: AUG-CC-PVTZ-RI
    Number of shells: 588
    Number of basis functions: 2156
    Number of Cartesian functions: 2726
    Spherical Harmonics?: true
    Max angular momentum: 4

	 --------------------------------------------------------
	                 NBF =   966, NAUX =  2156
	 --------------------------------------------------------
	   CLASS    FOCC     OCC    AOCC    AVIR     VIR    FVIR
	   PAIRS       8      29      21     937     937       0
	 --------------------------------------------------------

	 Will attempt to load fitting metric from file 97.

	-----------------------------------------------------------
	 ==================> DF-MP2 Energies <==================== 
	-----------------------------------------------------------
	 Reference Energy          =    -392.7610017164391820 [Eh]
	 Singles Energy            =      -0.0000000000000000 [Eh]
	 Same-Spin Energy          =      -0.3847651102620704 [Eh]
	 Opposite-Spin Energy      =      -1.0969004590754086 [Eh]
	 Correlation Energy        =      -1.4816655693374789 [Eh]
	 Total Energy              =    -394.2426672857766334 [Eh]
	-----------------------------------------------------------
	 ================> DF-SCS-MP2 Energies <================== 
	-----------------------------------------------------------
	 SCS Same-Spin Scale       =       0.3333333333333333 [-]
	 SCS Opposite-Spin Scale   =       1.2000000000000000 [-]
	 SCS Same-Spin Energy      =      -0.1282550367540235 [Eh]
	 SCS Opposite-Spin Energy  =      -1.3162805508904902 [Eh]
	 SCS Correlation Energy    =      -1.4445355876445136 [Eh]
	 SCS Total Energy          =    -394.2055373040836912 [Eh]
	-----------------------------------------------------------


*** tstop() called on node165.bme.utexas.edu at Sun Jan 14 10:18:07 2024
Module time:
	user time   =     102.56 seconds =       1.71 minutes
	system time =       5.39 seconds =       0.09 minutes
	total time  =         21 seconds =       0.35 minutes
Total time:
	user time   =     949.86 seconds =      15.83 minutes
	system time =      30.92 seconds =       0.52 minutes
	total time  =        151 seconds =       2.52 minutes

  //>>>>>>>>>>>>>>>>>>>>>>>>>>>>>>>>>>>//
  //            Monomer B HF           //
  //<<<<<<<<<<<<<<<<<<<<<<<<<<<<<<<<<<<//


*** tstart() called on node165.bme.utexas.edu
*** at Sun Jan 14 10:18:07 2024

   => Loading Basis Set <=

    Name: AUG-CC-PVTZ
    Role: ORBITAL
    Keyword: BASIS
    atoms 1, 5, 7, 14, 18, 20         entry N          line   285 file /opt/anaconda/envs/psi4v1.5/share/psi4/basis/aug-cc-pvtz.gbs 
    atoms 2, 9, 11-13, 15, 22, 24-26  entry H          line    40 file /opt/anaconda/envs/psi4v1.5/share/psi4/basis/aug-cc-pvtz.gbs 
    atoms 3, 6, 8, 10, 16, 19, 21, 23 entry C          line   239 file /opt/anaconda/envs/psi4v1.5/share/psi4/basis/aug-cc-pvtz.gbs 
    atoms 4, 17                       entry O          line   331 file /opt/anaconda/envs/psi4v1.5/share/psi4/basis/aug-cc-pvtz.gbs 


         ---------------------------------------------------------
                                   SCF
               by Justin Turney, Rob Parrish, Andy Simmonett
                          and Daniel G. A. Smith
                              RHF Reference
                        8 Threads,  47683 MiB Core
         ---------------------------------------------------------

  ==> Geometry <==

    Molecular point group: c1
    Full point group: C1

    Geometry (in Angstrom), charge = 0, multiplicity = 1:

       Center              X                  Y                   Z               Mass       
    ------------   -----------------  -----------------  -----------------  -----------------
      Gh(N)          -3.670748108777    -0.832538588238     0.363617549666    14.003074004430
      Gh(H)          -4.210518108777    -1.691318588238     0.369307549666     1.007825032230
      Gh(C)          -2.270768108777    -1.005638588238     0.413917549666    12.000000000000
      Gh(O)          -1.816248108777    -2.153658588238     0.443557549666    15.994914619570
      Gh(N)          -1.512448108777     0.138301411762     0.418547549666    14.003074004430
      Gh(C)          -2.087988108777     1.320671411762     0.255827549666    12.000000000000
      Gh(N)          -1.271398108777     2.411491411762     0.235967549666    14.003074004430
      Gh(C)          -3.511628108777     1.504681411762     0.173127549666    12.000000000000
      Gh(H)          -3.961738108777     2.484661411762     0.067467549666     1.007825032230
      Gh(C)          -4.272578108777     0.380781411762     0.232797549666    12.000000000000
      Gh(H)          -5.357188108777     0.386091411762     0.182987549666     1.007825032230
      Gh(H)          -0.295198108777     2.204151411762     0.005327549666     1.007825032230
      Gh(H)          -1.642668108777     3.245161411762    -0.202482450334     1.007825032230
         N            1.956542045069    -1.345484665161    -1.179220834950    14.003074004430
         H            1.337032045069    -1.862954665161    -1.794200834950     1.007825032230
         C            1.948292045069     0.045395334839    -1.384940834950    12.000000000000
         O            1.359052045069     0.515615334839    -2.356590834950    15.994914619570
         N            2.626672045069     0.808095334839    -0.449750834950    14.003074004430
         C            3.137822045069     0.222785334839     0.619799165050    12.000000000000
         N            3.821052045069     1.028505334839     1.496619165050    14.003074004430
         C            3.065022045069    -1.179134665161     0.882809165050    12.000000000000
         H            3.461682045069    -1.618814665161     1.789749165050     1.007825032230
         C            2.403122045069    -1.927054665161    -0.039130834950    12.000000000000
         H            2.221022045069    -2.990124665161     0.067019165050     1.007825032230
         H            3.657662045069     2.020075334839     1.364869165050     1.007825032230
         H            3.872952045069     0.726895334839     2.460899165050     1.007825032230

  Running in c1 symmetry.

  Rotational constants: A =      0.02875  B =      0.00921  C =      0.00838 [cm^-1]
  Rotational constants: A =    861.76306  B =    276.02139  C =    251.36511 [MHz]
  Nuclear repulsion =  355.808174445194425

  Charge       = 0
  Multiplicity = 1
  Electrons    = 58
  Nalpha       = 29
  Nbeta        = 29

  ==> Algorithm <==

  SCF Algorithm Type is DF.
  DIIS enabled.
  MOM disabled.
  Fractional occupation disabled.
  Guess Type is SAD.
  Energy threshold   = 1.00e-08
  Density threshold  = 1.00e-08
  Integral threshold = 1.00e-12

  ==> Primary Basis <==

  Basis Set: AUG-CC-PVTZ
    Blend: AUG-CC-PVTZ
    Number of shells: 314
    Number of basis functions: 966
    Number of Cartesian functions: 1130
    Spherical Harmonics?: true
    Max angular momentum: 3

   => Loading Basis Set <=

    Name: (AUG-CC-PVTZ AUX)
    Role: JKFIT
    Keyword: DF_BASIS_SCF
    atoms 1, 5, 7, 14, 18, 20         entry N          line   224 file /opt/anaconda/envs/psi4v1.5/share/psi4/basis/aug-cc-pvtz-jkfit.gbs 
    atoms 2, 9, 11-13, 15, 22, 24-26  entry H          line    70 file /opt/anaconda/envs/psi4v1.5/share/psi4/basis/aug-cc-pvtz-jkfit.gbs 
    atoms 3, 6, 8, 10, 16, 19, 21, 23 entry C          line   162 file /opt/anaconda/envs/psi4v1.5/share/psi4/basis/aug-cc-pvtz-jkfit.gbs 
    atoms 4, 17                       entry O          line   286 file /opt/anaconda/envs/psi4v1.5/share/psi4/basis/aug-cc-pvtz-jkfit.gbs 

  ==> Integral Setup <==

  ==> DiskDFJK: Density-Fitted J/K Matrices <==

    J tasked:                  Yes
    K tasked:                  Yes
    wK tasked:                  No
    OpenMP threads:              8
    Integrals threads:           8
    Memory [MiB]:            35762
    Algorithm:                Core
    Integral Cache:           LOAD
    Schwarz Cutoff:          1E-12
    Fitting Condition:       1E-10

   => Auxiliary Basis Set <=

  Basis Set: (AUG-CC-PVTZ AUX)
    Blend: AUG-CC-PVTZ-JKFIT
    Number of shells: 620
    Number of basis functions: 2124
    Number of Cartesian functions: 2646
    Spherical Harmonics?: true
    Max angular momentum: 4

  Minimum eigenvalue in the overlap matrix is 2.0161123155E-06.
  Reciprocal condition number of the overlap matrix is 1.1498803820E-07.
    Using symmetric orthogonalization.

  ==> Pre-Iterations <==

  SCF Guess: Superposition of Atomic Densities via on-the-fly atomic UHF (no occupation information).

   -------------------------
    Irrep   Nso     Nmo    
   -------------------------
     A        966     966 
   -------------------------
    Total     966     966
   -------------------------

  ==> Iterations <==

                           Total Energy        Delta E     RMS |[F,P]|

   @DF-RHF iter SAD:  -392.11263853827506   -3.92113e+02   0.00000e+00 
   @DF-RHF iter   1:  -392.50717021433792   -3.94532e-01   7.57460e-04 DIIS
   @DF-RHF iter   2:  -392.69683743226062   -1.89667e-01   4.33655e-04 DIIS
   @DF-RHF iter   3:  -392.75685975589471   -6.00223e-02   8.15416e-05 DIIS
   @DF-RHF iter   4:  -392.76031957394605   -3.45982e-03   3.67845e-05 DIIS
   @DF-RHF iter   5:  -392.76106463506335   -7.45061e-04   7.63013e-06 DIIS
   @DF-RHF iter   6:  -392.76114517971303   -8.05446e-05   4.01668e-06 DIIS
   @DF-RHF iter   7:  -392.76116501848469   -1.98388e-05   1.52041e-06 DIIS
   @DF-RHF iter   8:  -392.76116878447607   -3.76599e-06   5.30018e-07 DIIS
   @DF-RHF iter   9:  -392.76116915542343   -3.70947e-07   2.25279e-07 DIIS
   @DF-RHF iter  10:  -392.76116922501888   -6.95954e-08   7.63818e-08 DIIS
   @DF-RHF iter  11:  -392.76116923510335   -1.00845e-08   2.25327e-08 DIIS
   @DF-RHF iter  12:  -392.76116923586710   -7.63748e-10   7.91568e-09 DIIS
  Energy and wave function converged.


  ==> Post-Iterations <==

    Orbital Energies [Eh]
    ---------------------

    Doubly Occupied:                                                      

       1A    -20.504665     2A    -15.628082     3A    -15.595840  
       4A    -15.546222     5A    -11.373555     6A    -11.354485  
       7A    -11.335389     8A    -11.250432     9A     -1.384162  
      10A     -1.298501    11A     -1.266423    12A     -1.170134  
      13A     -1.070549    14A     -0.906748    15A     -0.877321  
      16A     -0.765811    17A     -0.758078    18A     -0.715454  
      19A     -0.676227    20A     -0.633886    21A     -0.623518  
      22A     -0.610345    23A     -0.591529    24A     -0.539074  
      25A     -0.490761    26A     -0.445762    27A     -0.422253  
      28A     -0.393594    29A     -0.346949  

    Virtual:                                                              

      30A      0.013004    31A      0.022060    32A      0.024800  
      33A      0.036700    34A      0.038532    35A      0.046533  
      36A      0.050846    37A      0.055561    38A      0.059801  
      39A      0.066398    40A      0.069777    41A      0.074551  
      42A      0.082547    43A      0.082624    44A      0.084886  
      45A      0.088456    46A      0.095159    47A      0.100815  
      48A      0.101709    49A      0.104187    50A      0.105600  
      51A      0.108184    52A      0.110207    53A      0.118540  
      54A      0.121706    55A      0.122474    56A      0.128270  
      57A      0.132234    58A      0.135783    59A      0.136217  
      60A      0.142621    61A      0.144811    62A      0.148755  
      63A      0.155809    64A      0.158241    65A      0.160983  
      66A      0.163033    67A      0.166279    68A      0.169451  
      69A      0.174829    70A      0.175356    71A      0.181950  
      72A      0.183014    73A      0.188057    74A      0.190470  
      75A      0.195260    76A      0.200636    77A      0.204981  
      78A      0.207297    79A      0.211964    80A      0.215037  
      81A      0.216825    82A      0.220823    83A      0.223813  
      84A      0.229682    85A      0.233718    86A      0.236329  
      87A      0.239560    88A      0.242719    89A      0.245289  
      90A      0.252115    91A      0.260006    92A      0.261992  
      93A      0.270100    94A      0.271327    95A      0.277804  
      96A      0.283188    97A      0.284358    98A      0.288886  
      99A      0.292315   100A      0.296243   101A      0.300053  
     102A      0.305472   103A      0.309603   104A      0.311583  
     105A      0.315309   106A      0.316741   107A      0.321127  
     108A      0.325844   109A      0.330476   110A      0.331393  
     111A      0.338040   112A      0.343514   113A      0.345388  
     114A      0.347055   115A      0.351663   116A      0.360353  
     117A      0.363041   118A      0.366621   119A      0.373235  
     120A      0.376374   121A      0.378576   122A      0.382105  
     123A      0.388830   124A      0.390336   125A      0.394293  
     126A      0.395815   127A      0.397982   128A      0.401440  
     129A      0.403979   130A      0.406374   131A      0.408447  
     132A      0.412566   133A      0.416946   134A      0.419556  
     135A      0.419976   136A      0.426982   137A      0.429041  
     138A      0.430904   139A      0.433963   140A      0.435903  
     141A      0.438711   142A      0.442033   143A      0.446591  
     144A      0.448226   145A      0.451546   146A      0.455407  
     147A      0.457267   148A      0.461672   149A      0.464382  
     150A      0.474739   151A      0.477381   152A      0.479749  
     153A      0.483767   154A      0.488175   155A      0.490766  
     156A      0.496190   157A      0.501277   158A      0.506639  
     159A      0.509459   160A      0.512922   161A      0.516648  
     162A      0.519406   163A      0.522438   164A      0.526122  
     165A      0.535127   166A      0.537213   167A      0.543138  
     168A      0.547247   169A      0.549730   170A      0.553950  
     171A      0.560626   172A      0.562105   173A      0.568182  
     174A      0.572152   175A      0.573804   176A      0.582956  
     177A      0.587554   178A      0.593924   179A      0.595835  
     180A      0.596899   181A      0.603630   182A      0.611257  
     183A      0.620116   184A      0.621794   185A      0.631051  
     186A      0.638163   187A      0.639806   188A      0.643271  
     189A      0.647771   190A      0.651056   191A      0.656093  
     192A      0.662789   193A      0.663172   194A      0.669259  
     195A      0.679022   196A      0.684117   197A      0.689526  
     198A      0.693551   199A      0.696552   200A      0.702719  
     201A      0.707007   202A      0.713131   203A      0.715682  
     204A      0.719493   205A      0.723838   206A      0.724546  
     207A      0.737073   208A      0.741163   209A      0.747776  
     210A      0.754196   211A      0.760396   212A      0.765263  
     213A      0.770905   214A      0.774194   215A      0.779005  
     216A      0.783999   217A      0.790284   218A      0.792968  
     219A      0.797257   220A      0.801207   221A      0.807607  
     222A      0.811270   223A      0.816030   224A      0.820164  
     225A      0.821555   226A      0.826036   227A      0.828744  
     228A      0.834710   229A      0.841362   230A      0.847119  
     231A      0.847844   232A      0.852864   233A      0.859356  
     234A      0.863804   235A      0.865295   236A      0.869455  
     237A      0.870850   238A      0.872102   239A      0.879284  
     240A      0.884765   241A      0.890010   242A      0.890883  
     243A      0.898229   244A      0.901333   245A      0.906829  
     246A      0.908988   247A      0.915517   248A      0.920631  
     249A      0.921875   250A      0.923910   251A      0.932897  
     252A      0.936167   253A      0.939928   254A      0.944119  
     255A      0.946015   256A      0.955490   257A      0.956323  
     258A      0.958041   259A      0.969417   260A      0.973653  
     261A      0.979450   262A      0.985431   263A      0.988571  
     264A      0.996210   265A      1.000514   266A      1.001601  
     267A      1.005470   268A      1.013620   269A      1.017355  
     270A      1.021082   271A      1.022411   272A      1.025840  
     273A      1.028383   274A      1.040311   275A      1.042189  
     276A      1.043602   277A      1.048974   278A      1.055655  
     279A      1.060525   280A      1.069196   281A      1.073645  
     282A      1.073722   283A      1.078374   284A      1.078510  
     285A      1.086712   286A      1.089029   287A      1.095670  
     288A      1.096971   289A      1.104612   290A      1.112036  
     291A      1.114522   292A      1.118717   293A      1.120739  
     294A      1.131335   295A      1.135219   296A      1.139572  
     297A      1.147808   298A      1.148628   299A      1.157409  
     300A      1.158868   301A      1.162093   302A      1.165403  
     303A      1.168844   304A      1.175530   305A      1.180489  
     306A      1.185131   307A      1.194304   308A      1.195550  
     309A      1.198727   310A      1.204446   311A      1.209356  
     312A      1.214191   313A      1.219720   314A      1.224634  
     315A      1.227810   316A      1.232106   317A      1.235109  
     318A      1.241209   319A      1.243512   320A      1.247555  
     321A      1.257850   322A      1.262417   323A      1.269322  
     324A      1.273528   325A      1.278018   326A      1.284051  
     327A      1.288584   328A      1.294217   329A      1.299863  
     330A      1.305928   331A      1.310458   332A      1.315067  
     333A      1.318226   334A      1.324084   335A      1.329347  
     336A      1.331376   337A      1.340967   338A      1.347245  
     339A      1.353972   340A      1.359380   341A      1.365729  
     342A      1.372947   343A      1.374450   344A      1.377519  
     345A      1.385491   346A      1.390403   347A      1.398126  
     348A      1.402366   349A      1.414845   350A      1.419880  
     351A      1.420932   352A      1.426570   353A      1.438301  
     354A      1.439968   355A      1.448207   356A      1.449160  
     357A      1.457315   358A      1.465619   359A      1.470865  
     360A      1.475828   361A      1.485746   362A      1.488516  
     363A      1.497935   364A      1.501585   365A      1.504338  
     366A      1.516096   367A      1.517246   368A      1.522051  
     369A      1.526546   370A      1.535505   371A      1.540034  
     372A      1.545416   373A      1.552888   374A      1.558770  
     375A      1.565883   376A      1.572788   377A      1.580411  
     378A      1.586559   379A      1.591667   380A      1.598044  
     381A      1.601302   382A      1.616733   383A      1.619785  
     384A      1.628561   385A      1.633031   386A      1.643282  
     387A      1.646815   388A      1.651504   389A      1.653270  
     390A      1.665669   391A      1.675420   392A      1.680910  
     393A      1.684938   394A      1.689524   395A      1.695283  
     396A      1.701177   397A      1.705051   398A      1.715663  
     399A      1.718211   400A      1.724178   401A      1.732791  
     402A      1.736785   403A      1.740600   404A      1.751210  
     405A      1.753742   406A      1.762623   407A      1.771204  
     408A      1.777062   409A      1.782690   410A      1.786331  
     411A      1.792357   412A      1.795731   413A      1.799938  
     414A      1.806363   415A      1.813461   416A      1.826050  
     417A      1.828740   418A      1.835903   419A      1.840223  
     420A      1.846640   421A      1.849021   422A      1.856063  
     423A      1.863967   424A      1.869628   425A      1.872731  
     426A      1.886265   427A      1.887685   428A      1.895446  
     429A      1.899803   430A      1.907673   431A      1.909409  
     432A      1.923074   433A      1.929409   434A      1.932465  
     435A      1.942966   436A      1.951406   437A      1.959214  
     438A      1.972254   439A      1.982016   440A      1.986156  
     441A      1.989446   442A      1.999761   443A      2.006969  
     444A      2.012917   445A      2.025644   446A      2.032083  
     447A      2.035512   448A      2.040079   449A      2.048701  
     450A      2.056015   451A      2.062656   452A      2.068565  
     453A      2.075440   454A      2.082468   455A      2.087621  
     456A      2.100013   457A      2.110869   458A      2.116173  
     459A      2.122764   460A      2.138907   461A      2.145014  
     462A      2.148722   463A      2.150755   464A      2.162677  
     465A      2.172639   466A      2.173888   467A      2.188709  
     468A      2.192792   469A      2.199062   470A      2.207929  
     471A      2.212007   472A      2.230970   473A      2.236855  
     474A      2.242608   475A      2.253367   476A      2.260189  
     477A      2.269915   478A      2.274920   479A      2.280716  
     480A      2.288584   481A      2.299865   482A      2.305584  
     483A      2.307110   484A      2.313696   485A      2.322451  
     486A      2.322688   487A      2.344335   488A      2.350736  
     489A      2.357428   490A      2.358892   491A      2.370169  
     492A      2.376062   493A      2.381005   494A      2.385279  
     495A      2.402666   496A      2.410130   497A      2.416493  
     498A      2.423407   499A      2.432827   500A      2.442669  
     501A      2.447583   502A      2.459311   503A      2.466539  
     504A      2.481978   505A      2.486075   506A      2.496087  
     507A      2.502592   508A      2.510972   509A      2.516524  
     510A      2.527175   511A      2.535852   512A      2.551923  
     513A      2.556583   514A      2.563660   515A      2.570396  
     516A      2.576449   517A      2.586520   518A      2.589897  
     519A      2.603391   520A      2.614874   521A      2.622691  
     522A      2.627330   523A      2.638232   524A      2.639571  
     525A      2.649720   526A      2.661402   527A      2.670480  
     528A      2.674569   529A      2.687805   530A      2.692679  
     531A      2.699273   532A      2.708969   533A      2.717959  
     534A      2.725804   535A      2.732687   536A      2.738277  
     537A      2.751005   538A      2.755439   539A      2.762931  
     540A      2.768521   541A      2.775026   542A      2.780801  
     543A      2.798832   544A      2.806166   545A      2.816028  
     546A      2.820192   547A      2.831830   548A      2.840445  
     549A      2.846993   550A      2.859012   551A      2.870063  
     552A      2.875070   553A      2.885426   554A      2.894682  
     555A      2.906408   556A      2.914242   557A      2.921282  
     558A      2.941753   559A      2.954710   560A      2.966594  
     561A      2.985119   562A      2.989348   563A      3.006555  
     564A      3.018480   565A      3.021878   566A      3.031369  
     567A      3.037367   568A      3.051871   569A      3.056615  
     570A      3.070629   571A      3.079142   572A      3.098115  
     573A      3.102876   574A      3.110247   575A      3.119700  
     576A      3.140838   577A      3.153827   578A      3.160412  
     579A      3.170329   580A      3.194569   581A      3.194878  
     582A      3.199649   583A      3.246067   584A      3.266516  
     585A      3.271201   586A      3.287262   587A      3.293085  
     588A      3.299895   589A      3.307289   590A      3.324852  
     591A      3.338760   592A      3.359417   593A      3.378936  
     594A      3.384643   595A      3.394764   596A      3.404825  
     597A      3.423865   598A      3.432804   599A      3.448739  
     600A      3.474136   601A      3.481893   602A      3.490407  
     603A      3.503230   604A      3.516747   605A      3.536235  
     606A      3.542732   607A      3.554913   608A      3.579711  
     609A      3.592728   610A      3.605630   611A      3.616709  
     612A      3.636880   613A      3.643827   614A      3.652505  
     615A      3.664201   616A      3.680285   617A      3.693597  
     618A      3.706272   619A      3.711079   620A      3.726434  
     621A      3.733832   622A      3.758520   623A      3.775956  
     624A      3.781452   625A      3.801741   626A      3.805458  
     627A      3.827126   628A      3.834096   629A      3.842243  
     630A      3.855524   631A      3.871087   632A      3.874631  
     633A      3.889690   634A      3.909319   635A      3.918579  
     636A      3.933617   637A      3.943256   638A      3.956236  
     639A      3.969577   640A      3.997212   641A      4.005875  
     642A      4.011515   643A      4.020284   644A      4.038910  
     645A      4.040441   646A      4.044317   647A      4.063821  
     648A      4.071350   649A      4.092314   650A      4.105480  
     651A      4.109755   652A      4.121679   653A      4.136591  
     654A      4.143751   655A      4.146218   656A      4.156859  
     657A      4.161507   658A      4.187317   659A      4.199713  
     660A      4.207663   661A      4.218030   662A      4.234345  
     663A      4.240551   664A      4.252547   665A      4.260759  
     666A      4.266496   667A      4.267640   668A      4.282748  
     669A      4.298454   670A      4.305289   671A      4.319410  
     672A      4.333037   673A      4.353459   674A      4.369075  
     675A      4.370328   676A      4.387327   677A      4.389696  
     678A      4.392234   679A      4.410561   680A      4.417255  
     681A      4.430199   682A      4.431563   683A      4.436154  
     684A      4.455941   685A      4.462400   686A      4.481319  
     687A      4.483970   688A      4.517937   689A      4.529240  
     690A      4.545408   691A      4.549324   692A      4.564092  
     693A      4.579474   694A      4.583923   695A      4.591227  
     696A      4.597382   697A      4.613096   698A      4.616190  
     699A      4.622340   700A      4.634177   701A      4.650076  
     702A      4.655881   703A      4.662458   704A      4.675572  
     705A      4.682023   706A      4.687178   707A      4.695062  
     708A      4.711172   709A      4.734292   710A      4.749739  
     711A      4.751782   712A      4.770710   713A      4.791277  
     714A      4.799512   715A      4.801046   716A      4.808879  
     717A      4.813952   718A      4.826277   719A      4.842588  
     720A      4.853225   721A      4.874869   722A      4.878937  
     723A      4.882809   724A      4.889081   725A      4.909464  
     726A      4.915488   727A      4.929637   728A      4.939910  
     729A      4.945901   730A      4.961661   731A      4.971896  
     732A      4.973473   733A      4.979535   734A      4.998548  
     735A      5.007711   736A      5.012754   737A      5.013543  
     738A      5.019064   739A      5.035824   740A      5.038691  
     741A      5.050156   742A      5.063951   743A      5.084712  
     744A      5.085989   745A      5.098773   746A      5.107579  
     747A      5.127058   748A      5.136793   749A      5.145596  
     750A      5.150046   751A      5.168068   752A      5.173756  
     753A      5.192962   754A      5.197773   755A      5.220069  
     756A      5.231866   757A      5.251066   758A      5.260251  
     759A      5.275130   760A      5.285046   761A      5.298940  
     762A      5.308470   763A      5.325119   764A      5.327206  
     765A      5.338901   766A      5.339728   767A      5.352290  
     768A      5.363864   769A      5.378654   770A      5.383828  
     771A      5.401771   772A      5.411917   773A      5.428705  
     774A      5.438108   775A      5.446852   776A      5.454397  
     777A      5.461553   778A      5.474330   779A      5.479446  
     780A      5.510170   781A      5.517623   782A      5.533121  
     783A      5.554091   784A      5.574755   785A      5.583728  
     786A      5.588609   787A      5.606266   788A      5.622533  
     789A      5.641822   790A      5.654064   791A      5.661315  
     792A      5.662786   793A      5.694080   794A      5.704697  
     795A      5.732670   796A      5.737586   797A      5.753240  
     798A      5.790220   799A      5.797853   800A      5.804770  
     801A      5.819550   802A      5.828614   803A      5.849403  
     804A      5.852200   805A      5.871176   806A      5.880686  
     807A      5.903946   808A      5.912336   809A      5.923733  
     810A      5.938927   811A      5.956810   812A      5.970396  
     813A      5.990954   814A      6.006955   815A      6.020442  
     816A      6.037500   817A      6.076641   818A      6.089306  
     819A      6.089921   820A      6.101478   821A      6.114960  
     822A      6.125130   823A      6.132912   824A      6.152962  
     825A      6.162523   826A      6.181343   827A      6.199079  
     828A      6.213428   829A      6.226069   830A      6.236333  
     831A      6.239772   832A      6.279528   833A      6.330951  
     834A      6.374682   835A      6.404043   836A      6.415545  
     837A      6.432954   838A      6.456652   839A      6.525420  
     840A      6.536911   841A      6.552624   842A      6.556872  
     843A      6.590530   844A      6.598607   845A      6.639689  
     846A      6.651940   847A      6.681778   848A      6.688037  
     849A      6.713649   850A      6.722114   851A      6.730231  
     852A      6.736233   853A      6.755930   854A      6.758791  
     855A      6.794308   856A      6.816766   857A      6.834829  
     858A      6.867333   859A      6.875005   860A      6.892077  
     861A      6.894290   862A      6.904783   863A      6.913207  
     864A      6.935997   865A      6.967508   866A      7.013828  
     867A      7.022678   868A      7.044292   869A      7.051763  
     870A      7.064060   871A      7.110799   872A      7.151075  
     873A      7.226544   874A      7.258421   875A      7.264889  
     876A      7.284474   877A      7.342940   878A      7.378194  
     879A      7.403624   880A      7.430824   881A      7.456093  
     882A      7.459943   883A      7.468540   884A      7.509837  
     885A      7.529903   886A      7.555403   887A      7.593236  
     888A      7.623653   889A      7.627220   890A      7.637439  
     891A      7.666434   892A      7.688905   893A      7.738434  
     894A      7.740323   895A      7.755576   896A      7.775816  
     897A      7.829435   898A      7.845372   899A      7.849072  
     900A      7.871507   901A      7.897729   902A      7.906543  
     903A      7.932240   904A      7.948833   905A      7.964413  
     906A      7.981046   907A      8.037631   908A      8.050844  
     909A      8.069294   910A      8.126495   911A      8.176981  
     912A      8.196808   913A      8.250718   914A      8.350882  
     915A      8.361447   916A      8.569502   917A      8.660920  
     918A      8.693963   919A      8.817059   920A      8.885187  
     921A      8.982629   922A      9.143011   923A      9.247228  
     924A      9.356582   925A      9.507672   926A      9.545273  
     927A      9.623035   928A      9.725008   929A      9.826262  
     930A      9.950291   931A     10.018170   932A     10.135705  
     933A     10.158620   934A     10.317794   935A     10.433840  
     936A     10.824987   937A     10.993548   938A     11.166219  
     939A     11.291573   940A     11.440689   941A     11.691521  
     942A     11.725639   943A     11.948475   944A     11.976679  
     945A     12.262232   946A     12.446986   947A     12.728127  
     948A     12.925046   949A     13.421096   950A     14.091628  
     951A     15.836601   952A     15.907983   953A     16.429245  
     954A     17.661920   955A     18.183959   956A     19.351717  
     957A     20.053631   958A     20.383261   959A     51.168925  
     960A     51.450621   961A     53.356291   962A     55.179805  
     963A     60.005602   964A     60.663778   965A     63.988911  
     966A     68.789896  

    Final Occupation by Irrep:
              A 
    DOCC [    29 ]

  @DF-RHF Final Energy:  -392.76116923586710

   => Energetics <=

    Nuclear Repulsion Energy =            355.8081744451944246
    One-Electron Energy =               -1239.9871772708031585
    Two-Electron Energy =                 491.4178335897415764
    Total Energy =                       -392.7611692358671007

Computation Completed


Properties will be evaluated at   0.000000,   0.000000,   0.000000 [a0]

Properties computed using the SCF density matrix

  Nuclear Dipole Moment: [e a0]
     X:   278.8823      Y:   -24.9259      Z:   -29.1389

  Electronic Dipole Moment: [e a0]
     X:  -278.3977      Y:    23.1023      Z:    31.2883

  Dipole Moment: [e a0]
     X:     0.4846      Y:    -1.8236      Z:     2.1495     Total:     2.8602

  Dipole Moment: [D]
     X:     1.2319      Y:    -4.6352      Z:     5.4634     Total:     7.2698


*** tstop() called on node165.bme.utexas.edu at Sun Jan 14 10:19:02 2024
Module time:
	user time   =     372.76 seconds =       6.21 minutes
	system time =      17.40 seconds =       0.29 minutes
	total time  =         55 seconds =       0.92 minutes
Total time:
	user time   =    1322.65 seconds =      22.04 minutes
	system time =      48.32 seconds =       0.81 minutes
	total time  =        206 seconds =       3.43 minutes

*** tstart() called on node165.bme.utexas.edu
*** at Sun Jan 14 10:19:02 2024


  //>>>>>>>>>>>>>>>>>>>>>>>>>>>>>>>>>>>//
  //               DFMP2               //
  //<<<<<<<<<<<<<<<<<<<<<<<<<<<<<<<<<<<//

   => Loading Basis Set <=

    Name: (AUG-CC-PVTZ AUX)
    Role: RIFIT
    Keyword: DF_BASIS_MP2
    atoms 1, 5, 7, 14, 18, 20         entry N          line   206 file /opt/anaconda/envs/psi4v1.5/share/psi4/basis/aug-cc-pvtz-ri.gbs 
    atoms 2, 9, 11-13, 15, 22, 24-26  entry H          line    30 file /opt/anaconda/envs/psi4v1.5/share/psi4/basis/aug-cc-pvtz-ri.gbs 
    atoms 3, 6, 8, 10, 16, 19, 21, 23 entry C          line   148 file /opt/anaconda/envs/psi4v1.5/share/psi4/basis/aug-cc-pvtz-ri.gbs 
    atoms 4, 17                       entry O          line   264 file /opt/anaconda/envs/psi4v1.5/share/psi4/basis/aug-cc-pvtz-ri.gbs 

	 --------------------------------------------------------
	                          DF-MP2                         
	      2nd-Order Density-Fitted Moller-Plesset Theory     
	              RMP2 Wavefunction,   8 Threads             
	                                                         
	        Rob Parrish, Justin Turney, Andy Simmonett,      
	           Ed Hohenstein, and C. David Sherrill          
	 --------------------------------------------------------

   => Auxiliary Basis Set <=

  Basis Set: (AUG-CC-PVTZ AUX)
    Blend: AUG-CC-PVTZ-RI
    Number of shells: 588
    Number of basis functions: 2156
    Number of Cartesian functions: 2726
    Spherical Harmonics?: true
    Max angular momentum: 4

	 --------------------------------------------------------
	                 NBF =   966, NAUX =  2156
	 --------------------------------------------------------
	   CLASS    FOCC     OCC    AOCC    AVIR     VIR    FVIR
	   PAIRS       8      29      21     937     937       0
	 --------------------------------------------------------

	 Will attempt to load fitting metric from file 97.

	-----------------------------------------------------------
	 ==================> DF-MP2 Energies <==================== 
	-----------------------------------------------------------
	 Reference Energy          =    -392.7611692358671007 [Eh]
	 Singles Energy            =      -0.0000000000000000 [Eh]
	 Same-Spin Energy          =      -0.3846165211103215 [Eh]
	 Opposite-Spin Energy      =      -1.0967427432780432 [Eh]
	 Correlation Energy        =      -1.4813592643883648 [Eh]
	 Total Energy              =    -394.2425285002554460 [Eh]
	-----------------------------------------------------------
	 ================> DF-SCS-MP2 Energies <================== 
	-----------------------------------------------------------
	 SCS Same-Spin Scale       =       0.3333333333333333 [-]
	 SCS Opposite-Spin Scale   =       1.2000000000000000 [-]
	 SCS Same-Spin Energy      =      -0.1282055070367738 [Eh]
	 SCS Opposite-Spin Energy  =      -1.3160912919336518 [Eh]
	 SCS Correlation Energy    =      -1.4442967989704256 [Eh]
	 SCS Total Energy          =    -394.2054660348375137 [Eh]
	-----------------------------------------------------------


*** tstop() called on node165.bme.utexas.edu at Sun Jan 14 10:19:23 2024
Module time:
	user time   =      96.04 seconds =       1.60 minutes
	system time =       5.35 seconds =       0.09 minutes
	total time  =         21 seconds =       0.35 minutes
Total time:
	user time   =    1418.70 seconds =      23.64 minutes
	system time =      53.67 seconds =       0.89 minutes
	total time  =        227 seconds =       3.78 minutes
  Constructing Basis Sets for SAPT...

   => Loading Basis Set <=

    Name: (AUG-CC-PVTZ AUX)
    Role: RIFIT
    Keyword: DF_BASIS_SAPT
    atoms 1, 5, 7, 14, 18, 20         entry N          line   206 file /opt/anaconda/envs/psi4v1.5/share/psi4/basis/aug-cc-pvtz-ri.gbs 
    atoms 2, 9, 11-13, 15, 22, 24-26  entry H          line    30 file /opt/anaconda/envs/psi4v1.5/share/psi4/basis/aug-cc-pvtz-ri.gbs 
    atoms 3, 6, 8, 10, 16, 19, 21, 23 entry C          line   148 file /opt/anaconda/envs/psi4v1.5/share/psi4/basis/aug-cc-pvtz-ri.gbs 
    atoms 4, 17                       entry O          line   264 file /opt/anaconda/envs/psi4v1.5/share/psi4/basis/aug-cc-pvtz-ri.gbs 


  //>>>>>>>>>>>>>>>>>>>>>>>>>>>>>>>>>>>//
  //           SAPT2+(3)DMP2           //
  //<<<<<<<<<<<<<<<<<<<<<<<<<<<<<<<<<<<//


*** tstart() called on node165.bme.utexas.edu
*** at Sun Jan 14 10:19:23 2024

      SAPT2+(3)  
    Ed Hohenstein
     6 June 2009

      Orbital Information
  --------------------------
    NSO        =       966
    NMO        =       966
    NRI        =      2156
    NOCC A     =        29
    NOCC B     =        29
    FOCC A     =         8
    FOCC B     =         8
    NVIR A     =       937
    NVIR B     =       937

    Estimated memory usage: 32864.1 MB

    Natural Orbital Cutoff:   1.000E-06
    Disp(T3) Truncation:            Yes
    CCD (vv|vv) Truncation:         Yes
    MBPT T2 Truncation:             Yes

    Monomer A: 527 virtual orbitals dropped
    Monomer B: 527 virtual orbitals dropped

    Elst10,r            =    -0.009224434228 [Eh]
    Exch10 (S^2)        =     0.000778662485 [Eh]
    Exch10              =     0.000778958785 [Eh]
    Ind20,r (A<-B)      =    -0.000706976824 [Eh]
    Ind20,r (B<-A)      =    -0.000951350027 [Eh]
    Ind20,r             =    -0.001658326851 [Eh]
    Exch-Ind20,r (A<-B) =     0.000192081235 [Eh]
    Exch-Ind20,r (B<-A) =     0.000061840287 [Eh]
    Exch-Ind20,r        =     0.000253921522 [Eh]
    Disp20              =    -0.004081880873 [Eh]
    Disp20 (NO)         =    -0.003853649604 [Eh]
    Exch-Disp20         =     0.000152498119 [Eh]
    Elst12,r            =     0.002144954889 [Eh]
    Exch11              =    -0.000011541695 [Eh]
    Exch12              =     0.000259746148 [Eh]
    Ind22               =     0.000018221892 [Eh]
    Disp21              =     0.000993323476 [Eh]
    Disp22 (SDQ)        =    -0.000161713800 [Eh]

    (i =   1 of  21)        389 seconds
    (i =   2 of  21)        777 seconds
    (i =   3 of  21)       1165 seconds
    (i =   4 of  21)       1553 seconds
    (i =   5 of  21)       1941 seconds
    (i =   6 of  21)       2347 seconds
    (i =   7 of  21)       2737 seconds
    (i =   8 of  21)       3125 seconds
    (i =   9 of  21)       3504 seconds
    (i =  10 of  21)       3889 seconds
    (i =  11 of  21)       4278 seconds
    (i =  12 of  21)       4679 seconds
    (i =  13 of  21)       5073 seconds
    (i =  14 of  21)       5464 seconds
    (i =  15 of  21)       5855 seconds
    (i =  16 of  21)       6248 seconds
    (i =  17 of  21)       6649 seconds
    (i =  18 of  21)       7048 seconds
    (i =  19 of  21)       7447 seconds
    (i =  20 of  21)       7846 seconds
    (i =  21 of  21)       8244 seconds

    Disp220 (T)         =    -0.000485495808 [Eh]

    (i =   1 of  21)        424 seconds
    (i =   2 of  21)        834 seconds
    (i =   3 of  21)       1235 seconds
    (i =   4 of  21)       1640 seconds
    (i =   5 of  21)       2053 seconds
    (i =   6 of  21)       2467 seconds
    (i =   7 of  21)       2880 seconds
    (i =   8 of  21)       3296 seconds
    (i =   9 of  21)       3711 seconds
    (i =  10 of  21)       4129 seconds
    (i =  11 of  21)       4544 seconds
    (i =  12 of  21)       4970 seconds
    (i =  13 of  21)       5398 seconds
    (i =  14 of  21)       5821 seconds
    (i =  15 of  21)       6242 seconds
    (i =  16 of  21)       6663 seconds
    (i =  17 of  21)       7083 seconds
    (i =  18 of  21)       7503 seconds
    (i =  19 of  21)       7926 seconds
    (i =  20 of  21)       8346 seconds
    (i =  21 of  21)       8771 seconds

    Disp202 (T)         =    -0.000485027979 [Eh]

    Disp22 (T)          =    -0.000970523788 [Eh]

    Est. Disp220 (T)    =    -0.000514249155 [Eh]
    Est. Disp202 (T)    =    -0.000513753619 [Eh]

    Est. Disp22 (T)     =    -0.001028002774 [Eh]
    Elst13,r            =    -0.000596772365 [Eh]
    Disp30              =     0.000052555629 [Eh]

    SAPT Results 
  --------------------------------------------------------------------------------------------------------
    Electrostatics                 -7.67625170 [mEh]      -4.81692067 [kcal/mol]     -20.15399607 [kJ/mol]
      Elst10,r                     -9.22443423 [mEh]      -5.78841987 [kcal/mol]     -24.21874873 [kJ/mol]
      Elst12,r                      2.14495489 [mEh]       1.34597951 [kcal/mol]       5.63157829 [kJ/mol]
      Elst13,r                     -0.59677236 [mEh]      -0.37448031 [kcal/mol]      -1.56682563 [kJ/mol]

    Exchange                        1.02716324 [mEh]       0.64455466 [kcal/mol]       2.69681671 [kJ/mol]
      Exch10                        0.77895878 [mEh]       0.48880402 [kcal/mol]       2.04515601 [kJ/mol]
      Exch10(S^2)                   0.77866248 [mEh]       0.48861809 [kcal/mol]       2.04437807 [kJ/mol]
      Exch11(S^2)                  -0.01154169 [mEh]      -0.00724252 [kcal/mol]      -0.03030272 [kJ/mol]
      Exch12(S^2)                   0.25974615 [mEh]       0.16299317 [kcal/mol]       0.68196342 [kJ/mol]

    Induction                      -1.34187732 [mEh]      -0.84204073 [kcal/mol]      -3.52309841 [kJ/mol]
      Ind20,r                      -1.65832685 [mEh]      -1.04061581 [kcal/mol]      -4.35393655 [kJ/mol]
      Ind22                         0.01822189 [mEh]       0.01143441 [kcal/mol]       0.04784157 [kJ/mol]
      Exch-Ind20,r                  0.25392152 [mEh]       0.15933816 [kcal/mol]       0.66667086 [kJ/mol]
      Exch-Ind22                   -0.00279012 [mEh]      -0.00175083 [kcal/mol]      -0.00732546 [kJ/mol]
      delta HF,r (2)               -0.16180046 [mEh]      -0.10153132 [kcal/mol]      -0.42480704 [kJ/mol]
      delta MP2,r (2)               0.20889670 [mEh]       0.13108466 [kcal/mol]       0.54845820 [kJ/mol]

    Dispersion                     -4.07322022 [mEh]      -2.55598428 [kcal/mol]     -10.69423822 [kJ/mol]
      Disp20                       -4.08188087 [mEh]      -2.56141892 [kcal/mol]     -10.71697675 [kJ/mol]
      Disp30                        0.05255563 [mEh]       0.03297916 [kcal/mol]       0.13798479 [kJ/mol]
      Disp21                        0.99332348 [mEh]       0.62331989 [kcal/mol]       2.60797043 [kJ/mol]
      Disp22 (SDQ)                 -0.16171380 [mEh]      -0.10147694 [kcal/mol]      -0.42457952 [kJ/mol]
      Disp22 (T)                   -0.97052379 [mEh]      -0.60901287 [kcal/mol]      -2.54810985 [kJ/mol]
      Est. Disp22 (T)              -1.02800277 [mEh]      -0.64508148 [kcal/mol]      -2.69902091 [kJ/mol]
      Exch-Disp20                   0.15249812 [mEh]       0.09569401 [kcal/mol]       0.40038376 [kJ/mol]

  Total HF                        -10.01168123 [mEh]      -6.28242482 [kcal/mol]     -26.28566545 [kJ/mol]
  Total SAPT0                     -13.94106398 [mEh]      -8.74814972 [kcal/mol]     -36.60225844 [kJ/mol]
  Total SAPT2                     -11.53247287 [mEh]      -7.23673598 [kcal/mol]     -30.27850334 [kJ/mol]
  Total SAPT2+                    -11.72886597 [mEh]      -7.35997451 [kcal/mol]     -30.79413335 [kJ/mol]
  Total SAPT2+(3)                 -12.27308270 [mEh]      -7.70147567 [kcal/mol]     -32.22297420 [kJ/mol]
  Total SAPT2+dMP2                -11.51996927 [mEh]      -7.22888986 [kcal/mol]     -30.24567515 [kJ/mol]
  Total SAPT2+(3)dMP2             -12.06418601 [mEh]      -7.57039101 [kcal/mol]     -31.67451600 [kJ/mol]

  Special recipe for scaled SAPT0 (see Manual):
    Electrostatics sSAPT0          -9.22443423 [mEh]      -5.78841987 [kcal/mol]     -24.21874873 [kJ/mol]
    Exchange sSAPT0                 0.77895878 [mEh]       0.48880402 [kcal/mol]       2.04515601 [kJ/mol]
    Induction sSAPT0               -1.56591581 [mEh]      -0.98262700 [kcal/mol]      -4.11131138 [kJ/mol]
    Dispersion sSAPT0              -3.92920860 [mEh]      -2.46561562 [kcal/mol]     -10.31613576 [kJ/mol]
  Total sSAPT0                    -13.94059985 [mEh]      -8.74785847 [kcal/mol]     -36.60103986 [kJ/mol]
  --------------------------------------------------------------------------------------------------------

*** tstop() called on node165.bme.utexas.edu at Sun Jan 14 16:33:36 2024
Module time:
	user time   =  159766.97 seconds =    2662.78 minutes
	system time =    1518.38 seconds =      25.31 minutes
	total time  =      22453 seconds =     374.22 minutes
Total time:
	user time   =  161186.55 seconds =    2686.44 minutes
	system time =    1572.09 seconds =      26.20 minutes
	total time  =      22680 seconds =     378.00 minutes

    Psi4 stopped on: Sunday, 14 January 2024 04:33PM
    Psi4 wall time for execution: 6:18:01.43

*** Psi4 exiting successfully. Buy a developer a beer!
