28

N 3.10705 0.75686 0.53763
H 3.64752 1.60041 0.69714
C 1.71732 0.90116 0.7123
O 1.28515 2.00687 1.06016
N 0.94474 -0.21155 0.48302
C 1.51766 -1.34702 0.10081
N 0.71982 -2.42386 -0.09201
C 2.93596 -1.50171 -0.08044
H 3.37984 -2.44147 -0.38685
C 3.69957 -0.40201 0.14692
H 4.7797 -0.38823 0.03899
H -0.29247 -2.32045 -0.08039
H 1.09526 -3.25925 -0.51664
N -2.454430923076923 2.1613697846153848 -0.29986930769230774
H -1.7666409230769227 2.8704397846153844 -0.0519393076923077
C -2.0777209230769227 1.4201297846153846 -1.4044793076923077
O -1.2699909230769229 1.7975497846153847 -2.244759307692308
N -2.7576209230769226 0.20770978461538464 -1.4929893076923078
H -2.461960923076923 -0.3816302153846154 -2.2677293076923077
C -3.383130923076923 -0.4567902153846154 -0.44100930769230773
O -3.593140923076923 -1.6787902153846155 -0.5105193076923077
C -3.727980923076923 0.3811797846153846 0.6927106923076923
C -3.181050923076923 1.6205097846153846 0.7379106923076922
H -3.2978309230769227 2.2740097846153846 1.5977706923076922
C -4.506690923076922 -0.23086021538461543 1.8148006923076923
H -4.674870923076923 0.49827978461538464 2.611860692307692
H -5.476220923076923 -0.5954602153846154 1.4632206923076923
H -3.970230923076923 -1.0886302153846155 2.230630692307692
