
    -----------------------------------------------------------------------
          Psi4: An Open-Source Ab Initio Electronic Structure Package
                               Psi4 1.5 release

                         Git: Rev {HEAD} e9f4d6d 


    D. G. A. Smith, L. A. Burns, A. C. Simmonett, R. M. Parrish,
    M. C. Schieber, R. Galvelis, P. Kraus, H. Kruse, R. Di Remigio,
    A. Alenaizan, A. M. James, S. Lehtola, J. P. Misiewicz, M. Scheurer,
    R. A. Shaw, J. B. Schriber, Y. Xie, Z. L. Glick, D. A. Sirianni,
    J. S. O'Brien, J. M. Waldrop, A. Kumar, E. G. Hohenstein,
    B. P. Pritchard, B. R. Brooks, H. F. Schaefer III, A. Yu. Sokolov,
    K. Patkowski, A. E. DePrince III, U. Bozkaya, R. A. King,
    F. A. Evangelista, J. M. Turney, T. D. Crawford, C. D. Sherrill,
    J. Chem. Phys. 152(18) 184108 (2020). https://doi.org/10.1063/5.0006002

                            Additional Code Authors
    E. T. Seidl, C. L. Janssen, E. F. Valeev, M. L. Leininger,
    J. F. Gonthier, R. M. Richard, H. R. McAlexander, M. Saitow, X. Wang,
    P. Verma, M. H. Lechner, and A. Jiang

             Previous Authors, Complete List of Code Contributors,
                       and Citations for Specific Modules
    https://github.com/psi4/psi4/blob/master/codemeta.json
    https://github.com/psi4/psi4/graphs/contributors
    http://psicode.org/psi4manual/master/introduction.html#citing-psifour

    -----------------------------------------------------------------------


    Psi4 started on: Saturday, 13 January 2024 07:51AM

    Process ID: 3573463
    Host:       node150.bme.utexas.edu
    PSIDATADIR: /opt/anaconda/envs/psi4v1.5/share/psi4
    Memory:     500.0 MiB
    Threads:    8
    
  ==> Input File <==

--------------------------------------------------------------------------
memory 50GB

molecule {
0 1
N 3.10705 0.75686 0.53763
H 3.64752 1.60041 0.69714
C 1.71732 0.90116 0.7123
O 1.28515 2.00687 1.06016
N 0.94474 -0.21155 0.48302
C 1.51766 -1.34702 0.10081
N 0.71982 -2.42386 -0.09201
C 2.93596 -1.50171 -0.08044
H 3.37984 -2.44147 -0.38685
C 3.69957 -0.40201 0.14692
H 4.7797 -0.38823 0.03899
H -0.29247 -2.32045 -0.08039
H 1.09526 -3.25925 -0.51664
--
0 1
N -0.7820830256410256 1.7671434051282051 -0.28780356410256414
H -0.0942930256410256 2.476213405128205 -0.039873564102564096
C -0.4053730256410256 1.0259034051282052 -1.3924135641025641
O 0.40235697435897433 1.4033234051282053 -2.232693564102564
N -1.0852730256410257 -0.1865165948717949 -1.4809235641025642
H -0.7896130256410256 -0.7758565948717949 -2.255663564102564
C -1.7107830256410257 -0.8510165948717949 -0.4289435641025641
O -1.9207930256410257 -2.073016594871795 -0.4984535641025641
C -2.0556330256410256 -0.013046594871794881 0.704776435897436
C -1.5087030256410257 1.2262834051282052 0.7499764358974359
H -1.6254830256410255 1.8797834051282052 1.6098364358974357
C -2.834343025641026 -0.625086594871795 1.8268664358974358
H -3.0025230256410254 0.10405340512820513 2.623926435897436
H -3.8038730256410256 -0.9896865948717949 1.4752864358974358
H -2.297883025641026 -1.4828565948717949 2.242696435897436
 units angstrom
 no_reorient
 symmetry c1
}
set
 {scf_type DF
 basis aug-cc-pvtz
 freeze_core True
 guess SAD
}
energy('sapt2+(3)dmp2')
--------------------------------------------------------------------------

  Memory set to  46.566 GiB by Python driver.

Scratch directory: /tmp/
   => Loading Basis Set <=

    Name: AUG-CC-PVTZ
    Role: ORBITAL
    Keyword: BASIS
    atoms 1, 5, 7, 14, 18                entry N          line   285 file /opt/anaconda/envs/psi4v1.5/share/psi4/basis/aug-cc-pvtz.gbs 
    atoms 2, 9, 11-13, 15, 19, 24, 26-28 entry H          line    40 file /opt/anaconda/envs/psi4v1.5/share/psi4/basis/aug-cc-pvtz.gbs 
    atoms 3, 6, 8, 10, 16, 20, 22-23, 25 entry C          line   239 file /opt/anaconda/envs/psi4v1.5/share/psi4/basis/aug-cc-pvtz.gbs 
    atoms 4, 17, 21                      entry O          line   331 file /opt/anaconda/envs/psi4v1.5/share/psi4/basis/aug-cc-pvtz.gbs 

   => Loading Basis Set <=

    Name: AUG-CC-PVTZ
    Role: ORBITAL
    Keyword: BASIS
    atoms 1, 5, 7, 14, 18                entry N          line   285 file /opt/anaconda/envs/psi4v1.5/share/psi4/basis/aug-cc-pvtz.gbs 
    atoms 2, 9, 11-13, 15, 19, 24, 26-28 entry H          line    40 file /opt/anaconda/envs/psi4v1.5/share/psi4/basis/aug-cc-pvtz.gbs 
    atoms 3, 6, 8, 10, 16, 20, 22-23, 25 entry C          line   239 file /opt/anaconda/envs/psi4v1.5/share/psi4/basis/aug-cc-pvtz.gbs 
    atoms 4, 17, 21                      entry O          line   331 file /opt/anaconda/envs/psi4v1.5/share/psi4/basis/aug-cc-pvtz.gbs 


  //>>>>>>>>>>>>>>>>>>>>>>>>>>>>>>>>>>>//
  //              Dimer HF             //
  //<<<<<<<<<<<<<<<<<<<<<<<<<<<<<<<<<<<//


*** tstart() called on node150.bme.utexas.edu
*** at Sat Jan 13 07:51:59 2024

   => Loading Basis Set <=

    Name: AUG-CC-PVTZ
    Role: ORBITAL
    Keyword: BASIS
    atoms 1, 5, 7, 14, 18                entry N          line   285 file /opt/anaconda/envs/psi4v1.5/share/psi4/basis/aug-cc-pvtz.gbs 
    atoms 2, 9, 11-13, 15, 19, 24, 26-28 entry H          line    40 file /opt/anaconda/envs/psi4v1.5/share/psi4/basis/aug-cc-pvtz.gbs 
    atoms 3, 6, 8, 10, 16, 20, 22-23, 25 entry C          line   239 file /opt/anaconda/envs/psi4v1.5/share/psi4/basis/aug-cc-pvtz.gbs 
    atoms 4, 17, 21                      entry O          line   331 file /opt/anaconda/envs/psi4v1.5/share/psi4/basis/aug-cc-pvtz.gbs 


         ---------------------------------------------------------
                                   SCF
               by Justin Turney, Rob Parrish, Andy Simmonett
                          and Daniel G. A. Smith
                              RHF Reference
                        8 Threads,  47683 MiB Core
         ---------------------------------------------------------

  ==> Geometry <==

    Molecular point group: c1
    Full point group: C1

    Geometry (in Angstrom), charge = 0, multiplicity = 1:

       Center              X                  Y                   Z               Mass       
    ------------   -----------------  -----------------  -----------------  -----------------
         N            2.878402485200     0.788339970261     0.558559487948    14.003074004430
         H            3.418872485200     1.631889970261     0.718069487948     1.007825032230
         C            1.488672485200     0.932639970261     0.733229487948    12.000000000000
         O            1.056502485200     2.038349970261     1.081089487948    15.994914619570
         N            0.716092485200    -0.180070029739     0.503949487948    14.003074004430
         C            1.289012485200    -1.315540029739     0.121739487948    12.000000000000
         N            0.491172485200    -2.392380029739    -0.071080512052    14.003074004430
         C            2.707312485200    -1.470230029739    -0.059510512052    12.000000000000
         H            3.151192485200    -2.409990029739    -0.365920512052     1.007825032230
         C            3.470922485200    -0.370530029739     0.167849487948    12.000000000000
         H            4.551052485200    -0.356750029739     0.059919487948     1.007825032230
         H           -0.521117514800    -2.288970029739    -0.059460512052     1.007825032230
         H            0.866612485200    -3.227770029739    -0.495710512052     1.007825032230
         N           -1.010730540441     1.798623375389    -0.266874076154    14.003074004430
         H           -0.322940540441     2.507693375389    -0.018944076154     1.007825032230
         C           -0.634020540441     1.057383375389    -1.371484076154    12.000000000000
         O            0.173709459559     1.434803375389    -2.211764076154    15.994914619570
         N           -1.313920540441    -0.155036624611    -1.459994076154    14.003074004430
         H           -1.018260540441    -0.744376624611    -2.234734076154     1.007825032230
         C           -1.939430540441    -0.819536624611    -0.408014076154    12.000000000000
         O           -2.149440540441    -2.041536624611    -0.477524076154    15.994914619570
         C           -2.284280540441     0.018433375389     0.725705923846    12.000000000000
         C           -1.737350540441     1.257763375389     0.770905923846    12.000000000000
         H           -1.854130540441     1.911263375389     1.630765923846     1.007825032230
         C           -3.062990540441    -0.593606624611     1.847795923846    12.000000000000
         H           -3.231170540441     0.135533375389     2.644855923846     1.007825032230
         H           -4.032520540441    -0.958206624611     1.496215923846     1.007825032230
         H           -2.526530540441    -1.451376624611     2.263625923846     1.007825032230

  Running in c1 symmetry.

  Rotational constants: A =      0.02450  B =      0.01490  C =      0.01275 [cm^-1]
  Rotational constants: A =    734.59585  B =    446.83730  C =    382.29800 [MHz]
  Nuclear repulsion = 1299.714834656638232

  Charge       = 0
  Multiplicity = 1
  Electrons    = 124
  Nalpha       = 62
  Nbeta        = 62

  ==> Algorithm <==

  SCF Algorithm Type is DF.
  DIIS enabled.
  MOM disabled.
  Fractional occupation disabled.
  Guess Type is SAD.
  Energy threshold   = 1.00e-08
  Density threshold  = 1.00e-08
  Integral threshold = 1.00e-12

  ==> Primary Basis <==

  Basis Set: AUG-CC-PVTZ
    Blend: AUG-CC-PVTZ
    Number of shells: 337
    Number of basis functions: 1035
    Number of Cartesian functions: 1210
    Spherical Harmonics?: true
    Max angular momentum: 3

   => Loading Basis Set <=

    Name: (AUG-CC-PVTZ AUX)
    Role: JKFIT
    Keyword: DF_BASIS_SCF
    atoms 1, 5, 7, 14, 18                entry N          line   224 file /opt/anaconda/envs/psi4v1.5/share/psi4/basis/aug-cc-pvtz-jkfit.gbs 
    atoms 2, 9, 11-13, 15, 19, 24, 26-28 entry H          line    70 file /opt/anaconda/envs/psi4v1.5/share/psi4/basis/aug-cc-pvtz-jkfit.gbs 
    atoms 3, 6, 8, 10, 16, 20, 22-23, 25 entry C          line   162 file /opt/anaconda/envs/psi4v1.5/share/psi4/basis/aug-cc-pvtz-jkfit.gbs 
    atoms 4, 17, 21                      entry O          line   286 file /opt/anaconda/envs/psi4v1.5/share/psi4/basis/aug-cc-pvtz-jkfit.gbs 

  ==> Integral Setup <==

  ==> DiskDFJK: Density-Fitted J/K Matrices <==

    J tasked:                  Yes
    K tasked:                  Yes
    wK tasked:                  No
    OpenMP threads:              8
    Integrals threads:           8
    Memory [MiB]:            35762
    Algorithm:                Core
    Integral Cache:           SAVE
    Schwarz Cutoff:          1E-12
    Fitting Condition:       1E-10

   => Auxiliary Basis Set <=

  Basis Set: (AUG-CC-PVTZ AUX)
    Blend: AUG-CC-PVTZ-JKFIT
    Number of shells: 664
    Number of basis functions: 2274
    Number of Cartesian functions: 2832
    Spherical Harmonics?: true
    Max angular momentum: 4

  Minimum eigenvalue in the overlap matrix is 1.0299419095E-06.
  Reciprocal condition number of the overlap matrix is 4.4288545177E-08.
    Using symmetric orthogonalization.

  ==> Pre-Iterations <==

  SCF Guess: Superposition of Atomic Densities via on-the-fly atomic UHF (no occupation information).

   -------------------------
    Irrep   Nso     Nmo    
   -------------------------
     A       1035    1035 
   -------------------------
    Total    1035    1035
   -------------------------

  ==> Iterations <==

                           Total Energy        Delta E     RMS |[F,P]|

   @DF-RHF iter SAD:  -843.80862102668573   -8.43809e+02   0.00000e+00 
   @DF-RHF iter   1:  -843.90505346607370   -9.64324e-02   1.00420e-03 DIIS
   @DF-RHF iter   2:  -844.28685565080809   -3.81802e-01   5.62779e-04 DIIS
   @DF-RHF iter   3:  -844.40320178592060   -1.16346e-01   1.15053e-04 DIIS
   @DF-RHF iter   4:  -844.41086187220230   -7.66009e-03   5.22159e-05 DIIS
   @DF-RHF iter   5:  -844.41254457554589   -1.68270e-03   1.10735e-05 DIIS
   @DF-RHF iter   6:  -844.41272438068211   -1.79805e-04   6.18641e-06 DIIS
   @DF-RHF iter   7:  -844.41277401656328   -4.96359e-05   2.19129e-06 DIIS
   @DF-RHF iter   8:  -844.41278254630220   -8.52974e-06   7.80200e-07 DIIS
   @DF-RHF iter   9:  -844.41278334485355   -7.98551e-07   2.87552e-07 DIIS
   @DF-RHF iter  10:  -844.41278345916692   -1.14313e-07   1.12291e-07 DIIS
   @DF-RHF iter  11:  -844.41278347626303   -1.70961e-08   5.01049e-08 DIIS
   @DF-RHF iter  12:  -844.41278347924856   -2.98553e-09   1.63178e-08 DIIS
   @DF-RHF iter  13:  -844.41278347961395   -3.65389e-10   5.25356e-09 DIIS
  Energy and wave function converged.


  ==> Post-Iterations <==

    Orbital Energies [Eh]
    ---------------------

    Doubly Occupied:                                                      

       1A    -20.535023     2A    -20.523979     3A    -20.522111  
       4A    -15.633913     5A    -15.608953     6A    -15.594143  
       7A    -15.584985     8A    -15.549722     9A    -11.392646  
      10A    -11.392296    11A    -11.369875    12A    -11.362133  
      13A    -11.338333    14A    -11.302728    15A    -11.254155  
      16A    -11.231395    17A    -11.221905    18A     -1.412914  
      19A     -1.401092    20A     -1.384500    21A     -1.308198  
      22A     -1.279185    23A     -1.268227    24A     -1.219301  
      25A     -1.178190    26A     -1.083588    27A     -1.073645  
      28A     -0.945213    29A     -0.912148    30A     -0.894589  
      31A     -0.888437    32A     -0.867259    33A     -0.773397  
      34A     -0.770477    35A     -0.743937    36A     -0.740936  
      37A     -0.727884    38A     -0.693547    39A     -0.682573  
      40A     -0.662276    41A     -0.653114    42A     -0.641186  
      43A     -0.624027    44A     -0.621677    45A     -0.619907  
      46A     -0.607115    47A     -0.590613    48A     -0.571222  
      49A     -0.552662    50A     -0.543839    51A     -0.533801  
      52A     -0.531683    53A     -0.503310    54A     -0.490768  
      55A     -0.468394    56A     -0.461627    57A     -0.439579  
      58A     -0.428943    59A     -0.421694    60A     -0.388823  
      61A     -0.358480    62A     -0.327720  

    Virtual:                                                              

      63A      0.015545    64A      0.026023    65A      0.033380  
      66A      0.041301    67A      0.043674    68A      0.045878  
      69A      0.055866    70A      0.059507    71A      0.060562  
      72A      0.064275    73A      0.075109    74A      0.078920  
      75A      0.085498    76A      0.086917    77A      0.088562  
      78A      0.091757    79A      0.097168    80A      0.100398  
      81A      0.102480    82A      0.104169    83A      0.108826  
      84A      0.112503    85A      0.118075    86A      0.121041  
      87A      0.124291    88A      0.127182    89A      0.129176  
      90A      0.131631    91A      0.137408    92A      0.138692  
      93A      0.142977    94A      0.143894    95A      0.149182  
      96A      0.153033    97A      0.154980    98A      0.156808  
      99A      0.161887   100A      0.165370   101A      0.170651  
     102A      0.176012   103A      0.180480   104A      0.181120  
     105A      0.182354   106A      0.187596   107A      0.190306  
     108A      0.196598   109A      0.204709   110A      0.208360  
     111A      0.211934   112A      0.217433   113A      0.219328  
     114A      0.220437   115A      0.229486   116A      0.233617  
     117A      0.236167   118A      0.240167   119A      0.243245  
     120A      0.244333   121A      0.247479   122A      0.256794  
     123A      0.260804   124A      0.264177   125A      0.268342  
     126A      0.271207   127A      0.275238   128A      0.278817  
     129A      0.280147   130A      0.283963   131A      0.285922  
     132A      0.292043   133A      0.293303   134A      0.296327  
     135A      0.298508   136A      0.302778   137A      0.307733  
     138A      0.310069   139A      0.315280   140A      0.318291  
     141A      0.323999   142A      0.326406   143A      0.330067  
     144A      0.332949   145A      0.335360   146A      0.339806  
     147A      0.342541   148A      0.348500   149A      0.352657  
     150A      0.354196   151A      0.359405   152A      0.363825  
     153A      0.364791   154A      0.369425   155A      0.372082  
     156A      0.376993   157A      0.379362   158A      0.383363  
     159A      0.387250   160A      0.391746   161A      0.398748  
     162A      0.399683   163A      0.404292   164A      0.407217  
     165A      0.407344   166A      0.412815   167A      0.417454  
     168A      0.420232   169A      0.424714   170A      0.426635  
     171A      0.429642   172A      0.435650   173A      0.437879  
     174A      0.440344   175A      0.447378   176A      0.448326  
     177A      0.449841   178A      0.455419   179A      0.457239  
     180A      0.461113   181A      0.462895   182A      0.463352  
     183A      0.468952   184A      0.472561   185A      0.475773  
     186A      0.478506   187A      0.484004   188A      0.484819  
     189A      0.490417   190A      0.491904   191A      0.495376  
     192A      0.499755   193A      0.504237   194A      0.508638  
     195A      0.510425   196A      0.514824   197A      0.515546  
     198A      0.521328   199A      0.523604   200A      0.529651  
     201A      0.533311   202A      0.533867   203A      0.539551  
     204A      0.541941   205A      0.547327   206A      0.549043  
     207A      0.556276   208A      0.560888   209A      0.565659  
     210A      0.567073   211A      0.568272   212A      0.573839  
     213A      0.579981   214A      0.584599   215A      0.587153  
     216A      0.590901   217A      0.599595   218A      0.601423  
     219A      0.603792   220A      0.610972   221A      0.619581  
     222A      0.620372   223A      0.622157   224A      0.629309  
     225A      0.634829   226A      0.636488   227A      0.638948  
     228A      0.640934   229A      0.649191   230A      0.653542  
     231A      0.656214   232A      0.659359   233A      0.661449  
     234A      0.668778   235A      0.674958   236A      0.677010  
     237A      0.680974   238A      0.682197   239A      0.689240  
     240A      0.692990   241A      0.695074   242A      0.701013  
     243A      0.712754   244A      0.713847   245A      0.724550  
     246A      0.726424   247A      0.728624   248A      0.733008  
     249A      0.741283   250A      0.744898   251A      0.751670  
     252A      0.757133   253A      0.759987   254A      0.761423  
     255A      0.764672   256A      0.769642   257A      0.775942  
     258A      0.779649   259A      0.784677   260A      0.788104  
     261A      0.794901   262A      0.797283   263A      0.800721  
     264A      0.806766   265A      0.810249   266A      0.815513  
     267A      0.822517   268A      0.828559   269A      0.833231  
     270A      0.834544   271A      0.841805   272A      0.845724  
     273A      0.850319   274A      0.852738   275A      0.859627  
     276A      0.864952   277A      0.867898   278A      0.873738  
     279A      0.882186   280A      0.882615   281A      0.886884  
     282A      0.889382   283A      0.891342   284A      0.897777  
     285A      0.903089   286A      0.907458   287A      0.914642  
     288A      0.917428   289A      0.920414   290A      0.927132  
     291A      0.931443   292A      0.936189   293A      0.939907  
     294A      0.944268   295A      0.952440   296A      0.954993  
     297A      0.960400   298A      0.964008   299A      0.965195  
     300A      0.969851   301A      0.973164   302A      0.984498  
     303A      0.986859   304A      0.988912   305A      0.991878  
     306A      0.997036   307A      0.998490   308A      1.002455  
     309A      1.012740   310A      1.017698   311A      1.024497  
     312A      1.025283   313A      1.026535   314A      1.031825  
     315A      1.038374   316A      1.044468   317A      1.044764  
     318A      1.050946   319A      1.054939   320A      1.058108  
     321A      1.066431   322A      1.070404   323A      1.073732  
     324A      1.079081   325A      1.081807   326A      1.092212  
     327A      1.095094   328A      1.096672   329A      1.103403  
     330A      1.105748   331A      1.113207   332A      1.117407  
     333A      1.119671   334A      1.124319   335A      1.128123  
     336A      1.134366   337A      1.134899   338A      1.139393  
     339A      1.144719   340A      1.151211   341A      1.154517  
     342A      1.160873   343A      1.164967   344A      1.171081  
     345A      1.174376   346A      1.176638   347A      1.181128  
     348A      1.183078   349A      1.187052   350A      1.193980  
     351A      1.194565   352A      1.200920   353A      1.202907  
     354A      1.209397   355A      1.212814   356A      1.216307  
     357A      1.220826   358A      1.227044   359A      1.232770  
     360A      1.233843   361A      1.238284   362A      1.246762  
     363A      1.252096   364A      1.252803   365A      1.257194  
     366A      1.265289   367A      1.273750   368A      1.275100  
     369A      1.277779   370A      1.285606   371A      1.287178  
     372A      1.287877   373A      1.297247   374A      1.306449  
     375A      1.314616   376A      1.319604   377A      1.323424  
     378A      1.329987   379A      1.334251   380A      1.337814  
     381A      1.341046   382A      1.346806   383A      1.354658  
     384A      1.364114   385A      1.369545   386A      1.373764  
     387A      1.379391   388A      1.380606   389A      1.387692  
     390A      1.396085   391A      1.396978   392A      1.406724  
     393A      1.409522   394A      1.414628   395A      1.416673  
     396A      1.418746   397A      1.424133   398A      1.434342  
     399A      1.439675   400A      1.443271   401A      1.446261  
     402A      1.451462   403A      1.459314   404A      1.461894  
     405A      1.471699   406A      1.475838   407A      1.483568  
     408A      1.484551   409A      1.491630   410A      1.492651  
     411A      1.497965   412A      1.502260   413A      1.506570  
     414A      1.516537   415A      1.517166   416A      1.521075  
     417A      1.528253   418A      1.531403   419A      1.537734  
     420A      1.542111   421A      1.544917   422A      1.551643  
     423A      1.555200   424A      1.558319   425A      1.565099  
     426A      1.573943   427A      1.577099   428A      1.583529  
     429A      1.593025   430A      1.598145   431A      1.603807  
     432A      1.607811   433A      1.615005   434A      1.619237  
     435A      1.621372   436A      1.627233   437A      1.633817  
     438A      1.639628   439A      1.645749   440A      1.651528  
     441A      1.655077   442A      1.660055   443A      1.662420  
     444A      1.673554   445A      1.682865   446A      1.686787  
     447A      1.694328   448A      1.698230   449A      1.704768  
     450A      1.711451   451A      1.719005   452A      1.723151  
     453A      1.727521   454A      1.730607   455A      1.733615  
     456A      1.740397   457A      1.746267   458A      1.754020  
     459A      1.757964   460A      1.763186   461A      1.766699  
     462A      1.775018   463A      1.782175   464A      1.787970  
     465A      1.798098   466A      1.805089   467A      1.807817  
     468A      1.809251   469A      1.821214   470A      1.826538  
     471A      1.827426   472A      1.838087   473A      1.840711  
     474A      1.847513   475A      1.858868   476A      1.863733  
     477A      1.867085   478A      1.872936   479A      1.885140  
     480A      1.887004   481A      1.893479   482A      1.900962  
     483A      1.902674   484A      1.906855   485A      1.914569  
     486A      1.921034   487A      1.927078   488A      1.936339  
     489A      1.937618   490A      1.946202   491A      1.957942  
     492A      1.964659   493A      1.969185   494A      1.972395  
     495A      1.984771   496A      1.990648   497A      2.001967  
     498A      2.005416   499A      2.007314   500A      2.017694  
     501A      2.019968   502A      2.032181   503A      2.040064  
     504A      2.044401   505A      2.052458   506A      2.059738  
     507A      2.066145   508A      2.071906   509A      2.075267  
     510A      2.095097   511A      2.109832   512A      2.112676  
     513A      2.117127   514A      2.127322   515A      2.135086  
     516A      2.135857   517A      2.149900   518A      2.156644  
     519A      2.159631   520A      2.167099   521A      2.175217  
     522A      2.180869   523A      2.185600   524A      2.194146  
     525A      2.203639   526A      2.209961   527A      2.213838  
     528A      2.219287   529A      2.228212   530A      2.243081  
     531A      2.244414   532A      2.251698   533A      2.259637  
     534A      2.271468   535A      2.274855   536A      2.278597  
     537A      2.283447   538A      2.290237   539A      2.301374  
     540A      2.306753   541A      2.315846   542A      2.320057  
     543A      2.333172   544A      2.338028   545A      2.343367  
     546A      2.347698   547A      2.355607   548A      2.359501  
     549A      2.365922   550A      2.373911   551A      2.378194  
     552A      2.386167   553A      2.399611   554A      2.406619  
     555A      2.416160   556A      2.420084   557A      2.425536  
     558A      2.432138   559A      2.444482   560A      2.453715  
     561A      2.458721   562A      2.464687   563A      2.472490  
     564A      2.484275   565A      2.500951   566A      2.505566  
     567A      2.509432   568A      2.515795   569A      2.523355  
     570A      2.529349   571A      2.541965   572A      2.550810  
     573A      2.560924   574A      2.568163   575A      2.577217  
     576A      2.587544   577A      2.592887   578A      2.597747  
     579A      2.609982   580A      2.626733   581A      2.630588  
     582A      2.633315   583A      2.640552   584A      2.653801  
     585A      2.655805   586A      2.658043   587A      2.660623  
     588A      2.673392   589A      2.687419   590A      2.692419  
     591A      2.704326   592A      2.715674   593A      2.728566  
     594A      2.740934   595A      2.743283   596A      2.749699  
     597A      2.754411   598A      2.761238   599A      2.779073  
     600A      2.781930   601A      2.784449   602A      2.791160  
     603A      2.796400   604A      2.799059   605A      2.809349  
     606A      2.818107   607A      2.833063   608A      2.837524  
     609A      2.846481   610A      2.854690   611A      2.859169  
     612A      2.867448   613A      2.879714   614A      2.889269  
     615A      2.892879   616A      2.904959   617A      2.917548  
     618A      2.927969   619A      2.938351   620A      2.945104  
     621A      2.964121   622A      2.980998   623A      2.990495  
     624A      2.996996   625A      3.008139   626A      3.017949  
     627A      3.030763   628A      3.045948   629A      3.047969  
     630A      3.068600   631A      3.073590   632A      3.087481  
     633A      3.093848   634A      3.097911   635A      3.112644  
     636A      3.128808   637A      3.141429   638A      3.155000  
     639A      3.170936   640A      3.174319   641A      3.181600  
     642A      3.195164   643A      3.208958   644A      3.223371  
     645A      3.228462   646A      3.236686   647A      3.256241  
     648A      3.267366   649A      3.276235   650A      3.282711  
     651A      3.318876   652A      3.322182   653A      3.327428  
     654A      3.346246   655A      3.370163   656A      3.376330  
     657A      3.383456   658A      3.387281   659A      3.405470  
     660A      3.418928   661A      3.427064   662A      3.437378  
     663A      3.446405   664A      3.461638   665A      3.468344  
     666A      3.478336   667A      3.486501   668A      3.499520  
     669A      3.513036   670A      3.523439   671A      3.526312  
     672A      3.547409   673A      3.551951   674A      3.560430  
     675A      3.571857   676A      3.580541   677A      3.596788  
     678A      3.614146   679A      3.615649   680A      3.626733  
     681A      3.634821   682A      3.645500   683A      3.658576  
     684A      3.678911   685A      3.679406   686A      3.682525  
     687A      3.691047   688A      3.692930   689A      3.703649  
     690A      3.709074   691A      3.720963   692A      3.723045  
     693A      3.745987   694A      3.751146   695A      3.758923  
     696A      3.767573   697A      3.776983   698A      3.785370  
     699A      3.788871   700A      3.804188   701A      3.808862  
     702A      3.819387   703A      3.829129   704A      3.838193  
     705A      3.845572   706A      3.850517   707A      3.861722  
     708A      3.866225   709A      3.870081   710A      3.879522  
     711A      3.882686   712A      3.893934   713A      3.903121  
     714A      3.906721   715A      3.925721   716A      3.930454  
     717A      3.938332   718A      3.945828   719A      3.964044  
     720A      3.964227   721A      3.970153   722A      3.988346  
     723A      3.994400   724A      4.003835   725A      4.007061  
     726A      4.021343   727A      4.038170   728A      4.041803  
     729A      4.050239   730A      4.059954   731A      4.062021  
     732A      4.071832   733A      4.073713   734A      4.093169  
     735A      4.105642   736A      4.109059   737A      4.114700  
     738A      4.126191   739A      4.134350   740A      4.148597  
     741A      4.155312   742A      4.164944   743A      4.166547  
     744A      4.171744   745A      4.181534   746A      4.190336  
     747A      4.201351   748A      4.203129   749A      4.205841  
     750A      4.217393   751A      4.221474   752A      4.224723  
     753A      4.238609   754A      4.245837   755A      4.254423  
     756A      4.259203   757A      4.270258   758A      4.281141  
     759A      4.288219   760A      4.289931   761A      4.302759  
     762A      4.306990   763A      4.313846   764A      4.328513  
     765A      4.333806   766A      4.348673   767A      4.353714  
     768A      4.361448   769A      4.370051   770A      4.381602  
     771A      4.385724   772A      4.392457   773A      4.402629  
     774A      4.412483   775A      4.424833   776A      4.426849  
     777A      4.437233   778A      4.449341   779A      4.454274  
     780A      4.463742   781A      4.475354   782A      4.484768  
     783A      4.495003   784A      4.500448   785A      4.512523  
     786A      4.518155   787A      4.532280   788A      4.534146  
     789A      4.543865   790A      4.551616   791A      4.563139  
     792A      4.572377   793A      4.582516   794A      4.587805  
     795A      4.598385   796A      4.604963   797A      4.611958  
     798A      4.624049   799A      4.643504   800A      4.648733  
     801A      4.669583   802A      4.678044   803A      4.679218  
     804A      4.692435   805A      4.705891   806A      4.720080  
     807A      4.725814   808A      4.736438   809A      4.743802  
     810A      4.750578   811A      4.771790   812A      4.773948  
     813A      4.783361   814A      4.791840   815A      4.799453  
     816A      4.819238   817A      4.824732   818A      4.828035  
     819A      4.839936   820A      4.843768   821A      4.861621  
     822A      4.874811   823A      4.878353   824A      4.884149  
     825A      4.891837   826A      4.903126   827A      4.907464  
     828A      4.921869   829A      4.930854   830A      4.947564  
     831A      4.950274   832A      4.960245   833A      4.974592  
     834A      4.981609   835A      4.995821   836A      5.006372  
     837A      5.015979   838A      5.024708   839A      5.034169  
     840A      5.042378   841A      5.048080   842A      5.058680  
     843A      5.076855   844A      5.084710   845A      5.100030  
     846A      5.104921   847A      5.115927   848A      5.124771  
     849A      5.131586   850A      5.136392   851A      5.153490  
     852A      5.167621   853A      5.173488   854A      5.192066  
     855A      5.207660   856A      5.222091   857A      5.227469  
     858A      5.238674   859A      5.246183   860A      5.275146  
     861A      5.277406   862A      5.283704   863A      5.300434  
     864A      5.305903   865A      5.328943   866A      5.340071  
     867A      5.350684   868A      5.362524   869A      5.378203  
     870A      5.406413   871A      5.426417   872A      5.438621  
     873A      5.442842   874A      5.450716   875A      5.472804  
     876A      5.481397   877A      5.490322   878A      5.493900  
     879A      5.507739   880A      5.520718   881A      5.529158  
     882A      5.556012   883A      5.564068   884A      5.570262  
     885A      5.580592   886A      5.587383   887A      5.603899  
     888A      5.615183   889A      5.622932   890A      5.629341  
     891A      5.641703   892A      5.650592   893A      5.653667  
     894A      5.670531   895A      5.682415   896A      5.686231  
     897A      5.698682   898A      5.718354   899A      5.731684  
     900A      5.737464   901A      5.746480   902A      5.759434  
     903A      5.770599   904A      5.786424   905A      5.800313  
     906A      5.805508   907A      5.810460   908A      5.822708  
     909A      5.839992   910A      5.870135   911A      5.877519  
     912A      5.887203   913A      5.909278   914A      5.928564  
     915A      5.935968   916A      5.963854   917A      5.968456  
     918A      5.985385   919A      6.007483   920A      6.028833  
     921A      6.040591   922A      6.057405   923A      6.066681  
     924A      6.086179   925A      6.098733   926A      6.105017  
     927A      6.120493   928A      6.129548   929A      6.138514  
     930A      6.157306   931A      6.167802   932A      6.192087  
     933A      6.200788   934A      6.210385   935A      6.219008  
     936A      6.223888   937A      6.231221   938A      6.243277  
     939A      6.252765   940A      6.278850   941A      6.292656  
     942A      6.327878   943A      6.361533   944A      6.368885  
     945A      6.377160   946A      6.391686   947A      6.473114  
     948A      6.482106   949A      6.529706   950A      6.572838  
     951A      6.588134   952A      6.603202   953A      6.657350  
     954A      6.674922   955A      6.712006   956A      6.738249  
     957A      6.768082   958A      6.779994   959A      6.784881  
     960A      6.795224   961A      6.814050   962A      6.829241  
     963A      6.848623   964A      6.854448   965A      6.864566  
     966A      6.881103   967A      6.894035   968A      6.909958  
     969A      6.921994   970A      6.952954   971A      6.970301  
     972A      6.988969   973A      7.007804   974A      7.015508  
     975A      7.037095   976A      7.059935   977A      7.071625  
     978A      7.080134   979A      7.107791   980A      7.115333  
     981A      7.119960   982A      7.176457   983A      7.188894  
     984A      7.224490   985A      7.264934   986A      7.277469  
     987A      7.300794   988A      7.329469   989A      7.359417  
     990A      7.365744   991A      7.391681   992A      7.474326  
     993A      7.504272   994A      7.509462   995A      7.522109  
     996A      7.546581   997A      7.575081   998A      7.624547  
     999A      7.641117  1000A      7.677617  1001A      7.689080  
    1002A      7.741749  1003A      7.771606  1004A      7.850384  
    1005A      7.867949  1006A      7.875572  1007A      7.895173  
    1008A      7.916394  1009A      7.957376  1010A      7.960225  
    1011A      7.969104  1012A      8.000144  1013A      8.054530  
    1014A      8.070785  1015A      8.118290  1016A      8.144546  
    1017A      8.211936  1018A      8.423980  1019A     16.122101  
    1020A     16.322656  1021A     16.699093  1022A     16.767608  
    1023A     16.837409  1024A     17.046117  1025A     17.349812  
    1026A     18.344844  1027A     18.542528  1028A     19.051313  
    1029A     19.666689  1030A     20.095268  1031A     20.691018  
    1032A     20.850095  1033A     21.229024  1034A     21.493523  
    1035A     21.919848  

    Final Occupation by Irrep:
              A 
    DOCC [    62 ]

  @DF-RHF Final Energy:  -844.41278347961395

   => Energetics <=

    Nuclear Repulsion Energy =           1299.7148346566382315
    One-Electron Energy =               -3736.8352485715759030
    Two-Electron Energy =                1592.7076304353236083
    Total Energy =                       -844.4127834796140633

Computation Completed


Properties will be evaluated at   0.000000,   0.000000,   0.000000 [a0]

Properties computed using the SCF density matrix

  Nuclear Dipole Moment: [e a0]
     X:    -1.4335      Y:    -4.9154      Z:     5.2805

  Electronic Dipole Moment: [e a0]
     X:     3.3005      Y:     4.1366      Z:    -4.6072

  Dipole Moment: [e a0]
     X:     1.8670      Y:    -0.7788      Z:     0.6733     Total:     2.1320

  Dipole Moment: [D]
     X:     4.7454      Y:    -1.9795      Z:     1.7114     Total:     5.4190


*** tstop() called on node150.bme.utexas.edu at Sat Jan 13 07:54:29 2024
Module time:
	user time   =    1074.17 seconds =      17.90 minutes
	system time =       8.03 seconds =       0.13 minutes
	total time  =        150 seconds =       2.50 minutes
Total time:
	user time   =    1074.17 seconds =      17.90 minutes
	system time =       8.03 seconds =       0.13 minutes
	total time  =        150 seconds =       2.50 minutes

*** tstart() called on node150.bme.utexas.edu
*** at Sat Jan 13 07:54:29 2024


  //>>>>>>>>>>>>>>>>>>>>>>>>>>>>>>>>>>>//
  //               DFMP2               //
  //<<<<<<<<<<<<<<<<<<<<<<<<<<<<<<<<<<<//

   => Loading Basis Set <=

    Name: (AUG-CC-PVTZ AUX)
    Role: RIFIT
    Keyword: DF_BASIS_MP2
    atoms 1, 5, 7, 14, 18                entry N          line   206 file /opt/anaconda/envs/psi4v1.5/share/psi4/basis/aug-cc-pvtz-ri.gbs 
    atoms 2, 9, 11-13, 15, 19, 24, 26-28 entry H          line    30 file /opt/anaconda/envs/psi4v1.5/share/psi4/basis/aug-cc-pvtz-ri.gbs 
    atoms 3, 6, 8, 10, 16, 20, 22-23, 25 entry C          line   148 file /opt/anaconda/envs/psi4v1.5/share/psi4/basis/aug-cc-pvtz-ri.gbs 
    atoms 4, 17, 21                      entry O          line   264 file /opt/anaconda/envs/psi4v1.5/share/psi4/basis/aug-cc-pvtz-ri.gbs 

	 --------------------------------------------------------
	                          DF-MP2                         
	      2nd-Order Density-Fitted Moller-Plesset Theory     
	              RMP2 Wavefunction,   8 Threads             
	                                                         
	        Rob Parrish, Justin Turney, Andy Simmonett,      
	           Ed Hohenstein, and C. David Sherrill          
	 --------------------------------------------------------

   => Auxiliary Basis Set <=

  Basis Set: (AUG-CC-PVTZ AUX)
    Blend: AUG-CC-PVTZ-RI
    Number of shells: 630
    Number of basis functions: 2308
    Number of Cartesian functions: 2917
    Spherical Harmonics?: true
    Max angular momentum: 4

	 --------------------------------------------------------
	                 NBF =  1035, NAUX =  2308
	 --------------------------------------------------------
	   CLASS    FOCC     OCC    AOCC    AVIR     VIR    FVIR
	   PAIRS      17      62      45     973     973       0
	 --------------------------------------------------------

	 Will save fitting metric to file 97.

	-----------------------------------------------------------
	 ==================> DF-MP2 Energies <==================== 
	-----------------------------------------------------------
	 Reference Energy          =    -844.4127834796139496 [Eh]
	 Singles Energy            =      -0.0000000000000000 [Eh]
	 Same-Spin Energy          =      -0.8355675141215051 [Eh]
	 Opposite-Spin Energy      =      -2.3636633147949646 [Eh]
	 Correlation Energy        =      -3.1992308289164697 [Eh]
	 Total Energy              =    -847.6120143085304335 [Eh]
	-----------------------------------------------------------
	 ================> DF-SCS-MP2 Energies <================== 
	-----------------------------------------------------------
	 SCS Same-Spin Scale       =       0.3333333333333333 [-]
	 SCS Opposite-Spin Scale   =       1.2000000000000000 [-]
	 SCS Same-Spin Energy      =      -0.2785225047071683 [Eh]
	 SCS Opposite-Spin Energy  =      -2.8363959777539574 [Eh]
	 SCS Correlation Energy    =      -3.1149184824611256 [Eh]
	 SCS Total Energy          =    -847.5277019620750707 [Eh]
	-----------------------------------------------------------


*** tstop() called on node150.bme.utexas.edu at Sat Jan 13 07:55:02 2024
Module time:
	user time   =     200.64 seconds =       3.34 minutes
	system time =       3.59 seconds =       0.06 minutes
	total time  =         33 seconds =       0.55 minutes
Total time:
	user time   =    1274.82 seconds =      21.25 minutes
	system time =      11.62 seconds =       0.19 minutes
	total time  =        183 seconds =       3.05 minutes

  //>>>>>>>>>>>>>>>>>>>>>>>>>>>>>>>>>>>//
  //            Monomer A HF           //
  //<<<<<<<<<<<<<<<<<<<<<<<<<<<<<<<<<<<//


*** tstart() called on node150.bme.utexas.edu
*** at Sat Jan 13 07:55:02 2024

   => Loading Basis Set <=

    Name: AUG-CC-PVTZ
    Role: ORBITAL
    Keyword: BASIS
    atoms 1, 5, 7, 14, 18                entry N          line   285 file /opt/anaconda/envs/psi4v1.5/share/psi4/basis/aug-cc-pvtz.gbs 
    atoms 2, 9, 11-13, 15, 19, 24, 26-28 entry H          line    40 file /opt/anaconda/envs/psi4v1.5/share/psi4/basis/aug-cc-pvtz.gbs 
    atoms 3, 6, 8, 10, 16, 20, 22-23, 25 entry C          line   239 file /opt/anaconda/envs/psi4v1.5/share/psi4/basis/aug-cc-pvtz.gbs 
    atoms 4, 17, 21                      entry O          line   331 file /opt/anaconda/envs/psi4v1.5/share/psi4/basis/aug-cc-pvtz.gbs 


         ---------------------------------------------------------
                                   SCF
               by Justin Turney, Rob Parrish, Andy Simmonett
                          and Daniel G. A. Smith
                              RHF Reference
                        8 Threads,  47683 MiB Core
         ---------------------------------------------------------

  ==> Geometry <==

    Molecular point group: c1
    Full point group: C1

    Geometry (in Angstrom), charge = 0, multiplicity = 1:

       Center              X                  Y                   Z               Mass       
    ------------   -----------------  -----------------  -----------------  -----------------
         N            2.878402485200     0.788339970261     0.558559487948    14.003074004430
         H            3.418872485200     1.631889970261     0.718069487948     1.007825032230
         C            1.488672485200     0.932639970261     0.733229487948    12.000000000000
         O            1.056502485200     2.038349970261     1.081089487948    15.994914619570
         N            0.716092485200    -0.180070029739     0.503949487948    14.003074004430
         C            1.289012485200    -1.315540029739     0.121739487948    12.000000000000
         N            0.491172485200    -2.392380029739    -0.071080512052    14.003074004430
         C            2.707312485200    -1.470230029739    -0.059510512052    12.000000000000
         H            3.151192485200    -2.409990029739    -0.365920512052     1.007825032230
         C            3.470922485200    -0.370530029739     0.167849487948    12.000000000000
         H            4.551052485200    -0.356750029739     0.059919487948     1.007825032230
         H           -0.521117514800    -2.288970029739    -0.059460512052     1.007825032230
         H            0.866612485200    -3.227770029739    -0.495710512052     1.007825032230
      Gh(N)          -1.010730540441     1.798623375389    -0.266874076154    14.003074004430
      Gh(H)          -0.322940540441     2.507693375389    -0.018944076154     1.007825032230
      Gh(C)          -0.634020540441     1.057383375389    -1.371484076154    12.000000000000
      Gh(O)           0.173709459559     1.434803375389    -2.211764076154    15.994914619570
      Gh(N)          -1.313920540441    -0.155036624611    -1.459994076154    14.003074004430
      Gh(H)          -1.018260540441    -0.744376624611    -2.234734076154     1.007825032230
      Gh(C)          -1.939430540441    -0.819536624611    -0.408014076154    12.000000000000
      Gh(O)          -2.149440540441    -2.041536624611    -0.477524076154    15.994914619570
      Gh(C)          -2.284280540441     0.018433375389     0.725705923846    12.000000000000
      Gh(C)          -1.737350540441     1.257763375389     0.770905923846    12.000000000000
      Gh(H)          -1.854130540441     1.911263375389     1.630765923846     1.007825032230
      Gh(C)          -3.062990540441    -0.593606624611     1.847795923846    12.000000000000
      Gh(H)          -3.231170540441     0.135533375389     2.644855923846     1.007825032230
      Gh(H)          -4.032520540441    -0.958206624611     1.496215923846     1.007825032230
      Gh(H)          -2.526530540441    -1.451376624611     2.263625923846     1.007825032230

  Running in c1 symmetry.

  Rotational constants: A =      0.02450  B =      0.01490  C =      0.01275 [cm^-1]
  Rotational constants: A =    734.59585  B =    446.83730  C =    382.29800 [MHz]
  Nuclear repulsion =  355.442973275691713

  Charge       = 0
  Multiplicity = 1
  Electrons    = 58
  Nalpha       = 29
  Nbeta        = 29

  ==> Algorithm <==

  SCF Algorithm Type is DF.
  DIIS enabled.
  MOM disabled.
  Fractional occupation disabled.
  Guess Type is SAD.
  Energy threshold   = 1.00e-08
  Density threshold  = 1.00e-08
  Integral threshold = 1.00e-12

  ==> Primary Basis <==

  Basis Set: AUG-CC-PVTZ
    Blend: AUG-CC-PVTZ
    Number of shells: 337
    Number of basis functions: 1035
    Number of Cartesian functions: 1210
    Spherical Harmonics?: true
    Max angular momentum: 3

   => Loading Basis Set <=

    Name: (AUG-CC-PVTZ AUX)
    Role: JKFIT
    Keyword: DF_BASIS_SCF
    atoms 1, 5, 7, 14, 18                entry N          line   224 file /opt/anaconda/envs/psi4v1.5/share/psi4/basis/aug-cc-pvtz-jkfit.gbs 
    atoms 2, 9, 11-13, 15, 19, 24, 26-28 entry H          line    70 file /opt/anaconda/envs/psi4v1.5/share/psi4/basis/aug-cc-pvtz-jkfit.gbs 
    atoms 3, 6, 8, 10, 16, 20, 22-23, 25 entry C          line   162 file /opt/anaconda/envs/psi4v1.5/share/psi4/basis/aug-cc-pvtz-jkfit.gbs 
    atoms 4, 17, 21                      entry O          line   286 file /opt/anaconda/envs/psi4v1.5/share/psi4/basis/aug-cc-pvtz-jkfit.gbs 

  ==> Integral Setup <==

  ==> DiskDFJK: Density-Fitted J/K Matrices <==

    J tasked:                  Yes
    K tasked:                  Yes
    wK tasked:                  No
    OpenMP threads:              8
    Integrals threads:           8
    Memory [MiB]:            35762
    Algorithm:                Core
    Integral Cache:           LOAD
    Schwarz Cutoff:          1E-12
    Fitting Condition:       1E-10

   => Auxiliary Basis Set <=

  Basis Set: (AUG-CC-PVTZ AUX)
    Blend: AUG-CC-PVTZ-JKFIT
    Number of shells: 664
    Number of basis functions: 2274
    Number of Cartesian functions: 2832
    Spherical Harmonics?: true
    Max angular momentum: 4

  Minimum eigenvalue in the overlap matrix is 1.0299419095E-06.
  Reciprocal condition number of the overlap matrix is 4.4288545177E-08.
    Using symmetric orthogonalization.

  ==> Pre-Iterations <==

  SCF Guess: Superposition of Atomic Densities via on-the-fly atomic UHF (no occupation information).

   -------------------------
    Irrep   Nso     Nmo    
   -------------------------
     A       1035    1035 
   -------------------------
    Total    1035    1035
   -------------------------

  ==> Iterations <==

                           Total Energy        Delta E     RMS |[F,P]|

   @DF-RHF iter SAD:  -392.09115840483304   -3.92091e+02   0.00000e+00 
   @DF-RHF iter   1:  -392.50945484276644   -4.18296e-01   7.06099e-04 DIIS
   @DF-RHF iter   2:  -392.69916979569246   -1.89715e-01   4.02422e-04 DIIS
   @DF-RHF iter   3:  -392.75822973096177   -5.90599e-02   7.58692e-05 DIIS
   @DF-RHF iter   4:  -392.76157236791289   -3.34264e-03   3.40166e-05 DIIS
   @DF-RHF iter   5:  -392.76228348470966   -7.11117e-04   6.86410e-06 DIIS
   @DF-RHF iter   6:  -392.76235487879092   -7.13941e-05   3.60583e-06 DIIS
   @DF-RHF iter   7:  -392.76237280391371   -1.79251e-05   1.35607e-06 DIIS
   @DF-RHF iter   8:  -392.76237621646044   -3.41255e-06   4.69125e-07 DIIS
   @DF-RHF iter   9:  -392.76237654037732   -3.23917e-07   1.93552e-07 DIIS
   @DF-RHF iter  10:  -392.76237659571075   -5.53334e-08   6.70686e-08 DIIS
   @DF-RHF iter  11:  -392.76237660404621   -8.33546e-09   1.86880e-08 DIIS
   @DF-RHF iter  12:  -392.76237660463192   -5.85715e-10   5.87677e-09 DIIS
  Energy and wave function converged.


  ==> Post-Iterations <==

    Orbital Energies [Eh]
    ---------------------

    Doubly Occupied:                                                      

       1A    -20.498338     2A    -15.623919     3A    -15.601682  
       4A    -15.542970     5A    -11.370143     6A    -11.357808  
       7A    -11.333794     8A    -11.249754     9A     -1.376962  
      10A     -1.295247    11A     -1.263723    12A     -1.171589  
      13A     -1.067437    14A     -0.904975    15A     -0.878607  
      16A     -0.763797    17A     -0.760343    18A     -0.724078  
      19A     -0.678047    20A     -0.627375    21A     -0.624402  
      22A     -0.611841    23A     -0.587220    24A     -0.540023  
      25A     -0.486068    26A     -0.440438    27A     -0.418702  
      28A     -0.386684    29A     -0.344508  

    Virtual:                                                              

      30A      0.013570    31A      0.021223    32A      0.029491  
      33A      0.036247    34A      0.042104    35A      0.046407  
      36A      0.054655    37A      0.058621    38A      0.060643  
      39A      0.063185    40A      0.072390    41A      0.078890  
      42A      0.080964    43A      0.082774    44A      0.086093  
      45A      0.091920    46A      0.095772    47A      0.097838  
      48A      0.098929    49A      0.100991    50A      0.103063  
      51A      0.109304    52A      0.112207    53A      0.117817  
      54A      0.120895    55A      0.123915    56A      0.129700  
      57A      0.131600    58A      0.136920    59A      0.138873  
      60A      0.141447    61A      0.143608    62A      0.147143  
      63A      0.150560    64A      0.152451    65A      0.162443  
      66A      0.166537    67A      0.168072    68A      0.170025  
      69A      0.176862    70A      0.179691    71A      0.183814  
      72A      0.184859    73A      0.187082    74A      0.192746  
      75A      0.195790    76A      0.200859    77A      0.206137  
      78A      0.210880    79A      0.215298    80A      0.217725  
      81A      0.225329    82A      0.226089    83A      0.230814  
      84A      0.233988    85A      0.237090    86A      0.240433  
      87A      0.244146    88A      0.248453    89A      0.250215  
      90A      0.254719    91A      0.259635    92A      0.261818  
      93A      0.265804    94A      0.269370    95A      0.273536  
      96A      0.281402    97A      0.283022    98A      0.286844  
      99A      0.289178   100A      0.294677   101A      0.295460  
     102A      0.300404   103A      0.301702   104A      0.309767  
     105A      0.311126   106A      0.312940   107A      0.314540  
     108A      0.320244   109A      0.325926   110A      0.328953  
     111A      0.332465   112A      0.341341   113A      0.343338  
     114A      0.345828   115A      0.349516   116A      0.350013  
     117A      0.359793   118A      0.360346   119A      0.364682  
     120A      0.366706   121A      0.371709   122A      0.374548  
     123A      0.377708   124A      0.385219   125A      0.389621  
     126A      0.394624   127A      0.396552   128A      0.401552  
     129A      0.404803   130A      0.409088   131A      0.412040  
     132A      0.415609   133A      0.419418   134A      0.420547  
     135A      0.427559   136A      0.430545   137A      0.433224  
     138A      0.435669   139A      0.438227   140A      0.444539  
     141A      0.448666   142A      0.454013   143A      0.455700  
     144A      0.458829   145A      0.459484   146A      0.466476  
     147A      0.467209   148A      0.471582   149A      0.473467  
     150A      0.476268   151A      0.480657   152A      0.486171  
     153A      0.487419   154A      0.493384   155A      0.494576  
     156A      0.500127   157A      0.502546   158A      0.505983  
     159A      0.508406   160A      0.514755   161A      0.515353  
     162A      0.517922   163A      0.525271   164A      0.527409  
     165A      0.535163   166A      0.537810   167A      0.539990  
     168A      0.546462   169A      0.551639   170A      0.557438  
     171A      0.559621   172A      0.561310   173A      0.570738  
     174A      0.574844   175A      0.577622   176A      0.581230  
     177A      0.583227   178A      0.585925   179A      0.596012  
     180A      0.597682   181A      0.603018   182A      0.608011  
     183A      0.614814   184A      0.618217   185A      0.619377  
     186A      0.625075   187A      0.635077   188A      0.636504  
     189A      0.638641   190A      0.646714   191A      0.649460  
     192A      0.655827   193A      0.658588   194A      0.659132  
     195A      0.664659   196A      0.665630   197A      0.674175  
     198A      0.677167   199A      0.679543   200A      0.685348  
     201A      0.689487   202A      0.691942   203A      0.703678  
     204A      0.707077   205A      0.710452   206A      0.715145  
     207A      0.719222   208A      0.723042   209A      0.729047  
     210A      0.731285   211A      0.734683   212A      0.740897  
     213A      0.742748   214A      0.749689   215A      0.751037  
     216A      0.759845   217A      0.761825   218A      0.764432  
     219A      0.768080   220A      0.772767   221A      0.776205  
     222A      0.782309   223A      0.787560   224A      0.794120  
     225A      0.799716   226A      0.804675   227A      0.809329  
     228A      0.813436   229A      0.817912   230A      0.822345  
     231A      0.830762   232A      0.832228   233A      0.843672  
     234A      0.844606   235A      0.849374   236A      0.852647  
     237A      0.862962   238A      0.864875   239A      0.868820  
     240A      0.871020   241A      0.877347   242A      0.884125  
     243A      0.890556   244A      0.893434   245A      0.896820  
     246A      0.910955   247A      0.913126   248A      0.915425  
     249A      0.919142   250A      0.925526   251A      0.930924  
     252A      0.934511   253A      0.944115   254A      0.945797  
     255A      0.950764   256A      0.959355   257A      0.964933  
     258A      0.967874   259A      0.973328   260A      0.977928  
     261A      0.985918   262A      0.988390   263A      0.991863  
     264A      1.000868   265A      1.003652   266A      1.004540  
     267A      1.010494   268A      1.011554   269A      1.017019  
     270A      1.023463   271A      1.029078   272A      1.037283  
     273A      1.039483   274A      1.041151   275A      1.042904  
     276A      1.051603   277A      1.055649   278A      1.058523  
     279A      1.064062   280A      1.069733   281A      1.070187  
     282A      1.073666   283A      1.080556   284A      1.084075  
     285A      1.092875   286A      1.096317   287A      1.101308  
     288A      1.107844   289A      1.112011   290A      1.115600  
     291A      1.119319   292A      1.127237   293A      1.129966  
     294A      1.132682   295A      1.136842   296A      1.144237  
     297A      1.144976   298A      1.147239   299A      1.157760  
     300A      1.159506   301A      1.163759   302A      1.168232  
     303A      1.171952   304A      1.177348   305A      1.184855  
     306A      1.187944   307A      1.189040   308A      1.195165  
     309A      1.197420   310A      1.201939   311A      1.203339  
     312A      1.212980   313A      1.219907   314A      1.224242  
     315A      1.228270   316A      1.231210   317A      1.234742  
     318A      1.237427   319A      1.243145   320A      1.249367  
     321A      1.250760   322A      1.254943   323A      1.259050  
     324A      1.263573   325A      1.272538   326A      1.274529  
     327A      1.278171   328A      1.286663   329A      1.288457  
     330A      1.290564   331A      1.296322   332A      1.303441  
     333A      1.303807   334A      1.313383   335A      1.320417  
     336A      1.327814   337A      1.332330   338A      1.334795  
     339A      1.338564   340A      1.347051   341A      1.350005  
     342A      1.356753   343A      1.360082   344A      1.363788  
     345A      1.371066   346A      1.373335   347A      1.377640  
     348A      1.383441   349A      1.388944   350A      1.393579  
     351A      1.398215   352A      1.407046   353A      1.412257  
     354A      1.414368   355A      1.419489   356A      1.424742  
     357A      1.434357   358A      1.435819   359A      1.437630  
     360A      1.444405   361A      1.446424   362A      1.454616  
     363A      1.460206   364A      1.460869   365A      1.465939  
     366A      1.472067   367A      1.479286   368A      1.485211  
     369A      1.489639   370A      1.496137   371A      1.503725  
     372A      1.507213   373A      1.513971   374A      1.517486  
     375A      1.521067   376A      1.531349   377A      1.533900  
     378A      1.542098   379A      1.543161   380A      1.547674  
     381A      1.559725   382A      1.562212   383A      1.566955  
     384A      1.577383   385A      1.581178   386A      1.596471  
     387A      1.599708   388A      1.602492   389A      1.606614  
     390A      1.610250   391A      1.614646   392A      1.622476  
     393A      1.623951   394A      1.637512   395A      1.641774  
     396A      1.644313   397A      1.651155   398A      1.653876  
     399A      1.662250   400A      1.666932   401A      1.675147  
     402A      1.681871   403A      1.689526   404A      1.693657  
     405A      1.696547   406A      1.704679   407A      1.708692  
     408A      1.710656   409A      1.720950   410A      1.723524  
     411A      1.730395   412A      1.732101   413A      1.752122  
     414A      1.758550   415A      1.761081   416A      1.769444  
     417A      1.774038   418A      1.779597   419A      1.785722  
     420A      1.790529   421A      1.799319   422A      1.800568  
     423A      1.809047   424A      1.811709   425A      1.822792  
     426A      1.827098   427A      1.834268   428A      1.839913  
     429A      1.845930   430A      1.857629   431A      1.859874  
     432A      1.863948   433A      1.873781   434A      1.878749  
     435A      1.885651   436A      1.888403   437A      1.890660  
     438A      1.899090   439A      1.900182   440A      1.918988  
     441A      1.923401   442A      1.929340   443A      1.938279  
     444A      1.939300   445A      1.946608   446A      1.955688  
     447A      1.957419   448A      1.967071   449A      1.968985  
     450A      1.977925   451A      1.984863   452A      1.989043  
     453A      1.999579   454A      2.005480   455A      2.013059  
     456A      2.018255   457A      2.025727   458A      2.035020  
     459A      2.043385   460A      2.050210   461A      2.055945  
     462A      2.064680   463A      2.069475   464A      2.073764  
     465A      2.077531   466A      2.080142   467A      2.088516  
     468A      2.094981   469A      2.096385   470A      2.110400  
     471A      2.114309   472A      2.129099   473A      2.138362  
     474A      2.141418   475A      2.144851   476A      2.161339  
     477A      2.167015   478A      2.179542   479A      2.186469  
     480A      2.192123   481A      2.198994   482A      2.202434  
     483A      2.209652   484A      2.216454   485A      2.228681  
     486A      2.232523   487A      2.242204   488A      2.246733  
     489A      2.254959   490A      2.259784   491A      2.263818  
     492A      2.269795   493A      2.281561   494A      2.294711  
     495A      2.297331   496A      2.305516   497A      2.309788  
     498A      2.320517   499A      2.339640   500A      2.343490  
     501A      2.354213   502A      2.362215   503A      2.370131  
     504A      2.376292   505A      2.383585   506A      2.388377  
     507A      2.389279   508A      2.394288   509A      2.402493  
     510A      2.413836   511A      2.421394   512A      2.430246  
     513A      2.440014   514A      2.454272   515A      2.461693  
     516A      2.463818   517A      2.473243   518A      2.478549  
     519A      2.484580   520A      2.491167   521A      2.492893  
     522A      2.500510   523A      2.505356   524A      2.518022  
     525A      2.525568   526A      2.531641   527A      2.544137  
     528A      2.545474   529A      2.554474   530A      2.558284  
     531A      2.563488   532A      2.574836   533A      2.588255  
     534A      2.592353   535A      2.600187   536A      2.604575  
     537A      2.608238   538A      2.622795   539A      2.633059  
     540A      2.639935   541A      2.648391   542A      2.655088  
     543A      2.659926   544A      2.666560   545A      2.676674  
     546A      2.677108   547A      2.697329   548A      2.704487  
     549A      2.712581   550A      2.721945   551A      2.725064  
     552A      2.733501   553A      2.744383   554A      2.757246  
     555A      2.765066   556A      2.772224   557A      2.779749  
     558A      2.785348   559A      2.790293   560A      2.795850  
     561A      2.802273   562A      2.805049   563A      2.813718  
     564A      2.821860   565A      2.827536   566A      2.842963  
     567A      2.849406   568A      2.856632   569A      2.859406  
     570A      2.864346   571A      2.877505   572A      2.895018  
     573A      2.897989   574A      2.902016   575A      2.909794  
     576A      2.926808   577A      2.932691   578A      2.936529  
     579A      2.951364   580A      2.960345   581A      2.962891  
     582A      2.975795   583A      2.987979   584A      2.995540  
     585A      3.003690   586A      3.016881   587A      3.022131  
     588A      3.036803   589A      3.042661   590A      3.056748  
     591A      3.060749   592A      3.080375   593A      3.084483  
     594A      3.088098   595A      3.092169   596A      3.096660  
     597A      3.113227   598A      3.113691   599A      3.134358  
     600A      3.148590   601A      3.158997   602A      3.167633  
     603A      3.181952   604A      3.191276   605A      3.198088  
     606A      3.219851   607A      3.227159   608A      3.237151  
     609A      3.248806   610A      3.251076   611A      3.262268  
     612A      3.281715   613A      3.285767   614A      3.299920  
     615A      3.308135   616A      3.322436   617A      3.334887  
     618A      3.341377   619A      3.345475   620A      3.361161  
     621A      3.369193   622A      3.382367   623A      3.386657  
     624A      3.397771   625A      3.410439   626A      3.422108  
     627A      3.429205   628A      3.434851   629A      3.438530  
     630A      3.472852   631A      3.474345   632A      3.485834  
     633A      3.503882   634A      3.518548   635A      3.524446  
     636A      3.535063   637A      3.544631   638A      3.559861  
     639A      3.570523   640A      3.579795   641A      3.582725  
     642A      3.595276   643A      3.613486   644A      3.630776  
     645A      3.639474   646A      3.666832   647A      3.676475  
     648A      3.701369   649A      3.707540   650A      3.716559  
     651A      3.730708   652A      3.752521   653A      3.759713  
     654A      3.765608   655A      3.778525   656A      3.801612  
     657A      3.809888   658A      3.815020   659A      3.829309  
     660A      3.846810   661A      3.857678   662A      3.864452  
     663A      3.876241   664A      3.883987   665A      3.897654  
     666A      3.899808   667A      3.914842   668A      3.924082  
     669A      3.939109   670A      3.945250   671A      3.952751  
     672A      3.962676   673A      3.974932   674A      3.978426  
     675A      4.007250   676A      4.021155   677A      4.040828  
     678A      4.049542   679A      4.064230   680A      4.074696  
     681A      4.080764   682A      4.093416   683A      4.106394  
     684A      4.129316   685A      4.135524   686A      4.146868  
     687A      4.151793   688A      4.166980   689A      4.182195  
     690A      4.184322   691A      4.192941   692A      4.202596  
     693A      4.213847   694A      4.228403   695A      4.231277  
     696A      4.239699   697A      4.245542   698A      4.261759  
     699A      4.264923   700A      4.276338   701A      4.294841  
     702A      4.301567   703A      4.302400   704A      4.310104  
     705A      4.324264   706A      4.331960   707A      4.345751  
     708A      4.358903   709A      4.376690   710A      4.381972  
     711A      4.392024   712A      4.395121   713A      4.402188  
     714A      4.411778   715A      4.416745   716A      4.427059  
     717A      4.435254   718A      4.444289   719A      4.462891  
     720A      4.470742   721A      4.472082   722A      4.476362  
     723A      4.488825   724A      4.501271   725A      4.512497  
     726A      4.520335   727A      4.530185   728A      4.538454  
     729A      4.545032   730A      4.551194   731A      4.571892  
     732A      4.581773   733A      4.589448   734A      4.600926  
     735A      4.608667   736A      4.618136   737A      4.632104  
     738A      4.647878   739A      4.671171   740A      4.675509  
     741A      4.682574   742A      4.705508   743A      4.708302  
     744A      4.714842   745A      4.722895   746A      4.736032  
     747A      4.740529   748A      4.753696   749A      4.763018  
     750A      4.767555   751A      4.779240   752A      4.783770  
     753A      4.802783   754A      4.812934   755A      4.827510  
     756A      4.836008   757A      4.845015   758A      4.858455  
     759A      4.863881   760A      4.867225   761A      4.884243  
     762A      4.892585   763A      4.903429   764A      4.916454  
     765A      4.919879   766A      4.929064   767A      4.938526  
     768A      4.945724   769A      4.964095   770A      4.977967  
     771A      4.984246   772A      4.988958   773A      5.001837  
     774A      5.003585   775A      5.017053   776A      5.033685  
     777A      5.038527   778A      5.053429   779A      5.055075  
     780A      5.068658   781A      5.078711   782A      5.090596  
     783A      5.101095   784A      5.104758   785A      5.123949  
     786A      5.126081   787A      5.132154   788A      5.147120  
     789A      5.157627   790A      5.169899   791A      5.178114  
     792A      5.180747   793A      5.194975   794A      5.206588  
     795A      5.240418   796A      5.250351   797A      5.253942  
     798A      5.263101   799A      5.272536   800A      5.292964  
     801A      5.312608   802A      5.328408   803A      5.331858  
     804A      5.345497   805A      5.360372   806A      5.363766  
     807A      5.377820   808A      5.388999   809A      5.401252  
     810A      5.411933   811A      5.419801   812A      5.427078  
     813A      5.442310   814A      5.448051   815A      5.460211  
     816A      5.470149   817A      5.478843   818A      5.495983  
     819A      5.501500   820A      5.511235   821A      5.525709  
     822A      5.528537   823A      5.539695   824A      5.553495  
     825A      5.562120   826A      5.565972   827A      5.576179  
     828A      5.587275   829A      5.588885   830A      5.605914  
     831A      5.620954   832A      5.625100   833A      5.629694  
     834A      5.644481   835A      5.650859   836A      5.671965  
     837A      5.677445   838A      5.690276   839A      5.699607  
     840A      5.701886   841A      5.705821   842A      5.713271  
     843A      5.722267   844A      5.734302   845A      5.744903  
     846A      5.758271   847A      5.770876   848A      5.777643  
     849A      5.802728   850A      5.815634   851A      5.840705  
     852A      5.855910   853A      5.866115   854A      5.880468  
     855A      5.896775   856A      5.904644   857A      5.921536  
     858A      5.924893   859A      5.941435   860A      5.956412  
     861A      5.974829   862A      5.989190   863A      6.011901  
     864A      6.026129   865A      6.027758   866A      6.064272  
     867A      6.074342   868A      6.084469   869A      6.092514  
     870A      6.097332   871A      6.126203   872A      6.149820  
     873A      6.162791   874A      6.175705   875A      6.193003  
     876A      6.210903   877A      6.225412   878A      6.234765  
     879A      6.252265   880A      6.268555   881A      6.289324  
     882A      6.298868   883A      6.309214   884A      6.331408  
     885A      6.350182   886A      6.366148   887A      6.381133  
     888A      6.390872   889A      6.429895   890A      6.457082  
     891A      6.483911   892A      6.495773   893A      6.539587  
     894A      6.583678   895A      6.611303   896A      6.614019  
     897A      6.657776   898A      6.681497   899A      6.697869  
     900A      6.719619   901A      6.754137   902A      6.774170  
     903A      6.791296   904A      6.805913   905A      6.834031  
     906A      6.839550   907A      6.853647   908A      6.872232  
     909A      6.877904   910A      6.891789   911A      6.902587  
     912A      6.914033   913A      6.973546   914A      6.984425  
     915A      7.010551   916A      7.018910   917A      7.031157  
     918A      7.065698   919A      7.091559   920A      7.097541  
     921A      7.106656   922A      7.155389   923A      7.182418  
     924A      7.204057   925A      7.275205   926A      7.286224  
     927A      7.305931   928A      7.314476   929A      7.334806  
     930A      7.387055   931A      7.405612   932A      7.454440  
     933A      7.461481   934A      7.507117   935A      7.516855  
     936A      7.554658   937A      7.601390   938A      7.641253  
     939A      7.657631   940A      7.677026   941A      7.691545  
     942A      7.702770   943A      7.718319   944A      7.737878  
     945A      7.783873   946A      7.803543   947A      7.821279  
     948A      7.842841   949A      7.846578   950A      7.870526  
     951A      7.876078   952A      7.906882   953A      7.926881  
     954A      7.941639   955A      7.956388   956A      7.967138  
     957A      7.978806   958A      8.006056   959A      8.012436  
     960A      8.030324   961A      8.033328   962A      8.050300  
     963A      8.075492   964A      8.103719   965A      8.119345  
     966A      8.170519   967A      8.176632   968A      8.237869  
     969A      8.257250   970A      8.300209   971A      8.324922  
     972A      8.351169   973A      8.391379   974A      8.432428  
     975A      8.468999   976A      8.538133   977A      8.627501  
     978A      8.736650   979A      8.758548   980A      8.779685  
     981A      8.842516   982A      8.964377   983A      9.048098  
     984A      9.198268   985A      9.322849   986A      9.710985  
     987A      9.793504   988A      9.817861   989A     10.001761  
     990A     10.008576   991A     10.035161   992A     10.108978  
     993A     10.205540   994A     10.316836   995A     10.352896  
     996A     10.385008   997A     10.453787   998A     10.541706  
     999A     10.579999  1000A     10.620617  1001A     10.715881  
    1002A     10.858578  1003A     11.014135  1004A     11.350651  
    1005A     11.553682  1006A     11.715431  1007A     12.113289  
    1008A     12.177653  1009A     12.219232  1010A     12.288019  
    1011A     12.411304  1012A     12.578249  1013A     12.774430  
    1014A     12.896022  1015A     13.581003  1016A     13.757274  
    1017A     14.204697  1018A     14.240722  1019A     16.140382  
    1020A     16.579931  1021A     16.822473  1022A     18.489716  
    1023A     19.076064  1024A     20.101570  1025A     21.150774  
    1026A     21.510064  1027A     52.391873  1028A     53.802328  
    1029A     54.778969  1030A     55.253947  1031A     58.623834  
    1032A     62.207022  1033A     62.779311  1034A     70.042810  
    1035A     72.726095  

    Final Occupation by Irrep:
              A 
    DOCC [    29 ]

  @DF-RHF Final Energy:  -392.76237660463192

   => Energetics <=

    Nuclear Repulsion Energy =            355.4429732756917133
    One-Electron Energy =               -1239.3497375393924358
    Two-Electron Energy =                 491.1443876590688546
    Total Energy =                       -392.7623766046319247

Computation Completed


Properties will be evaluated at   0.000000,   0.000000,   0.000000 [a0]

Properties computed using the SCF density matrix

  Nuclear Dipole Moment: [e a0]
     X:   193.2317      Y:   -30.5673      Z:    40.1103

  Electronic Dipole Moment: [e a0]
     X:  -191.4568      Y:    28.3780      Z:   -41.0765

  Dipole Moment: [e a0]
     X:     1.7749      Y:    -2.1893      Z:    -0.9662     Total:     2.9794

  Dipole Moment: [D]
     X:     4.5114      Y:    -5.5645      Z:    -2.4557     Total:     7.5728


*** tstop() called on node150.bme.utexas.edu at Sat Jan 13 07:56:53 2024
Module time:
	user time   =     792.72 seconds =      13.21 minutes
	system time =       3.69 seconds =       0.06 minutes
	total time  =        111 seconds =       1.85 minutes
Total time:
	user time   =    2067.56 seconds =      34.46 minutes
	system time =      15.31 seconds =       0.26 minutes
	total time  =        294 seconds =       4.90 minutes

*** tstart() called on node150.bme.utexas.edu
*** at Sat Jan 13 07:56:53 2024


  //>>>>>>>>>>>>>>>>>>>>>>>>>>>>>>>>>>>//
  //               DFMP2               //
  //<<<<<<<<<<<<<<<<<<<<<<<<<<<<<<<<<<<//

   => Loading Basis Set <=

    Name: (AUG-CC-PVTZ AUX)
    Role: RIFIT
    Keyword: DF_BASIS_MP2
    atoms 1, 5, 7, 14, 18                entry N          line   206 file /opt/anaconda/envs/psi4v1.5/share/psi4/basis/aug-cc-pvtz-ri.gbs 
    atoms 2, 9, 11-13, 15, 19, 24, 26-28 entry H          line    30 file /opt/anaconda/envs/psi4v1.5/share/psi4/basis/aug-cc-pvtz-ri.gbs 
    atoms 3, 6, 8, 10, 16, 20, 22-23, 25 entry C          line   148 file /opt/anaconda/envs/psi4v1.5/share/psi4/basis/aug-cc-pvtz-ri.gbs 
    atoms 4, 17, 21                      entry O          line   264 file /opt/anaconda/envs/psi4v1.5/share/psi4/basis/aug-cc-pvtz-ri.gbs 

	 --------------------------------------------------------
	                          DF-MP2                         
	      2nd-Order Density-Fitted Moller-Plesset Theory     
	              RMP2 Wavefunction,   8 Threads             
	                                                         
	        Rob Parrish, Justin Turney, Andy Simmonett,      
	           Ed Hohenstein, and C. David Sherrill          
	 --------------------------------------------------------

   => Auxiliary Basis Set <=

  Basis Set: (AUG-CC-PVTZ AUX)
    Blend: AUG-CC-PVTZ-RI
    Number of shells: 630
    Number of basis functions: 2308
    Number of Cartesian functions: 2917
    Spherical Harmonics?: true
    Max angular momentum: 4

	 --------------------------------------------------------
	                 NBF =  1035, NAUX =  2308
	 --------------------------------------------------------
	   CLASS    FOCC     OCC    AOCC    AVIR     VIR    FVIR
	   PAIRS       8      29      21    1006    1006       0
	 --------------------------------------------------------

	 Will attempt to load fitting metric from file 97.

	-----------------------------------------------------------
	 ==================> DF-MP2 Energies <==================== 
	-----------------------------------------------------------
	 Reference Energy          =    -392.7623766046319247 [Eh]
	 Singles Energy            =      -0.0000000000000000 [Eh]
	 Same-Spin Energy          =      -0.3849250565818053 [Eh]
	 Opposite-Spin Energy      =      -1.0983666222762909 [Eh]
	 Correlation Energy        =      -1.4832916788580961 [Eh]
	 Total Energy              =    -394.2456682834900334 [Eh]
	-----------------------------------------------------------
	 ================> DF-SCS-MP2 Energies <================== 
	-----------------------------------------------------------
	 SCS Same-Spin Scale       =       0.3333333333333333 [-]
	 SCS Opposite-Spin Scale   =       1.2000000000000000 [-]
	 SCS Same-Spin Energy      =      -0.1283083521939351 [Eh]
	 SCS Opposite-Spin Energy  =      -1.3180399467315491 [Eh]
	 SCS Correlation Energy    =      -1.4463482989254841 [Eh]
	 SCS Total Energy          =    -394.2087249035574246 [Eh]
	-----------------------------------------------------------


*** tstop() called on node150.bme.utexas.edu at Sat Jan 13 07:57:16 2024
Module time:
	user time   =     123.81 seconds =       2.06 minutes
	system time =       2.72 seconds =       0.05 minutes
	total time  =         23 seconds =       0.38 minutes
Total time:
	user time   =    2191.38 seconds =      36.52 minutes
	system time =      18.03 seconds =       0.30 minutes
	total time  =        317 seconds =       5.28 minutes

  //>>>>>>>>>>>>>>>>>>>>>>>>>>>>>>>>>>>//
  //            Monomer B HF           //
  //<<<<<<<<<<<<<<<<<<<<<<<<<<<<<<<<<<<//


*** tstart() called on node150.bme.utexas.edu
*** at Sat Jan 13 07:57:16 2024

   => Loading Basis Set <=

    Name: AUG-CC-PVTZ
    Role: ORBITAL
    Keyword: BASIS
    atoms 1, 5, 7, 14, 18                entry N          line   285 file /opt/anaconda/envs/psi4v1.5/share/psi4/basis/aug-cc-pvtz.gbs 
    atoms 2, 9, 11-13, 15, 19, 24, 26-28 entry H          line    40 file /opt/anaconda/envs/psi4v1.5/share/psi4/basis/aug-cc-pvtz.gbs 
    atoms 3, 6, 8, 10, 16, 20, 22-23, 25 entry C          line   239 file /opt/anaconda/envs/psi4v1.5/share/psi4/basis/aug-cc-pvtz.gbs 
    atoms 4, 17, 21                      entry O          line   331 file /opt/anaconda/envs/psi4v1.5/share/psi4/basis/aug-cc-pvtz.gbs 


         ---------------------------------------------------------
                                   SCF
               by Justin Turney, Rob Parrish, Andy Simmonett
                          and Daniel G. A. Smith
                              RHF Reference
                        8 Threads,  47683 MiB Core
         ---------------------------------------------------------

  ==> Geometry <==

    Molecular point group: c1
    Full point group: C1

    Geometry (in Angstrom), charge = 0, multiplicity = 1:

       Center              X                  Y                   Z               Mass       
    ------------   -----------------  -----------------  -----------------  -----------------
      Gh(N)           2.878402485200     0.788339970261     0.558559487948    14.003074004430
      Gh(H)           3.418872485200     1.631889970261     0.718069487948     1.007825032230
      Gh(C)           1.488672485200     0.932639970261     0.733229487948    12.000000000000
      Gh(O)           1.056502485200     2.038349970261     1.081089487948    15.994914619570
      Gh(N)           0.716092485200    -0.180070029739     0.503949487948    14.003074004430
      Gh(C)           1.289012485200    -1.315540029739     0.121739487948    12.000000000000
      Gh(N)           0.491172485200    -2.392380029739    -0.071080512052    14.003074004430
      Gh(C)           2.707312485200    -1.470230029739    -0.059510512052    12.000000000000
      Gh(H)           3.151192485200    -2.409990029739    -0.365920512052     1.007825032230
      Gh(C)           3.470922485200    -0.370530029739     0.167849487948    12.000000000000
      Gh(H)           4.551052485200    -0.356750029739     0.059919487948     1.007825032230
      Gh(H)          -0.521117514800    -2.288970029739    -0.059460512052     1.007825032230
      Gh(H)           0.866612485200    -3.227770029739    -0.495710512052     1.007825032230
         N           -1.010730540441     1.798623375389    -0.266874076154    14.003074004430
         H           -0.322940540441     2.507693375389    -0.018944076154     1.007825032230
         C           -0.634020540441     1.057383375389    -1.371484076154    12.000000000000
         O            0.173709459559     1.434803375389    -2.211764076154    15.994914619570
         N           -1.313920540441    -0.155036624611    -1.459994076154    14.003074004430
         H           -1.018260540441    -0.744376624611    -2.234734076154     1.007825032230
         C           -1.939430540441    -0.819536624611    -0.408014076154    12.000000000000
         O           -2.149440540441    -2.041536624611    -0.477524076154    15.994914619570
         C           -2.284280540441     0.018433375389     0.725705923846    12.000000000000
         C           -1.737350540441     1.257763375389     0.770905923846    12.000000000000
         H           -1.854130540441     1.911263375389     1.630765923846     1.007825032230
         C           -3.062990540441    -0.593606624611     1.847795923846    12.000000000000
         H           -3.231170540441     0.135533375389     2.644855923846     1.007825032230
         H           -4.032520540441    -0.958206624611     1.496215923846     1.007825032230
         H           -2.526530540441    -1.451376624611     2.263625923846     1.007825032230

  Running in c1 symmetry.

  Rotational constants: A =      0.02450  B =      0.01490  C =      0.01275 [cm^-1]
  Rotational constants: A =    734.59585  B =    446.83730  C =    382.29800 [MHz]
  Nuclear repulsion =  439.204911851733016

  Charge       = 0
  Multiplicity = 1
  Electrons    = 66
  Nalpha       = 33
  Nbeta        = 33

  ==> Algorithm <==

  SCF Algorithm Type is DF.
  DIIS enabled.
  MOM disabled.
  Fractional occupation disabled.
  Guess Type is SAD.
  Energy threshold   = 1.00e-08
  Density threshold  = 1.00e-08
  Integral threshold = 1.00e-12

  ==> Primary Basis <==

  Basis Set: AUG-CC-PVTZ
    Blend: AUG-CC-PVTZ
    Number of shells: 337
    Number of basis functions: 1035
    Number of Cartesian functions: 1210
    Spherical Harmonics?: true
    Max angular momentum: 3

   => Loading Basis Set <=

    Name: (AUG-CC-PVTZ AUX)
    Role: JKFIT
    Keyword: DF_BASIS_SCF
    atoms 1, 5, 7, 14, 18                entry N          line   224 file /opt/anaconda/envs/psi4v1.5/share/psi4/basis/aug-cc-pvtz-jkfit.gbs 
    atoms 2, 9, 11-13, 15, 19, 24, 26-28 entry H          line    70 file /opt/anaconda/envs/psi4v1.5/share/psi4/basis/aug-cc-pvtz-jkfit.gbs 
    atoms 3, 6, 8, 10, 16, 20, 22-23, 25 entry C          line   162 file /opt/anaconda/envs/psi4v1.5/share/psi4/basis/aug-cc-pvtz-jkfit.gbs 
    atoms 4, 17, 21                      entry O          line   286 file /opt/anaconda/envs/psi4v1.5/share/psi4/basis/aug-cc-pvtz-jkfit.gbs 

  ==> Integral Setup <==

  ==> DiskDFJK: Density-Fitted J/K Matrices <==

    J tasked:                  Yes
    K tasked:                  Yes
    wK tasked:                  No
    OpenMP threads:              8
    Integrals threads:           8
    Memory [MiB]:            35762
    Algorithm:                Core
    Integral Cache:           LOAD
    Schwarz Cutoff:          1E-12
    Fitting Condition:       1E-10

   => Auxiliary Basis Set <=

  Basis Set: (AUG-CC-PVTZ AUX)
    Blend: AUG-CC-PVTZ-JKFIT
    Number of shells: 664
    Number of basis functions: 2274
    Number of Cartesian functions: 2832
    Spherical Harmonics?: true
    Max angular momentum: 4

  Minimum eigenvalue in the overlap matrix is 1.0299419095E-06.
  Reciprocal condition number of the overlap matrix is 4.4288545177E-08.
    Using symmetric orthogonalization.

  ==> Pre-Iterations <==

  SCF Guess: Superposition of Atomic Densities via on-the-fly atomic UHF (no occupation information).

   -------------------------
    Irrep   Nso     Nmo    
   -------------------------
     A       1035    1035 
   -------------------------
    Total    1035    1035
   -------------------------

  ==> Iterations <==

                           Total Energy        Delta E     RMS |[F,P]|

   @DF-RHF iter SAD:  -450.96843372331438   -4.50968e+02   0.00000e+00 
   @DF-RHF iter   1:  -451.37000539755297   -4.01572e-01   7.65456e-04 DIIS
   @DF-RHF iter   2:  -451.56796049147630   -1.97955e-01   5.02778e-04 DIIS
   @DF-RHF iter   3:  -451.65967235050130   -9.17119e-02   9.78336e-05 DIIS
   @DF-RHF iter   4:  -451.66523846804444   -5.56612e-03   3.94873e-05 DIIS
   @DF-RHF iter   5:  -451.66637731848868   -1.13885e-03   8.18715e-06 DIIS
   @DF-RHF iter   6:  -451.66649648689355   -1.19168e-04   4.23704e-06 DIIS
   @DF-RHF iter   7:  -451.66652183229627   -2.53454e-05   1.79765e-06 DIIS
   @DF-RHF iter   8:  -451.66652636834112   -4.53604e-06   7.06796e-07 DIIS
   @DF-RHF iter   9:  -451.66652691655759   -5.48216e-07   2.36856e-07 DIIS
   @DF-RHF iter  10:  -451.66652700980785   -9.32503e-08   9.25993e-08 DIIS
   @DF-RHF iter  11:  -451.66652702023708   -1.04292e-08   3.50064e-08 DIIS
   @DF-RHF iter  12:  -451.66652702182319   -1.58610e-09   1.11465e-08 DIIS
   @DF-RHF iter  13:  -451.66652702197507   -1.51886e-10   3.63471e-09 DIIS
  Energy and wave function converged.


  ==> Post-Iterations <==

    Orbital Energies [Eh]
    ---------------------

    Doubly Occupied:                                                      

       1A    -20.548469     2A    -20.542390     3A    -15.642072  
       4A    -15.628569     5A    -11.419266     6A    -11.380188  
       7A    -11.331276     8A    -11.264615     9A    -11.241010  
      10A     -1.430434    11A     -1.387068    12A     -1.309333  
      13A     -1.242806    14A     -1.110473    15A     -0.970773  
      16A     -0.918514    17A     -0.891736    18A     -0.770063  
      19A     -0.765685    20A     -0.707634    21A     -0.676239  
      22A     -0.666085    23A     -0.640489    24A     -0.611807  
      25A     -0.592350    26A     -0.571052    27A     -0.557450  
      28A     -0.551923    29A     -0.513153    30A     -0.482192  
      31A     -0.448867    32A     -0.434643    33A     -0.359106  

    Virtual:                                                              

      34A      0.013303    35A      0.024672    36A      0.029128  
      37A      0.037594    38A      0.040283    39A      0.043004  
      40A      0.052171    41A      0.056225    42A      0.058264  
      43A      0.062288    44A      0.066610    45A      0.071932  
      46A      0.076795    47A      0.080071    48A      0.084944  
      49A      0.088445    50A      0.092586    51A      0.093192  
      52A      0.099663    53A      0.102100    54A      0.105583  
      55A      0.109121    56A      0.111569    57A      0.115953  
      58A      0.121161    59A      0.124109    60A      0.130352  
      61A      0.133933    62A      0.134892    63A      0.135878  
      64A      0.137618    65A      0.141367    66A      0.146793  
      67A      0.147256    68A      0.155107    69A      0.155431  
      70A      0.157202    71A      0.163677    72A      0.165932  
      73A      0.169902    74A      0.173828    75A      0.177160  
      76A      0.179414    77A      0.181943    78A      0.186474  
      79A      0.196250    80A      0.199568    81A      0.204733  
      82A      0.207626    83A      0.210507    84A      0.212600  
      85A      0.214410    86A      0.218645    87A      0.222808  
      88A      0.227242    89A      0.232803    90A      0.233770  
      91A      0.240529    92A      0.244288    93A      0.247805  
      94A      0.250279    95A      0.253095    96A      0.256487  
      97A      0.259638    98A      0.261551    99A      0.265891  
     100A      0.273651   101A      0.274115   102A      0.278439  
     103A      0.285794   104A      0.291352   105A      0.294577  
     106A      0.295683   107A      0.297014   108A      0.304542  
     109A      0.305433   110A      0.314275   111A      0.314949  
     112A      0.318873   113A      0.324467   114A      0.325047  
     115A      0.331191   116A      0.332132   117A      0.340941  
     118A      0.344302   119A      0.345361   120A      0.349148  
     121A      0.351243   122A      0.358432   123A      0.359775  
     124A      0.362578   125A      0.368072   126A      0.372439  
     127A      0.375837   128A      0.379564   129A      0.383531  
     130A      0.386277   131A      0.393654   132A      0.395679  
     133A      0.397406   134A      0.401862   135A      0.403507  
     136A      0.409027   137A      0.412481   138A      0.415924  
     139A      0.416281   140A      0.423104   141A      0.424916  
     142A      0.428595   143A      0.430531   144A      0.434989  
     145A      0.440236   146A      0.442747   147A      0.448103  
     148A      0.448947   149A      0.453735   150A      0.459251  
     151A      0.460976   152A      0.464477   153A      0.467273  
     154A      0.469482   155A      0.471588   156A      0.475198  
     157A      0.478660   158A      0.484755   159A      0.486657  
     160A      0.488096   161A      0.496658   162A      0.498858  
     163A      0.499728   164A      0.502026   165A      0.505669  
     166A      0.510849   167A      0.513983   168A      0.517619  
     169A      0.520574   170A      0.522811   171A      0.529062  
     172A      0.532922   173A      0.536716   174A      0.540135  
     175A      0.541205   176A      0.550592   177A      0.552596  
     178A      0.558390   179A      0.563288   180A      0.566740  
     181A      0.568333   182A      0.569080   183A      0.575264  
     184A      0.579257   185A      0.585996   186A      0.591267  
     187A      0.595814   188A      0.601271   189A      0.606538  
     190A      0.610219   191A      0.613497   192A      0.616980  
     193A      0.621376   194A      0.623047   195A      0.626074  
     196A      0.635315   197A      0.637195   198A      0.639454  
     199A      0.644702   200A      0.652784   201A      0.661511  
     202A      0.663297   203A      0.668696   204A      0.671429  
     205A      0.674533   206A      0.681774   207A      0.685888  
     208A      0.694737   209A      0.701445   210A      0.707070  
     211A      0.711692   212A      0.712092   213A      0.724531  
     214A      0.726795   215A      0.731244   216A      0.742187  
     217A      0.744968   218A      0.748869   219A      0.756330  
     220A      0.758413   221A      0.762664   222A      0.768438  
     223A      0.771459   224A      0.778034   225A      0.784897  
     226A      0.789817   227A      0.791494   228A      0.798434  
     229A      0.800716   230A      0.809369   231A      0.813406  
     232A      0.816151   233A      0.821204   234A      0.829063  
     235A      0.829643   236A      0.832720   237A      0.835741  
     238A      0.842895   239A      0.846238   240A      0.860294  
     241A      0.861357   242A      0.864908   243A      0.868051  
     244A      0.870002   245A      0.871509   246A      0.881399  
     247A      0.884338   248A      0.886236   249A      0.889060  
     250A      0.894777   251A      0.897202   252A      0.900906  
     253A      0.907002   254A      0.909228   255A      0.919129  
     256A      0.919780   257A      0.923035   258A      0.926551  
     259A      0.930177   260A      0.932562   261A      0.938039  
     262A      0.942652   263A      0.952217   264A      0.956029  
     265A      0.959159   266A      0.962618   267A      0.964813  
     268A      0.969688   269A      0.970867   270A      0.978239  
     271A      0.983315   272A      0.987306   273A      0.991620  
     274A      0.998438   275A      1.001702   276A      1.006322  
     277A      1.009581   278A      1.014460   279A      1.022343  
     280A      1.025769   281A      1.028978   282A      1.031851  
     283A      1.036936   284A      1.045973   285A      1.051392  
     286A      1.052715   287A      1.056302   288A      1.060099  
     289A      1.065643   290A      1.068932   291A      1.075376  
     292A      1.078465   293A      1.082455   294A      1.092153  
     295A      1.098100   296A      1.099833   297A      1.108183  
     298A      1.115922   299A      1.119674   300A      1.130126  
     301A      1.133052   302A      1.139730   303A      1.141227  
     304A      1.143538   305A      1.145767   306A      1.152433  
     307A      1.154404   308A      1.162170   309A      1.163516  
     310A      1.172181   311A      1.174524   312A      1.176581  
     313A      1.184605   314A      1.187955   315A      1.190242  
     316A      1.193586   317A      1.198091   318A      1.200371  
     319A      1.202531   320A      1.211792   321A      1.213881  
     322A      1.217546   323A      1.227412   324A      1.229327  
     325A      1.234578   326A      1.238182   327A      1.241703  
     328A      1.248487   329A      1.253367   330A      1.259641  
     331A      1.265348   332A      1.268386   333A      1.275764  
     334A      1.279748   335A      1.287956   336A      1.292500  
     337A      1.296154   338A      1.298351   339A      1.308087  
     340A      1.314318   341A      1.315214   342A      1.322227  
     343A      1.324588   344A      1.331942   345A      1.333255  
     346A      1.342052   347A      1.344095   348A      1.349107  
     349A      1.353573   350A      1.365083   351A      1.371593  
     352A      1.374030   353A      1.377748   354A      1.384680  
     355A      1.393672   356A      1.395525   357A      1.404383  
     358A      1.405898   359A      1.411607   360A      1.414224  
     361A      1.421519   362A      1.424142   363A      1.428884  
     364A      1.434145   365A      1.440267   366A      1.446180  
     367A      1.448089   368A      1.456153   369A      1.463137  
     370A      1.465689   371A      1.471417   372A      1.486077  
     373A      1.487459   374A      1.491496   375A      1.495935  
     376A      1.499828   377A      1.504165   378A      1.512536  
     379A      1.512845   380A      1.517246   381A      1.528135  
     382A      1.539129   383A      1.547153   384A      1.549775  
     385A      1.556991   386A      1.559424   387A      1.560632  
     388A      1.568725   389A      1.574108   390A      1.584520  
     391A      1.594116   392A      1.597311   393A      1.599895  
     394A      1.600707   395A      1.605429   396A      1.611949  
     397A      1.623139   398A      1.627131   399A      1.637303  
     400A      1.640777   401A      1.643362   402A      1.645599  
     403A      1.657834   404A      1.665154   405A      1.671156  
     406A      1.676025   407A      1.680662   408A      1.689152  
     409A      1.690108   410A      1.691724   411A      1.698505  
     412A      1.702276   413A      1.713129   414A      1.714434  
     415A      1.719208   416A      1.720764   417A      1.727471  
     418A      1.732965   419A      1.739193   420A      1.743869  
     421A      1.749399   422A      1.756760   423A      1.762722  
     424A      1.767612   425A      1.773051   426A      1.776493  
     427A      1.786506   428A      1.790841   429A      1.796425  
     430A      1.803888   431A      1.807913   432A      1.808658  
     433A      1.815142   434A      1.819818   435A      1.824577  
     436A      1.838569   437A      1.839124   438A      1.849064  
     439A      1.851897   440A      1.859411   441A      1.860661  
     442A      1.874041   443A      1.877500   444A      1.884463  
     445A      1.893071   446A      1.894598   447A      1.899154  
     448A      1.905804   449A      1.915940   450A      1.924882  
     451A      1.929690   452A      1.932611   453A      1.937554  
     454A      1.955247   455A      1.961049   456A      1.961342  
     457A      1.967613   458A      1.978114   459A      1.981890  
     460A      1.988296   461A      1.995304   462A      2.000033  
     463A      2.004860   464A      2.010172   465A      2.015825  
     466A      2.026323   467A      2.029774   468A      2.038420  
     469A      2.047072   470A      2.051437   471A      2.062647  
     472A      2.065066   473A      2.070995   474A      2.081839  
     475A      2.089041   476A      2.093402   477A      2.101316  
     478A      2.104994   479A      2.117255   480A      2.120977  
     481A      2.127073   482A      2.136853   483A      2.141092  
     484A      2.155414   485A      2.162344   486A      2.171312  
     487A      2.175547   488A      2.181151   489A      2.191974  
     490A      2.195983   491A      2.201751   492A      2.208820  
     493A      2.213930   494A      2.217211   495A      2.229512  
     496A      2.234743   497A      2.240994   498A      2.252370  
     499A      2.263716   500A      2.266019   501A      2.273172  
     502A      2.278267   503A      2.285276   504A      2.288033  
     505A      2.295154   506A      2.303141   507A      2.307916  
     508A      2.312433   509A      2.315990   510A      2.318191  
     511A      2.328395   512A      2.333279   513A      2.350697  
     514A      2.361598   515A      2.365953   516A      2.377865  
     517A      2.380184   518A      2.384016   519A      2.394080  
     520A      2.412073   521A      2.416971   522A      2.423359  
     523A      2.427096   524A      2.435285   525A      2.437887  
     526A      2.446790   527A      2.465256   528A      2.482156  
     529A      2.484490   530A      2.490630   531A      2.502002  
     532A      2.512067   533A      2.519315   534A      2.528844  
     535A      2.540782   536A      2.546305   537A      2.553046  
     538A      2.557055   539A      2.577163   540A      2.580153  
     541A      2.589966   542A      2.591525   543A      2.602309  
     544A      2.605690   545A      2.615160   546A      2.623241  
     547A      2.635756   548A      2.644150   549A      2.655211  
     550A      2.669020   551A      2.680803   552A      2.682254  
     553A      2.700184   554A      2.703198   555A      2.707889  
     556A      2.711817   557A      2.727476   558A      2.731880  
     559A      2.738769   560A      2.746277   561A      2.751438  
     562A      2.759199   563A      2.763477   564A      2.767751  
     565A      2.788315   566A      2.796328   567A      2.798690  
     568A      2.804482   569A      2.815330   570A      2.820487  
     571A      2.824033   572A      2.831626   573A      2.834235  
     574A      2.847385   575A      2.861379   576A      2.870402  
     577A      2.876763   578A      2.881358   579A      2.890213  
     580A      2.908090   581A      2.919005   582A      2.922839  
     583A      2.932056   584A      2.941369   585A      2.946786  
     586A      2.951950   587A      2.956617   588A      2.978675  
     589A      2.987041   590A      2.992246   591A      2.996469  
     592A      3.004719   593A      3.013404   594A      3.023083  
     595A      3.039858   596A      3.054930   597A      3.065371  
     598A      3.069552   599A      3.090678   600A      3.098957  
     601A      3.107315   602A      3.118538   603A      3.125698  
     604A      3.134869   605A      3.145553   606A      3.153035  
     607A      3.161322   608A      3.169640   609A      3.171127  
     610A      3.179458   611A      3.197863   612A      3.211777  
     613A      3.221798   614A      3.228333   615A      3.242469  
     616A      3.265347   617A      3.273704   618A      3.293632  
     619A      3.297213   620A      3.301592   621A      3.307183  
     622A      3.325908   623A      3.341472   624A      3.345198  
     625A      3.369690   626A      3.377053   627A      3.386624  
     628A      3.397152   629A      3.407848   630A      3.419872  
     631A      3.423209   632A      3.443291   633A      3.453163  
     634A      3.464399   635A      3.468460   636A      3.491112  
     637A      3.504075   638A      3.509984   639A      3.515060  
     640A      3.528178   641A      3.559369   642A      3.561524  
     643A      3.578089   644A      3.585625   645A      3.595602  
     646A      3.602896   647A      3.627572   648A      3.635946  
     649A      3.649375   650A      3.661370   651A      3.666144  
     652A      3.677191   653A      3.685612   654A      3.710275  
     655A      3.722129   656A      3.731573   657A      3.741234  
     658A      3.755363   659A      3.767657   660A      3.777625  
     661A      3.789761   662A      3.798522   663A      3.810552  
     664A      3.814772   665A      3.823188   666A      3.826686  
     667A      3.839574   668A      3.855736   669A      3.858260  
     670A      3.872731   671A      3.880666   672A      3.896863  
     673A      3.912506   674A      3.921674   675A      3.930843  
     676A      3.937157   677A      3.951016   678A      3.955997  
     679A      3.969949   680A      3.977069   681A      3.983849  
     682A      4.003686   683A      4.018152   684A      4.024608  
     685A      4.040857   686A      4.046129   687A      4.062901  
     688A      4.073073   689A      4.076494   690A      4.080093  
     691A      4.102352   692A      4.106946   693A      4.110285  
     694A      4.124605   695A      4.142350   696A      4.154039  
     697A      4.156649   698A      4.158688   699A      4.171154  
     700A      4.175836   701A      4.184717   702A      4.202590  
     703A      4.203281   704A      4.217655   705A      4.223096  
     706A      4.238336   707A      4.241936   708A      4.250329  
     709A      4.263700   710A      4.269674   711A      4.277004  
     712A      4.293641   713A      4.299835   714A      4.305938  
     715A      4.320278   716A      4.331292   717A      4.336827  
     718A      4.355802   719A      4.367012   720A      4.377173  
     721A      4.384129   722A      4.394363   723A      4.399331  
     724A      4.419829   725A      4.425260   726A      4.449959  
     727A      4.455506   728A      4.460460   729A      4.476412  
     730A      4.482686   731A      4.492764   732A      4.506342  
     733A      4.514907   734A      4.516032   735A      4.525403  
     736A      4.527196   737A      4.545976   738A      4.564012  
     739A      4.575750   740A      4.592260   741A      4.600939  
     742A      4.609078   743A      4.615929   744A      4.618452  
     745A      4.628377   746A      4.646125   747A      4.647746  
     748A      4.668076   749A      4.681889   750A      4.686287  
     751A      4.701223   752A      4.710511   753A      4.714829  
     754A      4.730753   755A      4.736994   756A      4.758815  
     757A      4.760755   758A      4.776972   759A      4.779878  
     760A      4.791128   761A      4.811379   762A      4.816356  
     763A      4.829204   764A      4.837440   765A      4.844099  
     766A      4.846114   767A      4.866696   768A      4.872542  
     769A      4.877682   770A      4.886303   771A      4.889080  
     772A      4.897069   773A      4.903095   774A      4.916013  
     775A      4.927530   776A      4.939778   777A      4.955762  
     778A      4.963024   779A      4.972234   780A      4.989094  
     781A      4.999045   782A      5.011531   783A      5.016925  
     784A      5.019453   785A      5.038486   786A      5.044681  
     787A      5.046286   788A      5.054033   789A      5.068448  
     790A      5.071046   791A      5.084428   792A      5.103575  
     793A      5.111400   794A      5.119011   795A      5.139507  
     796A      5.143219   797A      5.145913   798A      5.158636  
     799A      5.162559   800A      5.184258   801A      5.197975  
     802A      5.203323   803A      5.207744   804A      5.214788  
     805A      5.222360   806A      5.227545   807A      5.240722  
     808A      5.256195   809A      5.260865   810A      5.278659  
     811A      5.282550   812A      5.294209   813A      5.315866  
     814A      5.334512   815A      5.339492   816A      5.351074  
     817A      5.357735   818A      5.372526   819A      5.377782  
     820A      5.382178   821A      5.404870   822A      5.413670  
     823A      5.431038   824A      5.438242   825A      5.446880  
     826A      5.467751   827A      5.476243   828A      5.494730  
     829A      5.510847   830A      5.514819   831A      5.521216  
     832A      5.537697   833A      5.547645   834A      5.555367  
     835A      5.574764   836A      5.598550   837A      5.602270  
     838A      5.617701   839A      5.634678   840A      5.641478  
     841A      5.652473   842A      5.663076   843A      5.668773  
     844A      5.671590   845A      5.686537   846A      5.699220  
     847A      5.708461   848A      5.716818   849A      5.724401  
     850A      5.743133   851A      5.751270   852A      5.776889  
     853A      5.793630   854A      5.806596   855A      5.811331  
     856A      5.833774   857A      5.836370   858A      5.856751  
     859A      5.887237   860A      5.890522   861A      5.921858  
     862A      5.934187   863A      5.953565   864A      5.970301  
     865A      6.007182   866A      6.014555   867A      6.040482  
     868A      6.049282   869A      6.059240   870A      6.083585  
     871A      6.096111   872A      6.111985   873A      6.126333  
     874A      6.143671   875A      6.149616   876A      6.165122  
     877A      6.188815   878A      6.192213   879A      6.202712  
     880A      6.222097   881A      6.233949   882A      6.256792  
     883A      6.274747   884A      6.311960   885A      6.314587  
     886A      6.339601   887A      6.343229   888A      6.365234  
     889A      6.397127   890A      6.418993   891A      6.441126  
     892A      6.448150   893A      6.480925   894A      6.508995  
     895A      6.522889   896A      6.539843   897A      6.552495  
     898A      6.618702   899A      6.628919   900A      6.650361  
     901A      6.670668   902A      6.694706   903A      6.707559  
     904A      6.717589   905A      6.734370   906A      6.749284  
     907A      6.765998   908A      6.785940   909A      6.804291  
     910A      6.811372   911A      6.817292   912A      6.835917  
     913A      6.849830   914A      6.865794   915A      6.875593  
     916A      6.882209   917A      6.906137   918A      6.921044  
     919A      6.955851   920A      6.964409   921A      6.978339  
     922A      6.987531   923A      7.001747   924A      7.024672  
     925A      7.040302   926A      7.069536   927A      7.082856  
     928A      7.109613   929A      7.119108   930A      7.141204  
     931A      7.148675   932A      7.176131   933A      7.223557  
     934A      7.263252   935A      7.300615   936A      7.323604  
     937A      7.351240   938A      7.362250   939A      7.403894  
     940A      7.422184   941A      7.476187   942A      7.488145  
     943A      7.510102   944A      7.514045   945A      7.551536  
     946A      7.599904   947A      7.618224   948A      7.630632  
     949A      7.673482   950A      7.680930   951A      7.705717  
     952A      7.723031   953A      7.734091   954A      7.768105  
     955A      7.793246   956A      7.803640   957A      7.817570  
     958A      7.848216   959A      7.851673   960A      7.856502  
     961A      7.883594   962A      7.910466   963A      7.917757  
     964A      7.925562   965A      7.936218   966A      7.951176  
     967A      7.962174   968A      7.988304   969A      8.029833  
     970A      8.037635   971A      8.057682   972A      8.083561  
     973A      8.090858   974A      8.124621   975A      8.148230  
     976A      8.151455   977A      8.198480   978A      8.261652  
     979A      8.292365   980A      8.315969   981A      8.339847  
     982A      8.418638   983A      8.552845   984A      8.639210  
     985A      8.762284   986A      8.775245   987A      8.890444  
     988A      8.967049   989A      9.095499   990A      9.183840  
     991A      9.343313   992A      9.512342   993A      9.573179  
     994A      9.740289   995A      9.769906   996A      9.835914  
     997A      9.927128   998A     10.062051   999A     10.186847  
    1000A     10.303956  1001A     10.336147  1002A     10.433045  
    1003A     10.580956  1004A     10.900310  1005A     11.191835  
    1006A     11.271373  1007A     11.368550  1008A     11.531564  
    1009A     11.891167  1010A     12.079012  1011A     12.122381  
    1012A     12.218036  1013A     12.552760  1014A     12.590693  
    1015A     12.819774  1016A     13.318309  1017A     13.708898  
    1018A     14.197824  1019A     16.593986  1020A     16.788829  
    1021A     17.041452  1022A     17.348049  1023A     18.368143  
    1024A     19.662937  1025A     20.659077  1026A     20.912599  
    1027A     21.789697  1028A     51.948909  1029A     52.174031  
    1030A     54.685795  1031A     56.422230  1032A     61.410379  
    1033A     63.037324  1034A     66.350445  1035A     70.560031  

    Final Occupation by Irrep:
              A 
    DOCC [    33 ]

  @DF-RHF Final Energy:  -451.66652702197507

   => Energetics <=

    Nuclear Repulsion Energy =            439.2049118517330157
    One-Electron Energy =               -1486.5274190838915729
    Two-Electron Energy =                 595.6559802101835430
    Total Energy =                       -451.6665270219750710

Computation Completed


Properties will be evaluated at   0.000000,   0.000000,   0.000000 [a0]

Properties computed using the SCF density matrix

  Nuclear Dipole Moment: [e a0]
     X:  -194.6652      Y:    25.6519      Z:   -34.8298

  Electronic Dipole Moment: [e a0]
     X:   194.4125      Y:   -24.4383      Z:    36.3146

  Dipole Moment: [e a0]
     X:    -0.2527      Y:     1.2136      Z:     1.4848     Total:     1.9342

  Dipole Moment: [D]
     X:    -0.6423      Y:     3.0847      Z:     3.7739     Total:     4.9163


*** tstop() called on node150.bme.utexas.edu at Sat Jan 13 07:59:19 2024
Module time:
	user time   =     883.74 seconds =      14.73 minutes
	system time =       4.02 seconds =       0.07 minutes
	total time  =        123 seconds =       2.05 minutes
Total time:
	user time   =    3075.14 seconds =      51.25 minutes
	system time =      22.05 seconds =       0.37 minutes
	total time  =        440 seconds =       7.33 minutes

*** tstart() called on node150.bme.utexas.edu
*** at Sat Jan 13 07:59:19 2024


  //>>>>>>>>>>>>>>>>>>>>>>>>>>>>>>>>>>>//
  //               DFMP2               //
  //<<<<<<<<<<<<<<<<<<<<<<<<<<<<<<<<<<<//

   => Loading Basis Set <=

    Name: (AUG-CC-PVTZ AUX)
    Role: RIFIT
    Keyword: DF_BASIS_MP2
    atoms 1, 5, 7, 14, 18                entry N          line   206 file /opt/anaconda/envs/psi4v1.5/share/psi4/basis/aug-cc-pvtz-ri.gbs 
    atoms 2, 9, 11-13, 15, 19, 24, 26-28 entry H          line    30 file /opt/anaconda/envs/psi4v1.5/share/psi4/basis/aug-cc-pvtz-ri.gbs 
    atoms 3, 6, 8, 10, 16, 20, 22-23, 25 entry C          line   148 file /opt/anaconda/envs/psi4v1.5/share/psi4/basis/aug-cc-pvtz-ri.gbs 
    atoms 4, 17, 21                      entry O          line   264 file /opt/anaconda/envs/psi4v1.5/share/psi4/basis/aug-cc-pvtz-ri.gbs 

	 --------------------------------------------------------
	                          DF-MP2                         
	      2nd-Order Density-Fitted Moller-Plesset Theory     
	              RMP2 Wavefunction,   8 Threads             
	                                                         
	        Rob Parrish, Justin Turney, Andy Simmonett,      
	           Ed Hohenstein, and C. David Sherrill          
	 --------------------------------------------------------

   => Auxiliary Basis Set <=

  Basis Set: (AUG-CC-PVTZ AUX)
    Blend: AUG-CC-PVTZ-RI
    Number of shells: 630
    Number of basis functions: 2308
    Number of Cartesian functions: 2917
    Spherical Harmonics?: true
    Max angular momentum: 4

	 --------------------------------------------------------
	                 NBF =  1035, NAUX =  2308
	 --------------------------------------------------------
	   CLASS    FOCC     OCC    AOCC    AVIR     VIR    FVIR
	   PAIRS       9      33      24    1002    1002       0
	 --------------------------------------------------------

	 Will attempt to load fitting metric from file 97.

	-----------------------------------------------------------
	 ==================> DF-MP2 Energies <==================== 
	-----------------------------------------------------------
	 Reference Energy          =    -451.6665270219750710 [Eh]
	 Singles Energy            =      -0.0000000000000000 [Eh]
	 Same-Spin Energy          =      -0.4343337502996600 [Eh]
	 Opposite-Spin Energy      =      -1.2537389323957779 [Eh]
	 Correlation Energy        =      -1.6880726826954380 [Eh]
	 Total Energy              =    -453.3545997046705338 [Eh]
	-----------------------------------------------------------
	 ================> DF-SCS-MP2 Energies <================== 
	-----------------------------------------------------------
	 SCS Same-Spin Scale       =       0.3333333333333333 [-]
	 SCS Opposite-Spin Scale   =       1.2000000000000000 [-]
	 SCS Same-Spin Energy      =      -0.1447779167665533 [Eh]
	 SCS Opposite-Spin Energy  =      -1.5044867188749336 [Eh]
	 SCS Correlation Energy    =      -1.6492646356414868 [Eh]
	 SCS Total Energy          =    -453.3157916576165576 [Eh]
	-----------------------------------------------------------


*** tstop() called on node150.bme.utexas.edu at Sat Jan 13 07:59:41 2024
Module time:
	user time   =     114.71 seconds =       1.91 minutes
	system time =       2.82 seconds =       0.05 minutes
	total time  =         22 seconds =       0.37 minutes
Total time:
	user time   =    3189.86 seconds =      53.16 minutes
	system time =      24.87 seconds =       0.41 minutes
	total time  =        462 seconds =       7.70 minutes
  Constructing Basis Sets for SAPT...

   => Loading Basis Set <=

    Name: (AUG-CC-PVTZ AUX)
    Role: RIFIT
    Keyword: DF_BASIS_SAPT
    atoms 1, 5, 7, 14, 18                entry N          line   206 file /opt/anaconda/envs/psi4v1.5/share/psi4/basis/aug-cc-pvtz-ri.gbs 
    atoms 2, 9, 11-13, 15, 19, 24, 26-28 entry H          line    30 file /opt/anaconda/envs/psi4v1.5/share/psi4/basis/aug-cc-pvtz-ri.gbs 
    atoms 3, 6, 8, 10, 16, 20, 22-23, 25 entry C          line   148 file /opt/anaconda/envs/psi4v1.5/share/psi4/basis/aug-cc-pvtz-ri.gbs 
    atoms 4, 17, 21                      entry O          line   264 file /opt/anaconda/envs/psi4v1.5/share/psi4/basis/aug-cc-pvtz-ri.gbs 


  //>>>>>>>>>>>>>>>>>>>>>>>>>>>>>>>>>>>//
  //           SAPT2+(3)DMP2           //
  //<<<<<<<<<<<<<<<<<<<<<<<<<<<<<<<<<<<//


*** tstart() called on node150.bme.utexas.edu
*** at Sat Jan 13 07:59:41 2024

      SAPT2+(3)  
    Ed Hohenstein
     6 June 2009

      Orbital Information
  --------------------------
    NSO        =      1035
    NMO        =      1035
    NRI        =      2308
    NOCC A     =        29
    NOCC B     =        33
    FOCC A     =         8
    FOCC B     =         9
    NVIR A     =      1006
    NVIR B     =      1002

    Estimated memory usage: 45136.8 MB

    Natural Orbital Cutoff:   1.000E-06
    Disp(T3) Truncation:            Yes
    CCD (vv|vv) Truncation:         Yes
    MBPT T2 Truncation:             Yes

    Monomer A: 578 virtual orbitals dropped
    Monomer B: 515 virtual orbitals dropped

    Elst10,r            =    -0.076407861065 [Eh]
    Exch10 (S^2)        =     0.117565209444 [Eh]
    Exch10              =     0.119789372626 [Eh]
    Ind20,r (A<-B)      =    -0.040468320392 [Eh]
    Ind20,r (B<-A)      =    -0.026692405401 [Eh]
    Ind20,r             =    -0.067160725793 [Eh]
    Exch-Ind20,r (A<-B) =     0.033908369718 [Eh]
    Exch-Ind20,r (B<-A) =     0.017013559948 [Eh]
    Exch-Ind20,r        =     0.050921929667 [Eh]
    Disp20              =    -0.054536878762 [Eh]
    Disp20 (NO)         =    -0.049662494497 [Eh]
    Exch-Disp20         =     0.010973265082 [Eh]
    Elst12,r            =     0.002704546961 [Eh]
    Exch11              =     0.001219953030 [Eh]
    Exch12              =     0.008116272323 [Eh]
    Ind22               =    -0.008384040919 [Eh]
    Disp21              =     0.012014410740 [Eh]
    Disp22 (SDQ)        =    -0.001898390659 [Eh]

    (i =   1 of  24)       1114 seconds
    (i =   2 of  24)       2228 seconds
    (i =   3 of  24)       3347 seconds
    (i =   4 of  24)       4467 seconds
    (i =   5 of  24)       5588 seconds
    (i =   6 of  24)       6711 seconds
    (i =   7 of  24)       7833 seconds
    (i =   8 of  24)       8954 seconds
    (i =   9 of  24)      10072 seconds
    (i =  10 of  24)      11189 seconds
    (i =  11 of  24)      12305 seconds
    (i =  12 of  24)      13746 seconds
    (i =  13 of  24)      15822 seconds
    (i =  14 of  24)      17976 seconds
    (i =  15 of  24)      20094 seconds
    (i =  16 of  24)      22181 seconds
    (i =  17 of  24)      24271 seconds
    (i =  18 of  24)      26346 seconds
    (i =  19 of  24)      28419 seconds
    (i =  20 of  24)      30492 seconds
    (i =  21 of  24)      32590 seconds
    (i =  22 of  24)      34658 seconds
    (i =  23 of  24)      36755 seconds
    (i =  24 of  24)      38829 seconds

    Disp220 (T)         =    -0.005236309516 [Eh]

    (i =   1 of  21)       2728 seconds
    (i =   2 of  21)       5454 seconds
    (i =   3 of  21)       8185 seconds
    (i =   4 of  21)      10882 seconds
    (i =   5 of  21)      13652 seconds
    (i =   6 of  21)      16431 seconds
    (i =   7 of  21)      19202 seconds
    (i =   8 of  21)      22246 seconds
    (i =   9 of  21)      25288 seconds
    (i =  10 of  21)      28337 seconds
    (i =  11 of  21)      31377 seconds
    (i =  12 of  21)      34415 seconds
    (i =  13 of  21)      37406 seconds
    (i =  14 of  21)      40423 seconds
    (i =  15 of  21)      43469 seconds
    (i =  16 of  21)      46507 seconds
    (i =  17 of  21)      49581 seconds
    (i =  18 of  21)      52648 seconds
    (i =  19 of  21)      55218 seconds
    (i =  20 of  21)      58083 seconds
    (i =  21 of  21)      60757 seconds

    Disp202 (T)         =    -0.005194765235 [Eh]

    Disp22 (T)          =    -0.010431074752 [Eh]

    Est. Disp220 (T)    =    -0.005750254395 [Eh]
    Est. Disp202 (T)    =    -0.005704632534 [Eh]

    Est. Disp22 (T)     =    -0.011454886929 [Eh]
    Elst13,r            =     0.000641969818 [Eh]
    Disp30              =     0.001706614313 [Eh]

    SAPT Results 
  --------------------------------------------------------------------------------------------------------
    Electrostatics                -73.06134429 [mEh]     -45.84668571 [kcal/mol]    -191.82253300 [kJ/mol]
      Elst10,r                    -76.40786106 [mEh]     -47.94665669 [kcal/mol]    -200.60881159 [kJ/mol]
      Elst12,r                      2.70454696 [mEh]       1.69712884 [kcal/mol]       7.10078707 [kJ/mol]
      Elst13,r                      0.64196982 [mEh]       0.40284214 [kcal/mol]       1.68549152 [kJ/mol]

    Exchange                      129.12559798 [mEh]      81.02753604 [kcal/mol]     339.01921079 [kJ/mol]
      Exch10                      119.78937263 [mEh]      75.16896618 [kcal/mol]     314.50695450 [kJ/mol]
      Exch10(S^2)                 117.56520944 [mEh]      73.77328271 [kcal/mol]     308.66741487 [kJ/mol]
      Exch11(S^2)                   1.21995303 [mEh]       0.76553208 [kcal/mol]       3.20298624 [kJ/mol]
      Exch12(S^2)                   8.11627232 [mEh]       5.09303777 [kcal/mol]      21.30927005 [kJ/mol]

    Induction                     -23.60499057 [mEh]     -14.81235521 [kcal/mol]     -61.97489419 [kJ/mol]
      Ind20,r                     -67.16072579 [mEh]     -42.14399170 [kcal/mol]    -176.33046128 [kJ/mol]
      Ind22                        -8.38404092 [mEh]      -5.26106510 [kcal/mol]     -22.01229640 [kJ/mol]
      Exch-Ind20,r                 50.92192967 [mEh]      31.95399329 [kcal/mol]     133.69550792 [kJ/mol]
      Exch-Ind22                    6.35686314 [mEh]       3.98899184 [kcal/mol]      16.68994186 [kJ/mol]
      delta HF,r (2)              -11.02256844 [mEh]      -6.91676612 [kcal/mol]     -28.93974946 [kJ/mol]
      delta MP2,r (2)               5.68355179 [mEh]       3.56648259 [kcal/mol]      14.92216316 [kJ/mol]

    Dispersion                    -43.19586621 [mEh]     -27.10581528 [kcal/mol]    -113.41073112 [kJ/mol]
      Disp20                      -54.53687876 [mEh]     -34.22240809 [kcal/mol]    -143.18655546 [kJ/mol]
      Disp30                        1.70661431 [mEh]       1.07091665 [kcal/mol]       4.48071526 [kJ/mol]
      Disp21                       12.01441074 [mEh]       7.53915656 [kcal/mol]      31.54383105 [kJ/mol]
      Disp22 (SDQ)                 -1.89839066 [mEh]      -1.19125812 [kcal/mol]      -4.98422399 [kJ/mol]
      Disp22 (T)                  -10.43107475 [mEh]      -6.54559823 [kcal/mol]     -27.38678299 [kJ/mol]
      Est. Disp22 (T)             -11.45488693 [mEh]      -7.18805007 [kcal/mol]     -30.07480149 [kJ/mol]
      Exch-Disp20                  10.97326508 [mEh]       6.88582780 [kcal/mol]      28.81030350 [kJ/mol]

  Total HF                         16.12014699 [mEh]      10.11554496 [kcal/mol]      42.32344010 [kJ/mol]
  Total SAPT0                     -27.44346669 [mEh]     -17.22103534 [kcal/mol]     -72.05281186 [kJ/mol]
  Total SAPT2                     -17.42987216 [mEh]     -10.93740990 [kcal/mol]     -45.76212304 [kJ/mol]
  Total SAPT2+                    -18.76873900 [mEh]     -11.77756154 [kcal/mol]     -49.27731746 [kJ/mol]
  Total SAPT2+(3)                 -16.42015487 [mEh]     -10.30380274 [kcal/mol]     -43.11111068 [kJ/mol]
  Total SAPT2+dMP2                -13.08518722 [mEh]      -8.21107895 [kcal/mol]     -34.35515431 [kJ/mol]
  Total SAPT2+(3)dMP2             -10.73660309 [mEh]      -6.73732015 [kcal/mol]     -28.18894752 [kJ/mol]

  Special recipe for scaled SAPT0 (see Manual):
    Electrostatics sSAPT0         -76.40786106 [mEh]     -47.94665669 [kcal/mol]    -200.60881159 [kJ/mol]
    Exchange sSAPT0               119.78937263 [mEh]      75.16896618 [kcal/mol]     314.50695450 [kJ/mol]
    Induction sSAPT0              -24.31623606 [mEh]     -15.25866850 [kcal/mol]     -63.84226898 [kJ/mol]
    Dispersion sSAPT0             -42.92896224 [mEh]     -26.93833051 [kcal/mol]    -112.70997484 [kJ/mol]
  Total sSAPT0                    -23.86368674 [mEh]     -14.97468951 [kcal/mol]     -62.65410091 [kJ/mol]
  --------------------------------------------------------------------------------------------------------

*** tstop() called on node150.bme.utexas.edu at Sun Jan 14 15:47:11 2024
Module time:
	user time   =  693965.50 seconds =   11566.09 minutes
	system time =    1537.90 seconds =      25.63 minutes
	total time  =     114450 seconds =    1907.50 minutes
Total time:
	user time   =  697156.16 seconds =   11619.27 minutes
	system time =    1562.79 seconds =      26.05 minutes
	total time  =     114912 seconds =    1915.20 minutes

    Psi4 stopped on: Sunday, 14 January 2024 03:47PM
    Psi4 wall time for execution: 1 day, 7:55:12.24

*** Psi4 exiting successfully. Buy a developer a beer!
