
    -----------------------------------------------------------------------
          Psi4: An Open-Source Ab Initio Electronic Structure Package
                               Psi4 1.5 release

                         Git: Rev {HEAD} e9f4d6d 


    D. G. A. Smith, L. A. Burns, A. C. Simmonett, R. M. Parrish,
    M. C. Schieber, R. Galvelis, P. Kraus, H. Kruse, R. Di Remigio,
    A. Alenaizan, A. M. James, S. Lehtola, J. P. Misiewicz, M. Scheurer,
    R. A. Shaw, J. B. Schriber, Y. Xie, Z. L. Glick, D. A. Sirianni,
    J. S. O'Brien, J. M. Waldrop, A. Kumar, E. G. Hohenstein,
    B. P. Pritchard, B. R. Brooks, H. F. Schaefer III, A. Yu. Sokolov,
    K. Patkowski, A. E. DePrince III, U. Bozkaya, R. A. King,
    F. A. Evangelista, J. M. Turney, T. D. Crawford, C. D. Sherrill,
    J. Chem. Phys. 152(18) 184108 (2020). https://doi.org/10.1063/5.0006002

                            Additional Code Authors
    E. T. Seidl, C. L. Janssen, E. F. Valeev, M. L. Leininger,
    J. F. Gonthier, R. M. Richard, H. R. McAlexander, M. Saitow, X. Wang,
    P. Verma, M. H. Lechner, and A. Jiang

             Previous Authors, Complete List of Code Contributors,
                       and Citations for Specific Modules
    https://github.com/psi4/psi4/blob/master/codemeta.json
    https://github.com/psi4/psi4/graphs/contributors
    http://psicode.org/psi4manual/master/introduction.html#citing-psifour

    -----------------------------------------------------------------------


    Psi4 started on: Saturday, 13 January 2024 07:51AM

    Process ID: 3433288
    Host:       node151.bme.utexas.edu
    PSIDATADIR: /opt/anaconda/envs/psi4v1.5/share/psi4
    Memory:     500.0 MiB
    Threads:    8
    
  ==> Input File <==

--------------------------------------------------------------------------
memory 50GB

molecule {
0 1
N 3.10705 0.75686 0.53763
H 3.64752 1.60041 0.69714
C 1.71732 0.90116 0.7123
O 1.28515 2.00687 1.06016
N 0.94474 -0.21155 0.48302
C 1.51766 -1.34702 0.10081
N 0.71982 -2.42386 -0.09201
C 2.93596 -1.50171 -0.08044
H 3.37984 -2.44147 -0.38685
C 3.69957 -0.40201 0.14692
H 4.7797 -0.38823 0.03899
H -0.29247 -2.32045 -0.08039
H 1.09526 -3.25925 -0.51664
--
0 1
N -1.4092134871794872 1.9149782974358973 -0.292328217948718
H -0.7214234871794871 2.6240482974358974 -0.04439821794871795
C -1.0325034871794871 1.1737382974358974 -1.396938217948718
O -0.22477348717948717 1.5511582974358975 -2.237218217948718
N -1.712403487179487 -0.038681702564102555 -1.485448217948718
H -1.4167434871794873 -0.6280217025641026 -2.260188217948718
C -2.3379134871794873 -0.7031817025641026 -0.433468217948718
O -2.5479234871794874 -1.9251817025641027 -0.5029782179487179
C -2.6827634871794874 0.13478829743589743 0.7002517820512821
C -2.1358334871794873 1.3741182974358974 0.745451782051282
H -2.252613487179487 2.0276182974358976 1.6053117820512819
C -3.461473487179487 -0.4772517025641026 1.822341782051282
H -3.629653487179487 0.25188829743589747 2.619401782051282
H -4.431003487179487 -0.8418517025641026 1.470761782051282
H -2.9250134871794873 -1.3350217025641027 2.238171782051282
 units angstrom
 no_reorient
 symmetry c1
}
set
 {scf_type DF
 basis aug-cc-pvtz
 freeze_core True
 guess SAD
}
energy('sapt2+(3)dmp2')
--------------------------------------------------------------------------

  Memory set to  46.566 GiB by Python driver.

Scratch directory: /tmp/
   => Loading Basis Set <=

    Name: AUG-CC-PVTZ
    Role: ORBITAL
    Keyword: BASIS
    atoms 1, 5, 7, 14, 18                entry N          line   285 file /opt/anaconda/envs/psi4v1.5/share/psi4/basis/aug-cc-pvtz.gbs 
    atoms 2, 9, 11-13, 15, 19, 24, 26-28 entry H          line    40 file /opt/anaconda/envs/psi4v1.5/share/psi4/basis/aug-cc-pvtz.gbs 
    atoms 3, 6, 8, 10, 16, 20, 22-23, 25 entry C          line   239 file /opt/anaconda/envs/psi4v1.5/share/psi4/basis/aug-cc-pvtz.gbs 
    atoms 4, 17, 21                      entry O          line   331 file /opt/anaconda/envs/psi4v1.5/share/psi4/basis/aug-cc-pvtz.gbs 

   => Loading Basis Set <=

    Name: AUG-CC-PVTZ
    Role: ORBITAL
    Keyword: BASIS
    atoms 1, 5, 7, 14, 18                entry N          line   285 file /opt/anaconda/envs/psi4v1.5/share/psi4/basis/aug-cc-pvtz.gbs 
    atoms 2, 9, 11-13, 15, 19, 24, 26-28 entry H          line    40 file /opt/anaconda/envs/psi4v1.5/share/psi4/basis/aug-cc-pvtz.gbs 
    atoms 3, 6, 8, 10, 16, 20, 22-23, 25 entry C          line   239 file /opt/anaconda/envs/psi4v1.5/share/psi4/basis/aug-cc-pvtz.gbs 
    atoms 4, 17, 21                      entry O          line   331 file /opt/anaconda/envs/psi4v1.5/share/psi4/basis/aug-cc-pvtz.gbs 


  //>>>>>>>>>>>>>>>>>>>>>>>>>>>>>>>>>>>//
  //              Dimer HF             //
  //<<<<<<<<<<<<<<<<<<<<<<<<<<<<<<<<<<<//


*** tstart() called on node151.bme.utexas.edu
*** at Sat Jan 13 07:51:59 2024

   => Loading Basis Set <=

    Name: AUG-CC-PVTZ
    Role: ORBITAL
    Keyword: BASIS
    atoms 1, 5, 7, 14, 18                entry N          line   285 file /opt/anaconda/envs/psi4v1.5/share/psi4/basis/aug-cc-pvtz.gbs 
    atoms 2, 9, 11-13, 15, 19, 24, 26-28 entry H          line    40 file /opt/anaconda/envs/psi4v1.5/share/psi4/basis/aug-cc-pvtz.gbs 
    atoms 3, 6, 8, 10, 16, 20, 22-23, 25 entry C          line   239 file /opt/anaconda/envs/psi4v1.5/share/psi4/basis/aug-cc-pvtz.gbs 
    atoms 4, 17, 21                      entry O          line   331 file /opt/anaconda/envs/psi4v1.5/share/psi4/basis/aug-cc-pvtz.gbs 


         ---------------------------------------------------------
                                   SCF
               by Justin Turney, Rob Parrish, Andy Simmonett
                          and Daniel G. A. Smith
                              RHF Reference
                        8 Threads,  47683 MiB Core
         ---------------------------------------------------------

  ==> Geometry <==

    Molecular point group: c1
    Full point group: C1

    Geometry (in Angstrom), charge = 0, multiplicity = 1:

       Center              X                  Y                   Z               Mass       
    ------------   -----------------  -----------------  -----------------  -----------------
         N            3.211805959754     0.709746009708     0.560964944876    14.003074004430
         H            3.752275959754     1.553296009708     0.720474944876     1.007825032230
         C            1.822075959754     0.854046009708     0.735634944876    12.000000000000
         O            1.389905959754     1.959756009708     1.083494944876    15.994914619570
         N            1.049495959754    -0.258663990292     0.506354944876    14.003074004430
         C            1.622415959754    -1.394133990292     0.124144944876    12.000000000000
         N            0.824575959754    -2.470973990292    -0.068675055124    14.003074004430
         C            3.040715959754    -1.548823990292    -0.057105055124    12.000000000000
         H            3.484595959754    -2.488583990292    -0.363515055124     1.007825032230
         C            3.804325959754    -0.449123990292     0.170254944876    12.000000000000
         H            4.884455959754    -0.435343990292     0.062324944876     1.007825032230
         H           -0.187714040246    -2.367563990292    -0.057055055124     1.007825032230
         H            1.200015959754    -3.306363990292    -0.493305055124     1.007825032230
         N           -1.304457527425     1.867864307144    -0.268993273073    14.003074004430
         H           -0.616667527425     2.576934307144    -0.021063273073     1.007825032230
         C           -0.927747527425     1.126624307144    -1.373603273073    12.000000000000
         O           -0.120017527425     1.504044307144    -2.213883273073    15.994914619570
         N           -1.607647527425    -0.085795692856    -1.462113273073    14.003074004430
         H           -1.311987527425    -0.675135692856    -2.236853273073     1.007825032230
         C           -2.233157527425    -0.750295692856    -0.410133273073    12.000000000000
         O           -2.443167527425    -1.972295692856    -0.479643273073    15.994914619570
         C           -2.578007527425     0.087674307144     0.723586726927    12.000000000000
         C           -2.031077527425     1.327004307144     0.768786726927    12.000000000000
         H           -2.147857527425     1.980504307144     1.628646726927     1.007825032230
         C           -3.356717527425    -0.524365692856     1.845676726927    12.000000000000
         H           -3.524897527425     0.204774307144     2.642736726927     1.007825032230
         H           -4.326247527425    -0.888965692856     1.494096726927     1.007825032230
         H           -2.820257527425    -1.382135692856     2.261506726927     1.007825032230

  Running in c1 symmetry.

  Rotational constants: A =      0.02411  B =      0.01209  C =      0.01055 [cm^-1]
  Rotational constants: A =    722.88028  B =    362.58534  C =    316.35411 [MHz]
  Nuclear repulsion = 1239.901521593939606

  Charge       = 0
  Multiplicity = 1
  Electrons    = 124
  Nalpha       = 62
  Nbeta        = 62

  ==> Algorithm <==

  SCF Algorithm Type is DF.
  DIIS enabled.
  MOM disabled.
  Fractional occupation disabled.
  Guess Type is SAD.
  Energy threshold   = 1.00e-08
  Density threshold  = 1.00e-08
  Integral threshold = 1.00e-12

  ==> Primary Basis <==

  Basis Set: AUG-CC-PVTZ
    Blend: AUG-CC-PVTZ
    Number of shells: 337
    Number of basis functions: 1035
    Number of Cartesian functions: 1210
    Spherical Harmonics?: true
    Max angular momentum: 3

   => Loading Basis Set <=

    Name: (AUG-CC-PVTZ AUX)
    Role: JKFIT
    Keyword: DF_BASIS_SCF
    atoms 1, 5, 7, 14, 18                entry N          line   224 file /opt/anaconda/envs/psi4v1.5/share/psi4/basis/aug-cc-pvtz-jkfit.gbs 
    atoms 2, 9, 11-13, 15, 19, 24, 26-28 entry H          line    70 file /opt/anaconda/envs/psi4v1.5/share/psi4/basis/aug-cc-pvtz-jkfit.gbs 
    atoms 3, 6, 8, 10, 16, 20, 22-23, 25 entry C          line   162 file /opt/anaconda/envs/psi4v1.5/share/psi4/basis/aug-cc-pvtz-jkfit.gbs 
    atoms 4, 17, 21                      entry O          line   286 file /opt/anaconda/envs/psi4v1.5/share/psi4/basis/aug-cc-pvtz-jkfit.gbs 

  ==> Integral Setup <==

  ==> DiskDFJK: Density-Fitted J/K Matrices <==

    J tasked:                  Yes
    K tasked:                  Yes
    wK tasked:                  No
    OpenMP threads:              8
    Integrals threads:           8
    Memory [MiB]:            35762
    Algorithm:                Core
    Integral Cache:           SAVE
    Schwarz Cutoff:          1E-12
    Fitting Condition:       1E-10

   => Auxiliary Basis Set <=

  Basis Set: (AUG-CC-PVTZ AUX)
    Blend: AUG-CC-PVTZ-JKFIT
    Number of shells: 664
    Number of basis functions: 2274
    Number of Cartesian functions: 2832
    Spherical Harmonics?: true
    Max angular momentum: 4

  Minimum eigenvalue in the overlap matrix is 1.3399994177E-06.
  Reciprocal condition number of the overlap matrix is 6.3432384066E-08.
    Using symmetric orthogonalization.

  ==> Pre-Iterations <==

  SCF Guess: Superposition of Atomic Densities via on-the-fly atomic UHF (no occupation information).

   -------------------------
    Irrep   Nso     Nmo    
   -------------------------
     A       1035    1035 
   -------------------------
    Total    1035    1035
   -------------------------

  ==> Iterations <==

                           Total Energy        Delta E     RMS |[F,P]|

   @DF-RHF iter SAD:  -843.27358737727297   -8.43274e+02   0.00000e+00 
   @DF-RHF iter   1:  -843.92280420664531   -6.49217e-01   1.01848e-03 DIIS
   @DF-RHF iter   2:  -844.30524081193437   -3.82437e-01   5.96891e-04 DIIS
   @DF-RHF iter   3:  -844.43446192664783   -1.29221e-01   1.20683e-04 DIIS
   @DF-RHF iter   4:  -844.44270807539237   -8.24615e-03   5.30141e-05 DIIS
   @DF-RHF iter   5:  -844.44449574857356   -1.78767e-03   1.08843e-05 DIIS
   @DF-RHF iter   6:  -844.44467221282639   -1.76464e-04   5.93802e-06 DIIS
   @DF-RHF iter   7:  -844.44471843208714   -4.62193e-05   2.20794e-06 DIIS
   @DF-RHF iter   8:  -844.44472645635403   -8.02427e-06   8.08540e-07 DIIS
   @DF-RHF iter   9:  -844.44472727940592   -8.23052e-07   3.09841e-07 DIIS
   @DF-RHF iter  10:  -844.44472741066943   -1.31264e-07   1.20187e-07 DIIS
   @DF-RHF iter  11:  -844.44472743069616   -2.00267e-08   5.22358e-08 DIIS
   @DF-RHF iter  12:  -844.44472743391714   -3.22098e-09   1.59539e-08 DIIS
   @DF-RHF iter  13:  -844.44472743427332   -3.56181e-10   5.05243e-09 DIIS
  Energy and wave function converged.


  ==> Post-Iterations <==

    Orbital Energies [Eh]
    ---------------------

    Doubly Occupied:                                                      

       1A    -20.531990     2A    -20.525211     3A    -20.515171  
       4A    -15.631420     5A    -15.610752     6A    -15.608308  
       7A    -15.598271     8A    -15.550932     9A    -11.395847  
      10A    -11.384868    11A    -11.367397    12A    -11.363275  
      13A    -11.338313    14A    -11.308628    15A    -11.254095  
      16A    -11.238262    17A    -11.224129    18A     -1.408576  
      19A     -1.391921    20A     -1.376455    21A     -1.303694  
      22A     -1.282604    23A     -1.269159    24A     -1.221917  
      25A     -1.177475    26A     -1.087613    27A     -1.072708  
      28A     -0.948999    29A     -0.910249    30A     -0.897134  
      31A     -0.885534    32A     -0.869350    33A     -0.770495  
      34A     -0.765232    35A     -0.745197    36A     -0.744085  
      37A     -0.727577    38A     -0.685491    39A     -0.682405  
      40A     -0.657641    41A     -0.646620    42A     -0.636426  
      43A     -0.630785    44A     -0.621114    45A     -0.616933  
      46A     -0.601901    47A     -0.592895    48A     -0.574076  
      49A     -0.552096    50A     -0.544832    51A     -0.539807  
      52A     -0.535092    53A     -0.499142    54A     -0.488199  
      55A     -0.462285    56A     -0.457182    57A     -0.436063  
      58A     -0.431838    59A     -0.422441    60A     -0.390794  
      61A     -0.355127    62A     -0.334573  

    Virtual:                                                              

      63A      0.015586    64A      0.025474    65A      0.033166  
      66A      0.040888    67A      0.042856    68A      0.046267  
      69A      0.055824    70A      0.059137    71A      0.060146  
      72A      0.065114    73A      0.074539    74A      0.078231  
      75A      0.083982    76A      0.086609    77A      0.089149  
      78A      0.091770    79A      0.098233    80A      0.100501  
      81A      0.101645    82A      0.104319    83A      0.106687  
      84A      0.111742    85A      0.118748    86A      0.120386  
      87A      0.123162    88A      0.125473    89A      0.126162  
      90A      0.130277    91A      0.136163    92A      0.137671  
      93A      0.141944    94A      0.143437    95A      0.149087  
      96A      0.152062    97A      0.155548    98A      0.156622  
      99A      0.163530   100A      0.165275   101A      0.169913  
     102A      0.173423   103A      0.174989   104A      0.177660  
     105A      0.179196   106A      0.185975   107A      0.188068  
     108A      0.194095   109A      0.200634   110A      0.201301  
     111A      0.208995   112A      0.214984   113A      0.216573  
     114A      0.219499   115A      0.226142   116A      0.230994  
     117A      0.234106   118A      0.239406   119A      0.241494  
     120A      0.242538   121A      0.247382   122A      0.253519  
     123A      0.258832   124A      0.262861   125A      0.264234  
     126A      0.266565   127A      0.268304   128A      0.272785  
     129A      0.276803   130A      0.276843   131A      0.283971  
     132A      0.284410   133A      0.290700   134A      0.294638  
     135A      0.295558   136A      0.297766   137A      0.305385  
     138A      0.306595   139A      0.310444   140A      0.315211  
     141A      0.316667   142A      0.320284   143A      0.324294  
     144A      0.329006   145A      0.331353   146A      0.334805  
     147A      0.337951   148A      0.339858   149A      0.344809  
     150A      0.347315   151A      0.352895   152A      0.354934  
     153A      0.358488   154A      0.365761   155A      0.366883  
     156A      0.369982   157A      0.372849   158A      0.379267  
     159A      0.379967   160A      0.383278   161A      0.389296  
     162A      0.395436   163A      0.395791   164A      0.396281  
     165A      0.399158   166A      0.404821   167A      0.407728  
     168A      0.409636   169A      0.413146   170A      0.418213  
     171A      0.420662   172A      0.426232   173A      0.431125  
     174A      0.433818   175A      0.436865   176A      0.442431  
     177A      0.443223   178A      0.445658   179A      0.450698  
     180A      0.452654   181A      0.455286   182A      0.457458  
     183A      0.461725   184A      0.464484   185A      0.467259  
     186A      0.471758   187A      0.475903   188A      0.478596  
     189A      0.480412   190A      0.482780   191A      0.489419  
     192A      0.491973   193A      0.496263   194A      0.497760  
     195A      0.502079   196A      0.508276   197A      0.511415  
     198A      0.513392   199A      0.515649   200A      0.518281  
     201A      0.521323   202A      0.522382   203A      0.528893  
     204A      0.529440   205A      0.538589   206A      0.540055  
     207A      0.544307   208A      0.545004   209A      0.550726  
     210A      0.551304   211A      0.559345   212A      0.560637  
     213A      0.565138   214A      0.570421   215A      0.572142  
     216A      0.579331   217A      0.582237   218A      0.592134  
     219A      0.593962   220A      0.597182   221A      0.601577  
     222A      0.605087   223A      0.608501   224A      0.615841  
     225A      0.620869   226A      0.628164   227A      0.631774  
     228A      0.636436   229A      0.638025   230A      0.642156  
     231A      0.644970   232A      0.650860   233A      0.652992  
     234A      0.656118   235A      0.659070   236A      0.666793  
     237A      0.670129   238A      0.676190   239A      0.681048  
     240A      0.683049   241A      0.690404   242A      0.693969  
     243A      0.696086   244A      0.706810   245A      0.710755  
     246A      0.712979   247A      0.716991   248A      0.724621  
     249A      0.727055   250A      0.735425   251A      0.740511  
     252A      0.743324   253A      0.751735   254A      0.753980  
     255A      0.754970   256A      0.756594   257A      0.765936  
     258A      0.767971   259A      0.770748   260A      0.772690  
     261A      0.780087   262A      0.784844   263A      0.788977  
     264A      0.793744   265A      0.794792   266A      0.800007  
     267A      0.807316   268A      0.811439   269A      0.812857  
     270A      0.817240   271A      0.826731   272A      0.830048  
     273A      0.835470   274A      0.837805   275A      0.843263  
     276A      0.851124   277A      0.855234   278A      0.857535  
     279A      0.862073   280A      0.869284   281A      0.870696  
     282A      0.876365   283A      0.881450   284A      0.885555  
     285A      0.889550   286A      0.891564   287A      0.896985  
     288A      0.902779   289A      0.909213   290A      0.912828  
     291A      0.915069   292A      0.924382   293A      0.926327  
     294A      0.929948   295A      0.935042   296A      0.939044  
     297A      0.942946   298A      0.947656   299A      0.950747  
     300A      0.954142   301A      0.955954   302A      0.964394  
     303A      0.967959   304A      0.970855   305A      0.974951  
     306A      0.985055   307A      0.986159   308A      0.989416  
     309A      0.995427   310A      0.998026   311A      1.000449  
     312A      1.004009   313A      1.012916   314A      1.013802  
     315A      1.015942   316A      1.022878   317A      1.024555  
     318A      1.032466   319A      1.032812   320A      1.039208  
     321A      1.040990   322A      1.046435   323A      1.049767  
     324A      1.055142   325A      1.064500   326A      1.067275  
     327A      1.069589   328A      1.072115   329A      1.077306  
     330A      1.080214   331A      1.086999   332A      1.092064  
     333A      1.094977   334A      1.097619   335A      1.102042  
     336A      1.109971   337A      1.111358   338A      1.117352  
     339A      1.120398   340A      1.126734   341A      1.133221  
     342A      1.137041   343A      1.140219   344A      1.142823  
     345A      1.147864   346A      1.153498   347A      1.154547  
     348A      1.158121   349A      1.165139   350A      1.165550  
     351A      1.170403   352A      1.175382   353A      1.178926  
     354A      1.185418   355A      1.188444   356A      1.192320  
     357A      1.199673   358A      1.206663   359A      1.209638  
     360A      1.211814   361A      1.216501   362A      1.217455  
     363A      1.220136   364A      1.224402   365A      1.242091  
     366A      1.243162   367A      1.245543   368A      1.249054  
     369A      1.252957   370A      1.254746   371A      1.257489  
     372A      1.262169   373A      1.268548   374A      1.271029  
     375A      1.277253   376A      1.280002   377A      1.282190  
     378A      1.289825   379A      1.294035   380A      1.300471  
     381A      1.306408   382A      1.309353   383A      1.315872  
     384A      1.323277   385A      1.329796   386A      1.335516  
     387A      1.345794   388A      1.355380   389A      1.359679  
     390A      1.365587   391A      1.368139   392A      1.369324  
     393A      1.372879   394A      1.379329   395A      1.386134  
     396A      1.390145   397A      1.392048   398A      1.398150  
     399A      1.402388   400A      1.410701   401A      1.412426  
     402A      1.416707   403A      1.420975   404A      1.428132  
     405A      1.432998   406A      1.441725   407A      1.445269  
     408A      1.447108   409A      1.451108   410A      1.455602  
     411A      1.466090   412A      1.467007   413A      1.470489  
     414A      1.477725   415A      1.485571   416A      1.489533  
     417A      1.494290   418A      1.497997   419A      1.501120  
     420A      1.510294   421A      1.516869   422A      1.517778  
     423A      1.520703   424A      1.525724   425A      1.535795  
     426A      1.538438   427A      1.538902   428A      1.548975  
     429A      1.552468   430A      1.557874   431A      1.559296  
     432A      1.569562   433A      1.574772   434A      1.579533  
     435A      1.586358   436A      1.593082   437A      1.601631  
     438A      1.608551   439A      1.614656   440A      1.618014  
     441A      1.625234   442A      1.627654   443A      1.637024  
     444A      1.641229   445A      1.646645   446A      1.648344  
     447A      1.655179   448A      1.659405   449A      1.666987  
     450A      1.670328   451A      1.677096   452A      1.686327  
     453A      1.689483   454A      1.699044   455A      1.707457  
     456A      1.710587   457A      1.712210   458A      1.716202  
     459A      1.720695   460A      1.727251   461A      1.732408  
     462A      1.740441   463A      1.742954   464A      1.750723  
     465A      1.758173   466A      1.762295   467A      1.767130  
     468A      1.771713   469A      1.779300   470A      1.783690  
     471A      1.793416   472A      1.796751   473A      1.799589  
     474A      1.808605   475A      1.816327   476A      1.820362  
     477A      1.825222   478A      1.827768   479A      1.834059  
     480A      1.844387   481A      1.850889   482A      1.853660  
     483A      1.857244   484A      1.869653   485A      1.871876  
     486A      1.881666   487A      1.883925   488A      1.902752  
     489A      1.907870   490A      1.911848   491A      1.918508  
     492A      1.922535   493A      1.929006   494A      1.931661  
     495A      1.936851   496A      1.943806   497A      1.945466  
     498A      1.954518   499A      1.967639   500A      1.971412  
     501A      1.980301   502A      1.995346   503A      2.002837  
     504A      2.005166   505A      2.007038   506A      2.016900  
     507A      2.030340   508A      2.042170   509A      2.046938  
     510A      2.048230   511A      2.055952   512A      2.058264  
     513A      2.075474   514A      2.082794   515A      2.087355  
     516A      2.100396   517A      2.105088   518A      2.114055  
     519A      2.118390   520A      2.122161   521A      2.126498  
     522A      2.141362   523A      2.147564   524A      2.157219  
     525A      2.160701   526A      2.175361   527A      2.179746  
     528A      2.184766   529A      2.188928   530A      2.195303  
     531A      2.203943   532A      2.209352   533A      2.219583  
     534A      2.222870   535A      2.229450   536A      2.246508  
     537A      2.247725   538A      2.257448   539A      2.261919  
     540A      2.269159   541A      2.272821   542A      2.277366  
     543A      2.280728   544A      2.286662   545A      2.294745  
     546A      2.298417   547A      2.315145   548A      2.316607  
     549A      2.325996   550A      2.328435   551A      2.333838  
     552A      2.347352   553A      2.356776   554A      2.360489  
     555A      2.373069   556A      2.379817   557A      2.380750  
     558A      2.385737   559A      2.398480   560A      2.401480  
     561A      2.411862   562A      2.420083   563A      2.432343  
     564A      2.436232   565A      2.441525   566A      2.448152  
     567A      2.456168   568A      2.468576   569A      2.470453  
     570A      2.485500   571A      2.490601   572A      2.505029  
     573A      2.512525   574A      2.517487   575A      2.528402  
     576A      2.537751   577A      2.541535   578A      2.547534  
     579A      2.558897   580A      2.564125   581A      2.569503  
     582A      2.578515   583A      2.588861   584A      2.598940  
     585A      2.607794   586A      2.609400   587A      2.618634  
     588A      2.620445   589A      2.630443   590A      2.641272  
     591A      2.652517   592A      2.656419   593A      2.669154  
     594A      2.682899   595A      2.686953   596A      2.698371  
     597A      2.708337   598A      2.712356   599A      2.725175  
     600A      2.733610   601A      2.736651   602A      2.748622  
     603A      2.755803   604A      2.758566   605A      2.764769  
     606A      2.774949   607A      2.781714   608A      2.783980  
     609A      2.793550   610A      2.799063   611A      2.805179  
     612A      2.810076   613A      2.814699   614A      2.818620  
     615A      2.830432   616A      2.836266   617A      2.850742  
     618A      2.860559   619A      2.873030   620A      2.878497  
     621A      2.889686   622A      2.898583   623A      2.913103  
     624A      2.919527   625A      2.940557   626A      2.945444  
     627A      2.970977   628A      2.986187   629A      2.992973  
     630A      3.000268   631A      3.013423   632A      3.020420  
     633A      3.042491   634A      3.048720   635A      3.067068  
     636A      3.067439   637A      3.077824   638A      3.086316  
     639A      3.087552   640A      3.110804   641A      3.123496  
     642A      3.127251   643A      3.148458   644A      3.156502  
     645A      3.181068   646A      3.194135   647A      3.203589  
     648A      3.219486   649A      3.222259   650A      3.236378  
     651A      3.245065   652A      3.254916   653A      3.270158  
     654A      3.286215   655A      3.299813   656A      3.315031  
     657A      3.333941   658A      3.345759   659A      3.360847  
     660A      3.372821   661A      3.390397   662A      3.397003  
     663A      3.400703   664A      3.409560   665A      3.418884  
     666A      3.427718   667A      3.449211   668A      3.459853  
     669A      3.465454   670A      3.473458   671A      3.475120  
     672A      3.489113   673A      3.502238   674A      3.510515  
     675A      3.516416   676A      3.526428   677A      3.538159  
     678A      3.541719   679A      3.555361   680A      3.564923  
     681A      3.575716   682A      3.586344   683A      3.600464  
     684A      3.612339   685A      3.628660   686A      3.636454  
     687A      3.646545   688A      3.655254   689A      3.661377  
     690A      3.671924   691A      3.680116   692A      3.692997  
     693A      3.696553   694A      3.702901   695A      3.705999  
     696A      3.717335   697A      3.724549   698A      3.725533  
     699A      3.734018   700A      3.742382   701A      3.751407  
     702A      3.762348   703A      3.767900   704A      3.786504  
     705A      3.796276   706A      3.799378   707A      3.817911  
     708A      3.825177   709A      3.827640   710A      3.834608  
     711A      3.839126   712A      3.846738   713A      3.860873  
     714A      3.865962   715A      3.885261   716A      3.889330  
     717A      3.896065   718A      3.903298   719A      3.906419  
     720A      3.916367   721A      3.925924   722A      3.939232  
     723A      3.950258   724A      3.956859   725A      3.963825  
     726A      3.970240   727A      3.978824   728A      3.993471  
     729A      3.996908   730A      4.010567   731A      4.013374  
     732A      4.016869   733A      4.027341   734A      4.039519  
     735A      4.047660   736A      4.051725   737A      4.060178  
     738A      4.069415   739A      4.078631   740A      4.087974  
     741A      4.093164   742A      4.108854   743A      4.120595  
     744A      4.121944   745A      4.127930   746A      4.137436  
     747A      4.142821   748A      4.158648   749A      4.161362  
     750A      4.163858   751A      4.172019   752A      4.181441  
     753A      4.188684   754A      4.196071   755A      4.198241  
     756A      4.207328   757A      4.218709   758A      4.228493  
     759A      4.231641   760A      4.233149   761A      4.241227  
     762A      4.257479   763A      4.275069   764A      4.277224  
     765A      4.284921   766A      4.288236   767A      4.298798  
     768A      4.312105   769A      4.315040   770A      4.323552  
     771A      4.337512   772A      4.344331   773A      4.350325  
     774A      4.366102   775A      4.372172   776A      4.375983  
     777A      4.387071   778A      4.395091   779A      4.408099  
     780A      4.418061   781A      4.425445   782A      4.430464  
     783A      4.435501   784A      4.436202   785A      4.456028  
     786A      4.460605   787A      4.470790   788A      4.483933  
     789A      4.485310   790A      4.499791   791A      4.510402  
     792A      4.521613   793A      4.525168   794A      4.531161  
     795A      4.542703   796A      4.556519   797A      4.562092  
     798A      4.568808   799A      4.571967   800A      4.580381  
     801A      4.606982   802A      4.614841   803A      4.621086  
     804A      4.640363   805A      4.647267   806A      4.649810  
     807A      4.664735   808A      4.681146   809A      4.690472  
     810A      4.698547   811A      4.716969   812A      4.717783  
     813A      4.729209   814A      4.738450   815A      4.744453  
     816A      4.761210   817A      4.767256   818A      4.774990  
     819A      4.786226   820A      4.793087   821A      4.807348  
     822A      4.811969   823A      4.824789   824A      4.836093  
     825A      4.839461   826A      4.853483   827A      4.858196  
     828A      4.865962   829A      4.868872   830A      4.881062  
     831A      4.884400   832A      4.891761   833A      4.900540  
     834A      4.914786   835A      4.928822   836A      4.944488  
     837A      4.955930   838A      4.964138   839A      4.972387  
     840A      4.992274   841A      5.004515   842A      5.017971  
     843A      5.026890   844A      5.037571   845A      5.047716  
     846A      5.053947   847A      5.069455   848A      5.081451  
     849A      5.091126   850A      5.097733   851A      5.106217  
     852A      5.115218   853A      5.124688   854A      5.145420  
     855A      5.152938   856A      5.155036   857A      5.162417  
     858A      5.170007   859A      5.206544   860A      5.209728  
     861A      5.226081   862A      5.242019   863A      5.250121  
     864A      5.271837   865A      5.276154   866A      5.285291  
     867A      5.299333   868A      5.305523   869A      5.324238  
     870A      5.346393   871A      5.368076   872A      5.381608  
     873A      5.386807   874A      5.400195   875A      5.420738  
     876A      5.433629   877A      5.445510   878A      5.448991  
     879A      5.462702   880A      5.476713   881A      5.479005  
     882A      5.496721   883A      5.503333   884A      5.511484  
     885A      5.528378   886A      5.539320   887A      5.559594  
     888A      5.565633   889A      5.577983   890A      5.588583  
     891A      5.593924   892A      5.597564   893A      5.614363  
     894A      5.618684   895A      5.629928   896A      5.637797  
     897A      5.649444   898A      5.655840   899A      5.670274  
     900A      5.681922   901A      5.690652   902A      5.706593  
     903A      5.713361   904A      5.751367   905A      5.757672  
     906A      5.765160   907A      5.769125   908A      5.783884  
     909A      5.793614   910A      5.799403   911A      5.814473  
     912A      5.826204   913A      5.839262   914A      5.858384  
     915A      5.881655   916A      5.896012   917A      5.912778  
     918A      5.929824   919A      5.944195   920A      5.971601  
     921A      6.001837   922A      6.003599   923A      6.005386  
     924A      6.023546   925A      6.032120   926A      6.048615  
     927A      6.066591   928A      6.079047   929A      6.106866  
     930A      6.123734   931A      6.134422   932A      6.137713  
     933A      6.144601   934A      6.163164   935A      6.167773  
     936A      6.179693   937A      6.192696   938A      6.197329  
     939A      6.205768   940A      6.227132   941A      6.239339  
     942A      6.259008   943A      6.276804   944A      6.298089  
     945A      6.306252   946A      6.330142   947A      6.398124  
     948A      6.436079   949A      6.492880   950A      6.522043  
     951A      6.541747   952A      6.553052   953A      6.615989  
     954A      6.622936   955A      6.669733   956A      6.698075  
     957A      6.703847   958A      6.722549   959A      6.743569  
     960A      6.750656   961A      6.783235   962A      6.791574  
     963A      6.793792   964A      6.812444   965A      6.826544  
     966A      6.835196   967A      6.850904   968A      6.861920  
     969A      6.865207   970A      6.875298   971A      6.886624  
     972A      6.904382   973A      6.928744   974A      6.936547  
     975A      6.956783   976A      6.971345   977A      6.986480  
     978A      7.006987   979A      7.054504   980A      7.062357  
     981A      7.070823   982A      7.098679   983A      7.107851  
     984A      7.125628   985A      7.167162   986A      7.207401  
     987A      7.234664   988A      7.274233   989A      7.322852  
     990A      7.336268   991A      7.355734   992A      7.422645  
     993A      7.449949   994A      7.464087   995A      7.475574  
     996A      7.494049   997A      7.516568   998A      7.527237  
     999A      7.534085  1000A      7.602202  1001A      7.661942  
    1002A      7.668072  1003A      7.701725  1004A      7.788154  
    1005A      7.798202  1006A      7.827915  1007A      7.833394  
    1008A      7.880056  1009A      7.892540  1010A      7.920209  
    1011A      7.937936  1012A      7.957847  1013A      7.983817  
    1014A      7.996015  1015A      8.033350  1016A      8.074699  
    1017A      8.100861  1018A      8.142211  1019A     15.941671  
    1020A     15.989240  1021A     16.156759  1022A     16.324481  
    1023A     16.518957  1024A     16.630305  1025A     16.897406  
    1026A     18.104896  1027A     18.215738  1028A     18.580381  
    1029A     19.367269  1030A     19.768591  1031A     20.102292  
    1032A     20.493346  1033A     20.678643  1034A     21.058582  
    1035A     21.114582  

    Final Occupation by Irrep:
              A 
    DOCC [    62 ]

  @DF-RHF Final Energy:  -844.44472743427332

   => Energetics <=

    Nuclear Repulsion Energy =           1239.9015215939396057
    One-Electron Energy =               -3617.2953004981518461
    Two-Electron Energy =                1532.9490514699386949
    Total Energy =                       -844.4447274342733181

Computation Completed


Properties will be evaluated at   0.000000,   0.000000,   0.000000 [a0]

Properties computed using the SCF density matrix

  Nuclear Dipole Moment: [e a0]
     X:    -1.5253      Y:    -4.8938      Z:     5.2798

  Electronic Dipole Moment: [e a0]
     X:     3.4078      Y:     4.0700      Z:    -4.6759

  Dipole Moment: [e a0]
     X:     1.8825      Y:    -0.8237      Z:     0.6039     Total:     2.1417

  Dipole Moment: [D]
     X:     4.7848      Y:    -2.0937      Z:     1.5350     Total:     5.4437


*** tstop() called on node151.bme.utexas.edu at Sat Jan 13 07:53:26 2024
Module time:
	user time   =     600.63 seconds =      10.01 minutes
	system time =       7.18 seconds =       0.12 minutes
	total time  =         87 seconds =       1.45 minutes
Total time:
	user time   =     600.63 seconds =      10.01 minutes
	system time =       7.18 seconds =       0.12 minutes
	total time  =         87 seconds =       1.45 minutes

*** tstart() called on node151.bme.utexas.edu
*** at Sat Jan 13 07:53:26 2024


  //>>>>>>>>>>>>>>>>>>>>>>>>>>>>>>>>>>>//
  //               DFMP2               //
  //<<<<<<<<<<<<<<<<<<<<<<<<<<<<<<<<<<<//

   => Loading Basis Set <=

    Name: (AUG-CC-PVTZ AUX)
    Role: RIFIT
    Keyword: DF_BASIS_MP2
    atoms 1, 5, 7, 14, 18                entry N          line   206 file /opt/anaconda/envs/psi4v1.5/share/psi4/basis/aug-cc-pvtz-ri.gbs 
    atoms 2, 9, 11-13, 15, 19, 24, 26-28 entry H          line    30 file /opt/anaconda/envs/psi4v1.5/share/psi4/basis/aug-cc-pvtz-ri.gbs 
    atoms 3, 6, 8, 10, 16, 20, 22-23, 25 entry C          line   148 file /opt/anaconda/envs/psi4v1.5/share/psi4/basis/aug-cc-pvtz-ri.gbs 
    atoms 4, 17, 21                      entry O          line   264 file /opt/anaconda/envs/psi4v1.5/share/psi4/basis/aug-cc-pvtz-ri.gbs 

	 --------------------------------------------------------
	                          DF-MP2                         
	      2nd-Order Density-Fitted Moller-Plesset Theory     
	              RMP2 Wavefunction,   8 Threads             
	                                                         
	        Rob Parrish, Justin Turney, Andy Simmonett,      
	           Ed Hohenstein, and C. David Sherrill          
	 --------------------------------------------------------

   => Auxiliary Basis Set <=

  Basis Set: (AUG-CC-PVTZ AUX)
    Blend: AUG-CC-PVTZ-RI
    Number of shells: 630
    Number of basis functions: 2308
    Number of Cartesian functions: 2917
    Spherical Harmonics?: true
    Max angular momentum: 4

	 --------------------------------------------------------
	                 NBF =  1035, NAUX =  2308
	 --------------------------------------------------------
	   CLASS    FOCC     OCC    AOCC    AVIR     VIR    FVIR
	   PAIRS      17      62      45     973     973       0
	 --------------------------------------------------------

	 Will save fitting metric to file 97.

	-----------------------------------------------------------
	 ==================> DF-MP2 Energies <==================== 
	-----------------------------------------------------------
	 Reference Energy          =    -844.4447274342733181 [Eh]
	 Singles Energy            =      -0.0000000000000000 [Eh]
	 Same-Spin Energy          =      -0.8249443167060142 [Eh]
	 Opposite-Spin Energy      =      -2.3531962569211635 [Eh]
	 Correlation Energy        =      -3.1781405736271777 [Eh]
	 Total Energy              =    -847.6228680079004789 [Eh]
	-----------------------------------------------------------
	 ================> DF-SCS-MP2 Energies <================== 
	-----------------------------------------------------------
	 SCS Same-Spin Scale       =       0.3333333333333333 [-]
	 SCS Opposite-Spin Scale   =       1.2000000000000000 [-]
	 SCS Same-Spin Energy      =      -0.2749814389020047 [Eh]
	 SCS Opposite-Spin Energy  =      -2.8238355083053963 [Eh]
	 SCS Correlation Energy    =      -3.0988169472074012 [Eh]
	 SCS Total Energy          =    -847.5435443814807286 [Eh]
	-----------------------------------------------------------


*** tstop() called on node151.bme.utexas.edu at Sat Jan 13 07:53:55 2024
Module time:
	user time   =     181.13 seconds =       3.02 minutes
	system time =       3.15 seconds =       0.05 minutes
	total time  =         29 seconds =       0.48 minutes
Total time:
	user time   =     781.76 seconds =      13.03 minutes
	system time =      10.33 seconds =       0.17 minutes
	total time  =        116 seconds =       1.93 minutes

  //>>>>>>>>>>>>>>>>>>>>>>>>>>>>>>>>>>>//
  //            Monomer A HF           //
  //<<<<<<<<<<<<<<<<<<<<<<<<<<<<<<<<<<<//


*** tstart() called on node151.bme.utexas.edu
*** at Sat Jan 13 07:53:55 2024

   => Loading Basis Set <=

    Name: AUG-CC-PVTZ
    Role: ORBITAL
    Keyword: BASIS
    atoms 1, 5, 7, 14, 18                entry N          line   285 file /opt/anaconda/envs/psi4v1.5/share/psi4/basis/aug-cc-pvtz.gbs 
    atoms 2, 9, 11-13, 15, 19, 24, 26-28 entry H          line    40 file /opt/anaconda/envs/psi4v1.5/share/psi4/basis/aug-cc-pvtz.gbs 
    atoms 3, 6, 8, 10, 16, 20, 22-23, 25 entry C          line   239 file /opt/anaconda/envs/psi4v1.5/share/psi4/basis/aug-cc-pvtz.gbs 
    atoms 4, 17, 21                      entry O          line   331 file /opt/anaconda/envs/psi4v1.5/share/psi4/basis/aug-cc-pvtz.gbs 


         ---------------------------------------------------------
                                   SCF
               by Justin Turney, Rob Parrish, Andy Simmonett
                          and Daniel G. A. Smith
                              RHF Reference
                        8 Threads,  47683 MiB Core
         ---------------------------------------------------------

  ==> Geometry <==

    Molecular point group: c1
    Full point group: C1

    Geometry (in Angstrom), charge = 0, multiplicity = 1:

       Center              X                  Y                   Z               Mass       
    ------------   -----------------  -----------------  -----------------  -----------------
         N            3.211805959754     0.709746009708     0.560964944876    14.003074004430
         H            3.752275959754     1.553296009708     0.720474944876     1.007825032230
         C            1.822075959754     0.854046009708     0.735634944876    12.000000000000
         O            1.389905959754     1.959756009708     1.083494944876    15.994914619570
         N            1.049495959754    -0.258663990292     0.506354944876    14.003074004430
         C            1.622415959754    -1.394133990292     0.124144944876    12.000000000000
         N            0.824575959754    -2.470973990292    -0.068675055124    14.003074004430
         C            3.040715959754    -1.548823990292    -0.057105055124    12.000000000000
         H            3.484595959754    -2.488583990292    -0.363515055124     1.007825032230
         C            3.804325959754    -0.449123990292     0.170254944876    12.000000000000
         H            4.884455959754    -0.435343990292     0.062324944876     1.007825032230
         H           -0.187714040246    -2.367563990292    -0.057055055124     1.007825032230
         H            1.200015959754    -3.306363990292    -0.493305055124     1.007825032230
      Gh(N)          -1.304457527425     1.867864307144    -0.268993273073    14.003074004430
      Gh(H)          -0.616667527425     2.576934307144    -0.021063273073     1.007825032230
      Gh(C)          -0.927747527425     1.126624307144    -1.373603273073    12.000000000000
      Gh(O)          -0.120017527425     1.504044307144    -2.213883273073    15.994914619570
      Gh(N)          -1.607647527425    -0.085795692856    -1.462113273073    14.003074004430
      Gh(H)          -1.311987527425    -0.675135692856    -2.236853273073     1.007825032230
      Gh(C)          -2.233157527425    -0.750295692856    -0.410133273073    12.000000000000
      Gh(O)          -2.443167527425    -1.972295692856    -0.479643273073    15.994914619570
      Gh(C)          -2.578007527425     0.087674307144     0.723586726927    12.000000000000
      Gh(C)          -2.031077527425     1.327004307144     0.768786726927    12.000000000000
      Gh(H)          -2.147857527425     1.980504307144     1.628646726927     1.007825032230
      Gh(C)          -3.356717527425    -0.524365692856     1.845676726927    12.000000000000
      Gh(H)          -3.524897527425     0.204774307144     2.642736726927     1.007825032230
      Gh(H)          -4.326247527425    -0.888965692856     1.494096726927     1.007825032230
      Gh(H)          -2.820257527425    -1.382135692856     2.261506726927     1.007825032230

  Running in c1 symmetry.

  Rotational constants: A =      0.02411  B =      0.01209  C =      0.01055 [cm^-1]
  Rotational constants: A =    722.88028  B =    362.58534  C =    316.35411 [MHz]
  Nuclear repulsion =  355.442973275691713

  Charge       = 0
  Multiplicity = 1
  Electrons    = 58
  Nalpha       = 29
  Nbeta        = 29

  ==> Algorithm <==

  SCF Algorithm Type is DF.
  DIIS enabled.
  MOM disabled.
  Fractional occupation disabled.
  Guess Type is SAD.
  Energy threshold   = 1.00e-08
  Density threshold  = 1.00e-08
  Integral threshold = 1.00e-12

  ==> Primary Basis <==

  Basis Set: AUG-CC-PVTZ
    Blend: AUG-CC-PVTZ
    Number of shells: 337
    Number of basis functions: 1035
    Number of Cartesian functions: 1210
    Spherical Harmonics?: true
    Max angular momentum: 3

   => Loading Basis Set <=

    Name: (AUG-CC-PVTZ AUX)
    Role: JKFIT
    Keyword: DF_BASIS_SCF
    atoms 1, 5, 7, 14, 18                entry N          line   224 file /opt/anaconda/envs/psi4v1.5/share/psi4/basis/aug-cc-pvtz-jkfit.gbs 
    atoms 2, 9, 11-13, 15, 19, 24, 26-28 entry H          line    70 file /opt/anaconda/envs/psi4v1.5/share/psi4/basis/aug-cc-pvtz-jkfit.gbs 
    atoms 3, 6, 8, 10, 16, 20, 22-23, 25 entry C          line   162 file /opt/anaconda/envs/psi4v1.5/share/psi4/basis/aug-cc-pvtz-jkfit.gbs 
    atoms 4, 17, 21                      entry O          line   286 file /opt/anaconda/envs/psi4v1.5/share/psi4/basis/aug-cc-pvtz-jkfit.gbs 

  ==> Integral Setup <==

  ==> DiskDFJK: Density-Fitted J/K Matrices <==

    J tasked:                  Yes
    K tasked:                  Yes
    wK tasked:                  No
    OpenMP threads:              8
    Integrals threads:           8
    Memory [MiB]:            35762
    Algorithm:                Core
    Integral Cache:           LOAD
    Schwarz Cutoff:          1E-12
    Fitting Condition:       1E-10

   => Auxiliary Basis Set <=

  Basis Set: (AUG-CC-PVTZ AUX)
    Blend: AUG-CC-PVTZ-JKFIT
    Number of shells: 664
    Number of basis functions: 2274
    Number of Cartesian functions: 2832
    Spherical Harmonics?: true
    Max angular momentum: 4

  Minimum eigenvalue in the overlap matrix is 1.3399994177E-06.
  Reciprocal condition number of the overlap matrix is 6.3432384066E-08.
    Using symmetric orthogonalization.

  ==> Pre-Iterations <==

  SCF Guess: Superposition of Atomic Densities via on-the-fly atomic UHF (no occupation information).

   -------------------------
    Irrep   Nso     Nmo    
   -------------------------
     A       1035    1035 
   -------------------------
    Total    1035    1035
   -------------------------

  ==> Iterations <==

                           Total Energy        Delta E     RMS |[F,P]|

   @DF-RHF iter SAD:  -392.09115683672428   -3.92091e+02   0.00000e+00 
   @DF-RHF iter   1:  -392.50930201063477   -4.18145e-01   7.06085e-04 DIIS
   @DF-RHF iter   2:  -392.69899479844173   -1.89693e-01   4.02410e-04 DIIS
   @DF-RHF iter   3:  -392.75805368512624   -5.90589e-02   7.58734e-05 DIIS
   @DF-RHF iter   4:  -392.76139652473904   -3.34284e-03   3.40135e-05 DIIS
   @DF-RHF iter   5:  -392.76210761218812   -7.11087e-04   6.86287e-06 DIIS
   @DF-RHF iter   6:  -392.76217899302077   -7.13808e-05   3.60567e-06 DIIS
   @DF-RHF iter   7:  -392.76219691753977   -1.79245e-05   1.35575e-06 DIIS
   @DF-RHF iter   8:  -392.76220032868008   -3.41114e-06   4.68977e-07 DIIS
   @DF-RHF iter   9:  -392.76220065226096   -3.23581e-07   1.93459e-07 DIIS
   @DF-RHF iter  10:  -392.76220070755579   -5.52948e-08   6.70387e-08 DIIS
   @DF-RHF iter  11:  -392.76220071588602   -8.33023e-09   1.86746e-08 DIIS
   @DF-RHF iter  12:  -392.76220071646725   -5.81224e-10   5.87682e-09 DIIS
  Energy and wave function converged.


  ==> Post-Iterations <==

    Orbital Energies [Eh]
    ---------------------

    Doubly Occupied:                                                      

       1A    -20.498368     2A    -15.623928     3A    -15.601693  
       4A    -15.542984     5A    -11.370149     6A    -11.357809  
       7A    -11.333803     8A    -11.249767     9A     -1.376979  
      10A     -1.295262    11A     -1.263732    12A     -1.171605  
      13A     -1.067448    14A     -0.904986    15A     -0.878619  
      16A     -0.763807    17A     -0.760354    18A     -0.724089  
      19A     -0.678057    20A     -0.627387    21A     -0.624407  
      22A     -0.611851    23A     -0.587237    24A     -0.540030  
      25A     -0.486073    26A     -0.440450    27A     -0.418715  
      28A     -0.386688    29A     -0.344513  

    Virtual:                                                              

      30A      0.013905    31A      0.021273    32A      0.028890  
      33A      0.036629    34A      0.041506    35A      0.046220  
      36A      0.055042    37A      0.057347    38A      0.060162  
      39A      0.063741    40A      0.070665    41A      0.078557  
      42A      0.079718    43A      0.083374    44A      0.084809  
      45A      0.091689    46A      0.095903    47A      0.097762  
      48A      0.099091    49A      0.101389    50A      0.102044  
      51A      0.108430    52A      0.110932    53A      0.115518  
      54A      0.118490    55A      0.123041    56A      0.129088  
      57A      0.130265    58A      0.135641    59A      0.137367  
      60A      0.138057    61A      0.143866    62A      0.144831  
      63A      0.148132    64A      0.150711    65A      0.161623  
      66A      0.165868    67A      0.167029    68A      0.169382  
      69A      0.174090    70A      0.176720    71A      0.179822  
      72A      0.182381    73A      0.183265    74A      0.188207  
      75A      0.191333    76A      0.197300    77A      0.206885  
      78A      0.207794    79A      0.213700    80A      0.215271  
      81A      0.220456    82A      0.222559    83A      0.226134  
      84A      0.231479    85A      0.232610    86A      0.238776  
      87A      0.241631    88A      0.245743    89A      0.247229  
      90A      0.252331    91A      0.259075    92A      0.260864  
      93A      0.263289    94A      0.266142    95A      0.269735  
      96A      0.278952    97A      0.279505    98A      0.281247  
      99A      0.283785   100A      0.289196   101A      0.293796  
     102A      0.294632   103A      0.296985   104A      0.305736  
     105A      0.306915   106A      0.310092   107A      0.312475  
     108A      0.317468   109A      0.321513   110A      0.324609  
     111A      0.325002   112A      0.334069   113A      0.338451  
     114A      0.342696   115A      0.343221   116A      0.346066  
     117A      0.353765   118A      0.357501   119A      0.357931  
     120A      0.361143   121A      0.362317   122A      0.367632  
     123A      0.372637   124A      0.378313   125A      0.379975  
     126A      0.386615   127A      0.389291   128A      0.391217  
     129A      0.398221   130A      0.402122   131A      0.403486  
     132A      0.406713   133A      0.412908   134A      0.415281  
     135A      0.416349   136A      0.422130   137A      0.426753  
     138A      0.433281   139A      0.435974   140A      0.439430  
     141A      0.442112   142A      0.443243   143A      0.448056  
     144A      0.452617   145A      0.453731   146A      0.458224  
     147A      0.462462   148A      0.463200   149A      0.464059  
     150A      0.470230   151A      0.476336   152A      0.477746  
     153A      0.480940   154A      0.484751   155A      0.486539  
     156A      0.490360   157A      0.496007   158A      0.498566  
     159A      0.502543   160A      0.504025   161A      0.504083  
     162A      0.514149   163A      0.515647   164A      0.523517  
     165A      0.523823   166A      0.525928   167A      0.531533  
     168A      0.534225   169A      0.540299   170A      0.545384  
     171A      0.549727   172A      0.550799   173A      0.558390  
     174A      0.561065   175A      0.564922   176A      0.569896  
     177A      0.570646   178A      0.575579   179A      0.579451  
     180A      0.586212   181A      0.591632   182A      0.593486  
     183A      0.599493   184A      0.603198   185A      0.607315  
     186A      0.610237   187A      0.613286   188A      0.620607  
     189A      0.628706   190A      0.631280   191A      0.634045  
     192A      0.635427   193A      0.647179   194A      0.649934  
     195A      0.657216   196A      0.659484   197A      0.663368  
     198A      0.667252   199A      0.668287   200A      0.675253  
     201A      0.677196   202A      0.682867   203A      0.688061  
     204A      0.694211   205A      0.699236   206A      0.702807  
     207A      0.706042   208A      0.714482   209A      0.719416  
     210A      0.721833   211A      0.724150   212A      0.727108  
     213A      0.731500   214A      0.733839   215A      0.736783  
     216A      0.744058   217A      0.744819   218A      0.748181  
     219A      0.748887   220A      0.761075   221A      0.764514  
     222A      0.772089   223A      0.774429   224A      0.776066  
     225A      0.782542   226A      0.787801   227A      0.790280  
     228A      0.799472   229A      0.801043   230A      0.808103  
     231A      0.812576   232A      0.819576   233A      0.827482  
     234A      0.829439   235A      0.837071   236A      0.838711  
     237A      0.841495   238A      0.842425   239A      0.853983  
     240A      0.856239   241A      0.857845   242A      0.859157  
     243A      0.872163   244A      0.880663   245A      0.884051  
     246A      0.888190   247A      0.894729   248A      0.896489  
     249A      0.902782   250A      0.906070   251A      0.914064  
     252A      0.922088   253A      0.925737   254A      0.932158  
     255A      0.939371   256A      0.943902   257A      0.945830  
     258A      0.950456   259A      0.955813   260A      0.958465  
     261A      0.963274   262A      0.967058   263A      0.971013  
     264A      0.978575   265A      0.980463   266A      0.983594  
     267A      0.993662   268A      0.999716   269A      1.001969  
     270A      1.005196   271A      1.011379   272A      1.012186  
     273A      1.013951   274A      1.018147   275A      1.027511  
     276A      1.030474   277A      1.035429   278A      1.038002  
     279A      1.040883   280A      1.047447   281A      1.049244  
     282A      1.053692   283A      1.057026   284A      1.067676  
     285A      1.070357   286A      1.074150   287A      1.078591  
     288A      1.080941   289A      1.086947   290A      1.089866  
     291A      1.096224   292A      1.102773   293A      1.106908  
     294A      1.109771   295A      1.110405   296A      1.112984  
     297A      1.118935   298A      1.126069   299A      1.129649  
     300A      1.134362   301A      1.138119   302A      1.142010  
     303A      1.145248   304A      1.151699   305A      1.155039  
     306A      1.159849   307A      1.163834   308A      1.167555  
     309A      1.172263   310A      1.176448   311A      1.181065  
     312A      1.184269   313A      1.186787   314A      1.192566  
     315A      1.197847   316A      1.206601   317A      1.210138  
     318A      1.213683   319A      1.218051   320A      1.222548  
     321A      1.227288   322A      1.231256   323A      1.232096  
     324A      1.235924   325A      1.242899   326A      1.248055  
     327A      1.252730   328A      1.256380   329A      1.261590  
     330A      1.263833   331A      1.270791   332A      1.275516  
     333A      1.278102   334A      1.280847   335A      1.288801  
     336A      1.294518   337A      1.297933   338A      1.301159  
     339A      1.313315   340A      1.317948   341A      1.325469  
     342A      1.329625   343A      1.333232   344A      1.335320  
     345A      1.340546   346A      1.345406   347A      1.349250  
     348A      1.352605   349A      1.356821   350A      1.362853  
     351A      1.367412   352A      1.369272   353A      1.377331  
     354A      1.380106   355A      1.387682   356A      1.393313  
     357A      1.395047   358A      1.399284   359A      1.406002  
     360A      1.412759   361A      1.413845   362A      1.420195  
     363A      1.426892   364A      1.435734   365A      1.440154  
     366A      1.445310   367A      1.446615   368A      1.452820  
     369A      1.455255   370A      1.459906   371A      1.464263  
     372A      1.468909   373A      1.475542   374A      1.479261  
     375A      1.481074   376A      1.485680   377A      1.496683  
     378A      1.500576   379A      1.504861   380A      1.508184  
     381A      1.511741   382A      1.520065   383A      1.527305  
     384A      1.543052   385A      1.546257   386A      1.553165  
     387A      1.555043   388A      1.560233   389A      1.565804  
     390A      1.568294   391A      1.574127   392A      1.585382  
     393A      1.592907   394A      1.603020   395A      1.604171  
     396A      1.606411   397A      1.613870   398A      1.614976  
     399A      1.622709   400A      1.624914   401A      1.635955  
     402A      1.642670   403A      1.645721   404A      1.654553  
     405A      1.658838   406A      1.662833   407A      1.664052  
     408A      1.669147   409A      1.679534   410A      1.685224  
     411A      1.695143   412A      1.700855   413A      1.711453  
     414A      1.714524   415A      1.718361   416A      1.724833  
     417A      1.740255   418A      1.744946   419A      1.746484  
     420A      1.754431   421A      1.759518   422A      1.763746  
     423A      1.768544   424A      1.770364   425A      1.776507  
     426A      1.781732   427A      1.789844   428A      1.801891  
     429A      1.808831   430A      1.816549   431A      1.818467  
     432A      1.822201   433A      1.823732   434A      1.841907  
     435A      1.843354   436A      1.851593   437A      1.854583  
     438A      1.854928   439A      1.863813   440A      1.873781  
     441A      1.880919   442A      1.886877   443A      1.890666  
     444A      1.898146   445A      1.904593   446A      1.909768  
     447A      1.912941   448A      1.923644   449A      1.935680  
     450A      1.938521   451A      1.946366   452A      1.955118  
     453A      1.956726   454A      1.958499   455A      1.974288  
     456A      1.979108   457A      1.986531   458A      1.995021  
     459A      1.996199   460A      2.006430   461A      2.014519  
     462A      2.019629   463A      2.023027   464A      2.028841  
     465A      2.041314   466A      2.049785   467A      2.055613  
     468A      2.060317   469A      2.072063   470A      2.077332  
     471A      2.084010   472A      2.090262   473A      2.092914  
     474A      2.101096   475A      2.102563   476A      2.105551  
     477A      2.120266   478A      2.125371   479A      2.128084  
     480A      2.131882   481A      2.140575   482A      2.144057  
     483A      2.165364   484A      2.168366   485A      2.171576  
     486A      2.174428   487A      2.192587   488A      2.194235  
     489A      2.206399   490A      2.215650   491A      2.223184  
     492A      2.231580   493A      2.235050   494A      2.241347  
     495A      2.245602   496A      2.253042   497A      2.267025  
     498A      2.270628   499A      2.277708   500A      2.287117  
     501A      2.297123   502A      2.304184   503A      2.316439  
     504A      2.324722   505A      2.329636   506A      2.335565  
     507A      2.347415   508A      2.351783   509A      2.356856  
     510A      2.364608   511A      2.370029   512A      2.382589  
     513A      2.388355   514A      2.389093   515A      2.403352  
     516A      2.404750   517A      2.413551   518A      2.419371  
     519A      2.434634   520A      2.437668   521A      2.445562  
     522A      2.450433   523A      2.456868   524A      2.464441  
     525A      2.468436   526A      2.476238   527A      2.483732  
     528A      2.494572   529A      2.503885   530A      2.511057  
     531A      2.522749   532A      2.528778   533A      2.534438  
     534A      2.535732   535A      2.547657   536A      2.552358  
     537A      2.565447   538A      2.568765   539A      2.575490  
     540A      2.581845   541A      2.597873   542A      2.604193  
     543A      2.617279   544A      2.624009   545A      2.626582  
     546A      2.636199   547A      2.643879   548A      2.654988  
     549A      2.657122   550A      2.666436   551A      2.670267  
     552A      2.688128   553A      2.689350   554A      2.707486  
     555A      2.711057   556A      2.722543   557A      2.729049  
     558A      2.733084   559A      2.742810   560A      2.748629  
     561A      2.752597   562A      2.761910   563A      2.762965  
     564A      2.774990   565A      2.778755   566A      2.786273  
     567A      2.795003   568A      2.799348   569A      2.807093  
     570A      2.814299   571A      2.817397   572A      2.830381  
     573A      2.835656   574A      2.840002   575A      2.850566  
     576A      2.853292   577A      2.862128   578A      2.877265  
     579A      2.889612   580A      2.899153   581A      2.903644  
     582A      2.905872   583A      2.914623   584A      2.926994  
     585A      2.937298   586A      2.943275   587A      2.962808  
     588A      2.973186   589A      2.978374   590A      2.986404  
     591A      2.997729   592A      3.001423   593A      3.012852  
     594A      3.020545   595A      3.030115   596A      3.038348  
     597A      3.053723   598A      3.060651   599A      3.073120  
     600A      3.080529   601A      3.092496   602A      3.095510  
     603A      3.108039   604A      3.118053   605A      3.121152  
     606A      3.139165   607A      3.154381   608A      3.166767  
     609A      3.184592   610A      3.190843   611A      3.211384  
     612A      3.218756   613A      3.230976   614A      3.236620  
     615A      3.244828   616A      3.250645   617A      3.269536  
     618A      3.282129   619A      3.298636   620A      3.304272  
     621A      3.310086   622A      3.315459   623A      3.324589  
     624A      3.344402   625A      3.355928   626A      3.366423  
     627A      3.372923   628A      3.379322   629A      3.392377  
     630A      3.395983   631A      3.411146   632A      3.427419  
     633A      3.427955   634A      3.444436   635A      3.449184  
     636A      3.462638   637A      3.482514   638A      3.490977  
     639A      3.510051   640A      3.521750   641A      3.535471  
     642A      3.544239   643A      3.549746   644A      3.572398  
     645A      3.585102   646A      3.597400   647A      3.627782  
     648A      3.647293   649A      3.654126   650A      3.672887  
     651A      3.676825   652A      3.699168   653A      3.710935  
     654A      3.717567   655A      3.732978   656A      3.735236  
     657A      3.744023   658A      3.757663   659A      3.768373  
     660A      3.786313   661A      3.798051   662A      3.823082  
     663A      3.829063   664A      3.844071   665A      3.855479  
     666A      3.860620   667A      3.870296   668A      3.872361  
     669A      3.883415   670A      3.897674   671A      3.906729  
     672A      3.908573   673A      3.921727   674A      3.941268  
     675A      3.947088   676A      3.960094   677A      3.986748  
     678A      3.990634   679A      4.013715   680A      4.033097  
     681A      4.045570   682A      4.048204   683A      4.066274  
     684A      4.071783   685A      4.087171   686A      4.091351  
     687A      4.105099   688A      4.121097   689A      4.131521  
     690A      4.146001   691A      4.155696   692A      4.162804  
     693A      4.167429   694A      4.175865   695A      4.177384  
     696A      4.186970   697A      4.195398   698A      4.207343  
     699A      4.231066   700A      4.241591   701A      4.245103  
     702A      4.256600   703A      4.263316   704A      4.271204  
     705A      4.277853   706A      4.293437   707A      4.297036  
     708A      4.302670   709A      4.314116   710A      4.327044  
     711A      4.334459   712A      4.341120   713A      4.358612  
     714A      4.365271   715A      4.373732   716A      4.386354  
     717A      4.390468   718A      4.407188   719A      4.412157  
     720A      4.414071   721A      4.428952   722A      4.432646  
     723A      4.438536   724A      4.440835   725A      4.457287  
     726A      4.461678   727A      4.478841   728A      4.480846  
     729A      4.501802   730A      4.507957   731A      4.515328  
     732A      4.527545   733A      4.532839   734A      4.544900  
     735A      4.560698   736A      4.567051   737A      4.581133  
     738A      4.594518   739A      4.608592   740A      4.639074  
     741A      4.644137   742A      4.651021   743A      4.657116  
     744A      4.665507   745A      4.674247   746A      4.677975  
     747A      4.690299   748A      4.703958   749A      4.710911  
     750A      4.719724   751A      4.740039   752A      4.742693  
     753A      4.745278   754A      4.757572   755A      4.768188  
     756A      4.781409   757A      4.799325   758A      4.812011  
     759A      4.818997   760A      4.828223   761A      4.837844  
     762A      4.845303   763A      4.851518   764A      4.865960  
     765A      4.874205   766A      4.890368   767A      4.890830  
     768A      4.897554   769A      4.909775   770A      4.917191  
     771A      4.927029   772A      4.934588   773A      4.941096  
     774A      4.955615   775A      4.958261   776A      4.966365  
     777A      4.987184   778A      5.002206   779A      5.009233  
     780A      5.016754   781A      5.030274   782A      5.041449  
     783A      5.050277   784A      5.056938   785A      5.059597  
     786A      5.084462   787A      5.092710   788A      5.093812  
     789A      5.109054   790A      5.119068   791A      5.130985  
     792A      5.135389   793A      5.147792   794A      5.160327  
     795A      5.165296   796A      5.175045   797A      5.194548  
     798A      5.207234   799A      5.212530   800A      5.230479  
     801A      5.240948   802A      5.250362   803A      5.265557  
     804A      5.269086   805A      5.289697   806A      5.301279  
     807A      5.313891   808A      5.328042   809A      5.335735  
     810A      5.345266   811A      5.352820   812A      5.366107  
     813A      5.375752   814A      5.383538   815A      5.403616  
     816A      5.408346   817A      5.421589   818A      5.430592  
     819A      5.433537   820A      5.449714   821A      5.458168  
     822A      5.466146   823A      5.475248   824A      5.485191  
     825A      5.490660   826A      5.510838   827A      5.515945  
     828A      5.528185   829A      5.530624   830A      5.544493  
     831A      5.551161   832A      5.559256   833A      5.578056  
     834A      5.582446   835A      5.593365   836A      5.600695  
     837A      5.601429   838A      5.613676   839A      5.631549  
     840A      5.639050   841A      5.645463   842A      5.660184  
     843A      5.663447   844A      5.677319   845A      5.688342  
     846A      5.692673   847A      5.699688   848A      5.716534  
     849A      5.720573   850A      5.770851   851A      5.789013  
     852A      5.790899   853A      5.807143   854A      5.821952  
     855A      5.831235   856A      5.853730   857A      5.870048  
     858A      5.874197   859A      5.883396   860A      5.896374  
     861A      5.910783   862A      5.925240   863A      5.929638  
     864A      5.954349   865A      5.992256   866A      6.003894  
     867A      6.012304   868A      6.036877   869A      6.048947  
     870A      6.066551   871A      6.080825   872A      6.094027  
     873A      6.122767   874A      6.126653   875A      6.144719  
     876A      6.158918   877A      6.171764   878A      6.181671  
     879A      6.200188   880A      6.202380   881A      6.228707  
     882A      6.258621   883A      6.269419   884A      6.277871  
     885A      6.286609   886A      6.305339   887A      6.317465  
     888A      6.322257   889A      6.365461   890A      6.404065  
     891A      6.434273   892A      6.446724   893A      6.462917  
     894A      6.526087   895A      6.548950   896A      6.574505  
     897A      6.620396   898A      6.630749   899A      6.651836  
     900A      6.679594   901A      6.707371   902A      6.715153  
     903A      6.718357   904A      6.747308   905A      6.761106  
     906A      6.799182   907A      6.807084   908A      6.823041  
     909A      6.852389   910A      6.854293   911A      6.857471  
     912A      6.885115   913A      6.886699   914A      6.905014  
     915A      6.941901   916A      6.953321   917A      6.969965  
     918A      6.984622   919A      7.010368   920A      7.035400  
     921A      7.055236   922A      7.093847   923A      7.106708  
     924A      7.116149   925A      7.166201   926A      7.174895  
     927A      7.238996   928A      7.247825   929A      7.270343  
     930A      7.320481   931A      7.346960   932A      7.357470  
     933A      7.379359   934A      7.428781   935A      7.463232  
     936A      7.476512   937A      7.498271   938A      7.562320  
     939A      7.594497   940A      7.613522   941A      7.645997  
     942A      7.664969   943A      7.670563   944A      7.680895  
     945A      7.725012   946A      7.738696   947A      7.751288  
     948A      7.790030   949A      7.802832   950A      7.809924  
     951A      7.815762   952A      7.824158   953A      7.844903  
     954A      7.870654   955A      7.881844   956A      7.903778  
     957A      7.921032   958A      7.930545   959A      7.944241  
     960A      7.965009   961A      7.971904   962A      7.979771  
     963A      7.997310   964A      8.024071   965A      8.039208  
     966A      8.062416   967A      8.108448   968A      8.160172  
     969A      8.216407   970A      8.251227   971A      8.277800  
     972A      8.294692   973A      8.317092   974A      8.367723  
     975A      8.411954   976A      8.468988   977A      8.577237  
     978A      8.675125   979A      8.688859   980A      8.721126  
     981A      8.785215   982A      8.933415   983A      9.007238  
     984A      9.165553   985A      9.289153   986A      9.609076  
     987A      9.640603   988A      9.740849   989A      9.868683  
     990A      9.929532   991A      9.951931   992A     10.061650  
     993A     10.066413   994A     10.158018   995A     10.294733  
     996A     10.334611   997A     10.361714   998A     10.407939  
     999A     10.515838  1000A     10.558905  1001A     10.582282  
    1002A     10.789538  1003A     10.955588  1004A     11.300683  
    1005A     11.468319  1006A     11.605506  1007A     12.051612  
    1008A     12.096207  1009A     12.154067  1010A     12.220092  
    1011A     12.266385  1012A     12.439346  1013A     12.742687  
    1014A     12.852423  1015A     13.363592  1016A     13.524056  
    1017A     14.155577  1018A     14.194838  1019A     15.967757  
    1020A     16.025559  1021A     16.562720  1022A     18.127613  
    1023A     18.588656  1024A     19.772359  1025A     20.668045  
    1026A     21.036297  1027A     52.040575  1028A     53.079073  
    1029A     54.154019  1030A     54.680395  1031A     58.026207  
    1032A     61.248362  1033A     61.818348  1034A     69.254451  
    1035A     69.864580  

    Final Occupation by Irrep:
              A 
    DOCC [    29 ]

  @DF-RHF Final Energy:  -392.76220071646725

   => Energetics <=

    Nuclear Repulsion Energy =            355.4429732756917133
    One-Electron Energy =               -1239.3487617082034831
    Two-Electron Energy =                 491.1435877160445784
    Total Energy =                       -392.7622007164672482

Computation Completed


Properties will be evaluated at   0.000000,   0.000000,   0.000000 [a0]

Properties computed using the SCF density matrix

  Nuclear Dipole Moment: [e a0]
     X:   229.7741      Y:   -39.1815      Z:    40.3740

  Electronic Dipole Moment: [e a0]
     X:  -227.9991      Y:    36.9921      Z:   -41.3402

  Dipole Moment: [e a0]
     X:     1.7750      Y:    -2.1894      Z:    -0.9662     Total:     2.9795

  Dipole Moment: [D]
     X:     4.5116      Y:    -5.5650      Z:    -2.4559     Total:     7.5733


*** tstop() called on node151.bme.utexas.edu at Sat Jan 13 07:54:47 2024
Module time:
	user time   =     352.51 seconds =       5.88 minutes
	system time =       3.24 seconds =       0.05 minutes
	total time  =         52 seconds =       0.87 minutes
Total time:
	user time   =    1134.29 seconds =      18.90 minutes
	system time =      13.57 seconds =       0.23 minutes
	total time  =        168 seconds =       2.80 minutes

*** tstart() called on node151.bme.utexas.edu
*** at Sat Jan 13 07:54:47 2024


  //>>>>>>>>>>>>>>>>>>>>>>>>>>>>>>>>>>>//
  //               DFMP2               //
  //<<<<<<<<<<<<<<<<<<<<<<<<<<<<<<<<<<<//

   => Loading Basis Set <=

    Name: (AUG-CC-PVTZ AUX)
    Role: RIFIT
    Keyword: DF_BASIS_MP2
    atoms 1, 5, 7, 14, 18                entry N          line   206 file /opt/anaconda/envs/psi4v1.5/share/psi4/basis/aug-cc-pvtz-ri.gbs 
    atoms 2, 9, 11-13, 15, 19, 24, 26-28 entry H          line    30 file /opt/anaconda/envs/psi4v1.5/share/psi4/basis/aug-cc-pvtz-ri.gbs 
    atoms 3, 6, 8, 10, 16, 20, 22-23, 25 entry C          line   148 file /opt/anaconda/envs/psi4v1.5/share/psi4/basis/aug-cc-pvtz-ri.gbs 
    atoms 4, 17, 21                      entry O          line   264 file /opt/anaconda/envs/psi4v1.5/share/psi4/basis/aug-cc-pvtz-ri.gbs 

	 --------------------------------------------------------
	                          DF-MP2                         
	      2nd-Order Density-Fitted Moller-Plesset Theory     
	              RMP2 Wavefunction,   8 Threads             
	                                                         
	        Rob Parrish, Justin Turney, Andy Simmonett,      
	           Ed Hohenstein, and C. David Sherrill          
	 --------------------------------------------------------

   => Auxiliary Basis Set <=

  Basis Set: (AUG-CC-PVTZ AUX)
    Blend: AUG-CC-PVTZ-RI
    Number of shells: 630
    Number of basis functions: 2308
    Number of Cartesian functions: 2917
    Spherical Harmonics?: true
    Max angular momentum: 4

	 --------------------------------------------------------
	                 NBF =  1035, NAUX =  2308
	 --------------------------------------------------------
	   CLASS    FOCC     OCC    AOCC    AVIR     VIR    FVIR
	   PAIRS       8      29      21    1006    1006       0
	 --------------------------------------------------------

	 Will attempt to load fitting metric from file 97.

	-----------------------------------------------------------
	 ==================> DF-MP2 Energies <==================== 
	-----------------------------------------------------------
	 Reference Energy          =    -392.7622007164672482 [Eh]
	 Singles Energy            =      -0.0000000000000000 [Eh]
	 Same-Spin Energy          =      -0.3847765968563635 [Eh]
	 Opposite-Spin Energy      =      -1.0972670128399762 [Eh]
	 Correlation Energy        =      -1.4820436096963396 [Eh]
	 Total Energy              =    -394.2442443261635958 [Eh]
	-----------------------------------------------------------
	 ================> DF-SCS-MP2 Energies <================== 
	-----------------------------------------------------------
	 SCS Same-Spin Scale       =       0.3333333333333333 [-]
	 SCS Opposite-Spin Scale   =       1.2000000000000000 [-]
	 SCS Same-Spin Energy      =      -0.1282588656187878 [Eh]
	 SCS Opposite-Spin Energy  =      -1.3167204154079715 [Eh]
	 SCS Correlation Energy    =      -1.4449792810267592 [Eh]
	 SCS Total Energy          =    -394.2071799974939950 [Eh]
	-----------------------------------------------------------


*** tstop() called on node151.bme.utexas.edu at Sat Jan 13 07:55:06 2024
Module time:
	user time   =     105.05 seconds =       1.75 minutes
	system time =       2.30 seconds =       0.04 minutes
	total time  =         19 seconds =       0.32 minutes
Total time:
	user time   =    1239.34 seconds =      20.66 minutes
	system time =      15.87 seconds =       0.26 minutes
	total time  =        187 seconds =       3.12 minutes

  //>>>>>>>>>>>>>>>>>>>>>>>>>>>>>>>>>>>//
  //            Monomer B HF           //
  //<<<<<<<<<<<<<<<<<<<<<<<<<<<<<<<<<<<//


*** tstart() called on node151.bme.utexas.edu
*** at Sat Jan 13 07:55:06 2024

   => Loading Basis Set <=

    Name: AUG-CC-PVTZ
    Role: ORBITAL
    Keyword: BASIS
    atoms 1, 5, 7, 14, 18                entry N          line   285 file /opt/anaconda/envs/psi4v1.5/share/psi4/basis/aug-cc-pvtz.gbs 
    atoms 2, 9, 11-13, 15, 19, 24, 26-28 entry H          line    40 file /opt/anaconda/envs/psi4v1.5/share/psi4/basis/aug-cc-pvtz.gbs 
    atoms 3, 6, 8, 10, 16, 20, 22-23, 25 entry C          line   239 file /opt/anaconda/envs/psi4v1.5/share/psi4/basis/aug-cc-pvtz.gbs 
    atoms 4, 17, 21                      entry O          line   331 file /opt/anaconda/envs/psi4v1.5/share/psi4/basis/aug-cc-pvtz.gbs 


         ---------------------------------------------------------
                                   SCF
               by Justin Turney, Rob Parrish, Andy Simmonett
                          and Daniel G. A. Smith
                              RHF Reference
                        8 Threads,  47683 MiB Core
         ---------------------------------------------------------

  ==> Geometry <==

    Molecular point group: c1
    Full point group: C1

    Geometry (in Angstrom), charge = 0, multiplicity = 1:

       Center              X                  Y                   Z               Mass       
    ------------   -----------------  -----------------  -----------------  -----------------
      Gh(N)           3.211805959754     0.709746009708     0.560964944876    14.003074004430
      Gh(H)           3.752275959754     1.553296009708     0.720474944876     1.007825032230
      Gh(C)           1.822075959754     0.854046009708     0.735634944876    12.000000000000
      Gh(O)           1.389905959754     1.959756009708     1.083494944876    15.994914619570
      Gh(N)           1.049495959754    -0.258663990292     0.506354944876    14.003074004430
      Gh(C)           1.622415959754    -1.394133990292     0.124144944876    12.000000000000
      Gh(N)           0.824575959754    -2.470973990292    -0.068675055124    14.003074004430
      Gh(C)           3.040715959754    -1.548823990292    -0.057105055124    12.000000000000
      Gh(H)           3.484595959754    -2.488583990292    -0.363515055124     1.007825032230
      Gh(C)           3.804325959754    -0.449123990292     0.170254944876    12.000000000000
      Gh(H)           4.884455959754    -0.435343990292     0.062324944876     1.007825032230
      Gh(H)          -0.187714040246    -2.367563990292    -0.057055055124     1.007825032230
      Gh(H)           1.200015959754    -3.306363990292    -0.493305055124     1.007825032230
         N           -1.304457527425     1.867864307144    -0.268993273073    14.003074004430
         H           -0.616667527425     2.576934307144    -0.021063273073     1.007825032230
         C           -0.927747527425     1.126624307144    -1.373603273073    12.000000000000
         O           -0.120017527425     1.504044307144    -2.213883273073    15.994914619570
         N           -1.607647527425    -0.085795692856    -1.462113273073    14.003074004430
         H           -1.311987527425    -0.675135692856    -2.236853273073     1.007825032230
         C           -2.233157527425    -0.750295692856    -0.410133273073    12.000000000000
         O           -2.443167527425    -1.972295692856    -0.479643273073    15.994914619570
         C           -2.578007527425     0.087674307144     0.723586726927    12.000000000000
         C           -2.031077527425     1.327004307144     0.768786726927    12.000000000000
         H           -2.147857527425     1.980504307144     1.628646726927     1.007825032230
         C           -3.356717527425    -0.524365692856     1.845676726927    12.000000000000
         H           -3.524897527425     0.204774307144     2.642736726927     1.007825032230
         H           -4.326247527425    -0.888965692856     1.494096726927     1.007825032230
         H           -2.820257527425    -1.382135692856     2.261506726927     1.007825032230

  Running in c1 symmetry.

  Rotational constants: A =      0.02411  B =      0.01209  C =      0.01055 [cm^-1]
  Rotational constants: A =    722.88028  B =    362.58534  C =    316.35411 [MHz]
  Nuclear repulsion =  439.204911851733073

  Charge       = 0
  Multiplicity = 1
  Electrons    = 66
  Nalpha       = 33
  Nbeta        = 33

  ==> Algorithm <==

  SCF Algorithm Type is DF.
  DIIS enabled.
  MOM disabled.
  Fractional occupation disabled.
  Guess Type is SAD.
  Energy threshold   = 1.00e-08
  Density threshold  = 1.00e-08
  Integral threshold = 1.00e-12

  ==> Primary Basis <==

  Basis Set: AUG-CC-PVTZ
    Blend: AUG-CC-PVTZ
    Number of shells: 337
    Number of basis functions: 1035
    Number of Cartesian functions: 1210
    Spherical Harmonics?: true
    Max angular momentum: 3

   => Loading Basis Set <=

    Name: (AUG-CC-PVTZ AUX)
    Role: JKFIT
    Keyword: DF_BASIS_SCF
    atoms 1, 5, 7, 14, 18                entry N          line   224 file /opt/anaconda/envs/psi4v1.5/share/psi4/basis/aug-cc-pvtz-jkfit.gbs 
    atoms 2, 9, 11-13, 15, 19, 24, 26-28 entry H          line    70 file /opt/anaconda/envs/psi4v1.5/share/psi4/basis/aug-cc-pvtz-jkfit.gbs 
    atoms 3, 6, 8, 10, 16, 20, 22-23, 25 entry C          line   162 file /opt/anaconda/envs/psi4v1.5/share/psi4/basis/aug-cc-pvtz-jkfit.gbs 
    atoms 4, 17, 21                      entry O          line   286 file /opt/anaconda/envs/psi4v1.5/share/psi4/basis/aug-cc-pvtz-jkfit.gbs 

  ==> Integral Setup <==

  ==> DiskDFJK: Density-Fitted J/K Matrices <==

    J tasked:                  Yes
    K tasked:                  Yes
    wK tasked:                  No
    OpenMP threads:              8
    Integrals threads:           8
    Memory [MiB]:            35762
    Algorithm:                Core
    Integral Cache:           LOAD
    Schwarz Cutoff:          1E-12
    Fitting Condition:       1E-10

   => Auxiliary Basis Set <=

  Basis Set: (AUG-CC-PVTZ AUX)
    Blend: AUG-CC-PVTZ-JKFIT
    Number of shells: 664
    Number of basis functions: 2274
    Number of Cartesian functions: 2832
    Spherical Harmonics?: true
    Max angular momentum: 4

  Minimum eigenvalue in the overlap matrix is 1.3399994177E-06.
  Reciprocal condition number of the overlap matrix is 6.3432384066E-08.
    Using symmetric orthogonalization.

  ==> Pre-Iterations <==

  SCF Guess: Superposition of Atomic Densities via on-the-fly atomic UHF (no occupation information).

   -------------------------
    Irrep   Nso     Nmo    
   -------------------------
     A       1035    1035 
   -------------------------
    Total    1035    1035
   -------------------------

  ==> Iterations <==

                           Total Energy        Delta E     RMS |[F,P]|

   @DF-RHF iter SAD:  -450.96843182907384   -4.50968e+02   0.00000e+00 
   @DF-RHF iter   1:  -451.36979782119357   -4.01366e-01   7.65456e-04 DIIS
   @DF-RHF iter   2:  -451.56772869463686   -1.97931e-01   5.02798e-04 DIIS
   @DF-RHF iter   3:  -451.65945462635591   -9.17259e-02   9.78367e-05 DIIS
   @DF-RHF iter   4:  -451.66502129074559   -5.56666e-03   3.94817e-05 DIIS
   @DF-RHF iter   5:  -451.66616003440924   -1.13874e-03   8.18635e-06 DIIS
   @DF-RHF iter   6:  -451.66627918850111   -1.19154e-04   4.23720e-06 DIIS
   @DF-RHF iter   7:  -451.66630453636975   -2.53479e-05   1.79728e-06 DIIS
   @DF-RHF iter   8:  -451.66630907016713   -4.53380e-06   7.06815e-07 DIIS
   @DF-RHF iter   9:  -451.66630961838200   -5.48215e-07   2.36713e-07 DIIS
   @DF-RHF iter  10:  -451.66630971155450   -9.31725e-08   9.25995e-08 DIIS
   @DF-RHF iter  11:  -451.66630972197794   -1.04234e-08   3.49900e-08 DIIS
   @DF-RHF iter  12:  -451.66630972356398   -1.58605e-09   1.11437e-08 DIIS
   @DF-RHF iter  13:  -451.66630972371877   -1.54785e-10   3.63392e-09 DIIS
  Energy and wave function converged.


  ==> Post-Iterations <==

    Orbital Energies [Eh]
    ---------------------

    Doubly Occupied:                                                      

       1A    -20.548491     2A    -20.542420     3A    -15.642083  
       4A    -15.628588     5A    -11.419266     6A    -11.380195  
       7A    -11.331280     8A    -11.264614     9A    -11.241015  
      10A     -1.430446    11A     -1.387083    12A     -1.309348  
      13A     -1.242820    14A     -1.110483    15A     -0.970783  
      16A     -0.918526    17A     -0.891750    18A     -0.770075  
      19A     -0.765700    20A     -0.707644    21A     -0.676249  
      22A     -0.666092    23A     -0.640502    24A     -0.611819  
      25A     -0.592353    26A     -0.571062    27A     -0.557452  
      28A     -0.551932    29A     -0.513153    30A     -0.482205  
      31A     -0.448883    32A     -0.434643    33A     -0.359105  

    Virtual:                                                              

      34A      0.013336    35A      0.023997    36A      0.029182  
      37A      0.037490    38A      0.039930    39A      0.042083  
      40A      0.052177    41A      0.056464    42A      0.057775  
      43A      0.061730    44A      0.065069    45A      0.069998  
      46A      0.076576    47A      0.078122    48A      0.084537  
      49A      0.088982    50A      0.091220    51A      0.093252  
      52A      0.099343    53A      0.102378    54A      0.103652  
      55A      0.109927    56A      0.111010    57A      0.113721  
      58A      0.117572    59A      0.122282    60A      0.126287  
      61A      0.132220    62A      0.133702    63A      0.135732  
      64A      0.137835    65A      0.139863    66A      0.143059  
      67A      0.147739    68A      0.153951    69A      0.154924  
      70A      0.156145    71A      0.162523    72A      0.165281  
      73A      0.167636    74A      0.171542    75A      0.172573  
      76A      0.174770    77A      0.178416    78A      0.182869  
      79A      0.193396    80A      0.195848    81A      0.200407  
      82A      0.202928    83A      0.206029    84A      0.210632  
      85A      0.213232    86A      0.215932    87A      0.218876  
      88A      0.225129    89A      0.228027    90A      0.229034  
      91A      0.237931    92A      0.241828    93A      0.244221  
      94A      0.248012    95A      0.248513    96A      0.251397  
      97A      0.254883    98A      0.259944    99A      0.262181  
     100A      0.268459   101A      0.271350   102A      0.274883  
     103A      0.280115   104A      0.288268   105A      0.289357  
     106A      0.292343   107A      0.292872   108A      0.300429  
     109A      0.303971   110A      0.310460   111A      0.313494  
     112A      0.316087   113A      0.317685   114A      0.320733  
     115A      0.330355   116A      0.331358   117A      0.336877  
     118A      0.339152   119A      0.340266   120A      0.344396  
     121A      0.347803   122A      0.349832   123A      0.353087  
     124A      0.356113   125A      0.363018   126A      0.366186  
     127A      0.368977   128A      0.376701   129A      0.380563  
     130A      0.382591   131A      0.384286   132A      0.388088  
     133A      0.392601   134A      0.393271   135A      0.396813  
     136A      0.399954   137A      0.406117   138A      0.408113  
     139A      0.408719   140A      0.416997   141A      0.419903  
     142A      0.421976   143A      0.424947   144A      0.426009  
     145A      0.429104   146A      0.434710   147A      0.436704  
     148A      0.439666   149A      0.443576   150A      0.448401  
     151A      0.449878   152A      0.453096   153A      0.457657  
     154A      0.460589   155A      0.465936   156A      0.466134  
     157A      0.468891   158A      0.472215   159A      0.477163  
     160A      0.478664   161A      0.486216   162A      0.488648  
     163A      0.488851   164A      0.495586   165A      0.498656  
     166A      0.499409   167A      0.502139   168A      0.508066  
     169A      0.511275   170A      0.512277   171A      0.520590  
     172A      0.521582   173A      0.524321   174A      0.529765  
     175A      0.532816   176A      0.537687   177A      0.543498  
     178A      0.550478   179A      0.555092   180A      0.556587  
     181A      0.558906   182A      0.565558   183A      0.566908  
     184A      0.569370   185A      0.573447   186A      0.577190  
     187A      0.578816   188A      0.585821   189A      0.593730  
     190A      0.595273   191A      0.599692   192A      0.602316  
     193A      0.608750   194A      0.610334   195A      0.618708  
     196A      0.622429   197A      0.630257   198A      0.630745  
     199A      0.634792   200A      0.641666   201A      0.645396  
     202A      0.651496   203A      0.653893   204A      0.661711  
     205A      0.668119   206A      0.670076   207A      0.673733  
     208A      0.683757   209A      0.684159   210A      0.694889  
     211A      0.699993   212A      0.704701   213A      0.708200  
     214A      0.716758   215A      0.716935   216A      0.728432  
     217A      0.732132   218A      0.738012   219A      0.741319  
     220A      0.746797   221A      0.752412   222A      0.759085  
     223A      0.761134   224A      0.765759   225A      0.769537  
     226A      0.776017   227A      0.777985   228A      0.781360  
     229A      0.788606   230A      0.792318   231A      0.795840  
     232A      0.804645   233A      0.806171   234A      0.813481  
     235A      0.815351   236A      0.821754   237A      0.824782  
     238A      0.829593   239A      0.832250   240A      0.838216  
     241A      0.843320   242A      0.845416   243A      0.848716  
     244A      0.850700   245A      0.855368   246A      0.858664  
     247A      0.864204   248A      0.864584   249A      0.869701  
     250A      0.877972   251A      0.881057   252A      0.887704  
     253A      0.889852   254A      0.893320   255A      0.894793  
     256A      0.901982   257A      0.905957   258A      0.910063  
     259A      0.913085   260A      0.920023   261A      0.923544  
     262A      0.926119   263A      0.930916   264A      0.933955  
     265A      0.936988   266A      0.939836   267A      0.942527  
     268A      0.950216   269A      0.952823   270A      0.958858  
     271A      0.963142   272A      0.969622   273A      0.975386  
     274A      0.977753   275A      0.979776   276A      0.986253  
     277A      0.993998   278A      0.994970   279A      1.000219  
     280A      1.005322   281A      1.009835   282A      1.013285  
     283A      1.018045   284A      1.021922   285A      1.023201  
     286A      1.028579   287A      1.037864   288A      1.041472  
     289A      1.043015   290A      1.045882   291A      1.054421  
     292A      1.057639   293A      1.062720   294A      1.068099  
     295A      1.069188   296A      1.076451   297A      1.084412  
     298A      1.087850   299A      1.088246   300A      1.097641  
     301A      1.104198   302A      1.107124   303A      1.112932  
     304A      1.119808   305A      1.122009   306A      1.130707  
     307A      1.133019   308A      1.135663   309A      1.137979  
     310A      1.144469   311A      1.152952   312A      1.154778  
     313A      1.160450   314A      1.163777   315A      1.165798  
     316A      1.172357   317A      1.172582   318A      1.174410  
     319A      1.181470   320A      1.187765   321A      1.191326  
     322A      1.195894   323A      1.197647   324A      1.203661  
     325A      1.206698   326A      1.214613   327A      1.216149  
     328A      1.225929   329A      1.235546   330A      1.236457  
     331A      1.237764   332A      1.239826   333A      1.245611  
     334A      1.253621   335A      1.256420   336A      1.259153  
     337A      1.261093   338A      1.266052   339A      1.274034  
     340A      1.280305   341A      1.282772   342A      1.285332  
     343A      1.290263   344A      1.295152   345A      1.301917  
     346A      1.308691   347A      1.314968   348A      1.321613  
     349A      1.327137   350A      1.337577   351A      1.339631  
     352A      1.343228   353A      1.345933   354A      1.352607  
     355A      1.356451   356A      1.363688   357A      1.370225  
     358A      1.379053   359A      1.380108   360A      1.383879  
     361A      1.384734   362A      1.390464   363A      1.397053  
     364A      1.400721   365A      1.406489   366A      1.411236  
     367A      1.412729   368A      1.423477   369A      1.429802  
     370A      1.432978   371A      1.436145   372A      1.441633  
     373A      1.449505   374A      1.457906   375A      1.463401  
     376A      1.465039   377A      1.467397   378A      1.481250  
     379A      1.484760   380A      1.486446   381A      1.497174  
     382A      1.501912   383A      1.514097   384A      1.517803  
     385A      1.520633   386A      1.522575   387A      1.528196  
     388A      1.532341   389A      1.537688   390A      1.545780  
     391A      1.548030   392A      1.553199   393A      1.561144  
     394A      1.570881   395A      1.574552   396A      1.585246  
     397A      1.586218   398A      1.588289   399A      1.596827  
     400A      1.606754   401A      1.611741   402A      1.615674  
     403A      1.624163   404A      1.625930   405A      1.629254  
     406A      1.639209   407A      1.641742   408A      1.645778  
     409A      1.657761   410A      1.661228   411A      1.670389  
     412A      1.677374   413A      1.681066   414A      1.683090  
     415A      1.688405   416A      1.692286   417A      1.697882  
     418A      1.703399   419A      1.708365   420A      1.712467  
     421A      1.719239   422A      1.722874   423A      1.728854  
     424A      1.733736   425A      1.743241   426A      1.745668  
     427A      1.752238   428A      1.753928   429A      1.754998  
     430A      1.765349   431A      1.766738   432A      1.777553  
     433A      1.784580   434A      1.788538   435A      1.794150  
     436A      1.797588   437A      1.803475   438A      1.808575  
     439A      1.813431   440A      1.817791   441A      1.827701  
     442A      1.828916   443A      1.836972   444A      1.839958  
     445A      1.847923   446A      1.852675   447A      1.861146  
     448A      1.864626   449A      1.870618   450A      1.879161  
     451A      1.883577   452A      1.889408   453A      1.893549  
     454A      1.900472   455A      1.909432   456A      1.918034  
     457A      1.921990   458A      1.930217   459A      1.937279  
     460A      1.942004   461A      1.945405   462A      1.952324  
     463A      1.963731   464A      1.967109   465A      1.970470  
     466A      1.982178   467A      1.986680   468A      1.991278  
     469A      1.998959   470A      2.004650   471A      2.006047  
     472A      2.009738   473A      2.025492   474A      2.034194  
     475A      2.042920   476A      2.046030   477A      2.054133  
     478A      2.059552   479A      2.070927   480A      2.075518  
     481A      2.084526   482A      2.087588   483A      2.099204  
     484A      2.110577   485A      2.116120   486A      2.125424  
     487A      2.128503   488A      2.131117   489A      2.144713  
     490A      2.163109   491A      2.164889   492A      2.170380  
     493A      2.176700   494A      2.189405   495A      2.191170  
     496A      2.197527   497A      2.205651   498A      2.206820  
     499A      2.218708   500A      2.225908   501A      2.232102  
     502A      2.239474   503A      2.245286   504A      2.252517  
     505A      2.255022   506A      2.259917   507A      2.264192  
     508A      2.276235   509A      2.277831   510A      2.285007  
     511A      2.295573   512A      2.301043   513A      2.312488  
     514A      2.314141   515A      2.326746   516A      2.331466  
     517A      2.338536   518A      2.344016   519A      2.351584  
     520A      2.356122   521A      2.370063   522A      2.378240  
     523A      2.380940   524A      2.390658   525A      2.394884  
     526A      2.403245   527A      2.405439   528A      2.413528  
     529A      2.422737   530A      2.424540   531A      2.440606  
     532A      2.454225   533A      2.461744   534A      2.463914  
     535A      2.473133   536A      2.503388   537A      2.507561  
     538A      2.516586   539A      2.527264   540A      2.536676  
     541A      2.542128   542A      2.547033   543A      2.550004  
     544A      2.559134   545A      2.568238   546A      2.573077  
     547A      2.584493   548A      2.588545   549A      2.594497  
     550A      2.601840   551A      2.605770   552A      2.620183  
     553A      2.636340   554A      2.648116   555A      2.656748  
     556A      2.661389   557A      2.668320   558A      2.674936  
     559A      2.684738   560A      2.688470   561A      2.703592  
     562A      2.706826   563A      2.711726   564A      2.721764  
     565A      2.723931   566A      2.736588   567A      2.744526  
     568A      2.747714   569A      2.761050   570A      2.766103  
     571A      2.772785   572A      2.779874   573A      2.785480  
     574A      2.786426   575A      2.790825   576A      2.800107  
     577A      2.811736   578A      2.822899   579A      2.833548  
     580A      2.837776   581A      2.840728   582A      2.853570  
     583A      2.865556   584A      2.877454   585A      2.899291  
     586A      2.902757   587A      2.914147   588A      2.919229  
     589A      2.920283   590A      2.932462   591A      2.937122  
     592A      2.956842   593A      2.966539   594A      2.972324  
     595A      2.989408   596A      2.995475   597A      3.005913  
     598A      3.013030   599A      3.021553   600A      3.025426  
     601A      3.044922   602A      3.049163   603A      3.060159  
     604A      3.068366   605A      3.073205   606A      3.083685  
     607A      3.102413   608A      3.110678   609A      3.125990  
     610A      3.138878   611A      3.148450   612A      3.153700  
     613A      3.157271   614A      3.165016   615A      3.181706  
     616A      3.191022   617A      3.202089   618A      3.215752  
     619A      3.237414   620A      3.245474   621A      3.250141  
     622A      3.258421   623A      3.279198   624A      3.288402  
     625A      3.305701   626A      3.312223   627A      3.327686  
     628A      3.343244   629A      3.343975   630A      3.353056  
     631A      3.374089   632A      3.388343   633A      3.396823  
     634A      3.417685   635A      3.436303   636A      3.445774  
     637A      3.447075   638A      3.460255   639A      3.471326  
     640A      3.481605   641A      3.494109   642A      3.501607  
     643A      3.512026   644A      3.516656   645A      3.526541  
     646A      3.541905   647A      3.562705   648A      3.565096  
     649A      3.597028   650A      3.600899   651A      3.615893  
     652A      3.621370   653A      3.634715   654A      3.642298  
     655A      3.655432   656A      3.673805   657A      3.684672  
     658A      3.690914   659A      3.703890   660A      3.709417  
     661A      3.733735   662A      3.740671   663A      3.749234  
     664A      3.758077   665A      3.769259   666A      3.780003  
     667A      3.782962   668A      3.794822   669A      3.815790  
     670A      3.824246   671A      3.833622   672A      3.856596  
     673A      3.862918   674A      3.872735   675A      3.874337  
     676A      3.891018   677A      3.893778   678A      3.918705  
     679A      3.927158   680A      3.936781   681A      3.949210  
     682A      3.954829   683A      3.957230   684A      3.972335  
     685A      3.984505   686A      3.998246   687A      4.004116  
     688A      4.018848   689A      4.030632   690A      4.039245  
     691A      4.045560   692A      4.053763   693A      4.071651  
     694A      4.073522   695A      4.081561   696A      4.090640  
     697A      4.108708   698A      4.115837   699A      4.126353  
     700A      4.129157   701A      4.141310   702A      4.147093  
     703A      4.150694   704A      4.167571   705A      4.173558  
     706A      4.193358   707A      4.195536   708A      4.204191  
     709A      4.219558   710A      4.220124   711A      4.237013  
     712A      4.244437   713A      4.258675   714A      4.265461  
     715A      4.281276   716A      4.288700   717A      4.291873  
     718A      4.301726   719A      4.316269   720A      4.320986  
     721A      4.333549   722A      4.344233   723A      4.362337  
     724A      4.369257   725A      4.374207   726A      4.384182  
     727A      4.393239   728A      4.403154   729A      4.429050  
     730A      4.433086   731A      4.452432   732A      4.454648  
     733A      4.458393   734A      4.472244   735A      4.487359  
     736A      4.491240   737A      4.502471   738A      4.521181  
     739A      4.534336   740A      4.541409   741A      4.545936  
     742A      4.563870   743A      4.570994   744A      4.574541  
     745A      4.582531   746A      4.596783   747A      4.609324  
     748A      4.621270   749A      4.625895   750A      4.632602  
     751A      4.639086   752A      4.652426   753A      4.660628  
     754A      4.681590   755A      4.690034   756A      4.694109  
     757A      4.708330   758A      4.713354   759A      4.725453  
     760A      4.753244   761A      4.757989   762A      4.770141  
     763A      4.777170   764A      4.782482   765A      4.792611  
     766A      4.801537   767A      4.809209   768A      4.820295  
     769A      4.824021   770A      4.832342   771A      4.840919  
     772A      4.848874   773A      4.856939   774A      4.865129  
     775A      4.870209   776A      4.878205   777A      4.888910  
     778A      4.908635   779A      4.920692   780A      4.925251  
     781A      4.954940   782A      4.958671   783A      4.971243  
     784A      4.978081   785A      4.991308   786A      5.000718  
     787A      5.003012   788A      5.008396   789A      5.017938  
     790A      5.028019   791A      5.033817   792A      5.042213  
     793A      5.067457   794A      5.070098   795A      5.078049  
     796A      5.089188   797A      5.096102   798A      5.098801  
     799A      5.110036   800A      5.123239   801A      5.123997  
     802A      5.150559   803A      5.154303   804A      5.157631  
     805A      5.167334   806A      5.188449   807A      5.190273  
     808A      5.198795   809A      5.215181   810A      5.221594  
     811A      5.231242   812A      5.247878   813A      5.258323  
     814A      5.272424   815A      5.284439   816A      5.297904  
     817A      5.304137   818A      5.323122   819A      5.337425  
     820A      5.355169   821A      5.360516   822A      5.367275  
     823A      5.377669   824A      5.393733   825A      5.406415  
     826A      5.425013   827A      5.429441   828A      5.440245  
     829A      5.454678   830A      5.476718   831A      5.480739  
     832A      5.491289   833A      5.503764   834A      5.510308  
     835A      5.532612   836A      5.543163   837A      5.554021  
     838A      5.561113   839A      5.574684   840A      5.577858  
     841A      5.598798   842A      5.615936   843A      5.627980  
     844A      5.637842   845A      5.649416   846A      5.655370  
     847A      5.663438   848A      5.670502   849A      5.679748  
     850A      5.697222   851A      5.711582   852A      5.731931  
     853A      5.742645   854A      5.746802   855A      5.762455  
     856A      5.766987   857A      5.789154   858A      5.822774  
     859A      5.839905   860A      5.851467   861A      5.892874  
     862A      5.904071   863A      5.907022   864A      5.922811  
     865A      5.940633   866A      5.972622   867A      5.992376  
     868A      6.005900   869A      6.022031   870A      6.038105  
     871A      6.043982   872A      6.070150   873A      6.087587  
     874A      6.093275   875A      6.110592   876A      6.139583  
     877A      6.140546   878A      6.156789   879A      6.177690  
     880A      6.182945   881A      6.186131   882A      6.204291  
     883A      6.211934   884A      6.229636   885A      6.233225  
     886A      6.265050   887A      6.281867   888A      6.301082  
     889A      6.338967   890A      6.363042   891A      6.377499  
     892A      6.408795   893A      6.412504   894A      6.455534  
     895A      6.471876   896A      6.477270   897A      6.518526  
     898A      6.582387   899A      6.594940   900A      6.603986  
     901A      6.628864   902A      6.631558   903A      6.653374  
     904A      6.670414   905A      6.698223   906A      6.709604  
     907A      6.718875   908A      6.739281   909A      6.749427  
     910A      6.765219   911A      6.782123   912A      6.789394  
     913A      6.803069   914A      6.817677   915A      6.838692  
     916A      6.842656   917A      6.849121   918A      6.870158  
     919A      6.871823   920A      6.892769   921A      6.897275  
     922A      6.917286   923A      6.929444   924A      6.954062  
     925A      6.980206   926A      6.993605   927A      7.002365  
     928A      7.029349   929A      7.051951   930A      7.070556  
     931A      7.077683   932A      7.104296   933A      7.164216  
     934A      7.198809   935A      7.257343   936A      7.283921  
     937A      7.315715   938A      7.329069   939A      7.360486  
     940A      7.388622   941A      7.438319   942A      7.450033  
     943A      7.468032   944A      7.477477   945A      7.500677  
     946A      7.511073   947A      7.556652   948A      7.564918  
     949A      7.568165   950A      7.628435   951A      7.635983  
     952A      7.651010   953A      7.669370   954A      7.681394  
     955A      7.696176   956A      7.722736   957A      7.739739  
     958A      7.798119   959A      7.805860   960A      7.815808  
     961A      7.836694   962A      7.851454   963A      7.871109  
     964A      7.882982   965A      7.887103   966A      7.894057  
     967A      7.911652   968A      7.920094   969A      7.951831  
     970A      7.978912   971A      7.991196   972A      8.012437  
     973A      8.024657   974A      8.052205   975A      8.064220  
     976A      8.086393   977A      8.094937   978A      8.126385  
     979A      8.209925   980A      8.226176   981A      8.292586  
     982A      8.384420   983A      8.459857   984A      8.604166  
     985A      8.699392   986A      8.740373   987A      8.854109  
     988A      8.908408   989A      9.038854   990A      9.159247  
     991A      9.280857   992A      9.413649   993A      9.530092  
     994A      9.637089   995A      9.659574   996A      9.709230  
     997A      9.828100   998A      9.985034   999A     10.092041  
    1000A     10.194798  1001A     10.276505  1002A     10.372550  
    1003A     10.517784  1004A     10.854422  1005A     11.088070  
    1006A     11.214487  1007A     11.337980  1008A     11.480506  
    1009A     11.802551  1010A     11.989984  1011A     12.027790  
    1012A     12.088433  1013A     12.308863  1014A     12.494897  
    1015A     12.775998  1016A     13.153517  1017A     13.552058  
    1018A     14.140095  1019A     16.134492  1020A     16.347281  
    1021A     16.570660  1022A     16.868234  1023A     18.176031  
    1024A     19.350227  1025A     20.097936  1026A     20.486532  
    1027A     21.089592  1028A     51.567493  1029A     51.769749  
    1030A     54.013715  1031A     55.854455  1032A     60.807667  
    1033A     61.812144  1034A     65.216043  1035A     69.405676  

    Final Occupation by Irrep:
              A 
    DOCC [    33 ]

  @DF-RHF Final Energy:  -451.66630972371877

   => Energetics <=

    Nuclear Repulsion Energy =            439.2049118517330726
    One-Electron Energy =               -1486.5263240722645151
    Two-Electron Energy =                 595.6551024968125603
    Total Energy =                       -451.6663097237187685

Computation Completed


Properties will be evaluated at   0.000000,   0.000000,   0.000000 [a0]

Properties computed using the SCF density matrix

  Nuclear Dipole Moment: [e a0]
     X:  -231.2994      Y:    34.2877      Z:   -35.0941

  Electronic Dipole Moment: [e a0]
     X:   231.0465      Y:   -33.0741      Z:    36.5790

  Dipole Moment: [e a0]
     X:    -0.2529      Y:     1.2136      Z:     1.4849     Total:     1.9344

  Dipole Moment: [D]
     X:    -0.6428      Y:     3.0848      Z:     3.7742     Total:     4.9166


*** tstop() called on node151.bme.utexas.edu at Sat Jan 13 07:56:03 2024
Module time:
	user time   =     391.62 seconds =       6.53 minutes
	system time =       3.58 seconds =       0.06 minutes
	total time  =         57 seconds =       0.95 minutes
Total time:
	user time   =    1630.99 seconds =      27.18 minutes
	system time =      19.45 seconds =       0.32 minutes
	total time  =        244 seconds =       4.07 minutes

*** tstart() called on node151.bme.utexas.edu
*** at Sat Jan 13 07:56:03 2024


  //>>>>>>>>>>>>>>>>>>>>>>>>>>>>>>>>>>>//
  //               DFMP2               //
  //<<<<<<<<<<<<<<<<<<<<<<<<<<<<<<<<<<<//

   => Loading Basis Set <=

    Name: (AUG-CC-PVTZ AUX)
    Role: RIFIT
    Keyword: DF_BASIS_MP2
    atoms 1, 5, 7, 14, 18                entry N          line   206 file /opt/anaconda/envs/psi4v1.5/share/psi4/basis/aug-cc-pvtz-ri.gbs 
    atoms 2, 9, 11-13, 15, 19, 24, 26-28 entry H          line    30 file /opt/anaconda/envs/psi4v1.5/share/psi4/basis/aug-cc-pvtz-ri.gbs 
    atoms 3, 6, 8, 10, 16, 20, 22-23, 25 entry C          line   148 file /opt/anaconda/envs/psi4v1.5/share/psi4/basis/aug-cc-pvtz-ri.gbs 
    atoms 4, 17, 21                      entry O          line   264 file /opt/anaconda/envs/psi4v1.5/share/psi4/basis/aug-cc-pvtz-ri.gbs 

	 --------------------------------------------------------
	                          DF-MP2                         
	      2nd-Order Density-Fitted Moller-Plesset Theory     
	              RMP2 Wavefunction,   8 Threads             
	                                                         
	        Rob Parrish, Justin Turney, Andy Simmonett,      
	           Ed Hohenstein, and C. David Sherrill          
	 --------------------------------------------------------

   => Auxiliary Basis Set <=

  Basis Set: (AUG-CC-PVTZ AUX)
    Blend: AUG-CC-PVTZ-RI
    Number of shells: 630
    Number of basis functions: 2308
    Number of Cartesian functions: 2917
    Spherical Harmonics?: true
    Max angular momentum: 4

	 --------------------------------------------------------
	                 NBF =  1035, NAUX =  2308
	 --------------------------------------------------------
	   CLASS    FOCC     OCC    AOCC    AVIR     VIR    FVIR
	   PAIRS       9      33      24    1002    1002       0
	 --------------------------------------------------------

	 Will attempt to load fitting metric from file 97.

	-----------------------------------------------------------
	 ==================> DF-MP2 Energies <==================== 
	-----------------------------------------------------------
	 Reference Energy          =    -451.6663097237187685 [Eh]
	 Singles Energy            =      -0.0000000000000000 [Eh]
	 Same-Spin Energy          =      -0.4341676687162109 [Eh]
	 Opposite-Spin Energy      =      -1.2525480885574103 [Eh]
	 Correlation Energy        =      -1.6867157572736211 [Eh]
	 Total Energy              =    -453.3530254809924145 [Eh]
	-----------------------------------------------------------
	 ================> DF-SCS-MP2 Energies <================== 
	-----------------------------------------------------------
	 SCS Same-Spin Scale       =       0.3333333333333333 [-]
	 SCS Opposite-Spin Scale   =       1.2000000000000000 [-]
	 SCS Same-Spin Energy      =      -0.1447225562387370 [Eh]
	 SCS Opposite-Spin Energy  =      -1.5030577062688923 [Eh]
	 SCS Correlation Energy    =      -1.6477802625076294 [Eh]
	 SCS Total Energy          =    -453.3140899862264064 [Eh]
	-----------------------------------------------------------


*** tstop() called on node151.bme.utexas.edu at Sat Jan 13 07:56:22 2024
Module time:
	user time   =     104.69 seconds =       1.74 minutes
	system time =       2.43 seconds =       0.04 minutes
	total time  =         19 seconds =       0.32 minutes
Total time:
	user time   =    1735.68 seconds =      28.93 minutes
	system time =      21.88 seconds =       0.36 minutes
	total time  =        263 seconds =       4.38 minutes
  Constructing Basis Sets for SAPT...

   => Loading Basis Set <=

    Name: (AUG-CC-PVTZ AUX)
    Role: RIFIT
    Keyword: DF_BASIS_SAPT
    atoms 1, 5, 7, 14, 18                entry N          line   206 file /opt/anaconda/envs/psi4v1.5/share/psi4/basis/aug-cc-pvtz-ri.gbs 
    atoms 2, 9, 11-13, 15, 19, 24, 26-28 entry H          line    30 file /opt/anaconda/envs/psi4v1.5/share/psi4/basis/aug-cc-pvtz-ri.gbs 
    atoms 3, 6, 8, 10, 16, 20, 22-23, 25 entry C          line   148 file /opt/anaconda/envs/psi4v1.5/share/psi4/basis/aug-cc-pvtz-ri.gbs 
    atoms 4, 17, 21                      entry O          line   264 file /opt/anaconda/envs/psi4v1.5/share/psi4/basis/aug-cc-pvtz-ri.gbs 


  //>>>>>>>>>>>>>>>>>>>>>>>>>>>>>>>>>>>//
  //           SAPT2+(3)DMP2           //
  //<<<<<<<<<<<<<<<<<<<<<<<<<<<<<<<<<<<//


*** tstart() called on node151.bme.utexas.edu
*** at Sat Jan 13 07:56:22 2024

      SAPT2+(3)  
    Ed Hohenstein
     6 June 2009

      Orbital Information
  --------------------------
    NSO        =      1035
    NMO        =      1035
    NRI        =      2308
    NOCC A     =        29
    NOCC B     =        33
    FOCC A     =         8
    FOCC B     =         9
    NVIR A     =      1006
    NVIR B     =      1002

    Estimated memory usage: 45136.8 MB

    Natural Orbital Cutoff:   1.000E-06
    Disp(T3) Truncation:            Yes
    CCD (vv|vv) Truncation:         Yes
    MBPT T2 Truncation:             Yes

    Monomer A: 587 virtual orbitals dropped
    Monomer B: 526 virtual orbitals dropped

    Elst10,r            =    -0.026554648323 [Eh]
    Exch10 (S^2)        =     0.017391613601 [Eh]
    Exch10              =     0.017452028454 [Eh]
    Ind20,r (A<-B)      =    -0.006820345623 [Eh]
    Ind20,r (B<-A)      =    -0.005063627635 [Eh]
    Ind20,r             =    -0.011883973258 [Eh]
    Exch-Ind20,r (A<-B) =     0.005197278944 [Eh]
    Exch-Ind20,r (B<-A) =     0.001585608231 [Eh]
    Exch-Ind20,r        =     0.006782887175 [Eh]
    Disp20              =    -0.018723452784 [Eh]
    Disp20 (NO)         =    -0.017146246899 [Eh]
    Exch-Disp20         =     0.002230242581 [Eh]
    Elst12,r            =     0.003395795812 [Eh]
    Exch11              =     0.000118880286 [Eh]
    Exch12              =     0.002738910222 [Eh]
    Ind22               =    -0.001351436736 [Eh]
    Disp21              =     0.004090985008 [Eh]
    Disp22 (SDQ)        =    -0.000740739371 [Eh]

    (i =   1 of  24)       1001 seconds
    (i =   2 of  24)       2010 seconds
    (i =   3 of  24)       2992 seconds
    (i =   4 of  24)       3975 seconds
    (i =   5 of  24)       4958 seconds
    (i =   6 of  24)       5941 seconds
    (i =   7 of  24)       6931 seconds
    (i =   8 of  24)       7922 seconds
    (i =   9 of  24)       8913 seconds
    (i =  10 of  24)       9902 seconds
    (i =  11 of  24)      10891 seconds
    (i =  12 of  24)      11880 seconds
    (i =  13 of  24)      12867 seconds
    (i =  14 of  24)      13854 seconds
    (i =  15 of  24)      14840 seconds
    (i =  16 of  24)      15825 seconds
    (i =  17 of  24)      16816 seconds
    (i =  18 of  24)      17804 seconds
    (i =  19 of  24)      18793 seconds
    (i =  20 of  24)      19782 seconds
    (i =  21 of  24)      20772 seconds
    (i =  22 of  24)      21764 seconds
    (i =  23 of  24)      22755 seconds
    (i =  24 of  24)      23750 seconds

    Disp220 (T)         =    -0.002011731150 [Eh]

    (i =   1 of  21)       1239 seconds
    (i =   2 of  21)       2465 seconds
    (i =   3 of  21)       3676 seconds
    (i =   4 of  21)       5003 seconds
    (i =   5 of  21)       6216 seconds
    (i =   6 of  21)       7428 seconds
    (i =   7 of  21)       8640 seconds
    (i =   8 of  21)       9852 seconds
    (i =   9 of  21)      11064 seconds
    (i =  10 of  21)      12274 seconds
    (i =  11 of  21)      13487 seconds
    (i =  12 of  21)      14701 seconds
    (i =  13 of  21)      15912 seconds
    (i =  14 of  21)      17124 seconds
    (i =  15 of  21)      18339 seconds
    (i =  16 of  21)      19554 seconds
    (i =  17 of  21)      20766 seconds
    (i =  18 of  21)      21978 seconds
    (i =  19 of  21)      23190 seconds
    (i =  20 of  21)      24402 seconds
    (i =  21 of  21)      25613 seconds

    Disp202 (T)         =    -0.001974803956 [Eh]

    Disp22 (T)          =    -0.003986535105 [Eh]

    Est. Disp220 (T)    =    -0.002196781221 [Eh]
    Est. Disp202 (T)    =    -0.002156457261 [Eh]

    Est. Disp22 (T)     =    -0.004353238482 [Eh]
    Elst13,r            =    -0.000588913792 [Eh]
    Disp30              =     0.000463752397 [Eh]

    SAPT Results 
  --------------------------------------------------------------------------------------------------------
    Electrostatics                -23.74776630 [mEh]     -14.90194834 [kcal/mol]     -62.34975184 [kJ/mol]
      Elst10,r                    -26.55464832 [mEh]     -16.66329340 [kcal/mol]     -69.71921957 [kJ/mol]
      Elst12,r                      3.39579581 [mEh]       2.13089404 [kcal/mol]       8.91566068 [kJ/mol]
      Elst13,r                     -0.58891379 [mEh]      -0.36954898 [kcal/mol]      -1.54619295 [kJ/mol]

    Exchange                       20.30981896 [mEh]      12.74460381 [kcal/mol]      53.32342234 [kJ/mol]
      Exch10                       17.45202845 [mEh]      10.95131319 [kcal/mol]      45.82029439 [kJ/mol]
      Exch10(S^2)                  17.39161360 [mEh]      10.91340230 [kcal/mol]      45.66167522 [kJ/mol]
      Exch11(S^2)                   0.11888029 [mEh]       0.07459851 [kcal/mol]       0.31212015 [kJ/mol]
      Exch12(S^2)                   2.73891022 [mEh]       1.71869211 [kcal/mol]       7.19100780 [kJ/mol]

    Induction                      -6.25595699 [mEh]      -3.92567228 [kcal/mol]     -16.42501282 [kJ/mol]
      Ind20,r                     -11.88397326 [mEh]      -7.45730581 [kcal/mol]     -31.20136749 [kJ/mol]
      Ind22                        -1.35143674 [mEh]      -0.84803935 [kcal/mol]      -3.54819666 [kJ/mol]
      Exch-Ind20,r                  6.78288717 [mEh]       4.25632596 [kcal/mol]      17.80846782 [kJ/mol]
      Exch-Ind22                    0.77134496 [mEh]       0.48402627 [kcal/mol]       2.02516592 [kJ/mol]
      delta HF,r (2)               -2.01328814 [mEh]      -1.26335738 [kcal/mol]      -5.28588727 [kJ/mol]
      delta MP2,r (2)               1.43850900 [mEh]       0.90267803 [kcal/mol]       3.77680486 [kJ/mol]

    Dispersion                    -17.03245065 [mEh]     -10.68802415 [kcal/mol]     -44.71869302 [kJ/mol]
      Disp20                      -18.72345278 [mEh]     -11.74914400 [kcal/mol]     -49.15841851 [kJ/mol]
      Disp30                        0.46375240 [mEh]       0.29100902 [kcal/mol]       1.21758175 [kJ/mol]
      Disp21                        4.09098501 [mEh]       2.56713185 [kcal/mol]      10.74087966 [kJ/mol]
      Disp22 (SDQ)                 -0.74073937 [mEh]      -0.46482097 [kcal/mol]      -1.94481095 [kJ/mol]
      Disp22 (T)                   -3.98653511 [mEh]      -2.50158855 [kcal/mol]     -10.46664648 [kJ/mol]
      Est. Disp22 (T)              -4.35323848 [mEh]      -2.73169839 [kcal/mol]     -11.42942606 [kJ/mol]
      Exch-Disp20                   2.23024258 [mEh]       1.39949835 [kcal/mol]       5.85550109 [kJ/mol]

  Total HF                        -16.21699409 [mEh]     -10.17631743 [kcal/mol]     -42.57771211 [kJ/mol]
  Total SAPT0                     -32.71020429 [mEh]     -20.52596308 [kcal/mol]     -85.88062953 [kJ/mol]
  Total SAPT2                     -27.03670974 [mEh]     -16.96579150 [kcal/mol]     -70.98487165 [kJ/mol]
  Total SAPT2+                    -28.03970259 [mEh]     -17.59517902 [kcal/mol]     -73.61822900 [kJ/mol]
  Total SAPT2+(3)                 -28.16486398 [mEh]     -17.67371898 [kcal/mol]     -73.94684020 [kJ/mol]
  Total SAPT2+dMP2                -26.60119359 [mEh]     -16.69250099 [kcal/mol]     -69.84142415 [kJ/mol]
  Total SAPT2+(3)dMP2             -26.72635498 [mEh]     -16.77104095 [kcal/mol]     -70.17003534 [kJ/mol]

  Special recipe for scaled SAPT0 (see Manual):
    Electrostatics sSAPT0         -26.55464832 [mEh]     -16.66329340 [kcal/mol]     -69.71921957 [kJ/mol]
    Exchange sSAPT0                17.45202845 [mEh]      10.95131319 [kcal/mol]      45.82029439 [kJ/mol]
    Induction sSAPT0               -7.04344136 [mEh]      -4.41982618 [kcal/mol]     -18.49255274 [kJ/mol]
    Dispersion sSAPT0             -16.46988717 [mEh]     -10.33501023 [kcal/mol]     -43.24168281 [kJ/mol]
  Total sSAPT0                    -32.61594840 [mEh]     -20.46681662 [kcal/mol]     -85.63316073 [kJ/mol]
  --------------------------------------------------------------------------------------------------------

*** tstop() called on node151.bme.utexas.edu at Sun Jan 14 00:37:48 2024
Module time:
	user time   =  396841.57 seconds =    6614.03 minutes
	system time =    1027.24 seconds =      17.12 minutes
	total time  =      60086 seconds =    1001.43 minutes
Total time:
	user time   =  398578.05 seconds =    6642.97 minutes
	system time =    1049.13 seconds =      17.49 minutes
	total time  =      60349 seconds =    1005.82 minutes

    Psi4 stopped on: Sunday, 14 January 2024 12:37AM
    Psi4 wall time for execution: 16:45:50.00

*** Psi4 exiting successfully. Buy a developer a beer!
