29

N -1.57954 1.10264 -0.68323
H -0.76793 1.44521 -1.20775
C -1.35087 0.80978 0.67534
O -0.24485 1.04659 1.16902
N -2.41296 0.27506 1.37824
C -3.53678 -0.00501 0.74617
N -4.52822 -0.60692 1.49065
C -3.75618 0.21243 -0.65027
H -4.67732 -0.07092 -1.14519
C -2.7183 0.77153 -1.33297
H -2.74327 0.98169 -2.39791
H -4.37829 -0.52976 2.49076
H -5.48312 -0.45139 1.19376
N 1.20681 -2.50743 -0.02254
H 1.38784 -3.293 0.59176
C 0.24858 -2.41458 -1.00308
H 0.9702074615384613 -3.1512 -1.2839458653846154
N 1.5962374615384614 -1.1327699999999998 -1.6248258653846155
C 2.5948174615384616 -0.43356000000000006 -0.9838758653846154
C 2.9432174615384614 0.95387 -1.0836358653846154
O 2.439777461538461 1.84395 -1.7800458653846154
N 4.0160374615384615 1.25156 -0.2197258653846154
C 4.566157461538461 0.39722999999999997 0.7072941346153846
N 5.517167461538461 0.9563999999999999 1.5432841346153847
N 4.217127461538461 -0.85727 0.8514741346153846
C 3.2052674615384613 -1.1987900000000002 0.005714134615384628
H 4.1960074615384615 2.24898 -0.12794586538461536
H 6.189097461538462 1.5670899999999999 1.0907141346153846
H 5.9643774615384615 0.24693999999999997 2.1145841346153844
