
    -----------------------------------------------------------------------
          Psi4: An Open-Source Ab Initio Electronic Structure Package
                               Psi4 1.5 release

                         Git: Rev {HEAD} e9f4d6d 


    D. G. A. Smith, L. A. Burns, A. C. Simmonett, R. M. Parrish,
    M. C. Schieber, R. Galvelis, P. Kraus, H. Kruse, R. Di Remigio,
    A. Alenaizan, A. M. James, S. Lehtola, J. P. Misiewicz, M. Scheurer,
    R. A. Shaw, J. B. Schriber, Y. Xie, Z. L. Glick, D. A. Sirianni,
    J. S. O'Brien, J. M. Waldrop, A. Kumar, E. G. Hohenstein,
    B. P. Pritchard, B. R. Brooks, H. F. Schaefer III, A. Yu. Sokolov,
    K. Patkowski, A. E. DePrince III, U. Bozkaya, R. A. King,
    F. A. Evangelista, J. M. Turney, T. D. Crawford, C. D. Sherrill,
    J. Chem. Phys. 152(18) 184108 (2020). https://doi.org/10.1063/5.0006002

                            Additional Code Authors
    E. T. Seidl, C. L. Janssen, E. F. Valeev, M. L. Leininger,
    J. F. Gonthier, R. M. Richard, H. R. McAlexander, M. Saitow, X. Wang,
    P. Verma, M. H. Lechner, and A. Jiang

             Previous Authors, Complete List of Code Contributors,
                       and Citations for Specific Modules
    https://github.com/psi4/psi4/blob/master/codemeta.json
    https://github.com/psi4/psi4/graphs/contributors
    http://psicode.org/psi4manual/master/introduction.html#citing-psifour

    -----------------------------------------------------------------------


    Psi4 started on: Wednesday, 17 January 2024 10:59AM

    Process ID: 75982
    Host:       node155.bme.utexas.edu
    PSIDATADIR: /opt/anaconda/envs/psi4v1.5/share/psi4
    Memory:     500.0 MiB
    Threads:    8
    
  ==> Input File <==

--------------------------------------------------------------------------
memory 90GB

molecule {
0 1
N 0.44004 1.02008 1.98154
H 0.91687 0.43438 2.65777
C 0.83715 2.24263 1.49517
H 1.71569 2.7511 1.87074
N 0.03406 2.70784 0.55046
C -0.90878 1.71888 0.40295
C -2.03282 1.65015 -0.49884
O -2.46321 2.44294 -1.32205
N -2.69445 0.38411 -0.31362
C -2.39297 -0.56969 0.61888
N -3.14383 -1.75395 0.57824
N -1.39961 -0.48886 1.46593
C -0.68012 0.65932 1.28294
H -3.46279 0.24116 -0.96576
H -4.1241 -1.61226 0.34287
H -3.06889 -2.22476 1.47787
--
0 1
N 3.5717624375 -0.5685434375 0.4729401875
H 4.156152437499999 -1.0243834375 1.1644901875
C 3.8521824375000002 0.5743565625 -0.2421098125
H 4.7419124375 1.1626965624999999 -0.055629812499999994
N 2.9361524375 0.8473265625 -1.1568798125000002
C 2.0260424375 -0.17938343750000002 -1.0306498125
C 0.8195024375000001 -0.4396934375 -1.7762898125000002
O 0.27795243750000004 0.18365656249999995 -2.6820098125
N 0.24564243750000003 -1.6637234374999998 -1.3149598125000002
C 0.6797224374999999 -2.4469434375000003 -0.2780398125
N -0.06396756249999996 -3.5907634375 -0.04398981249999999
N 1.7684624375 -2.2011734375 0.4149601875000001
C 2.4033024375 -1.0799434374999999 -0.0346598125
H -0.5738475625 -1.9552734374999998 -1.8432398125
H -1.0683675625 -3.4229334375000002 -0.05004981249999999
H 0.23702243750000002 -4.0358534375 0.8180401875000001
 units angstrom
 no_reorient
 symmetry c1
}
set
 {scf_type DF
 basis aug-cc-pvtz
 freeze_core True
 guess SAD
}
energy('sapt2+(3)dmp2')
--------------------------------------------------------------------------

  Memory set to  83.819 GiB by Python driver.

Scratch directory: /tmp/
   => Loading Basis Set <=

    Name: AUG-CC-PVTZ
    Role: ORBITAL
    Keyword: BASIS
    atoms 1, 5, 9, 11-12, 17, 21, 25, 27-28 entry N          line   285 file /opt/anaconda/envs/psi4v1.5/share/psi4/basis/aug-cc-pvtz.gbs 
    atoms 2, 4, 14-16, 18, 20, 30-32        entry H          line    40 file /opt/anaconda/envs/psi4v1.5/share/psi4/basis/aug-cc-pvtz.gbs 
    atoms 3, 6-7, 10, 13, 19, 22-23, 26, 29 entry C          line   239 file /opt/anaconda/envs/psi4v1.5/share/psi4/basis/aug-cc-pvtz.gbs 
    atoms 8, 24                             entry O          line   331 file /opt/anaconda/envs/psi4v1.5/share/psi4/basis/aug-cc-pvtz.gbs 

   => Loading Basis Set <=

    Name: AUG-CC-PVTZ
    Role: ORBITAL
    Keyword: BASIS
    atoms 1, 5, 9, 11-12, 17, 21, 25, 27-28 entry N          line   285 file /opt/anaconda/envs/psi4v1.5/share/psi4/basis/aug-cc-pvtz.gbs 
    atoms 2, 4, 14-16, 18, 20, 30-32        entry H          line    40 file /opt/anaconda/envs/psi4v1.5/share/psi4/basis/aug-cc-pvtz.gbs 
    atoms 3, 6-7, 10, 13, 19, 22-23, 26, 29 entry C          line   239 file /opt/anaconda/envs/psi4v1.5/share/psi4/basis/aug-cc-pvtz.gbs 
    atoms 8, 24                             entry O          line   331 file /opt/anaconda/envs/psi4v1.5/share/psi4/basis/aug-cc-pvtz.gbs 


  //>>>>>>>>>>>>>>>>>>>>>>>>>>>>>>>>>>>//
  //              Dimer HF             //
  //<<<<<<<<<<<<<<<<<<<<<<<<<<<<<<<<<<<//


*** tstart() called on node155.bme.utexas.edu
*** at Wed Jan 17 10:59:49 2024

   => Loading Basis Set <=

    Name: AUG-CC-PVTZ
    Role: ORBITAL
    Keyword: BASIS
    atoms 1, 5, 9, 11-12, 17, 21, 25, 27-28 entry N          line   285 file /opt/anaconda/envs/psi4v1.5/share/psi4/basis/aug-cc-pvtz.gbs 
    atoms 2, 4, 14-16, 18, 20, 30-32        entry H          line    40 file /opt/anaconda/envs/psi4v1.5/share/psi4/basis/aug-cc-pvtz.gbs 
    atoms 3, 6-7, 10, 13, 19, 22-23, 26, 29 entry C          line   239 file /opt/anaconda/envs/psi4v1.5/share/psi4/basis/aug-cc-pvtz.gbs 
    atoms 8, 24                             entry O          line   331 file /opt/anaconda/envs/psi4v1.5/share/psi4/basis/aug-cc-pvtz.gbs 


         ---------------------------------------------------------
                                   SCF
               by Justin Turney, Rob Parrish, Andy Simmonett
                          and Daniel G. A. Smith
                              RHF Reference
                        8 Threads,  85830 MiB Core
         ---------------------------------------------------------

  ==> Geometry <==

    Molecular point group: c1
    Full point group: C1

    Geometry (in Angstrom), charge = 0, multiplicity = 1:

       Center              X                  Y                   Z               Mass       
    ------------   -----------------  -----------------  -----------------  -----------------
         N            0.296127093733     1.074754349095     2.055754463080    14.003074004430
         H            0.772957093733     0.489054349095     2.731984463080     1.007825032230
         C            0.693237093733     2.297304349095     1.569384463080    12.000000000000
         H            1.571777093733     2.805774349095     1.944954463080     1.007825032230
         N           -0.109852906267     2.762514349095     0.624674463080    14.003074004430
         C           -1.052692906267     1.773554349095     0.477164463080    12.000000000000
         C           -2.176732906267     1.704824349095    -0.424625536920    12.000000000000
         O           -2.607122906267     2.497614349095    -1.247835536920    15.994914619570
         N           -2.838362906267     0.438784349095    -0.239405536920    14.003074004430
         C           -2.536882906267    -0.515015650905     0.693094463080    12.000000000000
         N           -3.287742906267    -1.699275650905     0.652454463080    14.003074004430
         N           -1.543522906267    -0.434185650905     1.540144463080    14.003074004430
         C           -0.824032906267     0.713994349095     1.357154463080    12.000000000000
         H           -3.606702906267     0.295834349095    -0.891545536920     1.007825032230
         H           -4.268012906267    -1.557585650905     0.417084463080     1.007825032230
         H           -3.212802906267    -2.170085650905     1.552084463080     1.007825032230
         N            3.427849531233    -0.513869088405     0.547154650580    14.003074004430
         H            4.012239531233    -0.969709088405     1.238704650580     1.007825032230
         C            3.708269531233     0.629030911595    -0.167895349420    12.000000000000
         H            4.597999531233     1.217370911595     0.018584650580     1.007825032230
         N            2.792239531233     0.902000911595    -1.082665349420    14.003074004430
         C            1.882129531233    -0.124709088405    -0.956435349420    12.000000000000
         C            0.675589531233    -0.385019088405    -1.702075349420    12.000000000000
         O            0.134039531233     0.238330911595    -2.607795349420    15.994914619570
         N            0.101729531233    -1.609049088405    -1.240745349420    14.003074004430
         C            0.535809531233    -2.392269088405    -0.203825349420    12.000000000000
         N           -0.207880468767    -3.536089088405     0.030224650580    14.003074004430
         N            1.624549531233    -2.146499088405     0.489174650580    14.003074004430
         C            2.259389531233    -1.025269088405     0.039554650580    12.000000000000
         H           -0.717760468767    -1.900599088405    -1.769025349420     1.007825032230
         H           -1.212280468767    -3.368259088405     0.024164650580     1.007825032230
         H            0.093109531233    -3.981179088405     0.892254650580     1.007825032230

  Running in c1 symmetry.

  Rotational constants: A =      0.01373  B =      0.01004  C =      0.00806 [cm^-1]
  Rotational constants: A =    411.68139  B =    301.06296  C =    241.71794 [MHz]
  Nuclear repulsion = 1888.366185004955696

  Charge       = 0
  Multiplicity = 1
  Electrons    = 156
  Nalpha       = 78
  Nbeta        = 78

  ==> Algorithm <==

  SCF Algorithm Type is DF.
  DIIS enabled.
  MOM disabled.
  Fractional occupation disabled.
  Guess Type is SAD.
  Energy threshold   = 1.00e-08
  Density threshold  = 1.00e-08
  Integral threshold = 1.00e-12

  ==> Primary Basis <==

  Basis Set: AUG-CC-PVTZ
    Blend: AUG-CC-PVTZ
    Number of shells: 398
    Number of basis functions: 1242
    Number of Cartesian functions: 1460
    Spherical Harmonics?: true
    Max angular momentum: 3

   => Loading Basis Set <=

    Name: (AUG-CC-PVTZ AUX)
    Role: JKFIT
    Keyword: DF_BASIS_SCF
    atoms 1, 5, 9, 11-12, 17, 21, 25, 27-28 entry N          line   224 file /opt/anaconda/envs/psi4v1.5/share/psi4/basis/aug-cc-pvtz-jkfit.gbs 
    atoms 2, 4, 14-16, 18, 20, 30-32        entry H          line    70 file /opt/anaconda/envs/psi4v1.5/share/psi4/basis/aug-cc-pvtz-jkfit.gbs 
    atoms 3, 6-7, 10, 13, 19, 22-23, 26, 29 entry C          line   162 file /opt/anaconda/envs/psi4v1.5/share/psi4/basis/aug-cc-pvtz-jkfit.gbs 
    atoms 8, 24                             entry O          line   286 file /opt/anaconda/envs/psi4v1.5/share/psi4/basis/aug-cc-pvtz-jkfit.gbs 

  ==> Integral Setup <==

  ==> DiskDFJK: Density-Fitted J/K Matrices <==

    J tasked:                  Yes
    K tasked:                  Yes
    wK tasked:                  No
    OpenMP threads:              8
    Integrals threads:           8
    Memory [MiB]:            64373
    Algorithm:                Core
    Integral Cache:           SAVE
    Schwarz Cutoff:          1E-12
    Fitting Condition:       1E-10

   => Auxiliary Basis Set <=

  Basis Set: (AUG-CC-PVTZ AUX)
    Blend: AUG-CC-PVTZ-JKFIT
    Number of shells: 800
    Number of basis functions: 2748
    Number of Cartesian functions: 3432
    Spherical Harmonics?: true
    Max angular momentum: 4

  Minimum eigenvalue in the overlap matrix is 7.1658182177E-07.
  Reciprocal condition number of the overlap matrix is 3.0275692127E-08.
    Using symmetric orthogonalization.

  ==> Pre-Iterations <==

  SCF Guess: Superposition of Atomic Densities via on-the-fly atomic UHF (no occupation information).

   -------------------------
    Irrep   Nso     Nmo    
   -------------------------
     A       1242    1242 
   -------------------------
    Total    1242    1242
   -------------------------

  ==> Iterations <==

                           Total Energy        Delta E     RMS |[F,P]|

   @DF-RHF iter SAD: -1078.82909239103219   -1.07883e+03   0.00000e+00 
   @DF-RHF iter   1: -1078.54049782198126    2.88595e-01   9.05784e-04 DIIS
   @DF-RHF iter   2: -1078.98048415015342   -4.39986e-01   5.53152e-04 DIIS
   @DF-RHF iter   3: -1079.15159584930120   -1.71112e-01   1.19769e-04 DIIS
   @DF-RHF iter   4: -1079.16295588538605   -1.13600e-02   4.97640e-05 DIIS
   @DF-RHF iter   5: -1079.16520996560712   -2.25408e-03   1.09327e-05 DIIS
   @DF-RHF iter   6: -1079.16543047822483   -2.20513e-04   6.00080e-06 DIIS
   @DF-RHF iter   7: -1079.16549865967590   -6.81815e-05   2.42567e-06 DIIS
   @DF-RHF iter   8: -1079.16551090561006   -1.22459e-05   9.29986e-07 DIIS
   @DF-RHF iter   9: -1079.16551265710109   -1.75149e-06   3.64209e-07 DIIS
   @DF-RHF iter  10: -1079.16551292404415   -2.66943e-07   1.53407e-07 DIIS
   @DF-RHF iter  11: -1079.16551297091519   -4.68710e-08   6.27152e-08 DIIS
   @DF-RHF iter  12: -1079.16551297860769   -7.69251e-09   2.09471e-08 DIIS
   @DF-RHF iter  13: -1079.16551297958017   -9.72477e-10   8.39785e-09 DIIS
  Energy and wave function converged.


  ==> Post-Iterations <==

    Orbital Energies [Eh]
    ---------------------

    Doubly Occupied:                                                      

       1A    -20.522042     2A    -20.520571     3A    -15.637030  
       4A    -15.634365     5A    -15.633384     6A    -15.628353  
       7A    -15.626478     8A    -15.607740     9A    -15.577748  
      10A    -15.571836    11A    -15.565215    12A    -15.559179  
      13A    -11.402756    14A    -11.395926    15A    -11.365853  
      16A    -11.364813    17A    -11.326944    18A    -11.324606  
      19A    -11.313630    20A    -11.309685    21A    -11.250353  
      22A    -11.250061    23A     -1.393461    24A     -1.390701  
      25A     -1.359763    26A     -1.358792    27A     -1.337874  
      28A     -1.333615    29A     -1.226776    30A     -1.219913  
      31A     -1.217804    32A     -1.216866    33A     -1.177690  
      34A     -1.175925    35A     -1.030594    36A     -1.029265  
      37A     -0.905782    38A     -0.905211    39A     -0.886426  
      40A     -0.882566    41A     -0.844749    42A     -0.842287  
      43A     -0.801654    44A     -0.796182    45A     -0.740395  
      46A     -0.738659    47A     -0.730339    48A     -0.726520  
      49A     -0.702322    50A     -0.697392    51A     -0.673772  
      52A     -0.672541    53A     -0.665692    54A     -0.647488  
      55A     -0.633116    56A     -0.630205    57A     -0.612740  
      58A     -0.610973    59A     -0.603103    60A     -0.599737  
      61A     -0.596495    62A     -0.591836    63A     -0.553391  
      64A     -0.541103    65A     -0.501116    66A     -0.498486  
      67A     -0.475223    68A     -0.460186    69A     -0.441159  
      70A     -0.440308    71A     -0.433063    72A     -0.430731  
      73A     -0.429762    74A     -0.429468    75A     -0.412531  
      76A     -0.407877    77A     -0.306560    78A     -0.296299  

    Virtual:                                                              

      79A      0.008183    80A      0.014494    81A      0.025346  
      82A      0.029640    83A      0.035619    84A      0.037709  
      85A      0.048271    86A      0.049851    87A      0.054912  
      88A      0.061605    89A      0.065191    90A      0.073094  
      91A      0.080952    92A      0.083970    93A      0.084541  
      94A      0.091689    95A      0.093802    96A      0.097019  
      97A      0.100583    98A      0.102121    99A      0.106173  
     100A      0.109432   101A      0.113152   102A      0.113572  
     103A      0.116065   104A      0.119818   105A      0.121008  
     106A      0.122966   107A      0.126092   108A      0.130333  
     109A      0.132330   110A      0.135178   111A      0.136148  
     112A      0.139219   113A      0.142111   114A      0.144682  
     115A      0.146106   116A      0.147921   117A      0.152087  
     118A      0.153299   119A      0.156063   120A      0.157740  
     121A      0.164864   122A      0.172045   123A      0.172417  
     124A      0.177572   125A      0.180000   126A      0.182809  
     127A      0.183621   128A      0.187139   129A      0.190656  
     130A      0.194175   131A      0.197533   132A      0.203188  
     133A      0.206980   134A      0.209766   135A      0.210875  
     136A      0.213524   137A      0.214934   138A      0.217121  
     139A      0.222056   140A      0.225943   141A      0.229337  
     142A      0.230127   143A      0.230828   144A      0.235483  
     145A      0.240296   146A      0.244616   147A      0.247348  
     148A      0.250460   149A      0.254417   150A      0.257271  
     151A      0.259435   152A      0.263565   153A      0.264977  
     154A      0.266059   155A      0.270384   156A      0.276628  
     157A      0.279037   158A      0.281139   159A      0.283414  
     160A      0.285245   161A      0.288191   162A      0.293858  
     163A      0.295084   164A      0.298671   165A      0.301380  
     166A      0.304891   167A      0.308439   168A      0.310594  
     169A      0.310974   170A      0.317472   171A      0.320917  
     172A      0.321903   173A      0.327408   174A      0.328075  
     175A      0.332586   176A      0.335192   177A      0.338562  
     178A      0.339621   179A      0.346270   180A      0.348765  
     181A      0.349918   182A      0.353769   183A      0.357021  
     184A      0.361311   185A      0.366006   186A      0.366624  
     187A      0.368908   188A      0.370425   189A      0.374310  
     190A      0.375499   191A      0.380447   192A      0.383264  
     193A      0.387031   194A      0.387943   195A      0.392213  
     196A      0.395691   197A      0.399326   198A      0.400788  
     199A      0.402529   200A      0.406265   201A      0.408333  
     202A      0.409985   203A      0.414439   204A      0.417037  
     205A      0.419947   206A      0.424015   207A      0.426594  
     208A      0.427931   209A      0.429650   210A      0.432985  
     211A      0.437151   212A      0.439036   213A      0.442020  
     214A      0.448127   215A      0.452164   216A      0.456340  
     217A      0.459068   218A      0.460907   219A      0.466692  
     220A      0.469898   221A      0.471549   222A      0.473469  
     223A      0.477374   224A      0.479443   225A      0.485771  
     226A      0.487317   227A      0.488912   228A      0.492484  
     229A      0.493146   230A      0.498042   231A      0.499929  
     232A      0.504049   233A      0.504807   234A      0.509805  
     235A      0.510341   236A      0.514196   237A      0.518527  
     238A      0.521160   239A      0.524555   240A      0.527398  
     241A      0.531071   242A      0.532951   243A      0.535966  
     244A      0.539375   245A      0.545490   246A      0.548220  
     247A      0.549789   248A      0.552277   249A      0.555697  
     250A      0.560483   251A      0.566060   252A      0.568738  
     253A      0.571420   254A      0.575173   255A      0.575661  
     256A      0.578636   257A      0.581820   258A      0.585200  
     259A      0.590623   260A      0.597596   261A      0.598320  
     262A      0.604033   263A      0.605569   264A      0.609411  
     265A      0.611834   266A      0.618668   267A      0.622030  
     268A      0.624414   269A      0.628790   270A      0.631066  
     271A      0.633452   272A      0.637099   273A      0.639521  
     274A      0.640865   275A      0.642633   276A      0.647571  
     277A      0.650515   278A      0.655227   279A      0.667233  
     280A      0.668323   281A      0.672532   282A      0.675833  
     283A      0.680477   284A      0.686057   285A      0.691250  
     286A      0.692092   287A      0.697027   288A      0.702485  
     289A      0.706170   290A      0.707055   291A      0.711308  
     292A      0.719296   293A      0.722416   294A      0.722763  
     295A      0.724984   296A      0.730217   297A      0.737461  
     298A      0.739899   299A      0.743804   300A      0.745801  
     301A      0.747357   302A      0.750213   303A      0.753534  
     304A      0.758969   305A      0.761704   306A      0.764847  
     307A      0.768824   308A      0.774453   309A      0.780271  
     310A      0.783693   311A      0.789225   312A      0.791273  
     313A      0.795554   314A      0.799479   315A      0.801570  
     316A      0.809368   317A      0.810643   318A      0.812754  
     319A      0.817212   320A      0.820746   321A      0.825788  
     322A      0.828178   323A      0.834307   324A      0.836320  
     325A      0.837815   326A      0.841018   327A      0.842319  
     328A      0.843544   329A      0.849736   330A      0.855133  
     331A      0.859741   332A      0.865506   333A      0.866782  
     334A      0.871834   335A      0.877033   336A      0.884894  
     337A      0.887060   338A      0.889380   339A      0.891565  
     340A      0.894864   341A      0.902127   342A      0.905689  
     343A      0.908806   344A      0.916325   345A      0.920465  
     346A      0.922863   347A      0.927271   348A      0.929676  
     349A      0.932249   350A      0.936568   351A      0.941793  
     352A      0.943877   353A      0.950410   354A      0.950482  
     355A      0.954036   356A      0.960112   357A      0.961996  
     358A      0.966686   359A      0.969152   360A      0.970510  
     361A      0.974286   362A      0.975480   363A      0.983203  
     364A      0.987884   365A      0.990843   366A      0.993591  
     367A      0.999762   368A      1.001847   369A      1.006194  
     370A      1.007866   371A      1.012017   372A      1.015427  
     373A      1.017306   374A      1.019319   375A      1.024312  
     376A      1.030664   377A      1.034404   378A      1.036424  
     379A      1.039518   380A      1.040135   381A      1.047412  
     382A      1.054282   383A      1.056095   384A      1.063953  
     385A      1.065849   386A      1.070083   387A      1.073168  
     388A      1.076926   389A      1.080092   390A      1.087064  
     391A      1.089822   392A      1.093641   393A      1.096730  
     394A      1.101094   395A      1.101523   396A      1.105925  
     397A      1.108987   398A      1.113608   399A      1.114913  
     400A      1.118646   401A      1.122622   402A      1.125696  
     403A      1.128554   404A      1.133946   405A      1.141971  
     406A      1.144915   407A      1.149508   408A      1.153886  
     409A      1.155978   410A      1.159739   411A      1.165069  
     412A      1.167938   413A      1.169775   414A      1.175133  
     415A      1.176211   416A      1.180774   417A      1.183657  
     418A      1.185973   419A      1.193174   420A      1.196233  
     421A      1.197407   422A      1.200697   423A      1.207686  
     424A      1.213980   425A      1.215652   426A      1.220341  
     427A      1.221411   428A      1.223843   429A      1.232349  
     430A      1.235769   431A      1.239454   432A      1.240099  
     433A      1.248621   434A      1.251954   435A      1.255770  
     436A      1.263042   437A      1.264180   438A      1.266287  
     439A      1.270674   440A      1.271893   441A      1.279084  
     442A      1.282065   443A      1.291075   444A      1.294778  
     445A      1.295688   446A      1.302662   447A      1.305722  
     448A      1.307449   449A      1.313070   450A      1.315543  
     451A      1.319029   452A      1.325083   453A      1.330786  
     454A      1.333060   455A      1.335149   456A      1.341341  
     457A      1.347228   458A      1.350794   459A      1.355961  
     460A      1.361546   461A      1.364179   462A      1.370176  
     463A      1.373847   464A      1.378894   465A      1.380870  
     466A      1.386367   467A      1.389174   468A      1.394406  
     469A      1.397894   470A      1.400580   471A      1.405771  
     472A      1.411470   473A      1.415510   474A      1.418503  
     475A      1.423234   476A      1.427950   477A      1.432197  
     478A      1.435811   479A      1.441939   480A      1.445687  
     481A      1.447728   482A      1.455056   483A      1.457128  
     484A      1.466303   485A      1.468023   486A      1.472781  
     487A      1.478363   488A      1.481213   489A      1.486488  
     490A      1.489502   491A      1.498871   492A      1.501192  
     493A      1.504183   494A      1.508973   495A      1.510037  
     496A      1.511600   497A      1.515753   498A      1.525452  
     499A      1.526696   500A      1.533327   501A      1.539767  
     502A      1.542717   503A      1.543939   504A      1.552775  
     505A      1.557116   506A      1.561543   507A      1.566030  
     508A      1.570252   509A      1.571926   510A      1.578939  
     511A      1.581238   512A      1.581465   513A      1.588066  
     514A      1.595900   515A      1.601591   516A      1.603181  
     517A      1.604545   518A      1.611349   519A      1.617368  
     520A      1.624642   521A      1.624891   522A      1.628264  
     523A      1.630402   524A      1.639769   525A      1.644230  
     526A      1.651478   527A      1.653998   528A      1.657945  
     529A      1.662001   530A      1.667541   531A      1.673395  
     532A      1.676189   533A      1.685602   534A      1.690123  
     535A      1.690664   536A      1.697178   537A      1.703500  
     538A      1.705303   539A      1.708062   540A      1.713107  
     541A      1.721008   542A      1.724663   543A      1.728729  
     544A      1.730872   545A      1.738050   546A      1.745851  
     547A      1.747707   548A      1.757675   549A      1.763731  
     550A      1.767340   551A      1.770498   552A      1.774702  
     553A      1.775802   554A      1.792564   555A      1.797091  
     556A      1.806098   557A      1.808956   558A      1.813394  
     559A      1.818477   560A      1.820245   561A      1.833312  
     562A      1.836494   563A      1.841146   564A      1.848111  
     565A      1.857737   566A      1.859064   567A      1.865876  
     568A      1.869580   569A      1.870857   570A      1.873282  
     571A      1.880063   572A      1.888941   573A      1.891038  
     574A      1.898148   575A      1.907313   576A      1.908373  
     577A      1.914173   578A      1.923175   579A      1.929434  
     580A      1.936039   581A      1.942320   582A      1.946810  
     583A      1.953454   584A      1.955725   585A      1.959398  
     586A      1.960961   587A      1.967279   588A      1.972561  
     589A      1.980059   590A      1.988733   591A      1.995341  
     592A      2.004983   593A      2.007880   594A      2.019092  
     595A      2.023417   596A      2.026788   597A      2.033030  
     598A      2.041174   599A      2.043321   600A      2.048593  
     601A      2.054062   602A      2.063887   603A      2.071788  
     604A      2.074699   605A      2.081355   606A      2.086964  
     607A      2.094315   608A      2.098479   609A      2.108036  
     610A      2.113277   611A      2.117493   612A      2.121306  
     613A      2.122937   614A      2.124082   615A      2.136422  
     616A      2.142524   617A      2.146463   618A      2.152643  
     619A      2.154627   620A      2.161263   621A      2.168816  
     622A      2.174440   623A      2.178945   624A      2.181386  
     625A      2.187913   626A      2.194496   627A      2.197030  
     628A      2.202793   629A      2.212967   630A      2.215613  
     631A      2.218010   632A      2.225357   633A      2.226716  
     634A      2.232890   635A      2.238668   636A      2.246291  
     637A      2.255997   638A      2.261728   639A      2.266401  
     640A      2.269712   641A      2.279114   642A      2.287556  
     643A      2.288895   644A      2.292079   645A      2.302742  
     646A      2.306685   647A      2.308674   648A      2.313796  
     649A      2.318882   650A      2.326440   651A      2.329565  
     652A      2.344531   653A      2.345790   654A      2.348336  
     655A      2.350011   656A      2.359489   657A      2.365327  
     658A      2.370895   659A      2.372202   660A      2.381448  
     661A      2.387058   662A      2.390004   663A      2.392590  
     664A      2.398888   665A      2.406936   666A      2.407437  
     667A      2.414863   668A      2.419714   669A      2.422284  
     670A      2.430984   671A      2.435612   672A      2.438781  
     673A      2.446264   674A      2.450632   675A      2.454476  
     676A      2.458157   677A      2.467854   678A      2.477553  
     679A      2.481239   680A      2.486315   681A      2.493524  
     682A      2.497196   683A      2.500212   684A      2.508906  
     685A      2.511188   686A      2.518396   687A      2.525818  
     688A      2.534560   689A      2.540720   690A      2.547534  
     691A      2.551364   692A      2.557839   693A      2.561051  
     694A      2.563235   695A      2.569868   696A      2.571951  
     697A      2.588904   698A      2.591856   699A      2.598858  
     700A      2.605672   701A      2.612682   702A      2.619436  
     703A      2.626466   704A      2.628454   705A      2.632824  
     706A      2.639444   707A      2.647517   708A      2.651542  
     709A      2.660793   710A      2.664726   711A      2.672000  
     712A      2.675301   713A      2.680956   714A      2.689566  
     715A      2.692420   716A      2.702592   717A      2.710701  
     718A      2.719252   719A      2.722979   720A      2.725161  
     721A      2.732883   722A      2.735993   723A      2.743657  
     724A      2.759740   725A      2.761973   726A      2.768849  
     727A      2.776862   728A      2.781360   729A      2.783143  
     730A      2.788806   731A      2.797020   732A      2.800267  
     733A      2.807008   734A      2.818312   735A      2.821150  
     736A      2.824781   737A      2.836024   738A      2.839140  
     739A      2.850804   740A      2.856014   741A      2.859509  
     742A      2.869669   743A      2.875115   744A      2.883541  
     745A      2.895503   746A      2.899997   747A      2.910096  
     748A      2.920409   749A      2.930065   750A      2.936079  
     751A      2.947730   752A      2.955754   753A      2.960889  
     754A      2.971437   755A      2.977242   756A      2.982241  
     757A      2.993636   758A      3.003973   759A      3.020343  
     760A      3.028820   761A      3.034385   762A      3.039725  
     763A      3.047644   764A      3.067360   765A      3.093663  
     766A      3.101953   767A      3.111323   768A      3.126482  
     769A      3.136500   770A      3.146614   771A      3.148818  
     772A      3.152443   773A      3.165799   774A      3.173906  
     775A      3.177885   776A      3.188254   777A      3.197390  
     778A      3.201292   779A      3.243372   780A      3.267899  
     781A      3.271574   782A      3.286984   783A      3.304966  
     784A      3.318179   785A      3.324376   786A      3.338066  
     787A      3.357107   788A      3.376393   789A      3.388608  
     790A      3.395159   791A      3.409738   792A      3.417311  
     793A      3.431657   794A      3.435139   795A      3.441785  
     796A      3.445010   797A      3.453081   798A      3.465139  
     799A      3.468944   800A      3.485920   801A      3.493446  
     802A      3.506397   803A      3.513644   804A      3.524099  
     805A      3.538891   806A      3.548172   807A      3.554711  
     808A      3.561907   809A      3.567877   810A      3.585028  
     811A      3.593116   812A      3.599702   813A      3.615844  
     814A      3.622487   815A      3.632312   816A      3.639066  
     817A      3.645027   818A      3.654838   819A      3.662949  
     820A      3.670110   821A      3.671520   822A      3.690600  
     823A      3.694463   824A      3.702650   825A      3.706328  
     826A      3.711385   827A      3.720924   828A      3.737386  
     829A      3.741165   830A      3.748941   831A      3.751062  
     832A      3.756585   833A      3.765271   834A      3.777066  
     835A      3.787477   836A      3.793935   837A      3.794808  
     838A      3.803494   839A      3.807007   840A      3.815123  
     841A      3.821505   842A      3.829428   843A      3.837285  
     844A      3.845479   845A      3.851744   846A      3.864686  
     847A      3.869519   848A      3.873554   849A      3.885421  
     850A      3.886563   851A      3.888084   852A      3.900098  
     853A      3.912037   854A      3.914357   855A      3.920516  
     856A      3.924918   857A      3.930818   858A      3.943108  
     859A      3.945561   860A      3.956081   861A      3.963732  
     862A      3.964447   863A      3.967657   864A      3.982129  
     865A      3.999632   866A      4.001591   867A      4.005109  
     868A      4.009864   869A      4.028089   870A      4.033105  
     871A      4.044506   872A      4.047741   873A      4.055944  
     874A      4.063137   875A      4.068282   876A      4.075852  
     877A      4.083452   878A      4.085147   879A      4.094730  
     880A      4.099947   881A      4.108552   882A      4.111875  
     883A      4.115447   884A      4.121334   885A      4.131238  
     886A      4.138095   887A      4.141866   888A      4.150551  
     889A      4.157071   890A      4.161708   891A      4.168983  
     892A      4.182602   893A      4.189041   894A      4.192974  
     895A      4.201800   896A      4.206990   897A      4.210530  
     898A      4.213094   899A      4.221184   900A      4.226567  
     901A      4.232489   902A      4.238378   903A      4.248531  
     904A      4.251760   905A      4.253933   906A      4.260773  
     907A      4.270123   908A      4.272506   909A      4.286186  
     910A      4.294320   911A      4.298668   912A      4.303318  
     913A      4.305056   914A      4.315095   915A      4.328478  
     916A      4.333766   917A      4.336818   918A      4.345109  
     919A      4.346551   920A      4.351571   921A      4.358766  
     922A      4.370570   923A      4.372543   924A      4.379151  
     925A      4.391895   926A      4.399086   927A      4.399740  
     928A      4.416920   929A      4.419532   930A      4.425643  
     931A      4.434491   932A      4.437910   933A      4.448028  
     934A      4.451008   935A      4.456103   936A      4.463733  
     937A      4.473121   938A      4.475767   939A      4.482908  
     940A      4.490793   941A      4.495583   942A      4.504572  
     943A      4.516280   944A      4.518717   945A      4.523435  
     946A      4.537525   947A      4.547754   948A      4.553250  
     949A      4.559097   950A      4.570976   951A      4.571867  
     952A      4.578011   953A      4.595165   954A      4.603472  
     955A      4.608434   956A      4.617379   957A      4.619797  
     958A      4.622926   959A      4.627470   960A      4.630632  
     961A      4.646840   962A      4.650323   963A      4.654670  
     964A      4.657071   965A      4.664654   966A      4.676749  
     967A      4.690436   968A      4.697257   969A      4.702805  
     970A      4.714102   971A      4.719973   972A      4.729680  
     973A      4.744295   974A      4.747502   975A      4.748484  
     976A      4.753365   977A      4.771172   978A      4.789553  
     979A      4.792462   980A      4.799995   981A      4.815999  
     982A      4.826316   983A      4.834325   984A      4.840593  
     985A      4.849725   986A      4.860943   987A      4.863434  
     988A      4.866560   989A      4.883425   990A      4.886079  
     991A      4.900803   992A      4.906499   993A      4.915355  
     994A      4.923580   995A      4.937611   996A      4.943595  
     997A      4.950807   998A      4.957530   999A      4.959205  
    1000A      4.979206  1001A      4.994254  1002A      5.009324  
    1003A      5.018922  1004A      5.022947  1005A      5.042225  
    1006A      5.047974  1007A      5.056590  1008A      5.069415  
    1009A      5.071999  1010A      5.091667  1011A      5.094371  
    1012A      5.098121  1013A      5.107526  1014A      5.117566  
    1015A      5.134340  1016A      5.145392  1017A      5.163047  
    1018A      5.173970  1019A      5.183560  1020A      5.202100  
    1021A      5.219008  1022A      5.225591  1023A      5.231347  
    1024A      5.240916  1025A      5.244383  1026A      5.248096  
    1027A      5.273099  1028A      5.279591  1029A      5.285460  
    1030A      5.296725  1031A      5.302821  1032A      5.304062  
    1033A      5.321684  1034A      5.337703  1035A      5.343986  
    1036A      5.346322  1037A      5.351369  1038A      5.356964  
    1039A      5.369379  1040A      5.379328  1041A      5.387588  
    1042A      5.400985  1043A      5.409323  1044A      5.428927  
    1045A      5.431881  1046A      5.441527  1047A      5.457641  
    1048A      5.468952  1049A      5.470145  1050A      5.488456  
    1051A      5.509819  1052A      5.523039  1053A      5.524888  
    1054A      5.533912  1055A      5.536066  1056A      5.543185  
    1057A      5.549292  1058A      5.558296  1059A      5.569018  
    1060A      5.576327  1061A      5.582461  1062A      5.587510  
    1063A      5.596853  1064A      5.607702  1065A      5.621961  
    1066A      5.630574  1067A      5.649335  1068A      5.654376  
    1069A      5.665641  1070A      5.670637  1071A      5.676493  
    1072A      5.686593  1073A      5.695851  1074A      5.706584  
    1075A      5.711044  1076A      5.711520  1077A      5.725154  
    1078A      5.733459  1079A      5.745018  1080A      5.749429  
    1081A      5.760700  1082A      5.766437  1083A      5.778345  
    1084A      5.785953  1085A      5.795781  1086A      5.805683  
    1087A      5.816478  1088A      5.833057  1089A      5.838322  
    1090A      5.845943  1091A      5.854749  1092A      5.861786  
    1093A      5.864053  1094A      5.878930  1095A      5.894572  
    1096A      5.899100  1097A      5.908479  1098A      5.919871  
    1099A      5.927518  1100A      5.932730  1101A      5.940519  
    1102A      5.947753  1103A      5.957213  1104A      5.962610  
    1105A      5.975795  1106A      5.980850  1107A      5.991794  
    1108A      5.997111  1109A      6.002857  1110A      6.021074  
    1111A      6.026443  1112A      6.038879  1113A      6.055189  
    1114A      6.062459  1115A      6.068723  1116A      6.078333  
    1117A      6.087153  1118A      6.108688  1119A      6.117666  
    1120A      6.128473  1121A      6.138223  1122A      6.146641  
    1123A      6.152683  1124A      6.168000  1125A      6.177138  
    1126A      6.190514  1127A      6.191458  1128A      6.197735  
    1129A      6.213806  1130A      6.219542  1131A      6.227002  
    1132A      6.247325  1133A      6.259265  1134A      6.267750  
    1135A      6.280940  1136A      6.285030  1137A      6.288844  
    1138A      6.329290  1139A      6.350370  1140A      6.357460  
    1141A      6.387164  1142A      6.393593  1143A      6.436544  
    1144A      6.470815  1145A      6.498880  1146A      6.504734  
    1147A      6.548433  1148A      6.556852  1149A      6.576429  
    1150A      6.586321  1151A      6.613495  1152A      6.622643  
    1153A      6.634296  1154A      6.642339  1155A      6.698132  
    1156A      6.699735  1157A      6.711322  1158A      6.725309  
    1159A      6.739596  1160A      6.742370  1161A      6.750561  
    1162A      6.763870  1163A      6.773024  1164A      6.786414  
    1165A      6.802391  1166A      6.810238  1167A      6.813336  
    1168A      6.834859  1169A      6.848429  1170A      6.861044  
    1171A      6.881260  1172A      6.899767  1173A      6.944367  
    1174A      6.955567  1175A      7.005148  1176A      7.025516  
    1177A      7.027548  1178A      7.035602  1179A      7.042618  
    1180A      7.071342  1181A      7.079512  1182A      7.091912  
    1183A      7.100894  1184A      7.109686  1185A      7.125845  
    1186A      7.153981  1187A      7.216092  1188A      7.228547  
    1189A      7.243955  1190A      7.266159  1191A      7.269449  
    1192A      7.295717  1193A      7.311914  1194A      7.333875  
    1195A      7.387542  1196A      7.399092  1197A      7.431928  
    1198A      7.439572  1199A      7.461560  1200A      7.485009  
    1201A      7.490043  1202A      7.499625  1203A      7.519314  
    1204A      7.546929  1205A      7.692641  1206A      7.712863  
    1207A      7.820078  1208A      7.822349  1209A      7.831623  
    1210A      7.837278  1211A      7.839442  1212A      7.856709  
    1213A      7.872024  1214A      7.903958  1215A      7.948354  
    1216A      7.994671  1217A      8.027200  1218A      8.053734  
    1219A      8.066790  1220A      8.104122  1221A     16.249818  
    1222A     16.326876  1223A     16.431860  1224A     16.551062  
    1225A     16.639280  1226A     16.767428  1227A     17.234929  
    1228A     17.271309  1229A     17.876516  1230A     18.082064  
    1231A     18.566762  1232A     18.597264  1233A     19.251153  
    1234A     19.287215  1235A     19.481594  1236A     19.656089  
    1237A     20.250927  1238A     20.522002  1239A     21.041862  
    1240A     21.190501  1241A     21.477467  1242A     21.725323  

    Final Occupation by Irrep:
              A 
    DOCC [    78 ]

  @DF-RHF Final Energy: -1079.16551297958017

   => Energetics <=

    Nuclear Repulsion Energy =           1888.3661850049556961
    One-Electron Energy =               -5227.7572801573505785
    Two-Electron Energy =                2260.2255821728144838
    Total Energy =                      -1079.1655129795803987

Computation Completed


Properties will be evaluated at   0.000000,   0.000000,   0.000000 [a0]

Properties computed using the SCF density matrix

  Nuclear Dipole Moment: [e a0]
     X:    -1.8589      Y:    -8.5409      Z:     5.7458

  Electronic Dipole Moment: [e a0]
     X:     1.6963      Y:     5.0049      Z:    -2.3518

  Dipole Moment: [e a0]
     X:    -0.1626      Y:    -3.5360      Z:     3.3939     Total:     4.9039

  Dipole Moment: [D]
     X:    -0.4133      Y:    -8.9876      Z:     8.6265     Total:    12.4645


*** tstop() called on node155.bme.utexas.edu at Wed Jan 17 11:04:44 2024
Module time:
	user time   =    1831.13 seconds =      30.52 minutes
	system time =      24.17 seconds =       0.40 minutes
	total time  =        295 seconds =       4.92 minutes
Total time:
	user time   =    1831.13 seconds =      30.52 minutes
	system time =      24.17 seconds =       0.40 minutes
	total time  =        295 seconds =       4.92 minutes

*** tstart() called on node155.bme.utexas.edu
*** at Wed Jan 17 11:04:44 2024


  //>>>>>>>>>>>>>>>>>>>>>>>>>>>>>>>>>>>//
  //               DFMP2               //
  //<<<<<<<<<<<<<<<<<<<<<<<<<<<<<<<<<<<//

   => Loading Basis Set <=

    Name: (AUG-CC-PVTZ AUX)
    Role: RIFIT
    Keyword: DF_BASIS_MP2
    atoms 1, 5, 9, 11-12, 17, 21, 25, 27-28 entry N          line   206 file /opt/anaconda/envs/psi4v1.5/share/psi4/basis/aug-cc-pvtz-ri.gbs 
    atoms 2, 4, 14-16, 18, 20, 30-32        entry H          line    30 file /opt/anaconda/envs/psi4v1.5/share/psi4/basis/aug-cc-pvtz-ri.gbs 
    atoms 3, 6-7, 10, 13, 19, 22-23, 26, 29 entry C          line   148 file /opt/anaconda/envs/psi4v1.5/share/psi4/basis/aug-cc-pvtz-ri.gbs 
    atoms 8, 24                             entry O          line   264 file /opt/anaconda/envs/psi4v1.5/share/psi4/basis/aug-cc-pvtz-ri.gbs 

	 --------------------------------------------------------
	                          DF-MP2                         
	      2nd-Order Density-Fitted Moller-Plesset Theory     
	              RMP2 Wavefunction,   8 Threads             
	                                                         
	        Rob Parrish, Justin Turney, Andy Simmonett,      
	           Ed Hohenstein, and C. David Sherrill          
	 --------------------------------------------------------

   => Auxiliary Basis Set <=

  Basis Set: (AUG-CC-PVTZ AUX)
    Blend: AUG-CC-PVTZ-RI
    Number of shells: 756
    Number of basis functions: 2792
    Number of Cartesian functions: 3542
    Spherical Harmonics?: true
    Max angular momentum: 4

	 --------------------------------------------------------
	                 NBF =  1242, NAUX =  2792
	 --------------------------------------------------------
	   CLASS    FOCC     OCC    AOCC    AVIR     VIR    FVIR
	   PAIRS      22      78      56    1164    1164       0
	 --------------------------------------------------------

	 Will save fitting metric to file 97.

	-----------------------------------------------------------
	 ==================> DF-MP2 Energies <==================== 
	-----------------------------------------------------------
	 Reference Energy          =   -1079.1655129795801713 [Eh]
	 Singles Energy            =      -0.0000000000000000 [Eh]
	 Same-Spin Energy          =      -1.0952503401054459 [Eh]
	 Opposite-Spin Energy      =      -3.0102110363330956 [Eh]
	 Correlation Energy        =      -4.1054613764385417 [Eh]
	 Total Energy              =   -1083.2709743560187690 [Eh]
	-----------------------------------------------------------
	 ================> DF-SCS-MP2 Energies <================== 
	-----------------------------------------------------------
	 SCS Same-Spin Scale       =       0.3333333333333333 [-]
	 SCS Opposite-Spin Scale   =       1.2000000000000000 [-]
	 SCS Same-Spin Energy      =      -0.3650834467018153 [Eh]
	 SCS Opposite-Spin Energy  =      -3.6122532435997146 [Eh]
	 SCS Correlation Energy    =      -3.9773366903015299 [Eh]
	 SCS Total Energy          =   -1083.1428496698817980 [Eh]
	-----------------------------------------------------------


*** tstop() called on node155.bme.utexas.edu at Wed Jan 17 11:06:03 2024
Module time:
	user time   =     478.67 seconds =       7.98 minutes
	system time =       9.11 seconds =       0.15 minutes
	total time  =         79 seconds =       1.32 minutes
Total time:
	user time   =    2309.81 seconds =      38.50 minutes
	system time =      33.28 seconds =       0.55 minutes
	total time  =        374 seconds =       6.23 minutes

  //>>>>>>>>>>>>>>>>>>>>>>>>>>>>>>>>>>>//
  //            Monomer A HF           //
  //<<<<<<<<<<<<<<<<<<<<<<<<<<<<<<<<<<<//


*** tstart() called on node155.bme.utexas.edu
*** at Wed Jan 17 11:06:03 2024

   => Loading Basis Set <=

    Name: AUG-CC-PVTZ
    Role: ORBITAL
    Keyword: BASIS
    atoms 1, 5, 9, 11-12, 17, 21, 25, 27-28 entry N          line   285 file /opt/anaconda/envs/psi4v1.5/share/psi4/basis/aug-cc-pvtz.gbs 
    atoms 2, 4, 14-16, 18, 20, 30-32        entry H          line    40 file /opt/anaconda/envs/psi4v1.5/share/psi4/basis/aug-cc-pvtz.gbs 
    atoms 3, 6-7, 10, 13, 19, 22-23, 26, 29 entry C          line   239 file /opt/anaconda/envs/psi4v1.5/share/psi4/basis/aug-cc-pvtz.gbs 
    atoms 8, 24                             entry O          line   331 file /opt/anaconda/envs/psi4v1.5/share/psi4/basis/aug-cc-pvtz.gbs 


         ---------------------------------------------------------
                                   SCF
               by Justin Turney, Rob Parrish, Andy Simmonett
                          and Daniel G. A. Smith
                              RHF Reference
                        8 Threads,  85830 MiB Core
         ---------------------------------------------------------

  ==> Geometry <==

    Molecular point group: c1
    Full point group: C1

    Geometry (in Angstrom), charge = 0, multiplicity = 1:

       Center              X                  Y                   Z               Mass       
    ------------   -----------------  -----------------  -----------------  -----------------
         N            0.296127093733     1.074754349095     2.055754463080    14.003074004430
         H            0.772957093733     0.489054349095     2.731984463080     1.007825032230
         C            0.693237093733     2.297304349095     1.569384463080    12.000000000000
         H            1.571777093733     2.805774349095     1.944954463080     1.007825032230
         N           -0.109852906267     2.762514349095     0.624674463080    14.003074004430
         C           -1.052692906267     1.773554349095     0.477164463080    12.000000000000
         C           -2.176732906267     1.704824349095    -0.424625536920    12.000000000000
         O           -2.607122906267     2.497614349095    -1.247835536920    15.994914619570
         N           -2.838362906267     0.438784349095    -0.239405536920    14.003074004430
         C           -2.536882906267    -0.515015650905     0.693094463080    12.000000000000
         N           -3.287742906267    -1.699275650905     0.652454463080    14.003074004430
         N           -1.543522906267    -0.434185650905     1.540144463080    14.003074004430
         C           -0.824032906267     0.713994349095     1.357154463080    12.000000000000
         H           -3.606702906267     0.295834349095    -0.891545536920     1.007825032230
         H           -4.268012906267    -1.557585650905     0.417084463080     1.007825032230
         H           -3.212802906267    -2.170085650905     1.552084463080     1.007825032230
      Gh(N)           3.427849531233    -0.513869088405     0.547154650580    14.003074004430
      Gh(H)           4.012239531233    -0.969709088405     1.238704650580     1.007825032230
      Gh(C)           3.708269531233     0.629030911595    -0.167895349420    12.000000000000
      Gh(H)           4.597999531233     1.217370911595     0.018584650580     1.007825032230
      Gh(N)           2.792239531233     0.902000911595    -1.082665349420    14.003074004430
      Gh(C)           1.882129531233    -0.124709088405    -0.956435349420    12.000000000000
      Gh(C)           0.675589531233    -0.385019088405    -1.702075349420    12.000000000000
      Gh(O)           0.134039531233     0.238330911595    -2.607795349420    15.994914619570
      Gh(N)           0.101729531233    -1.609049088405    -1.240745349420    14.003074004430
      Gh(C)           0.535809531233    -2.392269088405    -0.203825349420    12.000000000000
      Gh(N)          -0.207880468767    -3.536089088405     0.030224650580    14.003074004430
      Gh(N)           1.624549531233    -2.146499088405     0.489174650580    14.003074004430
      Gh(C)           2.259389531233    -1.025269088405     0.039554650580    12.000000000000
      Gh(H)          -0.717760468767    -1.900599088405    -1.769025349420     1.007825032230
      Gh(H)          -1.212280468767    -3.368259088405     0.024164650580     1.007825032230
      Gh(H)           0.093109531233    -3.981179088405     0.892254650580     1.007825032230

  Running in c1 symmetry.

  Rotational constants: A =      0.01373  B =      0.01004  C =      0.00806 [cm^-1]
  Rotational constants: A =    411.68139  B =    301.06296  C =    241.71794 [MHz]
  Nuclear repulsion =  593.296990359029792

  Charge       = 0
  Multiplicity = 1
  Electrons    = 78
  Nalpha       = 39
  Nbeta        = 39

  ==> Algorithm <==

  SCF Algorithm Type is DF.
  DIIS enabled.
  MOM disabled.
  Fractional occupation disabled.
  Guess Type is SAD.
  Energy threshold   = 1.00e-08
  Density threshold  = 1.00e-08
  Integral threshold = 1.00e-12

  ==> Primary Basis <==

  Basis Set: AUG-CC-PVTZ
    Blend: AUG-CC-PVTZ
    Number of shells: 398
    Number of basis functions: 1242
    Number of Cartesian functions: 1460
    Spherical Harmonics?: true
    Max angular momentum: 3

   => Loading Basis Set <=

    Name: (AUG-CC-PVTZ AUX)
    Role: JKFIT
    Keyword: DF_BASIS_SCF
    atoms 1, 5, 9, 11-12, 17, 21, 25, 27-28 entry N          line   224 file /opt/anaconda/envs/psi4v1.5/share/psi4/basis/aug-cc-pvtz-jkfit.gbs 
    atoms 2, 4, 14-16, 18, 20, 30-32        entry H          line    70 file /opt/anaconda/envs/psi4v1.5/share/psi4/basis/aug-cc-pvtz-jkfit.gbs 
    atoms 3, 6-7, 10, 13, 19, 22-23, 26, 29 entry C          line   162 file /opt/anaconda/envs/psi4v1.5/share/psi4/basis/aug-cc-pvtz-jkfit.gbs 
    atoms 8, 24                             entry O          line   286 file /opt/anaconda/envs/psi4v1.5/share/psi4/basis/aug-cc-pvtz-jkfit.gbs 

  ==> Integral Setup <==

  ==> DiskDFJK: Density-Fitted J/K Matrices <==

    J tasked:                  Yes
    K tasked:                  Yes
    wK tasked:                  No
    OpenMP threads:              8
    Integrals threads:           8
    Memory [MiB]:            64373
    Algorithm:                Core
    Integral Cache:           LOAD
    Schwarz Cutoff:          1E-12
    Fitting Condition:       1E-10

   => Auxiliary Basis Set <=

  Basis Set: (AUG-CC-PVTZ AUX)
    Blend: AUG-CC-PVTZ-JKFIT
    Number of shells: 800
    Number of basis functions: 2748
    Number of Cartesian functions: 3432
    Spherical Harmonics?: true
    Max angular momentum: 4

  Minimum eigenvalue in the overlap matrix is 7.1658182177E-07.
  Reciprocal condition number of the overlap matrix is 3.0275692127E-08.
    Using symmetric orthogonalization.

  ==> Pre-Iterations <==

  SCF Guess: Superposition of Atomic Densities via on-the-fly atomic UHF (no occupation information).

   -------------------------
    Irrep   Nso     Nmo    
   -------------------------
     A       1242    1242 
   -------------------------
    Total    1242    1242
   -------------------------

  ==> Iterations <==

                           Total Energy        Delta E     RMS |[F,P]|

   @DF-RHF iter SAD:  -539.28654018785903   -5.39287e+02   0.00000e+00 
   @DF-RHF iter   1:  -539.27873284094653    7.80735e-03   6.38648e-04 DIIS
   @DF-RHF iter   2:  -539.50150387587314   -2.22771e-01   3.77858e-04 DIIS
   @DF-RHF iter   3:  -539.57996004987478   -7.84562e-02   7.81317e-05 DIIS
   @DF-RHF iter   4:  -539.58500595581393   -5.04591e-03   3.25781e-05 DIIS
   @DF-RHF iter   5:  -539.58598374055987   -9.77785e-04   6.85753e-06 DIIS
   @DF-RHF iter   6:  -539.58608707570420   -1.03335e-04   3.55592e-06 DIIS
   @DF-RHF iter   7:  -539.58611347193198   -2.63962e-05   1.47875e-06 DIIS
   @DF-RHF iter   8:  -539.58611845373525   -4.98180e-06   5.24488e-07 DIIS
   @DF-RHF iter   9:  -539.58611904699103   -5.93256e-07   2.07459e-07 DIIS
   @DF-RHF iter  10:  -539.58611915125050   -1.04259e-07   8.12324e-08 DIIS
   @DF-RHF iter  11:  -539.58611916574637   -1.44959e-08   3.18207e-08 DIIS
   @DF-RHF iter  12:  -539.58611916770451   -1.95814e-09   1.17500e-08 DIIS
   @DF-RHF iter  13:  -539.58611916797349   -2.68983e-10   5.01961e-09 DIIS
  Energy and wave function converged.


  ==> Post-Iterations <==

    Orbital Energies [Eh]
    ---------------------

    Doubly Occupied:                                                      

       1A    -20.527585     2A    -15.637127     3A    -15.633308  
       4A    -15.612674     5A    -15.573072     6A    -15.566020  
       7A    -11.398219     8A    -11.370343     9A    -11.328525  
      10A    -11.314902    11A    -11.252639    12A     -1.395690  
      13A     -1.363306    14A     -1.335693    15A     -1.219845  
      16A     -1.216661    17A     -1.179720    18A     -1.031629  
      19A     -0.907008    20A     -0.883796    21A     -0.846250  
      22A     -0.798958    23A     -0.740859    24A     -0.725792  
      25A     -0.696166    26A     -0.670783    27A     -0.658139  
      28A     -0.631139    29A     -0.617418    30A     -0.602270  
      31A     -0.598107    32A     -0.550089    33A     -0.500500  
      34A     -0.464346    35A     -0.444676    36A     -0.435176  
      37A     -0.433907    38A     -0.413425    39A     -0.303322  

    Virtual:                                                              

      40A      0.013353    41A      0.018033    42A      0.028984  
      43A      0.030179    44A      0.038230    45A      0.040860  
      46A      0.045936    47A      0.052971    48A      0.055041  
      49A      0.061716    50A      0.063811    51A      0.068678  
      52A      0.073095    53A      0.075085    54A      0.081848  
      55A      0.083489    56A      0.087435    57A      0.089840  
      58A      0.097270    59A      0.100738    60A      0.101872  
      61A      0.103208    62A      0.106215    63A      0.109587  
      64A      0.113924    65A      0.117494    66A      0.119874  
      67A      0.121159    68A      0.125110    69A      0.128317  
      70A      0.129801    71A      0.133047    72A      0.136476  
      73A      0.137638    74A      0.140635    75A      0.143595  
      76A      0.147905    77A      0.149784    78A      0.152051  
      79A      0.153385    80A      0.159774    81A      0.163247  
      82A      0.166055    83A      0.169575    84A      0.172000  
      85A      0.172451    86A      0.177405    87A      0.180035  
      88A      0.181989    89A      0.182875    90A      0.185594  
      91A      0.192129    92A      0.198237    93A      0.201141  
      94A      0.203438    95A      0.207449    96A      0.208976  
      97A      0.212994    98A      0.215818    99A      0.217793  
     100A      0.220139   101A      0.223174   102A      0.225825  
     103A      0.227854   104A      0.229975   105A      0.234952  
     106A      0.236812   107A      0.239940   108A      0.246329  
     109A      0.247870   110A      0.250709   111A      0.252231  
     112A      0.257799   113A      0.259484   114A      0.264282  
     115A      0.265686   116A      0.272191   117A      0.272857  
     118A      0.277836   119A      0.279301   120A      0.282177  
     121A      0.284612   122A      0.285472   123A      0.292094  
     124A      0.294180   125A      0.296740   126A      0.299761  
     127A      0.303150   128A      0.304399   129A      0.306769  
     130A      0.311726   131A      0.312492   132A      0.315373  
     133A      0.318011   134A      0.321106   135A      0.323783  
     136A      0.330166   137A      0.331688   138A      0.336419  
     139A      0.340583   140A      0.343810   141A      0.346197  
     142A      0.353729   143A      0.356130   144A      0.359466  
     145A      0.363468   146A      0.368365   147A      0.370486  
     148A      0.371445   149A      0.373257   150A      0.375620  
     151A      0.381408   152A      0.387356   153A      0.389880  
     154A      0.393377   155A      0.395874   156A      0.398999  
     157A      0.401333   158A      0.403410   159A      0.410498  
     160A      0.412269   161A      0.413660   162A      0.420021  
     163A      0.420627   164A      0.423920   165A      0.425951  
     166A      0.429793   167A      0.433315   168A      0.435641  
     169A      0.439595   170A      0.441049   171A      0.444721  
     172A      0.447514   173A      0.451081   174A      0.453401  
     175A      0.455271   176A      0.459208   177A      0.461543  
     178A      0.463491   179A      0.468265   180A      0.469787  
     181A      0.472848   182A      0.475957   183A      0.480192  
     184A      0.482497   185A      0.486521   186A      0.487576  
     187A      0.491476   188A      0.494403   189A      0.497473  
     190A      0.504685   191A      0.507682   192A      0.508450  
     193A      0.509652   194A      0.512544   195A      0.514713  
     196A      0.517987   197A      0.523134   198A      0.525156  
     199A      0.526767   200A      0.530280   201A      0.534763  
     202A      0.539024   203A      0.540686   204A      0.546521  
     205A      0.549873   206A      0.555947   207A      0.559555  
     208A      0.560766   209A      0.567302   210A      0.568503  
     211A      0.571509   212A      0.574732   213A      0.577849  
     214A      0.582265   215A      0.584589   216A      0.589270  
     217A      0.592085   218A      0.593069   219A      0.598629  
     220A      0.601620   221A      0.607501   222A      0.612492  
     223A      0.613362   224A      0.615651   225A      0.621977  
     226A      0.627303   227A      0.630990   228A      0.634004  
     229A      0.638680   230A      0.640458   231A      0.641466  
     232A      0.646154   233A      0.652770   234A      0.656158  
     235A      0.658233   236A      0.667326   237A      0.670750  
     238A      0.675642   239A      0.681764   240A      0.683671  
     241A      0.685142   242A      0.697547   243A      0.700238  
     244A      0.701712   245A      0.703071   246A      0.708897  
     247A      0.713036   248A      0.715707   249A      0.721162  
     250A      0.729660   251A      0.731331   252A      0.738488  
     253A      0.741518   254A      0.744600   255A      0.750867  
     256A      0.754882   257A      0.760255   258A      0.763851  
     259A      0.764527   260A      0.767501   261A      0.771222  
     262A      0.775342   263A      0.779789   264A      0.780564  
     265A      0.786072   266A      0.788826   267A      0.795510  
     268A      0.797352   269A      0.801070   270A      0.803324  
     271A      0.804291   272A      0.814857   273A      0.818397  
     274A      0.819344   275A      0.826288   276A      0.827373  
     277A      0.832318   278A      0.834717   279A      0.838903  
     280A      0.840979   281A      0.843768   282A      0.845325  
     283A      0.848425   284A      0.855460   285A      0.861537  
     286A      0.864311   287A      0.872622   288A      0.872737  
     289A      0.880730   290A      0.883287   291A      0.885397  
     292A      0.890284   293A      0.893206   294A      0.898387  
     295A      0.901167   296A      0.903951   297A      0.906900  
     298A      0.908982   299A      0.913708   300A      0.917400  
     301A      0.922618   302A      0.925988   303A      0.932067  
     304A      0.934706   305A      0.937500   306A      0.939480  
     307A      0.944446   308A      0.948512   309A      0.951536  
     310A      0.954816   311A      0.957778   312A      0.963336  
     313A      0.965097   314A      0.971654   315A      0.975500  
     316A      0.977811   317A      0.979926   318A      0.983312  
     319A      0.988321   320A      0.991912   321A      0.995196  
     322A      0.998542   323A      1.000476   324A      1.004920  
     325A      1.006697   326A      1.008334   327A      1.015676  
     328A      1.019546   329A      1.022744   330A      1.026377  
     331A      1.031995   332A      1.033952   333A      1.037455  
     334A      1.040561   335A      1.042825   336A      1.048637  
     337A      1.051442   338A      1.053183   339A      1.061602  
     340A      1.062533   341A      1.067798   342A      1.068867  
     343A      1.078956   344A      1.079413   345A      1.088892  
     346A      1.090149   347A      1.094080   348A      1.100706  
     349A      1.103255   350A      1.106322   351A      1.109953  
     352A      1.116138   353A      1.122080   354A      1.124739  
     355A      1.128039   356A      1.130190   357A      1.135077  
     358A      1.139965   359A      1.141589   360A      1.145439  
     361A      1.151858   362A      1.155149   363A      1.159123  
     364A      1.163396   365A      1.166857   366A      1.171986  
     367A      1.174543   368A      1.182416   369A      1.184618  
     370A      1.187445   371A      1.192150   372A      1.196890  
     373A      1.199650   374A      1.200815   375A      1.206507  
     376A      1.208091   377A      1.211376   378A      1.216492  
     379A      1.221386   380A      1.226508   381A      1.227838  
     382A      1.231521   383A      1.238680   384A      1.239803  
     385A      1.244128   386A      1.248802   387A      1.253437  
     388A      1.257746   389A      1.259143   390A      1.261644  
     391A      1.266479   392A      1.272153   393A      1.280971  
     394A      1.284890   395A      1.289289   396A      1.292366  
     397A      1.295679   398A      1.302719   399A      1.303616  
     400A      1.314329   401A      1.318534   402A      1.323877  
     403A      1.328400   404A      1.330889   405A      1.333697  
     406A      1.335282   407A      1.337963   408A      1.348801  
     409A      1.354593   410A      1.359208   411A      1.362691  
     412A      1.363754   413A      1.366832   414A      1.370675  
     415A      1.380598   416A      1.382102   417A      1.392276  
     418A      1.395554   419A      1.397458   420A      1.404834  
     421A      1.406705   422A      1.412574   423A      1.413565  
     424A      1.417965   425A      1.419568   426A      1.431093  
     427A      1.433962   428A      1.439342   429A      1.447383  
     430A      1.448530   431A      1.452538   432A      1.456381  
     433A      1.463254   434A      1.470546   435A      1.474673  
     436A      1.477474   437A      1.483548   438A      1.486705  
     439A      1.490843   440A      1.494161   441A      1.501811  
     442A      1.504467   443A      1.511624   444A      1.513413  
     445A      1.520853   446A      1.525534   447A      1.530501  
     448A      1.537658   449A      1.539001   450A      1.544847  
     451A      1.547746   452A      1.553045   453A      1.558209  
     454A      1.560474   455A      1.566624   456A      1.569525  
     457A      1.573358   458A      1.574356   459A      1.583370  
     460A      1.590791   461A      1.593528   462A      1.596277  
     463A      1.600569   464A      1.603986   465A      1.608805  
     466A      1.614263   467A      1.618672   468A      1.623929  
     469A      1.626826   470A      1.634416   471A      1.640075  
     472A      1.646465   473A      1.650138   474A      1.652640  
     475A      1.658020   476A      1.659834   477A      1.664240  
     478A      1.670480   479A      1.673890   480A      1.676636  
     481A      1.686449   482A      1.698170   483A      1.701755  
     484A      1.703066   485A      1.708874   486A      1.711053  
     487A      1.718263   488A      1.723842   489A      1.728322  
     490A      1.734206   491A      1.737653   492A      1.739218  
     493A      1.744417   494A      1.745937   495A      1.755713  
     496A      1.762314   497A      1.763738   498A      1.768076  
     499A      1.777095   500A      1.777949   501A      1.781150  
     502A      1.787524   503A      1.793910   504A      1.797309  
     505A      1.803432   506A      1.810041   507A      1.815561  
     508A      1.817427   509A      1.820371   510A      1.831745  
     511A      1.839742   512A      1.843013   513A      1.843796  
     514A      1.851309   515A      1.859375   516A      1.864062  
     517A      1.865805   518A      1.868269   519A      1.875756  
     520A      1.881532   521A      1.884680   522A      1.887698  
     523A      1.894771   524A      1.901525   525A      1.908047  
     526A      1.914729   527A      1.917867   528A      1.920586  
     529A      1.924916   530A      1.927388   531A      1.933798  
     532A      1.942731   533A      1.951315   534A      1.954124  
     535A      1.956040   536A      1.959045   537A      1.965031  
     538A      1.970104   539A      1.973091   540A      1.981442  
     541A      1.983992   542A      1.994456   543A      2.000887  
     544A      2.011314   545A      2.015894   546A      2.017438  
     547A      2.019693   548A      2.029652   549A      2.034782  
     550A      2.047107   551A      2.053127   552A      2.057394  
     553A      2.058670   554A      2.064703   555A      2.069777  
     556A      2.072536   557A      2.080071   558A      2.082915  
     559A      2.090719   560A      2.091419   561A      2.101675  
     562A      2.109154   563A      2.113942   564A      2.122144  
     565A      2.128665   566A      2.132164   567A      2.135200  
     568A      2.141721   569A      2.145423   570A      2.149820  
     571A      2.152257   572A      2.157030   573A      2.165267  
     574A      2.171197   575A      2.175623   576A      2.176831  
     577A      2.185798   578A      2.190867   579A      2.200138  
     580A      2.202428   581A      2.205093   582A      2.216277  
     583A      2.218820   584A      2.223608   585A      2.229700  
     586A      2.236091   587A      2.241006   588A      2.249020  
     589A      2.250236   590A      2.254642   591A      2.262935  
     592A      2.265760   593A      2.269371   594A      2.281712  
     595A      2.285110   596A      2.288535   597A      2.297667  
     598A      2.299993   599A      2.309911   600A      2.323065  
     601A      2.324031   602A      2.327816   603A      2.334028  
     604A      2.339824   605A      2.344004   606A      2.350425  
     607A      2.356006   608A      2.364119   609A      2.373025  
     610A      2.378457   611A      2.385793   612A      2.386989  
     613A      2.395002   614A      2.402042   615A      2.403705  
     616A      2.412583   617A      2.415185   618A      2.422968  
     619A      2.423884   620A      2.431204   621A      2.436894  
     622A      2.443664   623A      2.448992   624A      2.459386  
     625A      2.461153   626A      2.466584   627A      2.471853  
     628A      2.476493   629A      2.481024   630A      2.484304  
     631A      2.489648   632A      2.495836   633A      2.504040  
     634A      2.508947   635A      2.513933   636A      2.521031  
     637A      2.526996   638A      2.530561   639A      2.535941  
     640A      2.546972   641A      2.549710   642A      2.551906  
     643A      2.559203   644A      2.567702   645A      2.570621  
     646A      2.576995   647A      2.586317   648A      2.594394  
     649A      2.606240   650A      2.610637   651A      2.617291  
     652A      2.623340   653A      2.628582   654A      2.630508  
     655A      2.637918   656A      2.651762   657A      2.656645  
     658A      2.662562   659A      2.667685   660A      2.672240  
     661A      2.678184   662A      2.679159   663A      2.696116  
     664A      2.704700   665A      2.712636   666A      2.719125  
     667A      2.721414   668A      2.737173   669A      2.740892  
     670A      2.746962   671A      2.750819   672A      2.760229  
     673A      2.761876   674A      2.780026   675A      2.783530  
     676A      2.788737   677A      2.795210   678A      2.798642  
     679A      2.806104   680A      2.808477   681A      2.822393  
     682A      2.825389   683A      2.828778   684A      2.840297  
     685A      2.846273   686A      2.854058   687A      2.856036  
     688A      2.864062   689A      2.869086   690A      2.875561  
     691A      2.879871   692A      2.883368   693A      2.892243  
     694A      2.895249   695A      2.907666   696A      2.913982  
     697A      2.920118   698A      2.930956   699A      2.937234  
     700A      2.942528   701A      2.953708   702A      2.960404  
     703A      2.962803   704A      2.967330   705A      2.977469  
     706A      2.978744   707A      2.986862   708A      2.994623  
     709A      3.004341   710A      3.015886   711A      3.020184  
     712A      3.033431   713A      3.035310   714A      3.045378  
     715A      3.054748   716A      3.061840   717A      3.072432  
     718A      3.076269   719A      3.087197   720A      3.092808  
     721A      3.100077   722A      3.106784   723A      3.113091  
     724A      3.116428   725A      3.128586   726A      3.130273  
     727A      3.142763   728A      3.151832   729A      3.162914  
     730A      3.165995   731A      3.172019   732A      3.177377  
     733A      3.187540   734A      3.193777   735A      3.207216  
     736A      3.217411   737A      3.230119   738A      3.248472  
     739A      3.253418   740A      3.262342   741A      3.276369  
     742A      3.285147   743A      3.295437   744A      3.305668  
     745A      3.319294   746A      3.327333   747A      3.333655  
     748A      3.336339   749A      3.353946   750A      3.366211  
     751A      3.386849   752A      3.389542   753A      3.415824  
     754A      3.423541   755A      3.438804   756A      3.443692  
     757A      3.446163   758A      3.456535   759A      3.458096  
     760A      3.467422   761A      3.480081   762A      3.492747  
     763A      3.504819   764A      3.517107   765A      3.526392  
     766A      3.528241   767A      3.541082   768A      3.550126  
     769A      3.563082   770A      3.577023   771A      3.585778  
     772A      3.597091   773A      3.615249   774A      3.629069  
     775A      3.643189   776A      3.657326   777A      3.659915  
     778A      3.666387   779A      3.680386   780A      3.695470  
     781A      3.701308   782A      3.705000   783A      3.717591  
     784A      3.731564   785A      3.748293   786A      3.755427  
     787A      3.763790   788A      3.772514   789A      3.781787  
     790A      3.786677   791A      3.795924   792A      3.812241  
     793A      3.815659   794A      3.830139   795A      3.839530  
     796A      3.847789   797A      3.861843   798A      3.865093  
     799A      3.882700   800A      3.889016   801A      3.893623  
     802A      3.909480   803A      3.915738   804A      3.918891  
     805A      3.927924   806A      3.934551   807A      3.953388  
     808A      3.955460   809A      3.967835   810A      3.981694  
     811A      3.987886   812A      3.999712   813A      4.011975  
     814A      4.022563   815A      4.030713   816A      4.040731  
     817A      4.057818   818A      4.075389   819A      4.080183  
     820A      4.093009   821A      4.100705   822A      4.103586  
     823A      4.111047   824A      4.125795   825A      4.143261  
     826A      4.146578   827A      4.153712   828A      4.168171  
     829A      4.181005   830A      4.190993   831A      4.193180  
     832A      4.199925   833A      4.212370   834A      4.220008  
     835A      4.223197   836A      4.237350   837A      4.244133  
     838A      4.249894   839A      4.252585   840A      4.262471  
     841A      4.265072   842A      4.272125   843A      4.284985  
     844A      4.286110   845A      4.300886   846A      4.307975  
     847A      4.311453   848A      4.314652   849A      4.330289  
     850A      4.335483   851A      4.346389   852A      4.350048  
     853A      4.368776   854A      4.374349   855A      4.380407  
     856A      4.390119   857A      4.398215   858A      4.401109  
     859A      4.416515   860A      4.422864   861A      4.433797  
     862A      4.441640   863A      4.450263   864A      4.469944  
     865A      4.479816   866A      4.486408   867A      4.495995  
     868A      4.505424   869A      4.513760   870A      4.521846  
     871A      4.531477   872A      4.537461   873A      4.544617  
     874A      4.551699   875A      4.569950   876A      4.574050  
     877A      4.579330   878A      4.591764   879A      4.594068  
     880A      4.601585   881A      4.608165   882A      4.611385  
     883A      4.619211   884A      4.628330   885A      4.639398  
     886A      4.643002   887A      4.655587   888A      4.658601  
     889A      4.663068   890A      4.665235   891A      4.675727  
     892A      4.694748   893A      4.699801   894A      4.709732  
     895A      4.714905   896A      4.723265   897A      4.729507  
     898A      4.737877   899A      4.743680   900A      4.760751  
     901A      4.767250   902A      4.777099   903A      4.784913  
     904A      4.788466   905A      4.797937   906A      4.811413  
     907A      4.826555   908A      4.827695   909A      4.833589  
     910A      4.844322   911A      4.849747   912A      4.864366  
     913A      4.871884   914A      4.880788   915A      4.888159  
     916A      4.902748   917A      4.916384   918A      4.920554  
     919A      4.929668   920A      4.939053   921A      4.946014  
     922A      4.958263   923A      4.964695   924A      4.973644  
     925A      4.979158   926A      4.982805   927A      4.995112  
     928A      4.999864   929A      5.004255   930A      5.008331  
     931A      5.022624   932A      5.028982   933A      5.032217  
     934A      5.047496   935A      5.055264   936A      5.066470  
     937A      5.068305   938A      5.069674   939A      5.087165  
     940A      5.089347   941A      5.103087   942A      5.110130  
     943A      5.116376   944A      5.132466   945A      5.138860  
     946A      5.153124   947A      5.158517   948A      5.167472  
     949A      5.176963   950A      5.184544   951A      5.199594  
     952A      5.211213   953A      5.213469   954A      5.218157  
     955A      5.225086   956A      5.242015   957A      5.252148  
     958A      5.253487   959A      5.256438   960A      5.273874  
     961A      5.279830   962A      5.291705   963A      5.300797  
     964A      5.306667   965A      5.327910   966A      5.330722  
     967A      5.341443   968A      5.344956   969A      5.348022  
     970A      5.358724   971A      5.360524   972A      5.373135  
     973A      5.382141   974A      5.394277   975A      5.410989  
     976A      5.417905   977A      5.429371   978A      5.443640  
     979A      5.450210   980A      5.455295   981A      5.464067  
     982A      5.473724   983A      5.487452   984A      5.510700  
     985A      5.522284   986A      5.530270   987A      5.535630  
     988A      5.544210   989A      5.555994   990A      5.563590  
     991A      5.572851   992A      5.580741   993A      5.585061  
     994A      5.589497   995A      5.599923   996A      5.607319  
     997A      5.623886   998A      5.636819   999A      5.651214  
    1000A      5.666161  1001A      5.672902  1002A      5.677451  
    1003A      5.695389  1004A      5.700873  1005A      5.709337  
    1006A      5.717455  1007A      5.729941  1008A      5.738253  
    1009A      5.744768  1010A      5.760718  1011A      5.764799  
    1012A      5.781806  1013A      5.796756  1014A      5.812790  
    1015A      5.813690  1016A      5.817748  1017A      5.824704  
    1018A      5.840901  1019A      5.856218  1020A      5.862014  
    1021A      5.869531  1022A      5.901034  1023A      5.924288  
    1024A      5.929663  1025A      5.944898  1026A      5.945811  
    1027A      5.958259  1028A      5.961317  1029A      5.972568  
    1030A      5.978902  1031A      5.987038  1032A      5.992867  
    1033A      6.000834  1034A      6.023419  1035A      6.049529  
    1036A      6.053229  1037A      6.064815  1038A      6.076393  
    1039A      6.095281  1040A      6.109520  1041A      6.111210  
    1042A      6.134422  1043A      6.139677  1044A      6.159057  
    1045A      6.171791  1046A      6.183048  1047A      6.191470  
    1048A      6.199305  1049A      6.208432  1050A      6.219928  
    1051A      6.233363  1052A      6.252856  1053A      6.264721  
    1054A      6.271446  1055A      6.279430  1056A      6.292544  
    1057A      6.311689  1058A      6.320365  1059A      6.348613  
    1060A      6.370336  1061A      6.392305  1062A      6.405117  
    1063A      6.437757  1064A      6.447128  1065A      6.479363  
    1066A      6.485765  1067A      6.498892  1068A      6.506846  
    1069A      6.536933  1070A      6.541646  1071A      6.551040  
    1072A      6.559334  1073A      6.572391  1074A      6.577115  
    1075A      6.593816  1076A      6.603665  1077A      6.617027  
    1078A      6.633215  1079A      6.642842  1080A      6.663540  
    1081A      6.695549  1082A      6.701920  1083A      6.714964  
    1084A      6.730746  1085A      6.739009  1086A      6.750097  
    1087A      6.768327  1088A      6.772790  1089A      6.793111  
    1090A      6.795947  1091A      6.812752  1092A      6.821076  
    1093A      6.837413  1094A      6.845097  1095A      6.871008  
    1096A      6.896011  1097A      6.914571  1098A      6.922988  
    1099A      6.945461  1100A      6.963445  1101A      6.969015  
    1102A      6.996401  1103A      7.010149  1104A      7.022313  
    1105A      7.028755  1106A      7.039117  1107A      7.042230  
    1108A      7.055018  1109A      7.085410  1110A      7.103296  
    1111A      7.115108  1112A      7.137753  1113A      7.205143  
    1114A      7.222541  1115A      7.228567  1116A      7.239173  
    1117A      7.268900  1118A      7.286385  1119A      7.303213  
    1120A      7.328775  1121A      7.361841  1122A      7.372553  
    1123A      7.388797  1124A      7.434457  1125A      7.438632  
    1126A      7.454298  1127A      7.462137  1128A      7.482093  
    1129A      7.494215  1130A      7.524799  1131A      7.535405  
    1132A      7.565754  1133A      7.619532  1134A      7.649477  
    1135A      7.653933  1136A      7.668924  1137A      7.673437  
    1138A      7.691006  1139A      7.695217  1140A      7.704746  
    1141A      7.719106  1142A      7.738829  1143A      7.766677  
    1144A      7.780187  1145A      7.806560  1146A      7.827109  
    1147A      7.832991  1148A      7.844123  1149A      7.856047  
    1150A      7.863635  1151A      7.886979  1152A      7.897862  
    1153A      7.937979  1154A      7.948233  1155A      7.954329  
    1156A      7.976925  1157A      8.004713  1158A      8.015735  
    1159A      8.031350  1160A      8.042527  1161A      8.061457  
    1162A      8.068047  1163A      8.083743  1164A      8.147703  
    1165A      8.188073  1166A      8.202580  1167A      8.281912  
    1168A      8.305155  1169A      8.348408  1170A      8.368330  
    1171A      8.411215  1172A      8.510829  1173A      8.567266  
    1174A      8.587910  1175A      8.725005  1176A      8.755575  
    1177A      8.827156  1178A      8.860749  1179A      8.900022  
    1180A      9.035781  1181A      9.093035  1182A      9.170203  
    1183A      9.289230  1184A      9.361805  1185A      9.412248  
    1186A      9.618724  1187A      9.656074  1188A      9.708328  
    1189A      9.810542  1190A      9.839547  1191A      9.959871  
    1192A     10.036885  1193A     10.070418  1194A     10.185397  
    1195A     10.354745  1196A     10.394952  1197A     10.452292  
    1198A     10.535697  1199A     10.611409  1200A     10.778816  
    1201A     11.141409  1202A     11.234445  1203A     11.291713  
    1204A     11.425353  1205A     11.471876  1206A     11.624350  
    1207A     11.709023  1208A     12.002755  1209A     12.044759  
    1210A     12.064784  1211A     12.166109  1212A     12.253509  
    1213A     12.334553  1214A     12.397749  1215A     12.530198  
    1216A     12.843533  1217A     12.941558  1218A     13.408350  
    1219A     13.674946  1220A     14.295758  1221A     16.340070  
    1222A     16.472159  1223A     16.650527  1224A     17.239080  
    1225A     17.885010  1226A     18.561820  1227A     19.286993  
    1228A     19.650156  1229A     20.280184  1230A     21.170771  
    1231A     21.477036  1232A     52.117991  1233A     52.904551  
    1234A     53.365309  1235A     54.536797  1236A     57.368122  
    1237A     60.565712  1238A     62.029381  1239A     62.151591  
    1240A     63.524980  1241A     66.451910  1242A     70.688603  

    Final Occupation by Irrep:
              A 
    DOCC [    39 ]

  @DF-RHF Final Energy:  -539.58611916797349

   => Energetics <=

    Nuclear Repulsion Energy =            593.2969903590297918
    One-Electron Energy =               -1912.0080502480084306
    Two-Electron Energy =                 779.1249407210050322
    Total Energy =                       -539.5861191679734929

Computation Completed


Properties will be evaluated at   0.000000,   0.000000,   0.000000 [a0]

Properties computed using the SCF density matrix

  Nuclear Dipole Moment: [e a0]
     X:  -221.7894      Y:   133.5848      Z:    94.9403

  Electronic Dipole Moment: [e a0]
     X:   221.5846      Y:  -135.6560      Z:   -93.3046

  Dipole Moment: [e a0]
     X:    -0.2047      Y:    -2.0712      Z:     1.6358     Total:     2.6472

  Dipole Moment: [D]
     X:    -0.5204      Y:    -5.2645      Z:     4.1577     Total:     6.7285


*** tstop() called on node155.bme.utexas.edu at Wed Jan 17 11:09:53 2024
Module time:
	user time   =    1421.66 seconds =      23.69 minutes
	system time =      11.63 seconds =       0.19 minutes
	total time  =        230 seconds =       3.83 minutes
Total time:
	user time   =    3731.47 seconds =      62.19 minutes
	system time =      44.91 seconds =       0.75 minutes
	total time  =        604 seconds =      10.07 minutes

*** tstart() called on node155.bme.utexas.edu
*** at Wed Jan 17 11:09:53 2024


  //>>>>>>>>>>>>>>>>>>>>>>>>>>>>>>>>>>>//
  //               DFMP2               //
  //<<<<<<<<<<<<<<<<<<<<<<<<<<<<<<<<<<<//

   => Loading Basis Set <=

    Name: (AUG-CC-PVTZ AUX)
    Role: RIFIT
    Keyword: DF_BASIS_MP2
    atoms 1, 5, 9, 11-12, 17, 21, 25, 27-28 entry N          line   206 file /opt/anaconda/envs/psi4v1.5/share/psi4/basis/aug-cc-pvtz-ri.gbs 
    atoms 2, 4, 14-16, 18, 20, 30-32        entry H          line    30 file /opt/anaconda/envs/psi4v1.5/share/psi4/basis/aug-cc-pvtz-ri.gbs 
    atoms 3, 6-7, 10, 13, 19, 22-23, 26, 29 entry C          line   148 file /opt/anaconda/envs/psi4v1.5/share/psi4/basis/aug-cc-pvtz-ri.gbs 
    atoms 8, 24                             entry O          line   264 file /opt/anaconda/envs/psi4v1.5/share/psi4/basis/aug-cc-pvtz-ri.gbs 

	 --------------------------------------------------------
	                          DF-MP2                         
	      2nd-Order Density-Fitted Moller-Plesset Theory     
	              RMP2 Wavefunction,   8 Threads             
	                                                         
	        Rob Parrish, Justin Turney, Andy Simmonett,      
	           Ed Hohenstein, and C. David Sherrill          
	 --------------------------------------------------------

   => Auxiliary Basis Set <=

  Basis Set: (AUG-CC-PVTZ AUX)
    Blend: AUG-CC-PVTZ-RI
    Number of shells: 756
    Number of basis functions: 2792
    Number of Cartesian functions: 3542
    Spherical Harmonics?: true
    Max angular momentum: 4

	 --------------------------------------------------------
	                 NBF =  1242, NAUX =  2792
	 --------------------------------------------------------
	   CLASS    FOCC     OCC    AOCC    AVIR     VIR    FVIR
	   PAIRS      11      39      28    1203    1203       0
	 --------------------------------------------------------

	 Will attempt to load fitting metric from file 97.

	-----------------------------------------------------------
	 ==================> DF-MP2 Energies <==================== 
	-----------------------------------------------------------
	 Reference Energy          =    -539.5861191679734929 [Eh]
	 Singles Energy            =      -0.0000000000000000 [Eh]
	 Same-Spin Energy          =      -0.5424313085364405 [Eh]
	 Opposite-Spin Energy      =      -1.4996250928620452 [Eh]
	 Correlation Energy        =      -2.0420564013984857 [Eh]
	 Total Energy              =    -541.6281755693719333 [Eh]
	-----------------------------------------------------------
	 ================> DF-SCS-MP2 Energies <================== 
	-----------------------------------------------------------
	 SCS Same-Spin Scale       =       0.3333333333333333 [-]
	 SCS Opposite-Spin Scale   =       1.2000000000000000 [-]
	 SCS Same-Spin Energy      =      -0.1808104361788135 [Eh]
	 SCS Opposite-Spin Energy  =      -1.7995501114344541 [Eh]
	 SCS Correlation Energy    =      -1.9803605476132675 [Eh]
	 SCS Total Energy          =    -541.5664797155867518 [Eh]
	-----------------------------------------------------------


*** tstop() called on node155.bme.utexas.edu at Wed Jan 17 11:10:54 2024
Module time:
	user time   =     298.22 seconds =       4.97 minutes
	system time =      10.43 seconds =       0.17 minutes
	total time  =         61 seconds =       1.02 minutes
Total time:
	user time   =    4029.70 seconds =      67.16 minutes
	system time =      55.34 seconds =       0.92 minutes
	total time  =        665 seconds =      11.08 minutes

  //>>>>>>>>>>>>>>>>>>>>>>>>>>>>>>>>>>>//
  //            Monomer B HF           //
  //<<<<<<<<<<<<<<<<<<<<<<<<<<<<<<<<<<<//


*** tstart() called on node155.bme.utexas.edu
*** at Wed Jan 17 11:10:54 2024

   => Loading Basis Set <=

    Name: AUG-CC-PVTZ
    Role: ORBITAL
    Keyword: BASIS
    atoms 1, 5, 9, 11-12, 17, 21, 25, 27-28 entry N          line   285 file /opt/anaconda/envs/psi4v1.5/share/psi4/basis/aug-cc-pvtz.gbs 
    atoms 2, 4, 14-16, 18, 20, 30-32        entry H          line    40 file /opt/anaconda/envs/psi4v1.5/share/psi4/basis/aug-cc-pvtz.gbs 
    atoms 3, 6-7, 10, 13, 19, 22-23, 26, 29 entry C          line   239 file /opt/anaconda/envs/psi4v1.5/share/psi4/basis/aug-cc-pvtz.gbs 
    atoms 8, 24                             entry O          line   331 file /opt/anaconda/envs/psi4v1.5/share/psi4/basis/aug-cc-pvtz.gbs 


         ---------------------------------------------------------
                                   SCF
               by Justin Turney, Rob Parrish, Andy Simmonett
                          and Daniel G. A. Smith
                              RHF Reference
                        8 Threads,  85830 MiB Core
         ---------------------------------------------------------

  ==> Geometry <==

    Molecular point group: c1
    Full point group: C1

    Geometry (in Angstrom), charge = 0, multiplicity = 1:

       Center              X                  Y                   Z               Mass       
    ------------   -----------------  -----------------  -----------------  -----------------
      Gh(N)           0.296127093733     1.074754349095     2.055754463080    14.003074004430
      Gh(H)           0.772957093733     0.489054349095     2.731984463080     1.007825032230
      Gh(C)           0.693237093733     2.297304349095     1.569384463080    12.000000000000
      Gh(H)           1.571777093733     2.805774349095     1.944954463080     1.007825032230
      Gh(N)          -0.109852906267     2.762514349095     0.624674463080    14.003074004430
      Gh(C)          -1.052692906267     1.773554349095     0.477164463080    12.000000000000
      Gh(C)          -2.176732906267     1.704824349095    -0.424625536920    12.000000000000
      Gh(O)          -2.607122906267     2.497614349095    -1.247835536920    15.994914619570
      Gh(N)          -2.838362906267     0.438784349095    -0.239405536920    14.003074004430
      Gh(C)          -2.536882906267    -0.515015650905     0.693094463080    12.000000000000
      Gh(N)          -3.287742906267    -1.699275650905     0.652454463080    14.003074004430
      Gh(N)          -1.543522906267    -0.434185650905     1.540144463080    14.003074004430
      Gh(C)          -0.824032906267     0.713994349095     1.357154463080    12.000000000000
      Gh(H)          -3.606702906267     0.295834349095    -0.891545536920     1.007825032230
      Gh(H)          -4.268012906267    -1.557585650905     0.417084463080     1.007825032230
      Gh(H)          -3.212802906267    -2.170085650905     1.552084463080     1.007825032230
         N            3.427849531233    -0.513869088405     0.547154650580    14.003074004430
         H            4.012239531233    -0.969709088405     1.238704650580     1.007825032230
         C            3.708269531233     0.629030911595    -0.167895349420    12.000000000000
         H            4.597999531233     1.217370911595     0.018584650580     1.007825032230
         N            2.792239531233     0.902000911595    -1.082665349420    14.003074004430
         C            1.882129531233    -0.124709088405    -0.956435349420    12.000000000000
         C            0.675589531233    -0.385019088405    -1.702075349420    12.000000000000
         O            0.134039531233     0.238330911595    -2.607795349420    15.994914619570
         N            0.101729531233    -1.609049088405    -1.240745349420    14.003074004430
         C            0.535809531233    -2.392269088405    -0.203825349420    12.000000000000
         N           -0.207880468767    -3.536089088405     0.030224650580    14.003074004430
         N            1.624549531233    -2.146499088405     0.489174650580    14.003074004430
         C            2.259389531233    -1.025269088405     0.039554650580    12.000000000000
         H           -0.717760468767    -1.900599088405    -1.769025349420     1.007825032230
         H           -1.212280468767    -3.368259088405     0.024164650580     1.007825032230
         H            0.093109531233    -3.981179088405     0.892254650580     1.007825032230

  Running in c1 symmetry.

  Rotational constants: A =      0.01373  B =      0.01004  C =      0.00806 [cm^-1]
  Rotational constants: A =    411.68139  B =    301.06296  C =    241.71794 [MHz]
  Nuclear repulsion =  593.703431717742887

  Charge       = 0
  Multiplicity = 1
  Electrons    = 78
  Nalpha       = 39
  Nbeta        = 39

  ==> Algorithm <==

  SCF Algorithm Type is DF.
  DIIS enabled.
  MOM disabled.
  Fractional occupation disabled.
  Guess Type is SAD.
  Energy threshold   = 1.00e-08
  Density threshold  = 1.00e-08
  Integral threshold = 1.00e-12

  ==> Primary Basis <==

  Basis Set: AUG-CC-PVTZ
    Blend: AUG-CC-PVTZ
    Number of shells: 398
    Number of basis functions: 1242
    Number of Cartesian functions: 1460
    Spherical Harmonics?: true
    Max angular momentum: 3

   => Loading Basis Set <=

    Name: (AUG-CC-PVTZ AUX)
    Role: JKFIT
    Keyword: DF_BASIS_SCF
    atoms 1, 5, 9, 11-12, 17, 21, 25, 27-28 entry N          line   224 file /opt/anaconda/envs/psi4v1.5/share/psi4/basis/aug-cc-pvtz-jkfit.gbs 
    atoms 2, 4, 14-16, 18, 20, 30-32        entry H          line    70 file /opt/anaconda/envs/psi4v1.5/share/psi4/basis/aug-cc-pvtz-jkfit.gbs 
    atoms 3, 6-7, 10, 13, 19, 22-23, 26, 29 entry C          line   162 file /opt/anaconda/envs/psi4v1.5/share/psi4/basis/aug-cc-pvtz-jkfit.gbs 
    atoms 8, 24                             entry O          line   286 file /opt/anaconda/envs/psi4v1.5/share/psi4/basis/aug-cc-pvtz-jkfit.gbs 

  ==> Integral Setup <==

  ==> DiskDFJK: Density-Fitted J/K Matrices <==

    J tasked:                  Yes
    K tasked:                  Yes
    wK tasked:                  No
    OpenMP threads:              8
    Integrals threads:           8
    Memory [MiB]:            64373
    Algorithm:                Core
    Integral Cache:           LOAD
    Schwarz Cutoff:          1E-12
    Fitting Condition:       1E-10

   => Auxiliary Basis Set <=

  Basis Set: (AUG-CC-PVTZ AUX)
    Blend: AUG-CC-PVTZ-JKFIT
    Number of shells: 800
    Number of basis functions: 2748
    Number of Cartesian functions: 3432
    Spherical Harmonics?: true
    Max angular momentum: 4

  Minimum eigenvalue in the overlap matrix is 7.1658182177E-07.
  Reciprocal condition number of the overlap matrix is 3.0275692127E-08.
    Using symmetric orthogonalization.

  ==> Pre-Iterations <==

  SCF Guess: Superposition of Atomic Densities via on-the-fly atomic UHF (no occupation information).

   -------------------------
    Irrep   Nso     Nmo    
   -------------------------
     A       1242    1242 
   -------------------------
    Total    1242    1242
   -------------------------

  ==> Iterations <==

                           Total Energy        Delta E     RMS |[F,P]|

   @DF-RHF iter SAD:  -539.30787965818081   -5.39308e+02   0.00000e+00 
   @DF-RHF iter   1:  -539.27985086641559    2.80288e-02   6.38164e-04 DIIS
   @DF-RHF iter   2:  -539.50282814991510   -2.22977e-01   3.77374e-04 DIIS
   @DF-RHF iter   3:  -539.58096978244282   -7.81416e-02   7.84816e-05 DIIS
   @DF-RHF iter   4:  -539.58602950584009   -5.05972e-03   3.25168e-05 DIIS
   @DF-RHF iter   5:  -539.58700220749211   -9.72702e-04   6.83209e-06 DIIS
   @DF-RHF iter   6:  -539.58710366053299   -1.01453e-04   3.55003e-06 DIIS
   @DF-RHF iter   7:  -539.58712973437548   -2.60738e-05   1.47433e-06 DIIS
   @DF-RHF iter   8:  -539.58713466302049   -4.92865e-06   5.21000e-07 DIIS
   @DF-RHF iter   9:  -539.58713524772236   -5.84702e-07   2.05353e-07 DIIS
   @DF-RHF iter  10:  -539.58713534987089   -1.02149e-07   8.10170e-08 DIIS
   @DF-RHF iter  11:  -539.58713536417270   -1.43018e-08   3.09806e-08 DIIS
   @DF-RHF iter  12:  -539.58713536610219   -1.92949e-09   1.15236e-08 DIIS
   @DF-RHF iter  13:  -539.58713536636697   -2.64777e-10   4.99497e-09 DIIS
  Energy and wave function converged.


  ==> Post-Iterations <==

    Orbital Energies [Eh]
    ---------------------

    Doubly Occupied:                                                      

       1A    -20.524250     2A    -15.635873     3A    -15.632066  
       4A    -15.613783     5A    -15.574392     6A    -15.565751  
       7A    -11.398356     8A    -11.368183     9A    -11.328142  
      10A    -11.314914    11A    -11.252251    12A     -1.393961  
      13A     -1.360279    14A     -1.336633    15A     -1.222298  
      16A     -1.218951    17A     -1.178027    18A     -1.031615  
      19A     -0.907074    20A     -0.885382    21A     -0.844464  
      22A     -0.798550    23A     -0.740517    24A     -0.729461  
      25A     -0.701324    26A     -0.673256    27A     -0.656358  
      28A     -0.633568    29A     -0.614372    30A     -0.601895  
      31A     -0.596490    32A     -0.547989    33A     -0.500084  
      34A     -0.464948    35A     -0.443520    36A     -0.433749  
      37A     -0.432261    38A     -0.412422    39A     -0.303369  

    Virtual:                                                              

      40A      0.011382    41A      0.020205    42A      0.028884  
      43A      0.031584    44A      0.039327    45A      0.040451  
      46A      0.047008    47A      0.050954    48A      0.057221  
      49A      0.060195    50A      0.064946    51A      0.066379  
      52A      0.073758    53A      0.077883    54A      0.081038  
      55A      0.085264    56A      0.090593    57A      0.092125  
      58A      0.098233    59A      0.100080    60A      0.101162  
      61A      0.103364    62A      0.106479    63A      0.111195  
      64A      0.115370    65A      0.118161    66A      0.120284  
      67A      0.121771    68A      0.122744    69A      0.126744  
      70A      0.132603    71A      0.133748    72A      0.136645  
      73A      0.139920    74A      0.140449    75A      0.142271  
      76A      0.145315    77A      0.148191    78A      0.153797  
      79A      0.154960    80A      0.158231    81A      0.161278  
      82A      0.163632    83A      0.169158    84A      0.173099  
      85A      0.175095    86A      0.177772    87A      0.181624  
      88A      0.186156    89A      0.186955    90A      0.189523  
      91A      0.196146    92A      0.197108    93A      0.200341  
      94A      0.205981    95A      0.207171    96A      0.209149  
      97A      0.214201    98A      0.217350    99A      0.218358  
     100A      0.223437   101A      0.227992   102A      0.229393  
     103A      0.230655   104A      0.232557   105A      0.234327  
     106A      0.237125   107A      0.240539   108A      0.245449  
     109A      0.248747   110A      0.251782   111A      0.252354  
     112A      0.254210   113A      0.258435   114A      0.262277  
     115A      0.264869   116A      0.268739   117A      0.274120  
     118A      0.275065   119A      0.278523   120A      0.281439  
     121A      0.283226   122A      0.288156   123A      0.288734  
     124A      0.289973   125A      0.294374   126A      0.296354  
     127A      0.299698   128A      0.305015   129A      0.310087  
     130A      0.310412   131A      0.312708   132A      0.315071  
     133A      0.320324   134A      0.324993   135A      0.327662  
     136A      0.332615   137A      0.336469   138A      0.337932  
     139A      0.341632   140A      0.344097   141A      0.347670  
     142A      0.352515   143A      0.356139   144A      0.359075  
     145A      0.361691   146A      0.368488   147A      0.371913  
     148A      0.375682   149A      0.378316   150A      0.385285  
     151A      0.387086   152A      0.387736   153A      0.391656  
     154A      0.395868   155A      0.399170   156A      0.400665  
     157A      0.401972   158A      0.403427   159A      0.405416  
     160A      0.409697   161A      0.412661   162A      0.417703  
     163A      0.421107   164A      0.426348   165A      0.428707  
     166A      0.430103   167A      0.434034   168A      0.435786  
     169A      0.438102   170A      0.444369   171A      0.446505  
     172A      0.448480   173A      0.452264   174A      0.454447  
     175A      0.457188   176A      0.457726   177A      0.466163  
     178A      0.467023   179A      0.471609   180A      0.473601  
     181A      0.475053   182A      0.478325   183A      0.479818  
     184A      0.480660   185A      0.485553   186A      0.489735  
     187A      0.492168   188A      0.494695   189A      0.496157  
     190A      0.502562   191A      0.504843   192A      0.509446  
     193A      0.511315   194A      0.512352   195A      0.515159  
     196A      0.518369   197A      0.524110   198A      0.526448  
     199A      0.529253   200A      0.532901   201A      0.533370  
     202A      0.539253   203A      0.542488   204A      0.546056  
     205A      0.548357   206A      0.553211   207A      0.556719  
     208A      0.561535   209A      0.564073   210A      0.568309  
     211A      0.574501   212A      0.575418   213A      0.577397  
     214A      0.581549   215A      0.585144   216A      0.589787  
     217A      0.593476   218A      0.598777   219A      0.603628  
     220A      0.606236   221A      0.610187   222A      0.614484  
     223A      0.618289   224A      0.621411   225A      0.626212  
     226A      0.629507   227A      0.634454   228A      0.638578  
     229A      0.644574   230A      0.646571   231A      0.648059  
     232A      0.651533   233A      0.652553   234A      0.660692  
     235A      0.667677   236A      0.668877   237A      0.675210  
     238A      0.679060   239A      0.682044   240A      0.687171  
     241A      0.688562   242A      0.692735   243A      0.696436  
     244A      0.698834   245A      0.704533   246A      0.713195  
     247A      0.716005   248A      0.718321   249A      0.721153  
     250A      0.722186   251A      0.728577   252A      0.736214  
     253A      0.737605   254A      0.741234   255A      0.746820  
     256A      0.751501   257A      0.754068   258A      0.756623  
     259A      0.758328   260A      0.766611   261A      0.768147  
     262A      0.774936   263A      0.777882   264A      0.780284  
     265A      0.785979   266A      0.787304   267A      0.790630  
     268A      0.796498   269A      0.798667   270A      0.801477  
     271A      0.807550   272A      0.811039   273A      0.813559  
     274A      0.819946   275A      0.823395   276A      0.830971  
     277A      0.834463   278A      0.836450   279A      0.839886  
     280A      0.845252   281A      0.847860   282A      0.850660  
     283A      0.852758   284A      0.856644   285A      0.861237  
     286A      0.863280   287A      0.871039   288A      0.872972  
     289A      0.877994   290A      0.881066   291A      0.881475  
     292A      0.888789   293A      0.891134   294A      0.893351  
     295A      0.898416   296A      0.899793   297A      0.902589  
     298A      0.905873   299A      0.916494   300A      0.918062  
     301A      0.921592   302A      0.926389   303A      0.927306  
     304A      0.931631   305A      0.934583   306A      0.940646  
     307A      0.941512   308A      0.947773   309A      0.951848  
     310A      0.959691   311A      0.960835   312A      0.965838  
     313A      0.970044   314A      0.974315   315A      0.976640  
     316A      0.980347   317A      0.983546   318A      0.986739  
     319A      0.989033   320A      0.993256   321A      0.995998  
     322A      1.001347   323A      1.007048   324A      1.008227  
     325A      1.012672   326A      1.017018   327A      1.019261  
     328A      1.025102   329A      1.028544   330A      1.029204  
     331A      1.033638   332A      1.037449   333A      1.039779  
     334A      1.039968   335A      1.048254   336A      1.049158  
     337A      1.057869   338A      1.059889   339A      1.063801  
     340A      1.067906   341A      1.074677   342A      1.076345  
     343A      1.079087   344A      1.084155   345A      1.086954  
     346A      1.090593   347A      1.095560   348A      1.100201  
     349A      1.101236   350A      1.107237   351A      1.111228  
     352A      1.113699   353A      1.117022   354A      1.121224  
     355A      1.125947   356A      1.128404   357A      1.130970  
     358A      1.133705   359A      1.138785   360A      1.143938  
     361A      1.152022   362A      1.157927   363A      1.160644  
     364A      1.163942   365A      1.167706   366A      1.168203  
     367A      1.172187   368A      1.179743   369A      1.185612  
     370A      1.188196   371A      1.189221   372A      1.192111  
     373A      1.196582   374A      1.198863   375A      1.203952  
     376A      1.209728   377A      1.211619   378A      1.218054  
     379A      1.222218   380A      1.224145   381A      1.230350  
     382A      1.233959   383A      1.235476   384A      1.237187  
     385A      1.249102   386A      1.254941   387A      1.260331  
     388A      1.261001   389A      1.263150   390A      1.268878  
     391A      1.273361   392A      1.276247   393A      1.282958  
     394A      1.284795   395A      1.291110   396A      1.294577  
     397A      1.297729   398A      1.302864   399A      1.305435  
     400A      1.312771   401A      1.319180   402A      1.319908  
     403A      1.325244   404A      1.331023   405A      1.336084  
     406A      1.336394   407A      1.342546   408A      1.345094  
     409A      1.347537   410A      1.358178   411A      1.359119  
     412A      1.366793   413A      1.368885   414A      1.373535  
     415A      1.376486   416A      1.382213   417A      1.386784  
     418A      1.391800   419A      1.392891   420A      1.397568  
     421A      1.400702   422A      1.404739   423A      1.416634  
     424A      1.419620   425A      1.422057   426A      1.426031  
     427A      1.433431   428A      1.436124   429A      1.440159  
     430A      1.441369   431A      1.445118   432A      1.453389  
     433A      1.455296   434A      1.470751   435A      1.474833  
     436A      1.476730   437A      1.480257   438A      1.482497  
     439A      1.484906   440A      1.491021   441A      1.495188  
     442A      1.500177   443A      1.507691   444A      1.514239  
     445A      1.515229   446A      1.519526   447A      1.524072  
     448A      1.525793   449A      1.531629   450A      1.535915  
     451A      1.544981   452A      1.546790   453A      1.558597  
     454A      1.563368   455A      1.567826   456A      1.569424  
     457A      1.575619   458A      1.576250   459A      1.581253  
     460A      1.583591   461A      1.588278   462A      1.592687  
     463A      1.597282   464A      1.609216   465A      1.612847  
     466A      1.618437   467A      1.623828   468A      1.626395  
     469A      1.629705   470A      1.634928   471A      1.635542  
     472A      1.639833   473A      1.647600   474A      1.651919  
     475A      1.659222   476A      1.662615   477A      1.666383  
     478A      1.675328   479A      1.677737   480A      1.682019  
     481A      1.684359   482A      1.687686   483A      1.692450  
     484A      1.694159   485A      1.708638   486A      1.712866  
     487A      1.715636   488A      1.721932   489A      1.725532  
     490A      1.729335   491A      1.736896   492A      1.742567  
     493A      1.745599   494A      1.751903   495A      1.753612  
     496A      1.755954   497A      1.764126   498A      1.771004  
     499A      1.774370   500A      1.785419   501A      1.787062  
     502A      1.791006   503A      1.794054   504A      1.804362  
     505A      1.809284   506A      1.815751   507A      1.818462  
     508A      1.821089   509A      1.825860   510A      1.835443  
     511A      1.840042   512A      1.845184   513A      1.848264  
     514A      1.853957   515A      1.861523   516A      1.864521  
     517A      1.872654   518A      1.876801   519A      1.882006  
     520A      1.882502   521A      1.891778   522A      1.897922  
     523A      1.900290   524A      1.904815   525A      1.906037  
     526A      1.913909   527A      1.916813   528A      1.919929  
     529A      1.925497   530A      1.926116   531A      1.933462  
     532A      1.937963   533A      1.949419   534A      1.956251  
     535A      1.959904   536A      1.964284   537A      1.970561  
     538A      1.981394   539A      1.983846   540A      1.987312  
     541A      1.997797   542A      2.004324   543A      2.009182  
     544A      2.013659   545A      2.015710   546A      2.025997  
     547A      2.035836   548A      2.041039   549A      2.044053  
     550A      2.046949   551A      2.050323   552A      2.060195  
     553A      2.064154   554A      2.069896   555A      2.076749  
     556A      2.084139   557A      2.087213   558A      2.091616  
     559A      2.097385   560A      2.101809   561A      2.104211  
     562A      2.110238   563A      2.112605   564A      2.119458  
     565A      2.122203   566A      2.128900   567A      2.133243  
     568A      2.136305   569A      2.150314   570A      2.152478  
     571A      2.159218   572A      2.165656   573A      2.169002  
     574A      2.178918   575A      2.182823   576A      2.183442  
     577A      2.192939   578A      2.197977   579A      2.201357  
     580A      2.207598   581A      2.211474   582A      2.215899  
     583A      2.217549   584A      2.229928   585A      2.233856  
     586A      2.240800   587A      2.246292   588A      2.250590  
     589A      2.255444   590A      2.258445   591A      2.266667  
     592A      2.271832   593A      2.272273   594A      2.278499  
     595A      2.288365   596A      2.293916   597A      2.297589  
     598A      2.306513   599A      2.308858   600A      2.319176  
     601A      2.322618   602A      2.334130   603A      2.339059  
     604A      2.343456   605A      2.344140   606A      2.354679  
     607A      2.360074   608A      2.368154   609A      2.374412  
     610A      2.379284   611A      2.385533   612A      2.389140  
     613A      2.396838   614A      2.400084   615A      2.404096  
     616A      2.408009   617A      2.414780   618A      2.417520  
     619A      2.427234   620A      2.434230   621A      2.437464  
     622A      2.446185   623A      2.452126   624A      2.457660  
     625A      2.458784   626A      2.462669   627A      2.465015  
     628A      2.477387   629A      2.486408   630A      2.490296  
     631A      2.493092   632A      2.500616   633A      2.508623  
     634A      2.512125   635A      2.513374   636A      2.523722  
     637A      2.531518   638A      2.533852   639A      2.540675  
     640A      2.547340   641A      2.551938   642A      2.559672  
     643A      2.567834   644A      2.571220   645A      2.573794  
     646A      2.588204   647A      2.593197   648A      2.597981  
     649A      2.602876   650A      2.609983   651A      2.616650  
     652A      2.621190   653A      2.629749   654A      2.640819  
     655A      2.644687   656A      2.647823   657A      2.654785  
     658A      2.662036   659A      2.664862   660A      2.669995  
     661A      2.675668   662A      2.680368   663A      2.692437  
     664A      2.701915   665A      2.703897   666A      2.710321  
     667A      2.725036   668A      2.727257   669A      2.730050  
     670A      2.735865   671A      2.739808   672A      2.750318  
     673A      2.756676   674A      2.763752   675A      2.770845  
     676A      2.776124   677A      2.783310   678A      2.791166  
     679A      2.795711   680A      2.799232   681A      2.803519  
     682A      2.806795   683A      2.815950   684A      2.819944  
     685A      2.830451   686A      2.834184   687A      2.842170  
     688A      2.849225   689A      2.857591   690A      2.868405  
     691A      2.870716   692A      2.875842   693A      2.882965  
     694A      2.891197   695A      2.894959   696A      2.909082  
     697A      2.915642   698A      2.919464   699A      2.932557  
     700A      2.942578   701A      2.944979   702A      2.951425  
     703A      2.957948   704A      2.965958   705A      2.972201  
     706A      2.982045   707A      2.987690   708A      2.992946  
     709A      3.007183   710A      3.017967   711A      3.022491  
     712A      3.029468   713A      3.033108   714A      3.041133  
     715A      3.048347   716A      3.054519   717A      3.068791  
     718A      3.074080   719A      3.076031   720A      3.089139  
     721A      3.092738   722A      3.112745   723A      3.116009  
     724A      3.120165   725A      3.135779   726A      3.140518  
     727A      3.149541   728A      3.152959   729A      3.159098  
     730A      3.172461   731A      3.177184   732A      3.193909  
     733A      3.197105   734A      3.213235   735A      3.216607  
     736A      3.221438   737A      3.231727   738A      3.249803  
     739A      3.262503   740A      3.275934   741A      3.280612  
     742A      3.283416   743A      3.302820   744A      3.304150  
     745A      3.310212   746A      3.319341   747A      3.328934  
     748A      3.349455   749A      3.350922   750A      3.361409  
     751A      3.386822   752A      3.393433   753A      3.398937  
     754A      3.418378   755A      3.428340   756A      3.430531  
     757A      3.442298   758A      3.454097   759A      3.458946  
     760A      3.469375   761A      3.476340   762A      3.491505  
     763A      3.498604   764A      3.505222   765A      3.507749  
     766A      3.521441   767A      3.543317   768A      3.549281  
     769A      3.567675   770A      3.575933   771A      3.580777  
     772A      3.593597   773A      3.604394   774A      3.625106  
     775A      3.640132   776A      3.642460   777A      3.658722  
     778A      3.672700   779A      3.677292   780A      3.681347  
     781A      3.690899   782A      3.701965   783A      3.727423  
     784A      3.732727   785A      3.741290   786A      3.750200  
     787A      3.755683   788A      3.767354   789A      3.780058  
     790A      3.788286   791A      3.794863   792A      3.801520  
     793A      3.811912   794A      3.818914   795A      3.827202  
     796A      3.851852   797A      3.858367   798A      3.874446  
     799A      3.876485   800A      3.881432   801A      3.888645  
     802A      3.895282   803A      3.905738   804A      3.914148  
     805A      3.921162   806A      3.930584   807A      3.938309  
     808A      3.942173   809A      3.948560   810A      3.957757  
     811A      3.973360   812A      3.993499   813A      4.019273  
     814A      4.023311   815A      4.028370   816A      4.032700  
     817A      4.054740   818A      4.058662   819A      4.067957  
     820A      4.091050   821A      4.099013   822A      4.110877  
     823A      4.118301   824A      4.122203   825A      4.123310  
     826A      4.139721   827A      4.152004   828A      4.165113  
     829A      4.177021   830A      4.183147   831A      4.190675  
     832A      4.198349   833A      4.210709   834A      4.221815  
     835A      4.225944   836A      4.237292   837A      4.239112  
     838A      4.249972   839A      4.253738   840A      4.263806  
     841A      4.273743   842A      4.274281   843A      4.287156  
     844A      4.295310   845A      4.300013   846A      4.315059  
     847A      4.315999   848A      4.328739   849A      4.335486  
     850A      4.346114   851A      4.355612   852A      4.361653  
     853A      4.372739   854A      4.376733   855A      4.387156  
     856A      4.391139   857A      4.393570   858A      4.400920  
     859A      4.413319   860A      4.418977   861A      4.421529  
     862A      4.427463   863A      4.444119   864A      4.456319  
     865A      4.462338   866A      4.468494   867A      4.488076  
     868A      4.491453   869A      4.503575   870A      4.517461  
     871A      4.530687   872A      4.537710   873A      4.547826  
     874A      4.555824   875A      4.564877   876A      4.573073  
     877A      4.578431   878A      4.584427   879A      4.589666  
     880A      4.594047   881A      4.613119   882A      4.619899  
     883A      4.624490   884A      4.629155   885A      4.644065  
     886A      4.646868   887A      4.650933   888A      4.661983  
     889A      4.671301   890A      4.675410   891A      4.684567  
     892A      4.687872   893A      4.703955   894A      4.717986  
     895A      4.727948   896A      4.728599   897A      4.737558  
     898A      4.741665   899A      4.751469   900A      4.762913  
     901A      4.781302   902A      4.788341   903A      4.796005  
     904A      4.805498   905A      4.814582   906A      4.825403  
     907A      4.834364   908A      4.841300   909A      4.844822  
     910A      4.856370   911A      4.861718   912A      4.872549  
     913A      4.879468   914A      4.893167   915A      4.895979  
     916A      4.903499   917A      4.916853   918A      4.924526  
     919A      4.930685   920A      4.946060   921A      4.954757  
     922A      4.959122   923A      4.962886   924A      4.982151  
     925A      4.986522   926A      4.992141   927A      5.003143  
     928A      5.017890   929A      5.025662   930A      5.032487  
     931A      5.036893   932A      5.041105   933A      5.046387  
     934A      5.051604   935A      5.058124   936A      5.076256  
     937A      5.078715   938A      5.080577   939A      5.092540  
     940A      5.099355   941A      5.107224   942A      5.117396  
     943A      5.122069   944A      5.130245   945A      5.145385  
     946A      5.159284   947A      5.180153   948A      5.180818  
     949A      5.183652   950A      5.192644   951A      5.199416  
     952A      5.213071   953A      5.222448   954A      5.229314  
     955A      5.235260   956A      5.236571   957A      5.251064  
     958A      5.254186   959A      5.266463   960A      5.270816  
     961A      5.283500   962A      5.295790   963A      5.304360  
     964A      5.310996   965A      5.319407   966A      5.323991  
     967A      5.335794   968A      5.342290   969A      5.347413  
     970A      5.357579   971A      5.362956   972A      5.378668  
     973A      5.387289   974A      5.390879   975A      5.402478  
     976A      5.408896   977A      5.418477   978A      5.423227  
     979A      5.444826   980A      5.456092   981A      5.467322  
     982A      5.476094   983A      5.483815   984A      5.496941  
     985A      5.509159   986A      5.528902   987A      5.536679  
     988A      5.552554   989A      5.553074   990A      5.565823  
     991A      5.571621   992A      5.573084   993A      5.586073  
     994A      5.592522   995A      5.603263   996A      5.611904  
     997A      5.618371   998A      5.622713   999A      5.643202  
    1000A      5.661220  1001A      5.668669  1002A      5.674651  
    1003A      5.683064  1004A      5.696422  1005A      5.703320  
    1006A      5.710124  1007A      5.728583  1008A      5.744498  
    1009A      5.747200  1010A      5.749006  1011A      5.776879  
    1012A      5.780964  1013A      5.789590  1014A      5.794046  
    1015A      5.817065  1016A      5.824105  1017A      5.828806  
    1018A      5.832640  1019A      5.850492  1020A      5.853093  
    1021A      5.872026  1022A      5.890475  1023A      5.894533  
    1024A      5.904187  1025A      5.924349  1026A      5.930790  
    1027A      5.941504  1028A      5.949528  1029A      5.962496  
    1030A      5.970406  1031A      5.987752  1032A      6.001524  
    1033A      6.021485  1034A      6.034496  1035A      6.041328  
    1036A      6.054877  1037A      6.065316  1038A      6.069364  
    1039A      6.094071  1040A      6.104358  1041A      6.116721  
    1042A      6.141245  1043A      6.144177  1044A      6.166711  
    1045A      6.168205  1046A      6.185883  1047A      6.199094  
    1048A      6.213213  1049A      6.223590  1050A      6.238492  
    1051A      6.241711  1052A      6.252748  1053A      6.261372  
    1054A      6.275061  1055A      6.284617  1056A      6.294475  
    1057A      6.300464  1058A      6.317875  1059A      6.350509  
    1060A      6.360839  1061A      6.383114  1062A      6.396571  
    1063A      6.422827  1064A      6.436872  1065A      6.465253  
    1066A      6.479596  1067A      6.497158  1068A      6.498965  
    1069A      6.532761  1070A      6.542172  1071A      6.549444  
    1072A      6.567917  1073A      6.575057  1074A      6.578825  
    1075A      6.592176  1076A      6.611278  1077A      6.616967  
    1078A      6.629058  1079A      6.646357  1080A      6.660076  
    1081A      6.680858  1082A      6.696960  1083A      6.734509  
    1084A      6.741337  1085A      6.756816  1086A      6.766186  
    1087A      6.777936  1088A      6.786480  1089A      6.796432  
    1090A      6.814536  1091A      6.821606  1092A      6.833173  
    1093A      6.847688  1094A      6.852834  1095A      6.863268  
    1096A      6.883344  1097A      6.912427  1098A      6.943487  
    1099A      6.956511  1100A      6.961644  1101A      6.980683  
    1102A      7.005400  1103A      7.008662  1104A      7.029915  
    1105A      7.032997  1106A      7.065703  1107A      7.073895  
    1108A      7.085293  1109A      7.089765  1110A      7.118142  
    1111A      7.138935  1112A      7.156554  1113A      7.192591  
    1114A      7.237270  1115A      7.248599  1116A      7.256164  
    1117A      7.271782  1118A      7.292289  1119A      7.319599  
    1120A      7.333082  1121A      7.343380  1122A      7.382345  
    1123A      7.396020  1124A      7.424843  1125A      7.450504  
    1126A      7.472103  1127A      7.483290  1128A      7.495388  
    1129A      7.523311  1130A      7.530331  1131A      7.538667  
    1132A      7.565627  1133A      7.589485  1134A      7.608565  
    1135A      7.626181  1136A      7.646367  1137A      7.656535  
    1138A      7.681139  1139A      7.696428  1140A      7.713878  
    1141A      7.728213  1142A      7.736285  1143A      7.750044  
    1144A      7.807110  1145A      7.816965  1146A      7.821374  
    1147A      7.832994  1148A      7.841609  1149A      7.848547  
    1150A      7.865593  1151A      7.881024  1152A      7.893103  
    1153A      7.931718  1154A      7.951790  1155A      7.972439  
    1156A      7.974918  1157A      7.989219  1158A      7.996757  
    1159A      8.012879  1160A      8.041512  1161A      8.060749  
    1162A      8.096997  1163A      8.104115  1164A      8.138794  
    1165A      8.176141  1166A      8.193119  1167A      8.277881  
    1168A      8.297225  1169A      8.308054  1170A      8.337275  
    1171A      8.409769  1172A      8.526799  1173A      8.548302  
    1174A      8.591539  1175A      8.730351  1176A      8.757886  
    1177A      8.816184  1178A      8.853008  1179A      8.863780  
    1180A      9.039391  1181A      9.099890  1182A      9.142839  
    1183A      9.285127  1184A      9.349082  1185A      9.403739  
    1186A      9.608866  1187A      9.672638  1188A      9.735556  
    1189A      9.777542  1190A      9.825200  1191A      9.961196  
    1192A      9.988057  1193A     10.024449  1194A     10.185770  
    1195A     10.299406  1196A     10.352758  1197A     10.459088  
    1198A     10.529539  1199A     10.623998  1200A     10.725650  
    1201A     11.152678  1202A     11.205459  1203A     11.301843  
    1204A     11.413336  1205A     11.469253  1206A     11.550408  
    1207A     11.740554  1208A     12.004971  1209A     12.015870  
    1210A     12.092631  1211A     12.138198  1212A     12.239314  
    1213A     12.297656  1214A     12.434866  1215A     12.552868  
    1216A     12.848221  1217A     13.037739  1218A     13.326167  
    1219A     13.627736  1220A     14.298773  1221A     16.263448  
    1222A     16.539316  1223A     16.736836  1224A     17.271124  
    1225A     18.085664  1226A     18.594144  1227A     19.252028  
    1228A     19.482660  1229A     20.500260  1230A     21.063556  
    1231A     21.691198  1232A     52.380249  1233A     52.710555  
    1234A     53.363960  1235A     54.253667  1236A     57.132613  
    1237A     59.770967  1238A     62.152030  1239A     62.342656  
    1240A     64.186581  1241A     66.012896  1242A     70.365768  

    Final Occupation by Irrep:
              A 
    DOCC [    39 ]

  @DF-RHF Final Energy:  -539.58713536636697

   => Energetics <=

    Nuclear Repulsion Energy =            593.7034317177428875
    One-Electron Energy =               -1912.8395797253174351
    Two-Electron Energy =                 779.5490126412075824
    Total Energy =                       -539.5871353663669652

Computation Completed


Properties will be evaluated at   0.000000,   0.000000,   0.000000 [a0]

Properties computed using the SCF density matrix

  Nuclear Dipole Moment: [e a0]
     X:   219.9304      Y:  -142.1257      Z:   -89.1946

  Electronic Dipole Moment: [e a0]
     X:  -219.8339      Y:   140.2692      Z:    91.2314

  Dipole Moment: [e a0]
     X:     0.0965      Y:    -1.8565      Z:     2.0368     Total:     2.7576

  Dipole Moment: [D]
     X:     0.2452      Y:    -4.7188      Z:     5.1771     Total:     7.0092


*** tstop() called on node155.bme.utexas.edu at Wed Jan 17 11:14:50 2024
Module time:
	user time   =    1464.56 seconds =      24.41 minutes
	system time =      13.68 seconds =       0.23 minutes
	total time  =        236 seconds =       3.93 minutes
Total time:
	user time   =    5494.26 seconds =      91.57 minutes
	system time =      69.02 seconds =       1.15 minutes
	total time  =        901 seconds =      15.02 minutes

*** tstart() called on node155.bme.utexas.edu
*** at Wed Jan 17 11:14:50 2024


  //>>>>>>>>>>>>>>>>>>>>>>>>>>>>>>>>>>>//
  //               DFMP2               //
  //<<<<<<<<<<<<<<<<<<<<<<<<<<<<<<<<<<<//

   => Loading Basis Set <=

    Name: (AUG-CC-PVTZ AUX)
    Role: RIFIT
    Keyword: DF_BASIS_MP2
    atoms 1, 5, 9, 11-12, 17, 21, 25, 27-28 entry N          line   206 file /opt/anaconda/envs/psi4v1.5/share/psi4/basis/aug-cc-pvtz-ri.gbs 
    atoms 2, 4, 14-16, 18, 20, 30-32        entry H          line    30 file /opt/anaconda/envs/psi4v1.5/share/psi4/basis/aug-cc-pvtz-ri.gbs 
    atoms 3, 6-7, 10, 13, 19, 22-23, 26, 29 entry C          line   148 file /opt/anaconda/envs/psi4v1.5/share/psi4/basis/aug-cc-pvtz-ri.gbs 
    atoms 8, 24                             entry O          line   264 file /opt/anaconda/envs/psi4v1.5/share/psi4/basis/aug-cc-pvtz-ri.gbs 

	 --------------------------------------------------------
	                          DF-MP2                         
	      2nd-Order Density-Fitted Moller-Plesset Theory     
	              RMP2 Wavefunction,   8 Threads             
	                                                         
	        Rob Parrish, Justin Turney, Andy Simmonett,      
	           Ed Hohenstein, and C. David Sherrill          
	 --------------------------------------------------------

   => Auxiliary Basis Set <=

  Basis Set: (AUG-CC-PVTZ AUX)
    Blend: AUG-CC-PVTZ-RI
    Number of shells: 756
    Number of basis functions: 2792
    Number of Cartesian functions: 3542
    Spherical Harmonics?: true
    Max angular momentum: 4

	 --------------------------------------------------------
	                 NBF =  1242, NAUX =  2792
	 --------------------------------------------------------
	   CLASS    FOCC     OCC    AOCC    AVIR     VIR    FVIR
	   PAIRS      11      39      28    1203    1203       0
	 --------------------------------------------------------

	 Will attempt to load fitting metric from file 97.

	-----------------------------------------------------------
	 ==================> DF-MP2 Energies <==================== 
	-----------------------------------------------------------
	 Reference Energy          =    -539.5871353663669652 [Eh]
	 Singles Energy            =      -0.0000000000000000 [Eh]
	 Same-Spin Energy          =      -0.5424456205759769 [Eh]
	 Opposite-Spin Energy      =      -1.4993355841479750 [Eh]
	 Correlation Energy        =      -2.0417812047239519 [Eh]
	 Total Energy              =    -541.6289165710909401 [Eh]
	-----------------------------------------------------------
	 ================> DF-SCS-MP2 Energies <================== 
	-----------------------------------------------------------
	 SCS Same-Spin Scale       =       0.3333333333333333 [-]
	 SCS Opposite-Spin Scale   =       1.2000000000000000 [-]
	 SCS Same-Spin Energy      =      -0.1808152068586590 [Eh]
	 SCS Opposite-Spin Energy  =      -1.7992027009775700 [Eh]
	 SCS Correlation Energy    =      -1.9800179078362290 [Eh]
	 SCS Total Energy          =    -541.5671532742031786 [Eh]
	-----------------------------------------------------------


*** tstop() called on node155.bme.utexas.edu at Wed Jan 17 11:16:04 2024
Module time:
	user time   =     263.41 seconds =       4.39 minutes
	system time =       7.42 seconds =       0.12 minutes
	total time  =         74 seconds =       1.23 minutes
Total time:
	user time   =    5757.68 seconds =      95.96 minutes
	system time =      76.44 seconds =       1.27 minutes
	total time  =        975 seconds =      16.25 minutes
  Constructing Basis Sets for SAPT...

   => Loading Basis Set <=

    Name: (AUG-CC-PVTZ AUX)
    Role: RIFIT
    Keyword: DF_BASIS_SAPT
    atoms 1, 5, 9, 11-12, 17, 21, 25, 27-28 entry N          line   206 file /opt/anaconda/envs/psi4v1.5/share/psi4/basis/aug-cc-pvtz-ri.gbs 
    atoms 2, 4, 14-16, 18, 20, 30-32        entry H          line    30 file /opt/anaconda/envs/psi4v1.5/share/psi4/basis/aug-cc-pvtz-ri.gbs 
    atoms 3, 6-7, 10, 13, 19, 22-23, 26, 29 entry C          line   148 file /opt/anaconda/envs/psi4v1.5/share/psi4/basis/aug-cc-pvtz-ri.gbs 
    atoms 8, 24                             entry O          line   264 file /opt/anaconda/envs/psi4v1.5/share/psi4/basis/aug-cc-pvtz-ri.gbs 


  //>>>>>>>>>>>>>>>>>>>>>>>>>>>>>>>>>>>//
  //           SAPT2+(3)DMP2           //
  //<<<<<<<<<<<<<<<<<<<<<<<<<<<<<<<<<<<//


*** tstart() called on node155.bme.utexas.edu
*** at Wed Jan 17 11:16:04 2024

      SAPT2+(3)  
    Ed Hohenstein
     6 June 2009

      Orbital Information
  --------------------------
    NSO        =      1242
    NMO        =      1242
    NRI        =      2792
    NOCC A     =        39
    NOCC B     =        39
    FOCC A     =        11
    FOCC B     =        11
    NVIR A     =      1203
    NVIR B     =      1203

    Estimated memory usage: 85153.8 MB

    Natural Orbital Cutoff:   1.000E-06
    Disp(T3) Truncation:            Yes
    CCD (vv|vv) Truncation:         Yes
    MBPT T2 Truncation:             Yes

    Monomer A: 664 virtual orbitals dropped
    Monomer B: 666 virtual orbitals dropped

    Elst10,r            =    -0.000198356742 [Eh]
    Exch10 (S^2)        =     0.010858466800 [Eh]
    Exch10              =     0.010862460082 [Eh]
    Ind20,r (A<-B)      =    -0.004142078239 [Eh]
    Ind20,r (B<-A)      =    -0.002414190722 [Eh]
    Ind20,r             =    -0.006556268961 [Eh]
    Exch-Ind20,r (A<-B) =     0.002375775472 [Eh]
    Exch-Ind20,r (B<-A) =     0.001914941654 [Eh]
    Exch-Ind20,r        =     0.004290717127 [Eh]
    Disp20              =    -0.023053156791 [Eh]
    Disp20 (NO)         =    -0.021639653589 [Eh]
    Exch-Disp20         =     0.001844543851 [Eh]
    Elst12,r            =    -0.001894240281 [Eh]
    Exch11              =     0.000240888116 [Eh]
    Exch12              =     0.000802651137 [Eh]
    Ind22               =    -0.000140493242 [Eh]
    Disp21              =     0.008047684848 [Eh]
    Disp22 (SDQ)        =    -0.001630429213 [Eh]

    (i =   1 of  28)       4918 seconds
    (i =   2 of  28)      10074 seconds
    (i =   3 of  28)      15315 seconds
    (i =   4 of  28)      20570 seconds
    (i =   5 of  28)      25975 seconds
    (i =   6 of  28)      31467 seconds
    (i =   7 of  28)      36741 seconds
    (i =   8 of  28)      42219 seconds
    (i =   9 of  28)      47204 seconds
    (i =  10 of  28)      51046 seconds
    (i =  11 of  28)      55041 seconds
    (i =  12 of  28)      59031 seconds
    (i =  13 of  28)      62897 seconds
    (i =  14 of  28)      66809 seconds
    (i =  15 of  28)      70809 seconds
    (i =  16 of  28)      74778 seconds
    (i =  17 of  28)      78614 seconds
    (i =  18 of  28)      82647 seconds
    (i =  19 of  28)      86993 seconds
    (i =  20 of  28)      91195 seconds
    (i =  21 of  28)      95490 seconds
    (i =  22 of  28)      99847 seconds
    (i =  23 of  28)     104097 seconds
    (i =  24 of  28)     108344 seconds
    (i =  25 of  28)     112702 seconds
    (i =  26 of  28)     116998 seconds
    (i =  27 of  28)     121209 seconds
    (i =  28 of  28)     125555 seconds

    Disp220 (T)         =    -0.002691433271 [Eh]

    (i =   1 of  28)       4256 seconds
    (i =   2 of  28)       8339 seconds
    (i =   3 of  28)      12603 seconds
    (i =   4 of  28)      16862 seconds
    (i =   5 of  28)      20980 seconds
    (i =   6 of  28)      25196 seconds
    (i =   7 of  28)      29465 seconds
    (i =   8 of  28)      33636 seconds
    (i =   9 of  28)      37771 seconds
    (i =  10 of  28)      41845 seconds
    (i =  11 of  28)      45923 seconds
    (i =  12 of  28)      50002 seconds
    (i =  13 of  28)      54018 seconds
    (i =  14 of  28)      57269 seconds
    (i =  15 of  28)      60454 seconds
    (i =  16 of  28)      63634 seconds
    (i =  17 of  28)      66475 seconds
    (i =  18 of  28)      69055 seconds
    (i =  19 of  28)      71673 seconds
    (i =  20 of  28)      74293 seconds
    (i =  21 of  28)      76875 seconds
    (i =  22 of  28)      79467 seconds
    (i =  23 of  28)      82072 seconds
    (i =  24 of  28)      84645 seconds
    (i =  25 of  28)      87269 seconds
    (i =  26 of  28)      89894 seconds
    (i =  27 of  28)      92518 seconds
    (i =  28 of  28)      95142 seconds

    Disp202 (T)         =    -0.002746286647 [Eh]

    Disp22 (T)          =    -0.005437719918 [Eh]

    Est. Disp220 (T)    =    -0.002867237821 [Eh]
    Est. Disp202 (T)    =    -0.002925674221 [Eh]

    Est. Disp22 (T)     =    -0.005792912042 [Eh]
    Elst13,r            =     0.000914491813 [Eh]
    Disp30              =     0.000505677414 [Eh]

    SAPT Results 
  --------------------------------------------------------------------------------------------------------
    Electrostatics                 -1.17810521 [mEh]      -0.73927218 [kcal/mol]      -3.09311480 [kJ/mol]
      Elst10,r                     -0.19835674 [mEh]      -0.12447073 [kcal/mol]      -0.52078555 [kJ/mol]
      Elst12,r                     -1.89424028 [mEh]      -1.18865372 [kcal/mol]      -4.97332717 [kJ/mol]
      Elst13,r                      0.91449181 [mEh]       0.57385228 [kcal/mol]       2.40099792 [kJ/mol]

    Exchange                       11.90599934 [mEh]       7.47112738 [kcal/mol]      31.25919695 [kJ/mol]
      Exch10                       10.86246008 [mEh]       6.81629661 [kcal/mol]      28.51938502 [kJ/mol]
      Exch10(S^2)                  10.85846680 [mEh]       6.81379079 [kcal/mol]      28.50890065 [kJ/mol]
      Exch11(S^2)                   0.24088812 [mEh]       0.15115958 [kcal/mol]       0.63245166 [kJ/mol]
      Exch12(S^2)                   0.80265114 [mEh]       0.50367119 [kcal/mol]       2.10736027 [kJ/mol]

    Induction                      -2.48700493 [mEh]      -1.56061915 [kcal/mol]      -6.52963054 [kJ/mol]
      Ind20,r                      -6.55626896 [mEh]      -4.11412089 [kcal/mol]     -17.21348179 [kJ/mol]
      Ind22                        -0.14049324 [mEh]      -0.08816084 [kcal/mol]      -0.36886496 [kJ/mol]
      Exch-Ind20,r                  4.29071713 [mEh]       2.69246565 [kcal/mol]      11.26527626 [kJ/mol]
      Exch-Ind22                    0.09194509 [mEh]       0.05769642 [kcal/mol]       0.24140181 [kJ/mol]
      delta HF,r (2)               -0.65699675 [mEh]      -0.41227168 [kcal/mol]      -1.72494472 [kJ/mol]
      delta MP2,r (2)               0.48409180 [mEh]       0.30377219 [kcal/mol]       1.27098285 [kJ/mol]

    Dispersion                    -20.07859193 [mEh]     -12.59950666 [kcal/mol]     -52.71633586 [kJ/mol]
      Disp20                      -23.05315679 [mEh]     -14.46607429 [kcal/mol]     -60.52605482 [kJ/mol]
      Disp30                        0.50567741 [mEh]       0.31731737 [kcal/mol]       1.32765587 [kJ/mol]
      Disp21                        8.04768485 [mEh]       5.04999848 [kcal/mol]      21.12919366 [kJ/mol]
      Disp22 (SDQ)                 -1.63042921 [mEh]      -1.02310978 [kcal/mol]      -4.28069131 [kJ/mol]
      Disp22 (T)                   -5.43771992 [mEh]      -3.41222076 [kcal/mol]     -14.27673168 [kJ/mol]
      Est. Disp22 (T)              -5.79291204 [mEh]      -3.63510719 [kcal/mol]     -15.20928847 [kJ/mol]
      Exch-Disp20                   1.84454385 [mEh]       1.15746874 [kcal/mol]       4.84284921 [kJ/mol]

  Total HF                          7.74155476 [mEh]       4.85789895 [kcal/mol]      20.32544922 [kJ/mol]
  Total SAPT0                     -13.46705818 [mEh]      -8.45070659 [kcal/mol]     -35.35775638 [kJ/mol]
  Total SAPT2                     -14.36630736 [mEh]      -9.01499397 [kcal/mol]     -37.71873477 [kJ/mol]
  Total SAPT2+                    -13.74196376 [mEh]      -8.62321245 [kcal/mol]     -36.07952089 [kJ/mol]
  Total SAPT2+(3)                 -12.32179454 [mEh]      -7.73204281 [kcal/mol]     -32.35086710 [kJ/mol]
  Total SAPT2+dMP2                -13.25787196 [mEh]      -8.31944026 [kcal/mol]     -34.80853804 [kJ/mol]
  Total SAPT2+(3)dMP2             -11.83770274 [mEh]      -7.42827061 [kcal/mol]     -31.07988425 [kJ/mol]

  Special recipe for scaled SAPT0 (see Manual):
    Electrostatics sSAPT0          -0.19835674 [mEh]      -0.12447073 [kcal/mol]      -0.52078555 [kJ/mol]
    Exchange sSAPT0                10.86246008 [mEh]       6.81629661 [kcal/mol]      28.51938502 [kJ/mol]
    Induction sSAPT0               -2.91781301 [mEh]      -1.83095531 [kcal/mol]      -7.66071700 [kJ/mol]
    Dispersion sSAPT0             -21.20657716 [mEh]     -13.30732807 [kcal/mol]     -55.67786066 [kJ/mol]
  Total sSAPT0                    -13.46028683 [mEh]      -8.44645750 [kcal/mol]     -35.33997819 [kJ/mol]
  --------------------------------------------------------------------------------------------------------

*** tstop() called on node155.bme.utexas.edu at Sat Jan 20 09:53:04 2024
Module time:
	user time   = 1546038.56 seconds =   25767.31 minutes
	system time =    3183.59 seconds =      53.06 minutes
	total time  =     254220 seconds =    4237.00 minutes
Total time:
	user time   = 1551796.36 seconds =   25863.27 minutes
	system time =    3260.03 seconds =      54.33 minutes
	total time  =     255195 seconds =    4253.25 minutes

    Psi4 stopped on: Saturday, 20 January 2024 09:53AM
    Psi4 wall time for execution: 2 days, 22:53:14.95

*** Psi4 exiting successfully. Buy a developer a beer!
