32
G-G.log	Energy: -676930.8374139
N          0.44004        1.02008        1.98154
H          0.91687        0.43438        2.65777
C          0.83715        2.24263        1.49517
H          1.71569        2.75110        1.87074
N          0.03406        2.70784        0.55046
C         -0.90878        1.71888        0.40295
C         -2.03282        1.65015       -0.49884
O         -2.46321        2.44294       -1.32205
N         -2.69445        0.38411       -0.31362
C         -2.39297       -0.56969        0.61888
N         -3.14383       -1.75395        0.57824
N         -1.39961       -0.48886        1.46593
C         -0.68012        0.65932        1.28294
H         -3.46279        0.24116       -0.96576
H         -4.12410       -1.61226        0.34287
H         -3.06889       -2.22476        1.47787
N          3.29655       -0.40125        0.58239
H          3.88094       -0.85709        1.27394
C          3.57697        0.74165       -0.13266
H          4.46670        1.32999        0.05382
N          2.66094        1.01462       -1.04743
C          1.75083       -0.01209       -0.92120
C          0.54429       -0.27240       -1.66684
O          0.00274        0.35095       -2.57256
N         -0.02957       -1.49643       -1.20551
C          0.40451       -2.27965       -0.16859
N         -0.33918       -3.42347        0.06546
N          1.49325       -2.03388        0.52441
C          2.12809       -0.91265        0.07479
H         -0.84906       -1.78798       -1.73379
H         -1.34358       -3.25564        0.05940
H         -0.03819       -3.86856        0.92749
