
    -----------------------------------------------------------------------
          Psi4: An Open-Source Ab Initio Electronic Structure Package
                               Psi4 1.5 release

                         Git: Rev {HEAD} e9f4d6d 


    D. G. A. Smith, L. A. Burns, A. C. Simmonett, R. M. Parrish,
    M. C. Schieber, R. Galvelis, P. Kraus, H. Kruse, R. Di Remigio,
    A. Alenaizan, A. M. James, S. Lehtola, J. P. Misiewicz, M. Scheurer,
    R. A. Shaw, J. B. Schriber, Y. Xie, Z. L. Glick, D. A. Sirianni,
    J. S. O'Brien, J. M. Waldrop, A. Kumar, E. G. Hohenstein,
    B. P. Pritchard, B. R. Brooks, H. F. Schaefer III, A. Yu. Sokolov,
    K. Patkowski, A. E. DePrince III, U. Bozkaya, R. A. King,
    F. A. Evangelista, J. M. Turney, T. D. Crawford, C. D. Sherrill,
    J. Chem. Phys. 152(18) 184108 (2020). https://doi.org/10.1063/5.0006002

                            Additional Code Authors
    E. T. Seidl, C. L. Janssen, E. F. Valeev, M. L. Leininger,
    J. F. Gonthier, R. M. Richard, H. R. McAlexander, M. Saitow, X. Wang,
    P. Verma, M. H. Lechner, and A. Jiang

             Previous Authors, Complete List of Code Contributors,
                       and Citations for Specific Modules
    https://github.com/psi4/psi4/blob/master/codemeta.json
    https://github.com/psi4/psi4/graphs/contributors
    http://psicode.org/psi4manual/master/introduction.html#citing-psifour

    -----------------------------------------------------------------------


    Psi4 started on: Wednesday, 17 January 2024 10:59AM

    Process ID: 3096735
    Host:       node158.bme.utexas.edu
    PSIDATADIR: /opt/anaconda/envs/psi4v1.5/share/psi4
    Memory:     500.0 MiB
    Threads:    8
    
  ==> Input File <==

--------------------------------------------------------------------------
memory 90GB

molecule {
0 1
N 0.44004 1.02008 1.98154
H 0.91687 0.43438 2.65777
C 0.83715 2.24263 1.49517
H 1.71569 2.7511 1.87074
N 0.03406 2.70784 0.55046
C -0.90878 1.71888 0.40295
C -2.03282 1.65015 -0.49884
O -2.46321 2.44294 -1.32205
N -2.69445 0.38411 -0.31362
C -2.39297 -0.56969 0.61888
N -3.14383 -1.75395 0.57824
N -1.39961 -0.48886 1.46593
C -0.68012 0.65932 1.28294
H -3.46279 0.24116 -0.96576
H -4.1241 -1.61226 0.34287
H -3.06889 -2.22476 1.47787
--
0 1
N 3.43415621875 -0.48489671875 0.5276650937499999
H 4.01854621875 -0.94073671875 1.2192150937500001
C 3.7145762187500004 0.6580032812500001 -0.18738490624999998
H 4.604306218750001 1.24634328125 -0.0009049062499999969
N 2.7985462187500003 0.93097328125 -1.10215490625
C 1.8884362187500001 -0.09573671875000002 -0.9759249062500001
C 0.6818962187500001 -0.35604671875 -1.72156490625
O 0.14034621875 0.26730328124999997 -2.6272849062500003
N 0.10803621875000001 -1.58007671875 -1.26023490625
C 0.5421162187499999 -2.36329671875 -0.22331490625
N -0.20157378124999997 -3.50711671875 0.010735093750000008
N 1.63085621875 -2.1175267187499998 0.46968509375000006
C 2.2656962187499996 -0.99629671875 0.02006509375
H -0.71145378125 -1.87162671875 -1.7885149062499999
H -1.20597378125 -3.33928671875 0.004675093750000005
H 0.09941621875000001 -3.95220671875 0.87276509375
 units angstrom
 no_reorient
 symmetry c1
}
set
 {scf_type DF
 basis aug-cc-pvtz
 freeze_core True
 guess SAD
}
energy('sapt2+(3)dmp2')
--------------------------------------------------------------------------

  Memory set to  83.819 GiB by Python driver.

Scratch directory: /tmp/
   => Loading Basis Set <=

    Name: AUG-CC-PVTZ
    Role: ORBITAL
    Keyword: BASIS
    atoms 1, 5, 9, 11-12, 17, 21, 25, 27-28 entry N          line   285 file /opt/anaconda/envs/psi4v1.5/share/psi4/basis/aug-cc-pvtz.gbs 
    atoms 2, 4, 14-16, 18, 20, 30-32        entry H          line    40 file /opt/anaconda/envs/psi4v1.5/share/psi4/basis/aug-cc-pvtz.gbs 
    atoms 3, 6-7, 10, 13, 19, 22-23, 26, 29 entry C          line   239 file /opt/anaconda/envs/psi4v1.5/share/psi4/basis/aug-cc-pvtz.gbs 
    atoms 8, 24                             entry O          line   331 file /opt/anaconda/envs/psi4v1.5/share/psi4/basis/aug-cc-pvtz.gbs 

   => Loading Basis Set <=

    Name: AUG-CC-PVTZ
    Role: ORBITAL
    Keyword: BASIS
    atoms 1, 5, 9, 11-12, 17, 21, 25, 27-28 entry N          line   285 file /opt/anaconda/envs/psi4v1.5/share/psi4/basis/aug-cc-pvtz.gbs 
    atoms 2, 4, 14-16, 18, 20, 30-32        entry H          line    40 file /opt/anaconda/envs/psi4v1.5/share/psi4/basis/aug-cc-pvtz.gbs 
    atoms 3, 6-7, 10, 13, 19, 22-23, 26, 29 entry C          line   239 file /opt/anaconda/envs/psi4v1.5/share/psi4/basis/aug-cc-pvtz.gbs 
    atoms 8, 24                             entry O          line   331 file /opt/anaconda/envs/psi4v1.5/share/psi4/basis/aug-cc-pvtz.gbs 


  //>>>>>>>>>>>>>>>>>>>>>>>>>>>>>>>>>>>//
  //              Dimer HF             //
  //<<<<<<<<<<<<<<<<<<<<<<<<<<<<<<<<<<<//


*** tstart() called on node158.bme.utexas.edu
*** at Wed Jan 17 10:59:49 2024

   => Loading Basis Set <=

    Name: AUG-CC-PVTZ
    Role: ORBITAL
    Keyword: BASIS
    atoms 1, 5, 9, 11-12, 17, 21, 25, 27-28 entry N          line   285 file /opt/anaconda/envs/psi4v1.5/share/psi4/basis/aug-cc-pvtz.gbs 
    atoms 2, 4, 14-16, 18, 20, 30-32        entry H          line    40 file /opt/anaconda/envs/psi4v1.5/share/psi4/basis/aug-cc-pvtz.gbs 
    atoms 3, 6-7, 10, 13, 19, 22-23, 26, 29 entry C          line   239 file /opt/anaconda/envs/psi4v1.5/share/psi4/basis/aug-cc-pvtz.gbs 
    atoms 8, 24                             entry O          line   331 file /opt/anaconda/envs/psi4v1.5/share/psi4/basis/aug-cc-pvtz.gbs 


         ---------------------------------------------------------
                                   SCF
               by Justin Turney, Rob Parrish, Andy Simmonett
                          and Daniel G. A. Smith
                              RHF Reference
                        8 Threads,  85830 MiB Core
         ---------------------------------------------------------

  ==> Geometry <==

    Molecular point group: c1
    Full point group: C1

    Geometry (in Angstrom), charge = 0, multiplicity = 1:

       Center              X                  Y                   Z               Mass       
    ------------   -----------------  -----------------  -----------------  -----------------
         N            0.364930203108     1.032930989720     2.028392009955    14.003074004430
         H            0.841760203108     0.447230989720     2.704622009955     1.007825032230
         C            0.762040203108     2.255480989720     1.542022009955    12.000000000000
         H            1.640580203108     2.763950989720     1.917592009955     1.007825032230
         N           -0.041049796892     2.720690989720     0.597312009955    14.003074004430
         C           -0.983889796892     1.731730989720     0.449802009955    12.000000000000
         C           -2.107929796892     1.663000989720    -0.451987990045    12.000000000000
         O           -2.538319796892     2.455790989720    -1.275197990045    15.994914619570
         N           -2.769559796892     0.396960989720    -0.266767990045    14.003074004430
         C           -2.468079796892    -0.556839010280     0.665732009955    12.000000000000
         N           -3.218939796892    -1.741099010280     0.625092009955    14.003074004430
         N           -1.474719796892    -0.476009010280     1.512782009955    14.003074004430
         C           -0.755229796892     0.672170989720     1.329792009955    12.000000000000
         H           -3.537899796892     0.254010989720    -0.918907990045     1.007825032230
         H           -4.199209796892    -1.599409010280     0.389722009955     1.007825032230
         H           -3.143999796892    -2.211909010280     1.524722009955     1.007825032230
         N            3.359046421858    -0.472045729030     0.574517103705    14.003074004430
         H            3.943436421858    -0.927885729030     1.266067103705     1.007825032230
         C            3.639466421858     0.670854270970    -0.140532896295    12.000000000000
         H            4.529196421858     1.259194270970     0.045947103705     1.007825032230
         N            2.723436421858     0.943824270970    -1.055302896295    14.003074004430
         C            1.813326421858    -0.082885729030    -0.929072896295    12.000000000000
         C            0.606786421858    -0.343195729030    -1.674712896295    12.000000000000
         O            0.065236421858     0.280154270970    -2.580432896295    15.994914619570
         N            0.032926421858    -1.567225729030    -1.213382896295    14.003074004430
         C            0.467006421858    -2.350445729030    -0.176462896295    12.000000000000
         N           -0.276683578142    -3.494265729030     0.057587103705    14.003074004430
         N            1.555746421858    -2.104675729030     0.516537103705    14.003074004430
         C            2.190586421858    -0.983445729030     0.066917103705    12.000000000000
         H           -0.786563578142    -1.858775729030    -1.741662896295     1.007825032230
         H           -1.281083578142    -3.326435729030     0.051527103705     1.007825032230
         H            0.024306421858    -3.939355729030     0.919617103705     1.007825032230

  Running in c1 symmetry.

  Rotational constants: A =      0.01393  B =      0.01057  C =      0.00841 [cm^-1]
  Rotational constants: A =    417.50108  B =    316.84298  C =    252.26894 [MHz]
  Nuclear repulsion = 1911.017804020239737

  Charge       = 0
  Multiplicity = 1
  Electrons    = 156
  Nalpha       = 78
  Nbeta        = 78

  ==> Algorithm <==

  SCF Algorithm Type is DF.
  DIIS enabled.
  MOM disabled.
  Fractional occupation disabled.
  Guess Type is SAD.
  Energy threshold   = 1.00e-08
  Density threshold  = 1.00e-08
  Integral threshold = 1.00e-12

  ==> Primary Basis <==

  Basis Set: AUG-CC-PVTZ
    Blend: AUG-CC-PVTZ
    Number of shells: 398
    Number of basis functions: 1242
    Number of Cartesian functions: 1460
    Spherical Harmonics?: true
    Max angular momentum: 3

   => Loading Basis Set <=

    Name: (AUG-CC-PVTZ AUX)
    Role: JKFIT
    Keyword: DF_BASIS_SCF
    atoms 1, 5, 9, 11-12, 17, 21, 25, 27-28 entry N          line   224 file /opt/anaconda/envs/psi4v1.5/share/psi4/basis/aug-cc-pvtz-jkfit.gbs 
    atoms 2, 4, 14-16, 18, 20, 30-32        entry H          line    70 file /opt/anaconda/envs/psi4v1.5/share/psi4/basis/aug-cc-pvtz-jkfit.gbs 
    atoms 3, 6-7, 10, 13, 19, 22-23, 26, 29 entry C          line   162 file /opt/anaconda/envs/psi4v1.5/share/psi4/basis/aug-cc-pvtz-jkfit.gbs 
    atoms 8, 24                             entry O          line   286 file /opt/anaconda/envs/psi4v1.5/share/psi4/basis/aug-cc-pvtz-jkfit.gbs 

  ==> Integral Setup <==

  ==> DiskDFJK: Density-Fitted J/K Matrices <==

    J tasked:                  Yes
    K tasked:                  Yes
    wK tasked:                  No
    OpenMP threads:              8
    Integrals threads:           8
    Memory [MiB]:            64373
    Algorithm:                Core
    Integral Cache:           SAVE
    Schwarz Cutoff:          1E-12
    Fitting Condition:       1E-10

   => Auxiliary Basis Set <=

  Basis Set: (AUG-CC-PVTZ AUX)
    Blend: AUG-CC-PVTZ-JKFIT
    Number of shells: 800
    Number of basis functions: 2748
    Number of Cartesian functions: 3432
    Spherical Harmonics?: true
    Max angular momentum: 4

  Minimum eigenvalue in the overlap matrix is 6.8532911317E-07.
  Reciprocal condition number of the overlap matrix is 2.8195578179E-08.
    Using symmetric orthogonalization.

  ==> Pre-Iterations <==

  SCF Guess: Superposition of Atomic Densities via on-the-fly atomic UHF (no occupation information).

   -------------------------
    Irrep   Nso     Nmo    
   -------------------------
     A       1242    1242 
   -------------------------
    Total    1242    1242
   -------------------------

  ==> Iterations <==

                           Total Energy        Delta E     RMS |[F,P]|

   @DF-RHF iter SAD: -1078.92120506955462   -1.07892e+03   0.00000e+00 
   @DF-RHF iter   1: -1078.53668210489104    3.84523e-01   9.05386e-04 DIIS
   @DF-RHF iter   2: -1078.97527374065703   -4.38592e-01   5.54663e-04 DIIS
   @DF-RHF iter   3: -1079.14776088135841   -1.72487e-01   1.20855e-04 DIIS
   @DF-RHF iter   4: -1079.15928401048586   -1.15231e-02   5.03119e-05 DIIS
   @DF-RHF iter   5: -1079.16157771932035   -2.29371e-03   1.12335e-05 DIIS
   @DF-RHF iter   6: -1079.16180236003993   -2.24641e-04   6.16474e-06 DIIS
   @DF-RHF iter   7: -1079.16187375093659   -7.13909e-05   2.46920e-06 DIIS
   @DF-RHF iter   8: -1079.16188637739651   -1.26265e-05   9.50758e-07 DIIS
   @DF-RHF iter   9: -1079.16188821006972   -1.83267e-06   3.72473e-07 DIIS
   @DF-RHF iter  10: -1079.16188848686352   -2.76794e-07   1.56876e-07 DIIS
   @DF-RHF iter  11: -1079.16188853605695   -4.91934e-08   6.44919e-08 DIIS
   @DF-RHF iter  12: -1079.16188854422398   -8.16704e-09   2.20488e-08 DIIS
   @DF-RHF iter  13: -1079.16188854528718   -1.06320e-09   8.82075e-09 DIIS
  Energy and wave function converged.


  ==> Post-Iterations <==

    Orbital Energies [Eh]
    ---------------------

    Doubly Occupied:                                                      

       1A    -20.521569     2A    -20.520252     3A    -15.636875  
       4A    -15.634574     5A    -15.633111     6A    -15.628088  
       7A    -15.627673     8A    -15.606218     9A    -15.577962  
      10A    -15.571055    11A    -15.564969    12A    -15.558717  
      13A    -11.403198    14A    -11.395377    15A    -11.365558  
      16A    -11.364540    17A    -11.326530    18A    -11.324290  
      19A    -11.313174    20A    -11.309598    21A    -11.250021  
      22A    -11.249765    23A     -1.393831    24A     -1.390114  
      25A     -1.359884    26A     -1.358343    27A     -1.338472  
      28A     -1.332966    29A     -1.228114    30A     -1.220191  
      31A     -1.216854    32A     -1.216508    33A     -1.177496  
      34A     -1.175789    35A     -1.030903    36A     -1.028806  
      37A     -0.905706    38A     -0.905147    39A     -0.886929  
      40A     -0.882081    41A     -0.844616    42A     -0.842173  
      43A     -0.802244    44A     -0.795696    45A     -0.740689  
      46A     -0.738464    47A     -0.731101    48A     -0.726021  
      49A     -0.703711    50A     -0.696771    51A     -0.675382  
      52A     -0.673165    53A     -0.666569    54A     -0.645213  
      55A     -0.633226    56A     -0.629716    57A     -0.612511  
      58A     -0.610766    59A     -0.604332    60A     -0.599531  
      61A     -0.596414    62A     -0.589988    63A     -0.555298  
      64A     -0.539290    65A     -0.501078    66A     -0.498014  
      67A     -0.477192    68A     -0.458879    69A     -0.440973  
      70A     -0.439927    71A     -0.433487    72A     -0.430365  
      73A     -0.429378    74A     -0.428944    75A     -0.412977  
      76A     -0.406732    77A     -0.308361    78A     -0.294194  

    Virtual:                                                              

      79A      0.008023    80A      0.014431    81A      0.025443  
      82A      0.029799    83A      0.035677    84A      0.037740  
      85A      0.048320    86A      0.049979    87A      0.055206  
      88A      0.061765    89A      0.065310    90A      0.073335  
      91A      0.080917    92A      0.084089    93A      0.084755  
      94A      0.091798    95A      0.093908    96A      0.097311  
      97A      0.100741    98A      0.102487    99A      0.106122  
     100A      0.109824   101A      0.113124   102A      0.113728  
     103A      0.115596   104A      0.119921   105A      0.120973  
     106A      0.123117   107A      0.126670   108A      0.130922  
     109A      0.132587   110A      0.135326   111A      0.136275  
     112A      0.139275   113A      0.142460   114A      0.145194  
     115A      0.146259   116A      0.148353   117A      0.152975  
     118A      0.153772   119A      0.156270   120A      0.158328  
     121A      0.164602   122A      0.172137   123A      0.172796  
     124A      0.178250   125A      0.180918   126A      0.183268  
     127A      0.184518   128A      0.187416   129A      0.192605  
     130A      0.194790   131A      0.198505   132A      0.203972  
     133A      0.207704   134A      0.210520   135A      0.211135  
     136A      0.215119   137A      0.216540   138A      0.218886  
     139A      0.223525   140A      0.227068   141A      0.230777  
     142A      0.231398   143A      0.231822   144A      0.236329  
     145A      0.241153   146A      0.244693   147A      0.248422  
     148A      0.252443   149A      0.255766   150A      0.258849  
     151A      0.260337   152A      0.264405   153A      0.266547  
     154A      0.268800   155A      0.271869   156A      0.278259  
     157A      0.280672   158A      0.283032   159A      0.285173  
     160A      0.286614   161A      0.288489   162A      0.294520  
     163A      0.295676   164A      0.299233   165A      0.302426  
     166A      0.306336   167A      0.308985   168A      0.312165  
     169A      0.313240   170A      0.319276   171A      0.321171  
     172A      0.322647   173A      0.328219   174A      0.329381  
     175A      0.333334   176A      0.336124   177A      0.340127  
     178A      0.341835   179A      0.346712   180A      0.349779  
     181A      0.351801   182A      0.353920   183A      0.356703  
     184A      0.363569   185A      0.366599   186A      0.368182  
     187A      0.369572   188A      0.372059   189A      0.374700  
     190A      0.377007   191A      0.383087   192A      0.385130  
     193A      0.388392   194A      0.390374   195A      0.393331  
     196A      0.397275   197A      0.401938   198A      0.402690  
     199A      0.404068   200A      0.408681   201A      0.411569  
     202A      0.412223   203A      0.417168   204A      0.419820  
     205A      0.423812   206A      0.425778   207A      0.428082  
     208A      0.429725   209A      0.432731   210A      0.435065  
     211A      0.440338   212A      0.442178   213A      0.444080  
     214A      0.450329   215A      0.455913   216A      0.458946  
     217A      0.461183   218A      0.462691   219A      0.468814  
     220A      0.472498   221A      0.474666   222A      0.477275  
     223A      0.478878   224A      0.480854   225A      0.487301  
     226A      0.489272   227A      0.491619   228A      0.494410  
     229A      0.495749   230A      0.499956   231A      0.501433  
     232A      0.505967   233A      0.506610   234A      0.511885  
     235A      0.513954   236A      0.515949   237A      0.520687  
     238A      0.522580   239A      0.525600   240A      0.528679  
     241A      0.533833   242A      0.537309   243A      0.538231  
     244A      0.542588   245A      0.547081   246A      0.549203  
     247A      0.551872   248A      0.555052   249A      0.558574  
     250A      0.561800   251A      0.567683   252A      0.571157  
     253A      0.574167   254A      0.577120   255A      0.578965  
     256A      0.580200   257A      0.585511   258A      0.588727  
     259A      0.594356   260A      0.600374   261A      0.602214  
     262A      0.606461   263A      0.609984   264A      0.611184  
     265A      0.613632   266A      0.620035   267A      0.624408  
     268A      0.628186   269A      0.630373   270A      0.632258  
     271A      0.635838   272A      0.639215   273A      0.639393  
     274A      0.641935   275A      0.647177   276A      0.649054  
     277A      0.652524   278A      0.656323   279A      0.671237  
     280A      0.673159   281A      0.675034   282A      0.679838  
     283A      0.683524   284A      0.689386   285A      0.693883  
     286A      0.695656   287A      0.700888   288A      0.704732  
     289A      0.709247   290A      0.711497   291A      0.713641  
     292A      0.719664   293A      0.725377   294A      0.727208  
     295A      0.731467   296A      0.733084   297A      0.740952  
     298A      0.743655   299A      0.746464   300A      0.747898  
     301A      0.755224   302A      0.756025   303A      0.758375  
     304A      0.763272   305A      0.765541   306A      0.769764  
     307A      0.775100   308A      0.780630   309A      0.784963  
     310A      0.789246   311A      0.792319   312A      0.795732  
     313A      0.797631   314A      0.806311   315A      0.808055  
     316A      0.812286   317A      0.814254   318A      0.818492  
     319A      0.819207   320A      0.826159   321A      0.829816  
     322A      0.832496   323A      0.838398   324A      0.839373  
     325A      0.843130   326A      0.845349   327A      0.847137  
     328A      0.848154   329A      0.856038   330A      0.860895  
     331A      0.868578   332A      0.872236   333A      0.873761  
     334A      0.879278   335A      0.881983   336A      0.889798  
     337A      0.892471   338A      0.893126   339A      0.897294  
     340A      0.901120   341A      0.906168   342A      0.910369  
     343A      0.913772   344A      0.922568   345A      0.923061  
     346A      0.928450   347A      0.932147   348A      0.934669  
     349A      0.939077   350A      0.941985   351A      0.945307  
     352A      0.949475   353A      0.954326   354A      0.956600  
     355A      0.963499   356A      0.964341   357A      0.967690  
     358A      0.974989   359A      0.975898   360A      0.978538  
     361A      0.980030   362A      0.984096   363A      0.988495  
     364A      0.993105   365A      0.996249   366A      0.996919  
     367A      1.005024   368A      1.011725   369A      1.012409  
     370A      1.015119   371A      1.016369   372A      1.019885  
     373A      1.023122   374A      1.025990   375A      1.035266  
     376A      1.040043   377A      1.041507   378A      1.043916  
     379A      1.045029   380A      1.047702   381A      1.059744  
     382A      1.061694   383A      1.063844   384A      1.067580  
     385A      1.068287   386A      1.078788   387A      1.081242  
     388A      1.084684   389A      1.089316   390A      1.094734  
     391A      1.097400   392A      1.099754   393A      1.102746  
     394A      1.105455   395A      1.110987   396A      1.111391  
     397A      1.116477   398A      1.118437   399A      1.123440  
     400A      1.125917   401A      1.129993   402A      1.130914  
     403A      1.133464   404A      1.142470   405A      1.146965  
     406A      1.152275   407A      1.157475   408A      1.158694  
     409A      1.165969   410A      1.167386   411A      1.168150  
     412A      1.175316   413A      1.178505   414A      1.179659  
     415A      1.185293   416A      1.187945   417A      1.192627  
     418A      1.194205   419A      1.200120   420A      1.204361  
     421A      1.206966   422A      1.207501   423A      1.218644  
     424A      1.220582   425A      1.222508   426A      1.225326  
     427A      1.226625   428A      1.233306   429A      1.238704  
     430A      1.243520   431A      1.244364   432A      1.247347  
     433A      1.254863   434A      1.257032   435A      1.262472  
     436A      1.265663   437A      1.271240   438A      1.276491  
     439A      1.280921   440A      1.282009   441A      1.287161  
     442A      1.293168   443A      1.297686   444A      1.300783  
     445A      1.304505   446A      1.312685   447A      1.314627  
     448A      1.317402   449A      1.321381   450A      1.323622  
     451A      1.328914   452A      1.332460   453A      1.340297  
     454A      1.341845   455A      1.346226   456A      1.348995  
     457A      1.355086   458A      1.362162   459A      1.364737  
     460A      1.371615   461A      1.374246   462A      1.376619  
     463A      1.379679   464A      1.383806   465A      1.387164  
     466A      1.394883   467A      1.396477   468A      1.403298  
     469A      1.405595   470A      1.407731   471A      1.414348  
     472A      1.415561   473A      1.427817   474A      1.428950  
     475A      1.431557   476A      1.437655   477A      1.442047  
     478A      1.447638   479A      1.451566   480A      1.453887  
     481A      1.458659   482A      1.462017   483A      1.466039  
     484A      1.473906   485A      1.481408   486A      1.482264  
     487A      1.484761   488A      1.489602   489A      1.495751  
     490A      1.499917   491A      1.504636   492A      1.514862  
     493A      1.515893   494A      1.517660   495A      1.520978  
     496A      1.522600   497A      1.528003   498A      1.534834  
     499A      1.538079   500A      1.539294   501A      1.547112  
     502A      1.549907   503A      1.554935   504A      1.565136  
     505A      1.567937   506A      1.573583   507A      1.575547  
     508A      1.575944   509A      1.585108   510A      1.586760  
     511A      1.593905   512A      1.597779   513A      1.602548  
     514A      1.605035   515A      1.609714   516A      1.613039  
     517A      1.616350   518A      1.618148   519A      1.628978  
     520A      1.631623   521A      1.637265   522A      1.643637  
     523A      1.647257   524A      1.650807   525A      1.652008  
     526A      1.656719   527A      1.664009   528A      1.666794  
     529A      1.669141   530A      1.677885   531A      1.682043  
     532A      1.690794   533A      1.695253   534A      1.699225  
     535A      1.702014   536A      1.705724   537A      1.716196  
     538A      1.718595   539A      1.724021   540A      1.725906  
     541A      1.730848   542A      1.733562   543A      1.739270  
     544A      1.741552   545A      1.744715   546A      1.758445  
     547A      1.763573   548A      1.769023   549A      1.774994  
     550A      1.783638   551A      1.787882   552A      1.790347  
     553A      1.797431   554A      1.800300   555A      1.811650  
     556A      1.818505   557A      1.821408   558A      1.824953  
     559A      1.830869   560A      1.833508   561A      1.842872  
     562A      1.845466   563A      1.855370   564A      1.862088  
     565A      1.865846   566A      1.876056   567A      1.879548  
     568A      1.883036   569A      1.885325   570A      1.886016  
     571A      1.892079   572A      1.894697   573A      1.907108  
     574A      1.910385   575A      1.916550   576A      1.921867  
     577A      1.929860   578A      1.939712   579A      1.942994  
     580A      1.946674   581A      1.954016   582A      1.955663  
     583A      1.959077   584A      1.968428   585A      1.970211  
     586A      1.974247   587A      1.977996   588A      1.986735  
     589A      1.995658   590A      2.004216   591A      2.011555  
     592A      2.014772   593A      2.021269   594A      2.029556  
     595A      2.035827   596A      2.041607   597A      2.045497  
     598A      2.050814   599A      2.055634   600A      2.064464  
     601A      2.070578   602A      2.073883   603A      2.079401  
     604A      2.084399   605A      2.091490   606A      2.094015  
     607A      2.105745   608A      2.111591   609A      2.114787  
     610A      2.121573   611A      2.123861   612A      2.126633  
     613A      2.134517   614A      2.137328   615A      2.148924  
     616A      2.155829   617A      2.160297   618A      2.163662  
     619A      2.164854   620A      2.169756   621A      2.175867  
     622A      2.186307   623A      2.187135   624A      2.193822  
     625A      2.199103   626A      2.202921   627A      2.209887  
     628A      2.217275   629A      2.219212   630A      2.223508  
     631A      2.232552   632A      2.237331   633A      2.239553  
     634A      2.244550   635A      2.247858   636A      2.253140  
     637A      2.270155   638A      2.276775   639A      2.278689  
     640A      2.283843   641A      2.291955   642A      2.294877  
     643A      2.299613   644A      2.306766   645A      2.312330  
     646A      2.319143   647A      2.319586   648A      2.325624  
     649A      2.328411   650A      2.334327   651A      2.344132  
     652A      2.347907   653A      2.357039   654A      2.359112  
     655A      2.364020   656A      2.369951   657A      2.379828  
     658A      2.381665   659A      2.390384   660A      2.393037  
     661A      2.395538   662A      2.402116   663A      2.403336  
     664A      2.408662   665A      2.413663   666A      2.422401  
     667A      2.426554   668A      2.429581   669A      2.436204  
     670A      2.441964   671A      2.444261   672A      2.450851  
     673A      2.454914   674A      2.465385   675A      2.465891  
     676A      2.472305   677A      2.479924   678A      2.487030  
     679A      2.489965   680A      2.496487   681A      2.503257  
     682A      2.506098   683A      2.514233   684A      2.521462  
     685A      2.526970   686A      2.537249   687A      2.540293  
     688A      2.542111   689A      2.547052   690A      2.556210  
     691A      2.560085   692A      2.569154   693A      2.573267  
     694A      2.579820   695A      2.584611   696A      2.596076  
     697A      2.601907   698A      2.605662   699A      2.611252  
     700A      2.619640   701A      2.627859   702A      2.629911  
     703A      2.637506   704A      2.638979   705A      2.649470  
     706A      2.651912   707A      2.666362   708A      2.667947  
     709A      2.672935   710A      2.679822   711A      2.682470  
     712A      2.687550   713A      2.695813   714A      2.700647  
     715A      2.704274   716A      2.716609   717A      2.725308  
     718A      2.729338   719A      2.734035   720A      2.739970  
     721A      2.746002   722A      2.753060   723A      2.757923  
     724A      2.771196   725A      2.778284   726A      2.779360  
     727A      2.784172   728A      2.789397   729A      2.799653  
     730A      2.802582   731A      2.811309   732A      2.815336  
     733A      2.818865   734A      2.831141   735A      2.833385  
     736A      2.844956   737A      2.846555   738A      2.852443  
     739A      2.859203   740A      2.862585   741A      2.881240  
     742A      2.886347   743A      2.896827   744A      2.902943  
     745A      2.914466   746A      2.917098   747A      2.924819  
     748A      2.934561   749A      2.944311   750A      2.949818  
     751A      2.960443   752A      2.972664   753A      2.973947  
     754A      2.985053   755A      2.989142   756A      2.993441  
     757A      3.007417   758A      3.016623   759A      3.035449  
     760A      3.037631   761A      3.045251   762A      3.051288  
     763A      3.059711   764A      3.084469   765A      3.102283  
     766A      3.112531   767A      3.120112   768A      3.136536  
     769A      3.142917   770A      3.153268   771A      3.156129  
     772A      3.163093   773A      3.180411   774A      3.189185  
     775A      3.192399   776A      3.203410   777A      3.204372  
     778A      3.221475   779A      3.249136   780A      3.275638  
     781A      3.288831   782A      3.290314   783A      3.315165  
     784A      3.321644   785A      3.327510   786A      3.354964  
     787A      3.367000   788A      3.386067   789A      3.393800  
     790A      3.399250   791A      3.416871   792A      3.426248  
     793A      3.442018   794A      3.445529   795A      3.452991  
     796A      3.460767   797A      3.464277   798A      3.477925  
     799A      3.483499   800A      3.497259   801A      3.511963  
     802A      3.517075   803A      3.533063   804A      3.536265  
     805A      3.560823   806A      3.561932   807A      3.567162  
     808A      3.581992   809A      3.588395   810A      3.592354  
     811A      3.607272   812A      3.610094   813A      3.630649  
     814A      3.633563   815A      3.648447   816A      3.653308  
     817A      3.656632   818A      3.672934   819A      3.676008  
     820A      3.682956   821A      3.691197   822A      3.696928  
     823A      3.704559   824A      3.715724   825A      3.723309  
     826A      3.730411   827A      3.734123   828A      3.745322  
     829A      3.756688   830A      3.759943   831A      3.761209  
     832A      3.773682   833A      3.777418   834A      3.788874  
     835A      3.797929   836A      3.805383   837A      3.806760  
     838A      3.812880   839A      3.825611   840A      3.828292  
     841A      3.831780   842A      3.845990   843A      3.851744  
     844A      3.863833   845A      3.864973   846A      3.870790  
     847A      3.881125   848A      3.886325   849A      3.895606  
     850A      3.898438   851A      3.904873   852A      3.906620  
     853A      3.920921   854A      3.930125   855A      3.937592  
     856A      3.945078   857A      3.946877   858A      3.954063  
     859A      3.958955   860A      3.963652   861A      3.974283  
     862A      3.978206   863A      3.982493   864A      3.999557  
     865A      4.012862   866A      4.016677   867A      4.020199  
     868A      4.024679   869A      4.039020   870A      4.044658  
     871A      4.054505   872A      4.067991   873A      4.070718  
     874A      4.074565   875A      4.080508   876A      4.091959  
     877A      4.093827   878A      4.102390   879A      4.105191  
     880A      4.107464   881A      4.114546   882A      4.120367  
     883A      4.130704   884A      4.144286   885A      4.150535  
     886A      4.152458   887A      4.154999   888A      4.171941  
     889A      4.174135   890A      4.177079   891A      4.180192  
     892A      4.194904   893A      4.199176   894A      4.208682  
     895A      4.216035   896A      4.222193   897A      4.223667  
     898A      4.225607   899A      4.232908   900A      4.237725  
     901A      4.246914   902A      4.251280   903A      4.255797  
     904A      4.261956   905A      4.266420   906A      4.270407  
     907A      4.284534   908A      4.295223   909A      4.302395  
     910A      4.307443   911A      4.315321   912A      4.319852  
     913A      4.323859   914A      4.325378   915A      4.338410  
     916A      4.348744   917A      4.351326   918A      4.354609  
     919A      4.360687   920A      4.363867   921A      4.367034  
     922A      4.386773   923A      4.391866   924A      4.396341  
     925A      4.403955   926A      4.413136   927A      4.418494  
     928A      4.428589   929A      4.435733   930A      4.446503  
     931A      4.450408   932A      4.454779   933A      4.461998  
     934A      4.465898   935A      4.474542   936A      4.484473  
     937A      4.485408   938A      4.489490   939A      4.499603  
     940A      4.506593   941A      4.510567   942A      4.520140  
     943A      4.533686   944A      4.540269   945A      4.543627  
     946A      4.546276   947A      4.559422   948A      4.563449  
     949A      4.578609   950A      4.587082   951A      4.588906  
     952A      4.593798   953A      4.610473   954A      4.618834  
     955A      4.625802   956A      4.633558   957A      4.636561  
     958A      4.639435   959A      4.645335   960A      4.652233  
     961A      4.656649   962A      4.660363   963A      4.666819  
     964A      4.674909   965A      4.682666   966A      4.696227  
     967A      4.707269   968A      4.707923   969A      4.717136  
     970A      4.734218   971A      4.738425   972A      4.741870  
     973A      4.754358   974A      4.755504   975A      4.772083  
     976A      4.777039   977A      4.783872   978A      4.801801  
     979A      4.810800   980A      4.817930   981A      4.830361  
     982A      4.838013   983A      4.843868   984A      4.860074  
     985A      4.866429   986A      4.870377   987A      4.874108  
     988A      4.883805   989A      4.891285   990A      4.900899  
     991A      4.916615   992A      4.920628   993A      4.929981  
     994A      4.934670   995A      4.949763   996A      4.953215  
     997A      4.963306   998A      4.967408   999A      4.973969  
    1000A      4.988032  1001A      5.007117  1002A      5.024675  
    1003A      5.026890  1004A      5.037940  1005A      5.051987  
    1006A      5.063357  1007A      5.065213  1008A      5.078704  
    1009A      5.084621  1010A      5.099896  1011A      5.104333  
    1012A      5.112498  1013A      5.122584  1014A      5.127308  
    1015A      5.141210  1016A      5.152904  1017A      5.173818  
    1018A      5.179632  1019A      5.194273  1020A      5.207408  
    1021A      5.224776  1022A      5.235147  1023A      5.237071  
    1024A      5.251984  1025A      5.257105  1026A      5.262559  
    1027A      5.282426  1028A      5.290396  1029A      5.295812  
    1030A      5.306087  1031A      5.315068  1032A      5.318343  
    1033A      5.329885  1034A      5.344367  1035A      5.350798  
    1036A      5.358133  1037A      5.361944  1038A      5.366048  
    1039A      5.385947  1040A      5.397031  1041A      5.404896  
    1042A      5.413535  1043A      5.420185  1044A      5.436015  
    1045A      5.446532  1046A      5.447914  1047A      5.464107  
    1048A      5.474431  1049A      5.487589  1050A      5.499625  
    1051A      5.519361  1052A      5.529403  1053A      5.533482  
    1054A      5.540069  1055A      5.542006  1056A      5.552802  
    1057A      5.556751  1058A      5.565528  1059A      5.576567  
    1060A      5.583319  1061A      5.590810  1062A      5.598416  
    1063A      5.611092  1064A      5.614167  1065A      5.633848  
    1066A      5.640168  1067A      5.656996  1068A      5.667614  
    1069A      5.673066  1070A      5.677820  1071A      5.688442  
    1072A      5.691283  1073A      5.700416  1074A      5.712703  
    1075A      5.721872  1076A      5.726231  1077A      5.734425  
    1078A      5.740003  1079A      5.753140  1080A      5.759317  
    1081A      5.775969  1082A      5.782368  1083A      5.790646  
    1084A      5.794252  1085A      5.807361  1086A      5.818800  
    1087A      5.826217  1088A      5.839449  1089A      5.842245  
    1090A      5.857961  1091A      5.862990  1092A      5.876503  
    1093A      5.879522  1094A      5.890334  1095A      5.902578  
    1096A      5.908940  1097A      5.919734  1098A      5.929007  
    1099A      5.937919  1100A      5.939588  1101A      5.950470  
    1102A      5.957852  1103A      5.963835  1104A      5.969865  
    1105A      5.988671  1106A      5.993436  1107A      5.999359  
    1108A      6.004141  1109A      6.015495  1110A      6.032184  
    1111A      6.039756  1112A      6.049757  1113A      6.061015  
    1114A      6.068268  1115A      6.076349  1116A      6.087070  
    1117A      6.100061  1118A      6.118561  1119A      6.124438  
    1120A      6.140581  1121A      6.150416  1122A      6.154872  
    1123A      6.159786  1124A      6.177522  1125A      6.184758  
    1126A      6.195563  1127A      6.204726  1128A      6.214042  
    1129A      6.223132  1130A      6.232733  1131A      6.237500  
    1132A      6.256919  1133A      6.269104  1134A      6.275748  
    1135A      6.292589  1136A      6.296373  1137A      6.304352  
    1138A      6.344376  1139A      6.359314  1140A      6.363292  
    1141A      6.397205  1142A      6.403124  1143A      6.442202  
    1144A      6.480378  1145A      6.503590  1146A      6.511406  
    1147A      6.553779  1148A      6.559506  1149A      6.585223  
    1150A      6.592371  1151A      6.617981  1152A      6.628651  
    1153A      6.643867  1154A      6.648996  1155A      6.700420  
    1156A      6.707971  1157A      6.716958  1158A      6.732175  
    1159A      6.743606  1160A      6.750431  1161A      6.761220  
    1162A      6.775540  1163A      6.782341  1164A      6.796960  
    1165A      6.814996  1166A      6.818951  1167A      6.823184  
    1168A      6.847980  1169A      6.856992  1170A      6.871508  
    1171A      6.892123  1172A      6.911538  1173A      6.951344  
    1174A      6.963508  1175A      7.012109  1176A      7.031097  
    1177A      7.034396  1178A      7.042361  1179A      7.047937  
    1180A      7.082290  1181A      7.090560  1182A      7.098661  
    1183A      7.111452  1184A      7.122575  1185A      7.138916  
    1186A      7.164739  1187A      7.222055  1188A      7.238255  
    1189A      7.254570  1190A      7.273097  1191A      7.278027  
    1192A      7.303910  1193A      7.323497  1194A      7.340003  
    1195A      7.393091  1196A      7.404026  1197A      7.438408  
    1198A      7.447411  1199A      7.468337  1200A      7.490507  
    1201A      7.498265  1202A      7.511133  1203A      7.533997  
    1204A      7.560531  1205A      7.698112  1206A      7.722578  
    1207A      7.828169  1208A      7.829535  1209A      7.840752  
    1210A      7.843093  1211A      7.852800  1212A      7.862040  
    1213A      7.879128  1214A      7.923038  1215A      7.952137  
    1216A      8.001761  1217A      8.033692  1218A      8.070637  
    1219A      8.070899  1220A      8.113271  1221A     16.290153  
    1222A     16.382495  1223A     16.479398  1224A     16.602373  
    1225A     16.702556  1226A     16.822621  1227A     17.313141  
    1228A     17.347188  1229A     17.940448  1230A     18.145123  
    1231A     18.632409  1232A     18.692893  1233A     19.288666  
    1234A     19.347765  1235A     19.524142  1236A     19.715121  
    1237A     20.322612  1238A     20.629103  1239A     21.148514  
    1240A     21.282184  1241A     21.561480  1242A     21.857398  

    Final Occupation by Irrep:
              A 
    DOCC [    78 ]

  @DF-RHF Final Energy: -1079.16188854528718

   => Energetics <=

    Nuclear Repulsion Energy =           1911.0178040202397369
    One-Electron Energy =               -5273.0700905912053713
    Two-Electron Energy =                2282.8903980256782233
    Total Energy =                      -1079.1618885452871837

Computation Completed


Properties will be evaluated at   0.000000,   0.000000,   0.000000 [a0]

Properties computed using the SCF density matrix

  Nuclear Dipole Moment: [e a0]
     X:    -1.8589      Y:    -8.5409      Z:     5.7458

  Electronic Dipole Moment: [e a0]
     X:     1.6835      Y:     5.0334      Z:    -2.3639

  Dipole Moment: [e a0]
     X:    -0.1755      Y:    -3.5075      Z:     3.3819     Total:     4.8755

  Dipole Moment: [D]
     X:    -0.4461      Y:    -8.9151      Z:     8.5959     Total:    12.3923


*** tstop() called on node158.bme.utexas.edu at Wed Jan 17 11:04:27 2024
Module time:
	user time   =    1788.20 seconds =      29.80 minutes
	system time =      22.30 seconds =       0.37 minutes
	total time  =        278 seconds =       4.63 minutes
Total time:
	user time   =    1788.20 seconds =      29.80 minutes
	system time =      22.30 seconds =       0.37 minutes
	total time  =        278 seconds =       4.63 minutes

*** tstart() called on node158.bme.utexas.edu
*** at Wed Jan 17 11:04:27 2024


  //>>>>>>>>>>>>>>>>>>>>>>>>>>>>>>>>>>>//
  //               DFMP2               //
  //<<<<<<<<<<<<<<<<<<<<<<<<<<<<<<<<<<<//

   => Loading Basis Set <=

    Name: (AUG-CC-PVTZ AUX)
    Role: RIFIT
    Keyword: DF_BASIS_MP2
    atoms 1, 5, 9, 11-12, 17, 21, 25, 27-28 entry N          line   206 file /opt/anaconda/envs/psi4v1.5/share/psi4/basis/aug-cc-pvtz-ri.gbs 
    atoms 2, 4, 14-16, 18, 20, 30-32        entry H          line    30 file /opt/anaconda/envs/psi4v1.5/share/psi4/basis/aug-cc-pvtz-ri.gbs 
    atoms 3, 6-7, 10, 13, 19, 22-23, 26, 29 entry C          line   148 file /opt/anaconda/envs/psi4v1.5/share/psi4/basis/aug-cc-pvtz-ri.gbs 
    atoms 8, 24                             entry O          line   264 file /opt/anaconda/envs/psi4v1.5/share/psi4/basis/aug-cc-pvtz-ri.gbs 

	 --------------------------------------------------------
	                          DF-MP2                         
	      2nd-Order Density-Fitted Moller-Plesset Theory     
	              RMP2 Wavefunction,   8 Threads             
	                                                         
	        Rob Parrish, Justin Turney, Andy Simmonett,      
	           Ed Hohenstein, and C. David Sherrill          
	 --------------------------------------------------------

   => Auxiliary Basis Set <=

  Basis Set: (AUG-CC-PVTZ AUX)
    Blend: AUG-CC-PVTZ-RI
    Number of shells: 756
    Number of basis functions: 2792
    Number of Cartesian functions: 3542
    Spherical Harmonics?: true
    Max angular momentum: 4

	 --------------------------------------------------------
	                 NBF =  1242, NAUX =  2792
	 --------------------------------------------------------
	   CLASS    FOCC     OCC    AOCC    AVIR     VIR    FVIR
	   PAIRS      22      78      56    1164    1164       0
	 --------------------------------------------------------

	 Will save fitting metric to file 97.

	-----------------------------------------------------------
	 ==================> DF-MP2 Energies <==================== 
	-----------------------------------------------------------
	 Reference Energy          =   -1079.1618885452871837 [Eh]
	 Singles Energy            =      -0.0000000000000000 [Eh]
	 Same-Spin Energy          =      -1.0979624828925907 [Eh]
	 Opposite-Spin Energy      =      -3.0135401776366120 [Eh]
	 Correlation Energy        =      -4.1115026605292027 [Eh]
	 Total Energy              =   -1083.2733912058163241 [Eh]
	-----------------------------------------------------------
	 ================> DF-SCS-MP2 Energies <================== 
	-----------------------------------------------------------
	 SCS Same-Spin Scale       =       0.3333333333333333 [-]
	 SCS Opposite-Spin Scale   =       1.2000000000000000 [-]
	 SCS Same-Spin Energy      =      -0.3659874942975302 [Eh]
	 SCS Opposite-Spin Energy  =      -3.6162482131639342 [Eh]
	 SCS Correlation Energy    =      -3.9822357074614643 [Eh]
	 SCS Total Energy          =   -1083.1441242527487248 [Eh]
	-----------------------------------------------------------


*** tstop() called on node158.bme.utexas.edu at Wed Jan 17 11:05:32 2024
Module time:
	user time   =     396.75 seconds =       6.61 minutes
	system time =       7.39 seconds =       0.12 minutes
	total time  =         65 seconds =       1.08 minutes
Total time:
	user time   =    2184.95 seconds =      36.42 minutes
	system time =      29.69 seconds =       0.49 minutes
	total time  =        343 seconds =       5.72 minutes

  //>>>>>>>>>>>>>>>>>>>>>>>>>>>>>>>>>>>//
  //            Monomer A HF           //
  //<<<<<<<<<<<<<<<<<<<<<<<<<<<<<<<<<<<//


*** tstart() called on node158.bme.utexas.edu
*** at Wed Jan 17 11:05:32 2024

   => Loading Basis Set <=

    Name: AUG-CC-PVTZ
    Role: ORBITAL
    Keyword: BASIS
    atoms 1, 5, 9, 11-12, 17, 21, 25, 27-28 entry N          line   285 file /opt/anaconda/envs/psi4v1.5/share/psi4/basis/aug-cc-pvtz.gbs 
    atoms 2, 4, 14-16, 18, 20, 30-32        entry H          line    40 file /opt/anaconda/envs/psi4v1.5/share/psi4/basis/aug-cc-pvtz.gbs 
    atoms 3, 6-7, 10, 13, 19, 22-23, 26, 29 entry C          line   239 file /opt/anaconda/envs/psi4v1.5/share/psi4/basis/aug-cc-pvtz.gbs 
    atoms 8, 24                             entry O          line   331 file /opt/anaconda/envs/psi4v1.5/share/psi4/basis/aug-cc-pvtz.gbs 


         ---------------------------------------------------------
                                   SCF
               by Justin Turney, Rob Parrish, Andy Simmonett
                          and Daniel G. A. Smith
                              RHF Reference
                        8 Threads,  85830 MiB Core
         ---------------------------------------------------------

  ==> Geometry <==

    Molecular point group: c1
    Full point group: C1

    Geometry (in Angstrom), charge = 0, multiplicity = 1:

       Center              X                  Y                   Z               Mass       
    ------------   -----------------  -----------------  -----------------  -----------------
         N            0.364930203108     1.032930989720     2.028392009955    14.003074004430
         H            0.841760203108     0.447230989720     2.704622009955     1.007825032230
         C            0.762040203108     2.255480989720     1.542022009955    12.000000000000
         H            1.640580203108     2.763950989720     1.917592009955     1.007825032230
         N           -0.041049796892     2.720690989720     0.597312009955    14.003074004430
         C           -0.983889796892     1.731730989720     0.449802009955    12.000000000000
         C           -2.107929796892     1.663000989720    -0.451987990045    12.000000000000
         O           -2.538319796892     2.455790989720    -1.275197990045    15.994914619570
         N           -2.769559796892     0.396960989720    -0.266767990045    14.003074004430
         C           -2.468079796892    -0.556839010280     0.665732009955    12.000000000000
         N           -3.218939796892    -1.741099010280     0.625092009955    14.003074004430
         N           -1.474719796892    -0.476009010280     1.512782009955    14.003074004430
         C           -0.755229796892     0.672170989720     1.329792009955    12.000000000000
         H           -3.537899796892     0.254010989720    -0.918907990045     1.007825032230
         H           -4.199209796892    -1.599409010280     0.389722009955     1.007825032230
         H           -3.143999796892    -2.211909010280     1.524722009955     1.007825032230
      Gh(N)           3.359046421858    -0.472045729030     0.574517103705    14.003074004430
      Gh(H)           3.943436421858    -0.927885729030     1.266067103705     1.007825032230
      Gh(C)           3.639466421858     0.670854270970    -0.140532896295    12.000000000000
      Gh(H)           4.529196421858     1.259194270970     0.045947103705     1.007825032230
      Gh(N)           2.723436421858     0.943824270970    -1.055302896295    14.003074004430
      Gh(C)           1.813326421858    -0.082885729030    -0.929072896295    12.000000000000
      Gh(C)           0.606786421858    -0.343195729030    -1.674712896295    12.000000000000
      Gh(O)           0.065236421858     0.280154270970    -2.580432896295    15.994914619570
      Gh(N)           0.032926421858    -1.567225729030    -1.213382896295    14.003074004430
      Gh(C)           0.467006421858    -2.350445729030    -0.176462896295    12.000000000000
      Gh(N)          -0.276683578142    -3.494265729030     0.057587103705    14.003074004430
      Gh(N)           1.555746421858    -2.104675729030     0.516537103705    14.003074004430
      Gh(C)           2.190586421858    -0.983445729030     0.066917103705    12.000000000000
      Gh(H)          -0.786563578142    -1.858775729030    -1.741662896295     1.007825032230
      Gh(H)          -1.281083578142    -3.326435729030     0.051527103705     1.007825032230
      Gh(H)           0.024306421858    -3.939355729030     0.919617103705     1.007825032230

  Running in c1 symmetry.

  Rotational constants: A =      0.01393  B =      0.01057  C =      0.00841 [cm^-1]
  Rotational constants: A =    417.50108  B =    316.84298  C =    252.26894 [MHz]
  Nuclear repulsion =  593.296990359029792

  Charge       = 0
  Multiplicity = 1
  Electrons    = 78
  Nalpha       = 39
  Nbeta        = 39

  ==> Algorithm <==

  SCF Algorithm Type is DF.
  DIIS enabled.
  MOM disabled.
  Fractional occupation disabled.
  Guess Type is SAD.
  Energy threshold   = 1.00e-08
  Density threshold  = 1.00e-08
  Integral threshold = 1.00e-12

  ==> Primary Basis <==

  Basis Set: AUG-CC-PVTZ
    Blend: AUG-CC-PVTZ
    Number of shells: 398
    Number of basis functions: 1242
    Number of Cartesian functions: 1460
    Spherical Harmonics?: true
    Max angular momentum: 3

   => Loading Basis Set <=

    Name: (AUG-CC-PVTZ AUX)
    Role: JKFIT
    Keyword: DF_BASIS_SCF
    atoms 1, 5, 9, 11-12, 17, 21, 25, 27-28 entry N          line   224 file /opt/anaconda/envs/psi4v1.5/share/psi4/basis/aug-cc-pvtz-jkfit.gbs 
    atoms 2, 4, 14-16, 18, 20, 30-32        entry H          line    70 file /opt/anaconda/envs/psi4v1.5/share/psi4/basis/aug-cc-pvtz-jkfit.gbs 
    atoms 3, 6-7, 10, 13, 19, 22-23, 26, 29 entry C          line   162 file /opt/anaconda/envs/psi4v1.5/share/psi4/basis/aug-cc-pvtz-jkfit.gbs 
    atoms 8, 24                             entry O          line   286 file /opt/anaconda/envs/psi4v1.5/share/psi4/basis/aug-cc-pvtz-jkfit.gbs 

  ==> Integral Setup <==

  ==> DiskDFJK: Density-Fitted J/K Matrices <==

    J tasked:                  Yes
    K tasked:                  Yes
    wK tasked:                  No
    OpenMP threads:              8
    Integrals threads:           8
    Memory [MiB]:            64373
    Algorithm:                Core
    Integral Cache:           LOAD
    Schwarz Cutoff:          1E-12
    Fitting Condition:       1E-10

   => Auxiliary Basis Set <=

  Basis Set: (AUG-CC-PVTZ AUX)
    Blend: AUG-CC-PVTZ-JKFIT
    Number of shells: 800
    Number of basis functions: 2748
    Number of Cartesian functions: 3432
    Spherical Harmonics?: true
    Max angular momentum: 4

  Minimum eigenvalue in the overlap matrix is 6.8532911317E-07.
  Reciprocal condition number of the overlap matrix is 2.8195578179E-08.
    Using symmetric orthogonalization.

  ==> Pre-Iterations <==

  SCF Guess: Superposition of Atomic Densities via on-the-fly atomic UHF (no occupation information).

   -------------------------
    Irrep   Nso     Nmo    
   -------------------------
     A       1242    1242 
   -------------------------
    Total    1242    1242
   -------------------------

  ==> Iterations <==

                           Total Energy        Delta E     RMS |[F,P]|

   @DF-RHF iter SAD:  -539.28654073866869   -5.39287e+02   0.00000e+00 
   @DF-RHF iter   1:  -539.27877409807468    7.76664e-03   6.38653e-04 DIIS
   @DF-RHF iter   2:  -539.50155358965708   -2.22779e-01   3.77859e-04 DIIS
   @DF-RHF iter   3:  -539.58000964822622   -7.84561e-02   7.81311e-05 DIIS
   @DF-RHF iter   4:  -539.58505548579103   -5.04584e-03   3.25793e-05 DIIS
   @DF-RHF iter   5:  -539.58603330789731   -9.77822e-04   6.85765e-06 DIIS
   @DF-RHF iter   6:  -539.58613664680263   -1.03339e-04   3.55601e-06 DIIS
   @DF-RHF iter   7:  -539.58616304355940   -2.63968e-05   1.47881e-06 DIIS
   @DF-RHF iter   8:  -539.58616802595247   -4.98239e-06   5.24508e-07 DIIS
   @DF-RHF iter   9:  -539.58616861926600   -5.93314e-07   2.07473e-07 DIIS
   @DF-RHF iter  10:  -539.58616872354332   -1.04277e-07   8.12363e-08 DIIS
   @DF-RHF iter  11:  -539.58616873804010   -1.44968e-08   3.18200e-08 DIIS
   @DF-RHF iter  12:  -539.58616873999949   -1.95939e-09   1.17502e-08 DIIS
   @DF-RHF iter  13:  -539.58616874027211   -2.72621e-10   5.01964e-09 DIIS
  Energy and wave function converged.


  ==> Post-Iterations <==

    Orbital Energies [Eh]
    ---------------------

    Doubly Occupied:                                                      

       1A    -20.527579     2A    -15.637126     3A    -15.633305  
       4A    -15.612673     5A    -15.573068     6A    -15.566017  
       7A    -11.398219     8A    -11.370339     9A    -11.328525  
      10A    -11.314903    11A    -11.252640    12A     -1.395688  
      13A     -1.363304    14A     -1.335692    15A     -1.219843  
      16A     -1.216660    17A     -1.179719    18A     -1.031628  
      19A     -0.907007    20A     -0.883795    21A     -0.846249  
      22A     -0.798956    23A     -0.740857    24A     -0.725790  
      25A     -0.696165    26A     -0.670781    27A     -0.658139  
      28A     -0.631137    29A     -0.617415    30A     -0.602269  
      31A     -0.598107    32A     -0.550089    33A     -0.500499  
      34A     -0.464346    35A     -0.444673    36A     -0.435174  
      37A     -0.433906    38A     -0.413426    39A     -0.303322  

    Virtual:                                                              

      40A      0.013429    41A      0.018090    42A      0.029199  
      43A      0.030358    44A      0.038371    45A      0.040987  
      46A      0.046016    47A      0.053004    48A      0.055303  
      49A      0.062042    50A      0.064175    51A      0.069326  
      52A      0.073329    53A      0.075713    54A      0.081802  
      55A      0.083915    56A      0.087646    57A      0.090077  
      58A      0.098043    59A      0.100822    60A      0.102191  
      61A      0.103518    62A      0.106435    63A      0.109978  
      64A      0.114155    65A      0.117631    66A      0.120221  
      67A      0.121481    68A      0.125567    69A      0.128571  
      70A      0.129936    71A      0.132719    72A      0.136809  
      73A      0.137563    74A      0.140849    75A      0.144171  
      76A      0.148042    77A      0.150494    78A      0.152250  
      79A      0.154092    80A      0.160425    81A      0.164130  
      82A      0.167018    83A      0.170068    84A      0.172877  
      85A      0.174042    86A      0.178124    87A      0.180326  
      88A      0.182260    89A      0.184018    90A      0.185907  
      91A      0.193649    92A      0.198802    93A      0.202060  
      94A      0.203442    95A      0.208407    96A      0.209865  
      97A      0.213382    98A      0.216378    99A      0.219449  
     100A      0.221803   101A      0.224850   102A      0.227589  
     103A      0.228581   104A      0.230263   105A      0.235809  
     106A      0.238027   107A      0.240594   108A      0.246586  
     109A      0.249031   110A      0.251803   111A      0.254000  
     112A      0.258344   113A      0.259797   114A      0.265541  
     115A      0.266914   116A      0.272501   117A      0.274728  
     118A      0.278135   119A      0.280109   120A      0.282795  
     121A      0.284295   122A      0.287197   123A      0.294129  
     124A      0.295612   125A      0.298637   126A      0.300783  
     127A      0.304244   128A      0.305534   129A      0.308308  
     130A      0.312577   131A      0.313477   132A      0.316278  
     133A      0.317447   134A      0.321138   135A      0.325174  
     136A      0.332007   137A      0.333525   138A      0.337849  
     139A      0.341331   140A      0.345075   141A      0.346760  
     142A      0.355247   143A      0.356890   144A      0.361662  
     145A      0.365592   146A      0.368519   147A      0.371469  
     148A      0.372223   149A      0.375388   150A      0.377006  
     151A      0.382738   152A      0.388357   153A      0.391187  
     154A      0.395715   155A      0.397926   156A      0.400919  
     157A      0.403439   158A      0.405948   159A      0.412228  
     160A      0.413508   161A      0.416424   162A      0.422545  
     163A      0.423109   164A      0.427535   165A      0.428403  
     166A      0.430780   167A      0.435633   168A      0.436902  
     169A      0.441111   170A      0.442942   171A      0.446279  
     172A      0.449392   173A      0.453343   174A      0.455323  
     175A      0.457479   176A      0.461437   177A      0.464572  
     178A      0.466726   179A      0.470763   180A      0.472544  
     181A      0.475926   182A      0.479198   183A      0.482363  
     184A      0.484775   185A      0.488084   186A      0.490372  
     187A      0.495335   188A      0.497430   189A      0.501149  
     190A      0.507243   191A      0.508773   192A      0.510839  
     193A      0.512741   194A      0.516365   195A      0.519474  
     196A      0.520871   197A      0.524992   198A      0.529127  
     199A      0.529870   200A      0.532739   201A      0.540255  
     202A      0.540931   203A      0.544701   204A      0.549482  
     205A      0.551196   206A      0.557830   207A      0.561612  
     208A      0.563352   209A      0.568811   210A      0.572669  
     211A      0.574417   212A      0.576873   213A      0.578598  
     214A      0.584462   215A      0.587822   216A      0.594093  
     217A      0.594169   218A      0.596736   219A      0.604415  
     220A      0.607096   221A      0.608911   222A      0.614871  
     223A      0.617185   224A      0.617899   225A      0.624042  
     226A      0.629265   227A      0.632300   228A      0.637288  
     229A      0.641707   230A      0.643936   231A      0.646354  
     232A      0.651191   233A      0.656829   234A      0.659623  
     235A      0.662262   236A      0.669419   237A      0.671769  
     238A      0.679962   239A      0.684605   240A      0.686910  
     241A      0.692841   242A      0.701326   243A      0.702130  
     244A      0.706286   245A      0.706789   246A      0.711358  
     247A      0.717503   248A      0.719828   249A      0.724664  
     250A      0.731846   251A      0.734807   252A      0.742088  
     253A      0.745522   254A      0.749136   255A      0.754733  
     256A      0.758938   257A      0.762029   258A      0.768455  
     259A      0.770145   260A      0.772011   261A      0.777664  
     262A      0.779000   263A      0.783232   264A      0.787994  
     265A      0.790838   266A      0.792786   267A      0.799508  
     268A      0.801873   269A      0.805113   270A      0.808354  
     271A      0.810643   272A      0.819107   273A      0.822131  
     274A      0.825082   275A      0.830430   276A      0.832176  
     277A      0.834943   278A      0.838218   279A      0.842711  
     280A      0.844389   281A      0.848254   282A      0.851073  
     283A      0.852996   284A      0.859053   285A      0.866761  
     286A      0.869151   287A      0.876531   288A      0.879232  
     289A      0.883857   290A      0.890245   291A      0.893705  
     292A      0.896866   293A      0.899808   294A      0.904066  
     295A      0.907251   296A      0.910633   297A      0.911900  
     298A      0.913789   299A      0.920060   300A      0.922807  
     301A      0.928684   302A      0.930085   303A      0.938288  
     304A      0.941081   305A      0.941575   306A      0.944312  
     307A      0.949014   308A      0.954369   309A      0.954662  
     310A      0.961183   311A      0.963811   312A      0.969428  
     313A      0.971334   314A      0.973562   315A      0.980767  
     316A      0.981505   317A      0.986389   318A      0.988535  
     319A      0.992385   320A      0.998838   321A      1.000682  
     322A      1.002241   323A      1.005499   324A      1.011841  
     325A      1.013562   326A      1.014176   327A      1.021470  
     328A      1.024125   329A      1.027631   330A      1.031522  
     331A      1.038000   332A      1.039025   333A      1.044682  
     334A      1.049145   335A      1.054169   336A      1.056254  
     337A      1.060654   338A      1.061509   339A      1.069060  
     340A      1.070253   341A      1.075203   342A      1.078207  
     343A      1.085055   344A      1.087953   345A      1.096483  
     346A      1.098699   347A      1.099812   348A      1.108245  
     349A      1.109969   350A      1.113461   351A      1.118214  
     352A      1.121208   353A      1.124487   354A      1.129148  
     355A      1.134675   356A      1.138238   357A      1.143022  
     358A      1.145904   359A      1.151185   360A      1.153456  
     361A      1.159367   362A      1.162651   363A      1.166847  
     364A      1.170935   365A      1.174870   366A      1.181415  
     367A      1.182858   368A      1.188701   369A      1.193350  
     370A      1.196177   371A      1.200140   372A      1.202543  
     373A      1.204457   374A      1.208586   375A      1.213446  
     376A      1.215587   377A      1.221379   378A      1.225636  
     379A      1.228362   380A      1.231014   381A      1.238712  
     382A      1.241453   383A      1.248390   384A      1.251906  
     385A      1.254208   386A      1.259074   387A      1.261426  
     388A      1.265976   389A      1.269862   390A      1.270558  
     391A      1.277147   392A      1.287325   393A      1.291402  
     394A      1.292726   395A      1.299783   396A      1.303014  
     397A      1.306859   398A      1.309162   399A      1.311565  
     400A      1.318454   401A      1.327961   402A      1.330759  
     403A      1.335571   404A      1.337887   405A      1.342451  
     406A      1.347616   407A      1.349814   408A      1.357969  
     409A      1.362132   410A      1.366004   411A      1.369892  
     412A      1.372783   413A      1.377553   414A      1.380791  
     415A      1.383698   416A      1.394467   417A      1.398359  
     418A      1.403176   419A      1.408572   420A      1.414206  
     421A      1.416818   422A      1.422769   423A      1.425220  
     424A      1.427741   425A      1.432446   426A      1.438291  
     427A      1.441957   428A      1.447678   429A      1.454712  
     430A      1.460299   431A      1.461168   432A      1.468192  
     433A      1.475268   434A      1.477722   435A      1.483244  
     436A      1.488450   437A      1.490730   438A      1.495041  
     439A      1.505402   440A      1.506108   441A      1.508870  
     442A      1.516255   443A      1.521398   444A      1.523990  
     445A      1.528417   446A      1.536418   447A      1.540525  
     448A      1.546280   449A      1.548560   450A      1.551829  
     451A      1.555173   452A      1.563925   453A      1.566080  
     454A      1.569180   455A      1.573968   456A      1.578050  
     457A      1.585710   458A      1.588111   459A      1.591072  
     460A      1.595379   461A      1.601728   462A      1.604725  
     463A      1.609721   464A      1.613044   465A      1.620187  
     466A      1.624470   467A      1.630592   468A      1.631250  
     469A      1.637185   470A      1.648187   471A      1.649006  
     472A      1.655360   473A      1.658968   474A      1.661904  
     475A      1.667054   476A      1.668459   477A      1.672479  
     478A      1.679611   479A      1.682441   480A      1.690342  
     481A      1.699094   482A      1.702255   483A      1.709359  
     484A      1.714732   485A      1.716835   486A      1.726712  
     487A      1.729426   488A      1.734126   489A      1.738133  
     490A      1.740749   491A      1.748210   492A      1.750458  
     493A      1.756472   494A      1.758317   495A      1.764690  
     496A      1.773583   497A      1.775383   498A      1.779535  
     499A      1.787842   500A      1.792688   501A      1.795668  
     502A      1.800095   503A      1.809087   504A      1.811327  
     505A      1.818044   506A      1.818880   507A      1.831463  
     508A      1.834871   509A      1.839297   510A      1.841684  
     511A      1.845716   512A      1.856755   513A      1.860217  
     514A      1.860961   515A      1.866678   516A      1.874105  
     517A      1.877380   518A      1.880249   519A      1.887263  
     520A      1.889886   521A      1.893296   522A      1.896874  
     523A      1.905327   524A      1.912094   525A      1.915826  
     526A      1.926024   527A      1.935379   528A      1.937634  
     529A      1.941745   530A      1.944479   531A      1.947100  
     532A      1.957347   533A      1.964126   534A      1.967335  
     535A      1.969953   536A      1.973945   537A      1.976471  
     538A      1.982238   539A      1.987094   540A      1.990418  
     541A      1.997759   542A      2.008265   543A      2.012437  
     544A      2.021413   545A      2.029926   546A      2.031367  
     547A      2.035529   548A      2.037243   549A      2.047387  
     550A      2.058919   551A      2.060964   552A      2.066524  
     553A      2.074227   554A      2.078780   555A      2.080786  
     556A      2.084973   557A      2.090247   558A      2.091923  
     559A      2.099435   560A      2.104859   561A      2.117454  
     562A      2.117916   563A      2.126664   564A      2.129644  
     565A      2.131532   566A      2.143745   567A      2.148990  
     568A      2.154105   569A      2.157940   570A      2.159161  
     571A      2.166625   572A      2.170965   573A      2.176237  
     574A      2.179872   575A      2.183196   576A      2.190757  
     577A      2.197794   578A      2.205290   579A      2.209892  
     580A      2.214440   581A      2.217336   582A      2.226662  
     583A      2.228610   584A      2.235530   585A      2.243381  
     586A      2.250474   587A      2.255458   588A      2.261519  
     589A      2.265636   590A      2.270860   591A      2.273060  
     592A      2.277764   593A      2.287686   594A      2.288837  
     595A      2.303808   596A      2.306269   597A      2.313144  
     598A      2.317697   599A      2.327898   600A      2.330648  
     601A      2.336091   602A      2.342038   603A      2.348009  
     604A      2.354016   605A      2.357989   606A      2.361410  
     607A      2.370922   608A      2.376302   609A      2.379418  
     610A      2.389046   611A      2.398705   612A      2.401362  
     613A      2.407984   614A      2.415008   615A      2.422449  
     616A      2.426355   617A      2.430546   618A      2.440668  
     619A      2.442924   620A      2.446333   621A      2.448743  
     622A      2.454726   623A      2.457962   624A      2.470933  
     625A      2.473398   626A      2.477322   627A      2.483485  
     628A      2.486831   629A      2.492020   630A      2.499103  
     631A      2.500786   632A      2.507707   633A      2.516755  
     634A      2.520044   635A      2.533214   636A      2.534950  
     637A      2.537532   638A      2.542461   639A      2.544164  
     640A      2.558527   641A      2.560075   642A      2.563743  
     643A      2.575379   644A      2.580026   645A      2.582155  
     646A      2.587130   647A      2.599956   648A      2.607999  
     649A      2.617083   650A      2.622006   651A      2.623117  
     652A      2.634833   653A      2.640888   654A      2.645994  
     655A      2.653024   656A      2.662583   657A      2.669280  
     658A      2.671749   659A      2.679249   660A      2.685665  
     661A      2.692079   662A      2.700463   663A      2.709100  
     664A      2.723365   665A      2.726530   666A      2.730498  
     667A      2.736070   668A      2.746763   669A      2.750993  
     670A      2.757794   671A      2.765382   672A      2.773264  
     673A      2.782622   674A      2.786586   675A      2.798172  
     676A      2.803500   677A      2.804758   678A      2.812157  
     679A      2.817651   680A      2.824260   681A      2.833277  
     682A      2.837507   683A      2.849810   684A      2.852540  
     685A      2.856746   686A      2.866249   687A      2.872725  
     688A      2.881282   689A      2.882280   690A      2.892641  
     691A      2.895414   692A      2.898441   693A      2.902770  
     694A      2.909736   695A      2.915814   696A      2.925905  
     697A      2.934275   698A      2.941595   699A      2.951980  
     700A      2.960408   701A      2.967614   702A      2.969361  
     703A      2.975946   704A      2.987656   705A      2.988234  
     706A      2.995197   707A      3.004096   708A      3.009434  
     709A      3.018701   710A      3.029580   711A      3.038279  
     712A      3.045739   713A      3.054154   714A      3.062048  
     715A      3.067129   716A      3.075021   717A      3.087669  
     718A      3.094151   719A      3.101339   720A      3.107949  
     721A      3.109276   722A      3.123119   723A      3.125251  
     724A      3.127927   725A      3.141021   726A      3.145475  
     727A      3.158762   728A      3.165589   729A      3.172078  
     730A      3.175991   731A      3.182199   732A      3.188255  
     733A      3.198802   734A      3.212991   735A      3.219046  
     736A      3.233619   737A      3.242470   738A      3.259954  
     739A      3.264860   740A      3.271824   741A      3.287688  
     742A      3.295396   743A      3.304540   744A      3.318317  
     745A      3.336274   746A      3.339098   747A      3.342313  
     748A      3.359187   749A      3.364784   750A      3.385418  
     751A      3.386874   752A      3.395717   753A      3.422768  
     754A      3.431705   755A      3.450180   756A      3.453352  
     757A      3.457426   758A      3.466626   759A      3.473821  
     760A      3.483468   761A      3.498266   762A      3.513566  
     763A      3.515561   764A      3.532494   765A      3.534520  
     766A      3.550086   767A      3.562665   768A      3.572796  
     769A      3.578747   770A      3.596643   771A      3.601937  
     772A      3.611863   773A      3.631348   774A      3.646675  
     775A      3.660930   776A      3.668328   777A      3.671235  
     778A      3.677828   779A      3.696984   780A      3.703405  
     781A      3.708741   782A      3.717650   783A      3.731090  
     784A      3.749067   785A      3.764698   786A      3.765989  
     787A      3.775186   788A      3.785024   789A      3.791155  
     790A      3.800173   791A      3.806348   792A      3.827779  
     793A      3.829482   794A      3.845878   795A      3.857182  
     796A      3.862512   797A      3.870654   798A      3.877295  
     799A      3.892456   800A      3.901228   801A      3.907031  
     802A      3.917188   803A      3.930774   804A      3.932801  
     805A      3.939497   806A      3.954487   807A      3.964491  
     808A      3.971603   809A      3.983286   810A      3.999470  
     811A      4.002818   812A      4.013742   813A      4.027035  
     814A      4.038279   815A      4.045135   816A      4.052906  
     817A      4.071055   818A      4.086621   819A      4.094343  
     820A      4.101839   821A      4.108525   822A      4.112007  
     823A      4.126371   824A      4.135490   825A      4.153580  
     826A      4.160185   827A      4.169815   828A      4.182491  
     829A      4.194537   830A      4.198075   831A      4.202618  
     832A      4.212326   833A      4.225722   834A      4.232481  
     835A      4.238556   836A      4.245768   837A      4.250627  
     838A      4.266184   839A      4.269131   840A      4.276510  
     841A      4.279715   842A      4.286909   843A      4.295001  
     844A      4.295774   845A      4.310218   846A      4.315464  
     847A      4.320658   848A      4.325398   849A      4.339833  
     850A      4.344465   851A      4.354416   852A      4.363046  
     853A      4.379385   854A      4.380890   855A      4.395850  
     856A      4.406040   857A      4.411575   858A      4.419429  
     859A      4.428476   860A      4.431984   861A      4.449787  
     862A      4.459323   863A      4.463431   864A      4.478002  
     865A      4.488242   866A      4.497724   867A      4.512018  
     868A      4.519210   869A      4.524081   870A      4.526129  
     871A      4.543002   872A      4.552756   873A      4.560752  
     874A      4.562468   875A      4.581590   876A      4.587280  
     877A      4.594464   878A      4.598011   879A      4.605527  
     880A      4.613396   881A      4.617293   882A      4.624321  
     883A      4.629138   884A      4.642402   885A      4.651853  
     886A      4.652130   887A      4.663369   888A      4.668241  
     889A      4.676572   890A      4.682564   891A      4.688350  
     892A      4.707067   893A      4.710558   894A      4.721238  
     895A      4.731768   896A      4.740465   897A      4.746200  
     898A      4.750830   899A      4.766802   900A      4.779278  
     901A      4.784269   902A      4.791867   903A      4.797960  
     904A      4.810549   905A      4.821427   906A      4.825976  
     907A      4.832649   908A      4.847027   909A      4.853342  
     910A      4.855279   911A      4.859764   912A      4.878981  
     913A      4.887125   914A      4.894700   915A      4.903584  
     916A      4.920150   917A      4.934856   918A      4.937889  
     919A      4.946834   920A      4.949970   921A      4.954912  
     922A      4.971156   923A      4.972842   924A      4.986059  
     925A      4.990313   926A      4.998532   927A      5.007306  
     928A      5.010148   929A      5.014496   930A      5.018960  
     931A      5.038722   932A      5.046144   933A      5.053024  
     934A      5.060543   935A      5.065751   936A      5.077374  
     937A      5.078950   938A      5.086301   939A      5.097508  
     940A      5.102927   941A      5.116159   942A      5.128986  
     943A      5.136826   944A      5.144112   945A      5.150741  
     946A      5.168650   947A      5.177845   948A      5.183100  
     949A      5.189814   950A      5.203753   951A      5.215238  
     952A      5.218680   953A      5.221738   954A      5.232212  
     955A      5.237954   956A      5.259845   957A      5.263256  
     958A      5.271150   959A      5.279040   960A      5.282999  
     961A      5.294419   962A      5.308383   963A      5.312376  
     964A      5.325306   965A      5.337172   966A      5.341148  
     967A      5.349074   968A      5.353177   969A      5.367566  
     970A      5.370624   971A      5.382851   972A      5.394575  
     973A      5.408431   974A      5.419400   975A      5.425579  
     976A      5.436549   977A      5.446722   978A      5.449993  
     979A      5.471427   980A      5.472263   981A      5.475773  
     982A      5.487823   983A      5.498861   984A      5.527372  
     985A      5.531427   986A      5.538980   987A      5.544804  
     988A      5.551265   989A      5.562480   990A      5.569169  
     991A      5.583188   992A      5.590446   993A      5.593218  
     994A      5.603407   995A      5.607350   996A      5.618533  
     997A      5.634180   998A      5.645408   999A      5.658702  
    1000A      5.676881  1001A      5.682402  1002A      5.688039  
    1003A      5.706484  1004A      5.710356  1005A      5.715899  
    1006A      5.731143  1007A      5.741670  1008A      5.748399  
    1009A      5.755668  1010A      5.770571  1011A      5.777819  
    1012A      5.794448  1013A      5.805983  1014A      5.818334  
    1015A      5.825302  1016A      5.827892  1017A      5.835139  
    1018A      5.848453  1019A      5.870811  1020A      5.872599  
    1021A      5.882515  1022A      5.909977  1023A      5.932393  
    1024A      5.935738  1025A      5.951911  1026A      5.953487  
    1027A      5.966757  1028A      5.972079  1029A      5.977495  
    1030A      5.984609  1031A      5.996744  1032A      6.004528  
    1033A      6.013239  1034A      6.030884  1035A      6.054560  
    1036A      6.062460  1037A      6.076678  1038A      6.085692  
    1039A      6.102674  1040A      6.113593  1041A      6.121164  
    1042A      6.149444  1043A      6.150130  1044A      6.165915  
    1045A      6.181390  1046A      6.190788  1047A      6.203314  
    1048A      6.209079  1049A      6.224170  1050A      6.228273  
    1051A      6.244664  1052A      6.261117  1053A      6.276618  
    1054A      6.278246  1055A      6.290511  1056A      6.307557  
    1057A      6.320004  1058A      6.333963  1059A      6.357200  
    1060A      6.378053  1061A      6.402122  1062A      6.416465  
    1063A      6.443578  1064A      6.456131  1065A      6.489195  
    1066A      6.494209  1067A      6.507519  1068A      6.513592  
    1069A      6.539441  1070A      6.548664  1071A      6.558654  
    1072A      6.569470  1073A      6.584014  1074A      6.588980  
    1075A      6.604893  1076A      6.613280  1077A      6.620064  
    1078A      6.644733  1079A      6.652359  1080A      6.677028  
    1081A      6.706829  1082A      6.710258  1083A      6.722709  
    1084A      6.738722  1085A      6.744372  1086A      6.761557  
    1087A      6.777255  1088A      6.780367  1089A      6.799806  
    1090A      6.803206  1091A      6.819481  1092A      6.829679  
    1093A      6.844816  1094A      6.851211  1095A      6.881759  
    1096A      6.905378  1097A      6.925674  1098A      6.935983  
    1099A      6.955886  1100A      6.976030  1101A      6.979290  
    1102A      7.007863  1103A      7.020518  1104A      7.029117  
    1105A      7.034745  1106A      7.046309  1107A      7.047842  
    1108A      7.063993  1109A      7.095028  1110A      7.114184  
    1111A      7.128268  1112A      7.143598  1113A      7.226025  
    1114A      7.230969  1115A      7.247570  1116A      7.252329  
    1117A      7.275818  1118A      7.294970  1119A      7.312546  
    1120A      7.338160  1121A      7.374551  1122A      7.384797  
    1123A      7.396679  1124A      7.437840  1125A      7.450766  
    1126A      7.461519  1127A      7.474887  1128A      7.487024  
    1129A      7.503423  1130A      7.542871  1131A      7.551908  
    1132A      7.574519  1133A      7.636849  1134A      7.657412  
    1135A      7.668110  1136A      7.679347  1137A      7.689689  
    1138A      7.701226  1139A      7.702969  1140A      7.721052  
    1141A      7.733647  1142A      7.749935  1143A      7.775352  
    1144A      7.792192  1145A      7.813604  1146A      7.834879  
    1147A      7.843724  1148A      7.858812  1149A      7.859449  
    1150A      7.872405  1151A      7.901333  1152A      7.910232  
    1153A      7.942788  1154A      7.957480  1155A      7.963589  
    1156A      7.987139  1157A      8.017667  1158A      8.025074  
    1159A      8.040440  1160A      8.054532  1161A      8.065413  
    1162A      8.081406  1163A      8.092122  1164A      8.157243  
    1165A      8.197446  1166A      8.222633  1167A      8.289342  
    1168A      8.311957  1169A      8.360595  1170A      8.377190  
    1171A      8.423783  1172A      8.519796  1173A      8.573359  
    1174A      8.595821  1175A      8.730073  1176A      8.765783  
    1177A      8.834002  1178A      8.865405  1179A      8.904391  
    1180A      9.041385  1181A      9.103975  1182A      9.178493  
    1183A      9.298989  1184A      9.368742  1185A      9.416983  
    1186A      9.642798  1187A      9.683938  1188A      9.722641  
    1189A      9.833623  1190A      9.855548  1191A      9.984704  
    1192A     10.056791  1193A     10.082458  1194A     10.198897  
    1195A     10.365954  1196A     10.417680  1197A     10.460701  
    1198A     10.548721  1199A     10.619033  1200A     10.790946  
    1201A     11.151174  1202A     11.250204  1203A     11.300158  
    1204A     11.437909  1205A     11.488201  1206A     11.636593  
    1207A     11.717957  1208A     12.010850  1209A     12.056231  
    1210A     12.071663  1211A     12.190941  1212A     12.269874  
    1213A     12.359455  1214A     12.410577  1215A     12.545975  
    1216A     12.850387  1217A     12.953124  1218A     13.429896  
    1219A     13.703575  1220A     14.305652  1221A     16.398046  
    1222A     16.533530  1223A     16.695055  1224A     17.328494  
    1225A     17.948240  1226A     18.650113  1227A     19.335415  
    1228A     19.703036  1229A     20.372791  1230A     21.274545  
    1231A     21.560668  1232A     52.247964  1233A     53.019815  
    1234A     53.503666  1235A     54.711727  1236A     57.546854  
    1237A     60.793944  1238A     62.134528  1239A     62.253629  
    1240A     63.628138  1241A     66.659140  1242A     70.877830  

    Final Occupation by Irrep:
              A 
    DOCC [    39 ]

  @DF-RHF Final Energy:  -539.58616874027211

   => Energetics <=

    Nuclear Repulsion Energy =            593.2969903590297918
    One-Electron Energy =               -1912.0082568229940989
    Two-Electron Energy =                 779.1250977236923063
    Total Energy =                       -539.5861687402721145

Computation Completed


Properties will be evaluated at   0.000000,   0.000000,   0.000000 [a0]

Properties computed using the SCF density matrix

  Nuclear Dipole Moment: [e a0]
     X:  -211.6479      Y:   127.4201      Z:    90.9072

  Electronic Dipole Moment: [e a0]
     X:   211.4431      Y:  -129.4912      Z:   -89.2714

  Dipole Moment: [e a0]
     X:    -0.2048      Y:    -2.0712      Z:     1.6357     Total:     2.6471

  Dipole Moment: [D]
     X:    -0.5205      Y:    -5.2644      Z:     4.1576     Total:     6.7283


*** tstop() called on node158.bme.utexas.edu at Wed Jan 17 11:08:07 2024
Module time:
	user time   =    1038.21 seconds =      17.30 minutes
	system time =       7.38 seconds =       0.12 minutes
	total time  =        155 seconds =       2.58 minutes
Total time:
	user time   =    3223.16 seconds =      53.72 minutes
	system time =      37.07 seconds =       0.62 minutes
	total time  =        498 seconds =       8.30 minutes

*** tstart() called on node158.bme.utexas.edu
*** at Wed Jan 17 11:08:07 2024


  //>>>>>>>>>>>>>>>>>>>>>>>>>>>>>>>>>>>//
  //               DFMP2               //
  //<<<<<<<<<<<<<<<<<<<<<<<<<<<<<<<<<<<//

   => Loading Basis Set <=

    Name: (AUG-CC-PVTZ AUX)
    Role: RIFIT
    Keyword: DF_BASIS_MP2
    atoms 1, 5, 9, 11-12, 17, 21, 25, 27-28 entry N          line   206 file /opt/anaconda/envs/psi4v1.5/share/psi4/basis/aug-cc-pvtz-ri.gbs 
    atoms 2, 4, 14-16, 18, 20, 30-32        entry H          line    30 file /opt/anaconda/envs/psi4v1.5/share/psi4/basis/aug-cc-pvtz-ri.gbs 
    atoms 3, 6-7, 10, 13, 19, 22-23, 26, 29 entry C          line   148 file /opt/anaconda/envs/psi4v1.5/share/psi4/basis/aug-cc-pvtz-ri.gbs 
    atoms 8, 24                             entry O          line   264 file /opt/anaconda/envs/psi4v1.5/share/psi4/basis/aug-cc-pvtz-ri.gbs 

	 --------------------------------------------------------
	                          DF-MP2                         
	      2nd-Order Density-Fitted Moller-Plesset Theory     
	              RMP2 Wavefunction,   8 Threads             
	                                                         
	        Rob Parrish, Justin Turney, Andy Simmonett,      
	           Ed Hohenstein, and C. David Sherrill          
	 --------------------------------------------------------

   => Auxiliary Basis Set <=

  Basis Set: (AUG-CC-PVTZ AUX)
    Blend: AUG-CC-PVTZ-RI
    Number of shells: 756
    Number of basis functions: 2792
    Number of Cartesian functions: 3542
    Spherical Harmonics?: true
    Max angular momentum: 4

	 --------------------------------------------------------
	                 NBF =  1242, NAUX =  2792
	 --------------------------------------------------------
	   CLASS    FOCC     OCC    AOCC    AVIR     VIR    FVIR
	   PAIRS      11      39      28    1203    1203       0
	 --------------------------------------------------------

	 Will attempt to load fitting metric from file 97.

	-----------------------------------------------------------
	 ==================> DF-MP2 Energies <==================== 
	-----------------------------------------------------------
	 Reference Energy          =    -539.5861687402721145 [Eh]
	 Singles Energy            =      -0.0000000000000000 [Eh]
	 Same-Spin Energy          =      -0.5424762391838169 [Eh]
	 Opposite-Spin Energy      =      -1.4999210388582020 [Eh]
	 Correlation Energy        =      -2.0423972780420190 [Eh]
	 Total Energy              =    -541.6285660183141317 [Eh]
	-----------------------------------------------------------
	 ================> DF-SCS-MP2 Energies <================== 
	-----------------------------------------------------------
	 SCS Same-Spin Scale       =       0.3333333333333333 [-]
	 SCS Opposite-Spin Scale   =       1.2000000000000000 [-]
	 SCS Same-Spin Energy      =      -0.1808254130612723 [Eh]
	 SCS Opposite-Spin Energy  =      -1.7999052466298424 [Eh]
	 SCS Correlation Energy    =      -1.9807306596911147 [Eh]
	 SCS Total Energy          =    -541.5668993999631766 [Eh]
	-----------------------------------------------------------


*** tstop() called on node158.bme.utexas.edu at Wed Jan 17 11:08:48 2024
Module time:
	user time   =     228.02 seconds =       3.80 minutes
	system time =       4.72 seconds =       0.08 minutes
	total time  =         41 seconds =       0.68 minutes
Total time:
	user time   =    3451.19 seconds =      57.52 minutes
	system time =      41.79 seconds =       0.70 minutes
	total time  =        539 seconds =       8.98 minutes

  //>>>>>>>>>>>>>>>>>>>>>>>>>>>>>>>>>>>//
  //            Monomer B HF           //
  //<<<<<<<<<<<<<<<<<<<<<<<<<<<<<<<<<<<//


*** tstart() called on node158.bme.utexas.edu
*** at Wed Jan 17 11:08:48 2024

   => Loading Basis Set <=

    Name: AUG-CC-PVTZ
    Role: ORBITAL
    Keyword: BASIS
    atoms 1, 5, 9, 11-12, 17, 21, 25, 27-28 entry N          line   285 file /opt/anaconda/envs/psi4v1.5/share/psi4/basis/aug-cc-pvtz.gbs 
    atoms 2, 4, 14-16, 18, 20, 30-32        entry H          line    40 file /opt/anaconda/envs/psi4v1.5/share/psi4/basis/aug-cc-pvtz.gbs 
    atoms 3, 6-7, 10, 13, 19, 22-23, 26, 29 entry C          line   239 file /opt/anaconda/envs/psi4v1.5/share/psi4/basis/aug-cc-pvtz.gbs 
    atoms 8, 24                             entry O          line   331 file /opt/anaconda/envs/psi4v1.5/share/psi4/basis/aug-cc-pvtz.gbs 


         ---------------------------------------------------------
                                   SCF
               by Justin Turney, Rob Parrish, Andy Simmonett
                          and Daniel G. A. Smith
                              RHF Reference
                        8 Threads,  85830 MiB Core
         ---------------------------------------------------------

  ==> Geometry <==

    Molecular point group: c1
    Full point group: C1

    Geometry (in Angstrom), charge = 0, multiplicity = 1:

       Center              X                  Y                   Z               Mass       
    ------------   -----------------  -----------------  -----------------  -----------------
      Gh(N)           0.364930203108     1.032930989720     2.028392009955    14.003074004430
      Gh(H)           0.841760203108     0.447230989720     2.704622009955     1.007825032230
      Gh(C)           0.762040203108     2.255480989720     1.542022009955    12.000000000000
      Gh(H)           1.640580203108     2.763950989720     1.917592009955     1.007825032230
      Gh(N)          -0.041049796892     2.720690989720     0.597312009955    14.003074004430
      Gh(C)          -0.983889796892     1.731730989720     0.449802009955    12.000000000000
      Gh(C)          -2.107929796892     1.663000989720    -0.451987990045    12.000000000000
      Gh(O)          -2.538319796892     2.455790989720    -1.275197990045    15.994914619570
      Gh(N)          -2.769559796892     0.396960989720    -0.266767990045    14.003074004430
      Gh(C)          -2.468079796892    -0.556839010280     0.665732009955    12.000000000000
      Gh(N)          -3.218939796892    -1.741099010280     0.625092009955    14.003074004430
      Gh(N)          -1.474719796892    -0.476009010280     1.512782009955    14.003074004430
      Gh(C)          -0.755229796892     0.672170989720     1.329792009955    12.000000000000
      Gh(H)          -3.537899796892     0.254010989720    -0.918907990045     1.007825032230
      Gh(H)          -4.199209796892    -1.599409010280     0.389722009955     1.007825032230
      Gh(H)          -3.143999796892    -2.211909010280     1.524722009955     1.007825032230
         N            3.359046421858    -0.472045729030     0.574517103705    14.003074004430
         H            3.943436421858    -0.927885729030     1.266067103705     1.007825032230
         C            3.639466421858     0.670854270970    -0.140532896295    12.000000000000
         H            4.529196421858     1.259194270970     0.045947103705     1.007825032230
         N            2.723436421858     0.943824270970    -1.055302896295    14.003074004430
         C            1.813326421858    -0.082885729030    -0.929072896295    12.000000000000
         C            0.606786421858    -0.343195729030    -1.674712896295    12.000000000000
         O            0.065236421858     0.280154270970    -2.580432896295    15.994914619570
         N            0.032926421858    -1.567225729030    -1.213382896295    14.003074004430
         C            0.467006421858    -2.350445729030    -0.176462896295    12.000000000000
         N           -0.276683578142    -3.494265729030     0.057587103705    14.003074004430
         N            1.555746421858    -2.104675729030     0.516537103705    14.003074004430
         C            2.190586421858    -0.983445729030     0.066917103705    12.000000000000
         H           -0.786563578142    -1.858775729030    -1.741662896295     1.007825032230
         H           -1.281083578142    -3.326435729030     0.051527103705     1.007825032230
         H            0.024306421858    -3.939355729030     0.919617103705     1.007825032230

  Running in c1 symmetry.

  Rotational constants: A =      0.01393  B =      0.01057  C =      0.00841 [cm^-1]
  Rotational constants: A =    417.50108  B =    316.84298  C =    252.26894 [MHz]
  Nuclear repulsion =  593.703431717742887

  Charge       = 0
  Multiplicity = 1
  Electrons    = 78
  Nalpha       = 39
  Nbeta        = 39

  ==> Algorithm <==

  SCF Algorithm Type is DF.
  DIIS enabled.
  MOM disabled.
  Fractional occupation disabled.
  Guess Type is SAD.
  Energy threshold   = 1.00e-08
  Density threshold  = 1.00e-08
  Integral threshold = 1.00e-12

  ==> Primary Basis <==

  Basis Set: AUG-CC-PVTZ
    Blend: AUG-CC-PVTZ
    Number of shells: 398
    Number of basis functions: 1242
    Number of Cartesian functions: 1460
    Spherical Harmonics?: true
    Max angular momentum: 3

   => Loading Basis Set <=

    Name: (AUG-CC-PVTZ AUX)
    Role: JKFIT
    Keyword: DF_BASIS_SCF
    atoms 1, 5, 9, 11-12, 17, 21, 25, 27-28 entry N          line   224 file /opt/anaconda/envs/psi4v1.5/share/psi4/basis/aug-cc-pvtz-jkfit.gbs 
    atoms 2, 4, 14-16, 18, 20, 30-32        entry H          line    70 file /opt/anaconda/envs/psi4v1.5/share/psi4/basis/aug-cc-pvtz-jkfit.gbs 
    atoms 3, 6-7, 10, 13, 19, 22-23, 26, 29 entry C          line   162 file /opt/anaconda/envs/psi4v1.5/share/psi4/basis/aug-cc-pvtz-jkfit.gbs 
    atoms 8, 24                             entry O          line   286 file /opt/anaconda/envs/psi4v1.5/share/psi4/basis/aug-cc-pvtz-jkfit.gbs 

  ==> Integral Setup <==

  ==> DiskDFJK: Density-Fitted J/K Matrices <==

    J tasked:                  Yes
    K tasked:                  Yes
    wK tasked:                  No
    OpenMP threads:              8
    Integrals threads:           8
    Memory [MiB]:            64373
    Algorithm:                Core
    Integral Cache:           LOAD
    Schwarz Cutoff:          1E-12
    Fitting Condition:       1E-10

   => Auxiliary Basis Set <=

  Basis Set: (AUG-CC-PVTZ AUX)
    Blend: AUG-CC-PVTZ-JKFIT
    Number of shells: 800
    Number of basis functions: 2748
    Number of Cartesian functions: 3432
    Spherical Harmonics?: true
    Max angular momentum: 4

  Minimum eigenvalue in the overlap matrix is 6.8532911317E-07.
  Reciprocal condition number of the overlap matrix is 2.8195578179E-08.
    Using symmetric orthogonalization.

  ==> Pre-Iterations <==

  SCF Guess: Superposition of Atomic Densities via on-the-fly atomic UHF (no occupation information).

   -------------------------
    Irrep   Nso     Nmo    
   -------------------------
     A       1242    1242 
   -------------------------
    Total    1242    1242
   -------------------------

  ==> Iterations <==

                           Total Energy        Delta E     RMS |[F,P]|

   @DF-RHF iter SAD:  -539.30788013853362   -5.39308e+02   0.00000e+00 
   @DF-RHF iter   1:  -539.27989694807843    2.79832e-02   6.38167e-04 DIIS
   @DF-RHF iter   2:  -539.50288169605767   -2.22985e-01   3.77372e-04 DIIS
   @DF-RHF iter   3:  -539.58102202873044   -7.81403e-02   7.84803e-05 DIIS
   @DF-RHF iter   4:  -539.58608164169107   -5.05961e-03   3.25179e-05 DIIS
   @DF-RHF iter   5:  -539.58705437396770   -9.72732e-04   6.83221e-06 DIIS
   @DF-RHF iter   6:  -539.58715583318462   -1.01459e-04   3.55012e-06 DIIS
   @DF-RHF iter   7:  -539.58718190746220   -2.60743e-05   1.47439e-06 DIIS
   @DF-RHF iter   8:  -539.58718683676079   -4.92930e-06   5.21022e-07 DIIS
   @DF-RHF iter   9:  -539.58718742152644   -5.84766e-07   2.05364e-07 DIIS
   @DF-RHF iter  10:  -539.58718752367633   -1.02150e-07   8.10199e-08 DIIS
   @DF-RHF iter  11:  -539.58718753798416   -1.43078e-08   3.09781e-08 DIIS
   @DF-RHF iter  12:  -539.58718753991332   -1.92915e-09   1.15227e-08 DIIS
   @DF-RHF iter  13:  -539.58718754017980   -2.66482e-10   4.99452e-09 DIIS
  Energy and wave function converged.


  ==> Post-Iterations <==

    Orbital Energies [Eh]
    ---------------------

    Doubly Occupied:                                                      

       1A    -20.524242     2A    -15.635870     3A    -15.632063  
       4A    -15.613783     5A    -15.574389     6A    -15.565747  
       7A    -11.398356     8A    -11.368180     9A    -11.328143  
      10A    -11.314913    11A    -11.252251    12A     -1.393959  
      13A     -1.360277    14A     -1.336632    15A     -1.222296  
      16A     -1.218949    17A     -1.178025    18A     -1.031615  
      19A     -0.907071    20A     -0.885380    21A     -0.844462  
      22A     -0.798548    23A     -0.740515    24A     -0.729459  
      25A     -0.701322    26A     -0.673254    27A     -0.656357  
      28A     -0.633566    29A     -0.614369    30A     -0.601892  
      31A     -0.596489    32A     -0.547988    33A     -0.500082  
      34A     -0.464948    35A     -0.443518    36A     -0.433748  
      37A     -0.432261    38A     -0.412422    39A     -0.303369  

    Virtual:                                                              

      40A      0.011464    41A      0.020201    42A      0.029154  
      43A      0.031638    44A      0.039512    45A      0.040498  
      46A      0.047129    47A      0.051179    48A      0.057425  
      49A      0.060782    50A      0.065079    51A      0.066612  
      52A      0.074054    53A      0.078185    54A      0.081082  
      55A      0.085699    56A      0.090790    57A      0.092462  
      58A      0.098386    59A      0.100591    60A      0.101940  
      61A      0.103466    62A      0.106566    63A      0.111560  
      64A      0.115561    65A      0.118539    66A      0.120304  
      67A      0.121988    68A      0.123365    69A      0.126720  
      70A      0.132749    71A      0.133849    72A      0.136586  
      73A      0.140240    74A      0.140792    75A      0.142810  
      76A      0.145748    77A      0.148797    78A      0.153731  
      79A      0.155170    80A      0.158796    81A      0.161743  
      82A      0.164625    83A      0.171043    84A      0.173528  
      85A      0.176032    86A      0.178327    87A      0.182268  
      88A      0.186627    89A      0.187662    90A      0.189772  
      91A      0.197507    92A      0.197525    93A      0.201582  
      94A      0.206670    95A      0.207780    96A      0.210318  
      97A      0.214934    98A      0.218189    99A      0.219200  
     100A      0.224068   101A      0.228969   102A      0.230098  
     103A      0.231335   104A      0.233679   105A      0.235692  
     106A      0.238101   107A      0.241397   108A      0.246483  
     109A      0.249589   110A      0.252505   111A      0.253628  
     112A      0.254870   113A      0.259668   114A      0.263441  
     115A      0.266145   116A      0.269319   117A      0.275982  
     118A      0.276567   119A      0.280160   120A      0.281954  
     121A      0.284045   122A      0.288872   123A      0.289750  
     124A      0.291075   125A      0.296187   126A      0.296857  
     127A      0.300206   128A      0.306386   129A      0.310385  
     130A      0.312949   131A      0.314139   132A      0.316795  
     133A      0.321247   134A      0.325087   135A      0.329326  
     136A      0.333607   137A      0.337604   138A      0.339495  
     139A      0.342557   140A      0.345423   141A      0.347776  
     142A      0.353263   143A      0.358406   144A      0.358630  
     145A      0.362859   146A      0.369593   147A      0.372083  
     148A      0.377112   149A      0.380009   150A      0.385637  
     151A      0.388987   152A      0.389543   153A      0.392522  
     154A      0.397075   155A      0.399698   156A      0.403171  
     157A      0.404219   158A      0.406051   159A      0.407228  
     160A      0.412162   161A      0.415163   162A      0.420252  
     163A      0.422258   164A      0.428763   165A      0.430173  
     166A      0.432719   167A      0.436218   168A      0.438771  
     169A      0.440711   170A      0.447014   171A      0.447929  
     172A      0.449205   173A      0.455593   174A      0.457411  
     175A      0.460058   176A      0.461542   177A      0.467659  
     178A      0.470250   179A      0.472760   180A      0.476487  
     181A      0.476653   182A      0.481597   183A      0.482234  
     184A      0.484188   185A      0.488866   186A      0.492375  
     187A      0.494172   188A      0.496588   189A      0.499608  
     190A      0.506380   191A      0.508333   192A      0.512015  
     193A      0.513660   194A      0.514518   195A      0.517223  
     196A      0.521277   197A      0.526790   198A      0.528630  
     199A      0.531075   200A      0.536517   201A      0.537327  
     202A      0.542740   203A      0.544678   204A      0.549106  
     205A      0.551582   206A      0.556296   207A      0.558539  
     208A      0.565038   209A      0.567087   210A      0.571798  
     211A      0.577131   212A      0.579494   213A      0.581695  
     214A      0.585011   215A      0.589422   216A      0.591881  
     217A      0.597145   218A      0.601679   219A      0.606246  
     220A      0.611180   221A      0.612990   222A      0.617631  
     223A      0.620606   224A      0.622427   225A      0.627397  
     226A      0.630141   227A      0.636747   228A      0.641476  
     229A      0.647296   230A      0.648529   231A      0.653331  
     232A      0.656342   233A      0.657769   234A      0.665681  
     235A      0.669711   236A      0.671267   237A      0.678520  
     238A      0.683426   239A      0.684895   240A      0.690815  
     241A      0.692461   242A      0.695003   243A      0.699844  
     244A      0.702872   245A      0.710301   246A      0.716972  
     247A      0.721701   248A      0.722506   249A      0.723410  
     250A      0.725702   251A      0.732994   252A      0.739562  
     253A      0.742703   254A      0.744050   255A      0.750092  
     256A      0.754917   257A      0.756524   258A      0.760107  
     259A      0.764343   260A      0.770969   261A      0.771409  
     262A      0.777935   263A      0.783756   264A      0.787082  
     265A      0.789000   266A      0.791485   267A      0.795229  
     268A      0.801671   269A      0.802426   270A      0.803822  
     271A      0.813330   272A      0.814206   273A      0.817352  
     274A      0.827071   275A      0.829494   276A      0.834153  
     277A      0.839479   278A      0.841354   279A      0.843541  
     280A      0.849536   281A      0.851681   282A      0.855019  
     283A      0.857025   284A      0.862782   285A      0.866729  
     286A      0.870292   287A      0.875356   288A      0.878419  
     289A      0.882614   290A      0.887112   291A      0.889734  
     292A      0.893333   293A      0.894726   294A      0.898949  
     295A      0.902168   296A      0.905655   297A      0.907386  
     298A      0.912625   299A      0.920334   300A      0.922426  
     301A      0.926321   302A      0.928924   303A      0.933878  
     304A      0.937259   305A      0.939189   306A      0.943886  
     307A      0.949147   308A      0.953792   309A      0.956203  
     310A      0.965537   311A      0.966745   312A      0.970676  
     313A      0.975543   314A      0.977765   315A      0.981428  
     316A      0.984556   317A      0.988911   318A      0.990778  
     319A      0.996266   320A      1.000720   321A      1.002026  
     322A      1.007467   323A      1.008683   324A      1.013396  
     325A      1.019952   326A      1.023139   327A      1.026616  
     328A      1.031032   329A      1.032714   330A      1.036926  
     331A      1.042265   332A      1.042721   333A      1.046703  
     334A      1.049984   335A      1.054732   336A      1.059995  
     337A      1.063819   338A      1.066848   339A      1.071564  
     340A      1.079884   341A      1.080428   342A      1.082586  
     343A      1.085163   344A      1.090640   345A      1.095063  
     346A      1.099683   347A      1.106379   348A      1.107769  
     349A      1.111374   350A      1.114273   351A      1.117932  
     352A      1.121484   353A      1.124845   354A      1.128169  
     355A      1.131181   356A      1.135536   357A      1.141107  
     358A      1.144328   359A      1.147948   360A      1.150754  
     361A      1.159605   362A      1.166245   363A      1.167406  
     364A      1.175265   365A      1.176943   366A      1.179683  
     367A      1.182401   368A      1.186515   369A      1.191986  
     370A      1.194566   371A      1.196875   372A      1.201077  
     373A      1.203083   374A      1.206387   375A      1.211830  
     376A      1.215331   377A      1.219681   378A      1.225550  
     379A      1.234856   380A      1.236249   381A      1.237052  
     382A      1.239268   383A      1.240532   384A      1.244646  
     385A      1.257202   386A      1.262125   387A      1.262977  
     388A      1.268992   389A      1.275825   390A      1.277445  
     391A      1.282118   392A      1.284099   393A      1.290925  
     394A      1.294107   395A      1.304870   396A      1.307074  
     397A      1.308558   398A      1.309673   399A      1.314273  
     400A      1.321406   401A      1.327704   402A      1.329680  
     403A      1.331046   404A      1.340311   405A      1.343565  
     406A      1.347205   407A      1.351864   408A      1.356666  
     409A      1.357394   410A      1.366392   411A      1.367259  
     412A      1.373090   413A      1.378258   414A      1.380186  
     415A      1.384790   416A      1.387818   417A      1.395577  
     418A      1.400320   419A      1.403427   420A      1.407012  
     421A      1.409021   422A      1.416310   423A      1.425232  
     424A      1.426293   425A      1.428408   426A      1.432817  
     427A      1.441526   428A      1.444428   429A      1.448872  
     430A      1.450162   431A      1.455728   432A      1.461227  
     433A      1.465705   434A      1.480793   435A      1.482134  
     436A      1.488269   437A      1.490775   438A      1.495492  
     439A      1.496739   440A      1.499880   441A      1.507766  
     442A      1.511866   443A      1.515118   444A      1.523796  
     445A      1.528492   446A      1.531408   447A      1.534241  
     448A      1.539044   449A      1.539301   450A      1.548523  
     451A      1.553930   452A      1.559685   453A      1.562956  
     454A      1.572714   455A      1.577321   456A      1.577603  
     457A      1.585390   458A      1.587692   459A      1.587930  
     460A      1.596982   461A      1.598145   462A      1.601441  
     463A      1.608377   464A      1.614839   465A      1.622408  
     466A      1.628381   467A      1.633434   468A      1.639716  
     469A      1.641571   470A      1.644513   471A      1.648360  
     472A      1.649257   473A      1.658805   474A      1.659241  
     475A      1.664964   476A      1.670098   477A      1.678161  
     478A      1.683423   479A      1.686590   480A      1.692524  
     481A      1.694594   482A      1.697766   483A      1.703234  
     484A      1.708711   485A      1.712057   486A      1.720714  
     487A      1.723934   488A      1.730495   489A      1.736685  
     490A      1.742398   491A      1.744726   492A      1.750539  
     493A      1.751716   494A      1.759778   495A      1.760819  
     496A      1.765220   497A      1.770244   498A      1.777804  
     499A      1.788625   500A      1.790856   501A      1.798588  
     502A      1.806742   503A      1.808483   504A      1.813960  
     505A      1.823488   506A      1.824670   507A      1.827336  
     508A      1.832722   509A      1.839451   510A      1.843073  
     511A      1.848929   512A      1.854389   513A      1.859432  
     514A      1.863155   515A      1.871064   516A      1.879334  
     517A      1.885347   518A      1.888815   519A      1.895165  
     520A      1.898866   521A      1.902446   522A      1.910501  
     523A      1.911474   524A      1.916160   525A      1.918532  
     526A      1.922848   527A      1.929323   528A      1.935319  
     529A      1.936356   530A      1.943361   531A      1.949270  
     532A      1.956600   533A      1.963041   534A      1.966443  
     535A      1.973271   536A      1.982079   537A      1.989223  
     538A      1.994807   539A      1.997861   540A      2.002029  
     541A      2.007533   542A      2.016514   543A      2.021908  
     544A      2.025680   545A      2.031971   546A      2.034921  
     547A      2.045473   548A      2.054782   549A      2.057949  
     550A      2.061784   551A      2.062301   552A      2.071340  
     553A      2.075553   554A      2.080636   555A      2.088193  
     556A      2.094985   557A      2.097601   558A      2.101444  
     559A      2.103860   560A      2.111769   561A      2.118882  
     562A      2.121764   563A      2.124930   564A      2.132295  
     565A      2.134457   566A      2.139906   567A      2.148598  
     568A      2.152107   569A      2.159124   570A      2.167099  
     571A      2.173636   572A      2.177178   573A      2.182539  
     574A      2.188596   575A      2.194416   576A      2.198566  
     577A      2.201957   578A      2.210394   579A      2.216018  
     580A      2.217959   581A      2.221971   582A      2.226688  
     583A      2.238451   584A      2.242024   585A      2.249979  
     586A      2.255825   587A      2.259043   588A      2.263852  
     589A      2.267431   590A      2.269032   591A      2.275067  
     592A      2.283716   593A      2.286470   594A      2.293962  
     595A      2.299740   596A      2.305824   597A      2.316473  
     598A      2.320667   599A      2.321935   600A      2.335012  
     601A      2.337129   602A      2.341513   603A      2.352043  
     604A      2.353105   605A      2.361675   606A      2.368994  
     607A      2.371371   608A      2.378740   609A      2.390487  
     610A      2.395210   611A      2.399155   612A      2.404376  
     613A      2.407396   614A      2.415955   615A      2.417809  
     616A      2.424752   617A      2.427874   618A      2.431230  
     619A      2.441031   620A      2.448227   621A      2.451859  
     622A      2.460372   623A      2.463609   624A      2.467291  
     625A      2.470009   626A      2.473125   627A      2.484734  
     628A      2.490391   629A      2.498125   630A      2.504489  
     631A      2.510084   632A      2.514776   633A      2.516427  
     634A      2.518782   635A      2.532102   636A      2.537053  
     637A      2.543977   638A      2.545889   639A      2.555961  
     640A      2.558477   641A      2.562199   642A      2.574347  
     643A      2.576572   644A      2.580840   645A      2.585112  
     646A      2.604730   647A      2.608590   648A      2.612645  
     649A      2.614170   650A      2.621395   651A      2.625967  
     652A      2.634951   653A      2.646766   654A      2.652266  
     655A      2.656438   656A      2.661410   657A      2.668408  
     658A      2.673571   659A      2.680941   660A      2.684026  
     661A      2.685699   662A      2.692403   663A      2.707885  
     664A      2.714631   665A      2.721288   666A      2.722463  
     667A      2.733441   668A      2.737599   669A      2.740107  
     670A      2.748757   671A      2.755812   672A      2.764117  
     673A      2.769719   674A      2.778408   675A      2.783443  
     676A      2.786247   677A      2.796321   678A      2.807128  
     679A      2.809151   680A      2.809673   681A      2.814085  
     682A      2.820155   683A      2.828909   684A      2.835127  
     685A      2.839976   686A      2.848405   687A      2.859971  
     688A      2.865114   689A      2.868966   690A      2.877308  
     691A      2.888311   692A      2.890028   693A      2.902114  
     694A      2.906804   695A      2.910102   696A      2.917104  
     697A      2.928397   698A      2.936921   699A      2.945244  
     700A      2.952500   701A      2.959932   702A      2.964991  
     703A      2.970667   704A      2.980830   705A      2.986182  
     706A      2.992921   707A      3.000075   708A      3.005702  
     709A      3.014279   710A      3.029448   711A      3.032030  
     712A      3.037444   713A      3.047726   714A      3.051115  
     715A      3.057698   716A      3.065453   717A      3.079920  
     718A      3.081527   719A      3.093188   720A      3.100911  
     721A      3.111026   722A      3.123927   723A      3.126240  
     724A      3.132873   725A      3.147349   726A      3.154840  
     727A      3.162246   728A      3.163300   729A      3.167331  
     730A      3.189539   731A      3.192365   732A      3.207404  
     733A      3.215867   734A      3.226488   735A      3.235204  
     736A      3.240030   737A      3.244376   738A      3.269653  
     739A      3.279121   740A      3.286724   741A      3.292280  
     742A      3.307242   743A      3.310950   744A      3.315931  
     745A      3.321931   746A      3.333837   747A      3.343442  
     748A      3.359247   749A      3.368428   750A      3.373315  
     751A      3.396668   752A      3.411203   753A      3.414994  
     754A      3.424641   755A      3.437415   756A      3.441046  
     757A      3.452037   758A      3.462084   759A      3.471605  
     760A      3.477320   761A      3.490431   762A      3.504788  
     763A      3.509421   764A      3.519014   765A      3.525537  
     766A      3.534629   767A      3.549194   768A      3.568645  
     769A      3.583439   770A      3.591639   771A      3.593220  
     772A      3.606824   773A      3.613305   774A      3.640679  
     775A      3.648764   776A      3.655947   777A      3.674232  
     778A      3.682328   779A      3.686452   780A      3.696839  
     781A      3.698996   782A      3.714327   783A      3.742217  
     784A      3.748667   785A      3.758017   786A      3.760272  
     787A      3.768166   788A      3.780372   789A      3.791543  
     790A      3.804588   791A      3.807098   792A      3.816780  
     793A      3.828527   794A      3.830049   795A      3.837808  
     796A      3.860772   797A      3.872255   798A      3.875844  
     799A      3.886969   800A      3.897177   801A      3.903795  
     802A      3.907809   803A      3.924582   804A      3.928231  
     805A      3.935152   806A      3.940887   807A      3.951267  
     808A      3.955670   809A      3.961838   810A      3.972287  
     811A      3.985988   812A      4.005329   813A      4.029919  
     814A      4.037190   815A      4.040443   816A      4.049821  
     817A      4.065042   818A      4.067935   819A      4.082828  
     820A      4.104021   821A      4.109948   822A      4.120456  
     823A      4.125876   824A      4.132085   825A      4.134940  
     826A      4.154543   827A      4.167243   828A      4.174128  
     829A      4.186272   830A      4.192235   831A      4.197812  
     832A      4.205092   833A      4.217990   834A      4.230666  
     835A      4.240991   836A      4.246990   837A      4.255572  
     838A      4.259332   839A      4.265743   840A      4.269329  
     841A      4.282884   842A      4.287650   843A      4.300123  
     844A      4.311434   845A      4.313448   846A      4.322039  
     847A      4.327014   848A      4.335240   849A      4.349560  
     850A      4.359208   851A      4.372068   852A      4.375623  
     853A      4.378450   854A      4.390102   855A      4.397755  
     856A      4.408968   857A      4.411120   858A      4.417307  
     859A      4.427839   860A      4.431548   861A      4.433457  
     862A      4.442065   863A      4.453657   864A      4.467058  
     865A      4.467797   866A      4.476824   867A      4.493496  
     868A      4.504680   869A      4.515250   870A      4.526413  
     871A      4.541891   872A      4.550092   873A      4.557533  
     874A      4.568355   875A      4.573553   876A      4.585878  
     877A      4.592372   878A      4.595933   879A      4.601207  
     880A      4.610187   881A      4.619645   882A      4.628437  
     883A      4.637530   884A      4.644147   885A      4.655922  
     886A      4.661226   887A      4.670393   888A      4.677010  
     889A      4.683684   890A      4.694933   891A      4.697077  
     892A      4.705534   893A      4.712818   894A      4.725564  
     895A      4.735601   896A      4.738244   897A      4.750594  
     898A      4.764320   899A      4.769806   900A      4.776741  
     901A      4.799053   902A      4.807006   903A      4.812545  
     904A      4.827077   905A      4.834536   906A      4.839442  
     907A      4.848028   908A      4.854179   909A      4.858898  
     910A      4.868091   911A      4.877436   912A      4.892522  
     913A      4.895087   914A      4.898801   915A      4.913395  
     916A      4.923498   917A      4.932048   918A      4.941805  
     919A      4.947484   920A      4.956439   921A      4.969529  
     922A      4.976968   923A      4.984462   924A      4.994468  
     925A      5.002553   926A      5.012530   927A      5.016553  
     928A      5.026378   929A      5.033916   930A      5.042058  
     931A      5.047064   932A      5.052230   933A      5.062116  
     934A      5.068669   935A      5.071031   936A      5.088197  
     937A      5.091820   938A      5.096098   939A      5.107792  
     940A      5.114636   941A      5.124557   942A      5.130394  
     943A      5.133977   944A      5.146321   945A      5.153183  
     946A      5.180016   947A      5.187776   948A      5.195445  
     949A      5.197171   950A      5.205098   951A      5.216544  
     952A      5.228067   953A      5.239824   954A      5.242503  
     955A      5.245804   956A      5.252949   957A      5.264516  
     958A      5.272412   959A      5.279540   960A      5.293569  
     961A      5.298797   962A      5.309244   963A      5.318188  
     964A      5.330037   965A      5.331095   966A      5.336650  
     967A      5.351182   968A      5.359463   969A      5.363984  
     970A      5.367900   971A      5.379279   972A      5.392141  
     973A      5.402700   974A      5.409912   975A      5.418210  
     976A      5.422275   977A      5.429752   978A      5.434451  
     979A      5.451154   980A      5.462697   981A      5.479671  
     982A      5.492826   983A      5.498134   984A      5.507238  
     985A      5.523249   986A      5.532154   987A      5.543498  
     988A      5.562058   989A      5.564078   990A      5.573421  
     991A      5.579170   992A      5.587352   993A      5.594496  
     994A      5.605233   995A      5.614405   996A      5.622647  
     997A      5.628002   998A      5.636687   999A      5.651536  
    1000A      5.670411  1001A      5.680064  1002A      5.683925  
    1003A      5.698554  1004A      5.704556  1005A      5.713489  
    1006A      5.725246  1007A      5.739010  1008A      5.751284  
    1009A      5.756636  1010A      5.757925  1011A      5.789291  
    1012A      5.794429  1013A      5.796341  1014A      5.803916  
    1015A      5.824367  1016A      5.826466  1017A      5.840483  
    1018A      5.843427  1019A      5.857264  1020A      5.865800  
    1021A      5.882328  1022A      5.894251  1023A      5.907180  
    1024A      5.916508  1025A      5.929610  1026A      5.938634  
    1027A      5.949383  1028A      5.959887  1029A      5.971552  
    1030A      5.980287  1031A      5.996752  1032A      6.009348  
    1033A      6.030800  1034A      6.037491  1035A      6.051628  
    1036A      6.063716  1037A      6.072245  1038A      6.079045  
    1039A      6.103395  1040A      6.111693  1041A      6.127879  
    1042A      6.147081  1043A      6.150447  1044A      6.178614  
    1045A      6.180337  1046A      6.193619  1047A      6.202970  
    1048A      6.224280  1049A      6.233495  1050A      6.239133  
    1051A      6.252767  1052A      6.271719  1053A      6.272398  
    1054A      6.284098  1055A      6.297077  1056A      6.306115  
    1057A      6.316536  1058A      6.333383  1059A      6.356892  
    1060A      6.367093  1061A      6.389350  1062A      6.407798  
    1063A      6.428324  1064A      6.443983  1065A      6.475659  
    1066A      6.490508  1067A      6.503121  1068A      6.508000  
    1069A      6.542634  1070A      6.549937  1071A      6.555199  
    1072A      6.581187  1073A      6.582621  1074A      6.586774  
    1075A      6.601018  1076A      6.618682  1077A      6.622060  
    1078A      6.638399  1079A      6.659448  1080A      6.668194  
    1081A      6.686960  1082A      6.703769  1083A      6.745020  
    1084A      6.748575  1085A      6.771942  1086A      6.780127  
    1087A      6.789016  1088A      6.801352  1089A      6.809012  
    1090A      6.822484  1091A      6.833465  1092A      6.839857  
    1093A      6.855809  1094A      6.867700  1095A      6.873846  
    1096A      6.892952  1097A      6.926697  1098A      6.950213  
    1099A      6.965386  1100A      6.973359  1101A      6.998721  
    1102A      7.014368  1103A      7.018120  1104A      7.038278  
    1105A      7.053402  1106A      7.078549  1107A      7.084394  
    1108A      7.092739  1109A      7.107457  1110A      7.142441  
    1111A      7.150001  1112A      7.169705  1113A      7.221029  
    1114A      7.243872  1115A      7.255275  1116A      7.265407  
    1117A      7.277174  1118A      7.303982  1119A      7.320518  
    1120A      7.343812  1121A      7.349168  1122A      7.389026  
    1123A      7.401233  1124A      7.431379  1125A      7.457737  
    1126A      7.482193  1127A      7.485348  1128A      7.506530  
    1129A      7.536309  1130A      7.545387  1131A      7.549989  
    1132A      7.583874  1133A      7.603574  1134A      7.622226  
    1135A      7.640416  1136A      7.658884  1137A      7.665815  
    1138A      7.694757  1139A      7.706617  1140A      7.722848  
    1141A      7.740913  1142A      7.746695  1143A      7.760273  
    1144A      7.816926  1145A      7.821647  1146A      7.832496  
    1147A      7.838739  1148A      7.856525  1149A      7.857267  
    1150A      7.876639  1151A      7.891325  1152A      7.904824  
    1153A      7.936726  1154A      7.962195  1155A      7.979993  
    1156A      7.986136  1157A      7.996116  1158A      8.007029  
    1159A      8.019439  1160A      8.053872  1161A      8.067821  
    1162A      8.109527  1163A      8.118923  1164A      8.149841  
    1165A      8.188012  1166A      8.207373  1167A      8.285098  
    1168A      8.305853  1169A      8.311093  1170A      8.347968  
    1171A      8.421337  1172A      8.534081  1173A      8.557317  
    1174A      8.600403  1175A      8.735037  1176A      8.767008  
    1177A      8.823000  1178A      8.861425  1179A      8.869524  
    1180A      9.047323  1181A      9.106271  1182A      9.147026  
    1183A      9.294013  1184A      9.357253  1185A      9.412739  
    1186A      9.637398  1187A      9.703247  1188A      9.756207  
    1189A      9.792159  1190A      9.848508  1191A      9.978296  
    1192A     10.019646  1193A     10.035566  1194A     10.204561  
    1195A     10.323115  1196A     10.362973  1197A     10.469384  
    1198A     10.539528  1199A     10.639451  1200A     10.740963  
    1201A     11.161369  1202A     11.213083  1203A     11.311462  
    1204A     11.427256  1205A     11.483551  1206A     11.564507  
    1207A     11.749174  1208A     12.016619  1209A     12.021249  
    1210A     12.101458  1211A     12.150660  1212A     12.258869  
    1213A     12.316101  1214A     12.446062  1215A     12.572298  
    1216A     12.853970  1217A     13.060246  1218A     13.346914  
    1219A     13.650257  1220A     14.305305  1221A     16.300257  
    1222A     16.597239  1223A     16.797203  1224A     17.346073  
    1225A     18.155542  1226A     18.675828  1227A     19.301709  
    1228A     19.526841  1229A     20.597141  1230A     21.150749  
    1231A     21.799340  1232A     52.507890  1233A     52.803684  
    1234A     53.587139  1235A     54.396330  1236A     57.335792  
    1237A     59.878257  1238A     62.278243  1239A     62.493916  
    1240A     64.380993  1241A     66.196981  1242A     70.490545  

    Final Occupation by Irrep:
              A 
    DOCC [    39 ]

  @DF-RHF Final Energy:  -539.58718754017980

   => Energetics <=

    Nuclear Repulsion Energy =            593.7034317177428875
    One-Electron Energy =               -1912.8398134948340612
    Two-Electron Energy =                 779.5491942369113758
    Total Energy =                       -539.5871875401797979

Computation Completed


Properties will be evaluated at   0.000000,   0.000000,   0.000000 [a0]

Properties computed using the SCF density matrix

  Nuclear Dipole Moment: [e a0]
     X:   209.7889      Y:  -135.9610      Z:   -85.1614

  Electronic Dipole Moment: [e a0]
     X:  -209.6924      Y:   134.1045      Z:    87.1982

  Dipole Moment: [e a0]
     X:     0.0965      Y:    -1.8565      Z:     2.0368     Total:     2.7576

  Dipole Moment: [D]
     X:     0.2452      Y:    -4.7187      Z:     5.1770     Total:     7.0091


*** tstop() called on node158.bme.utexas.edu at Wed Jan 17 11:11:28 2024
Module time:
	user time   =    1069.67 seconds =      17.83 minutes
	system time =       6.78 seconds =       0.11 minutes
	total time  =        160 seconds =       2.67 minutes
Total time:
	user time   =    4521.36 seconds =      75.36 minutes
	system time =      48.57 seconds =       0.81 minutes
	total time  =        699 seconds =      11.65 minutes

*** tstart() called on node158.bme.utexas.edu
*** at Wed Jan 17 11:11:28 2024


  //>>>>>>>>>>>>>>>>>>>>>>>>>>>>>>>>>>>//
  //               DFMP2               //
  //<<<<<<<<<<<<<<<<<<<<<<<<<<<<<<<<<<<//

   => Loading Basis Set <=

    Name: (AUG-CC-PVTZ AUX)
    Role: RIFIT
    Keyword: DF_BASIS_MP2
    atoms 1, 5, 9, 11-12, 17, 21, 25, 27-28 entry N          line   206 file /opt/anaconda/envs/psi4v1.5/share/psi4/basis/aug-cc-pvtz-ri.gbs 
    atoms 2, 4, 14-16, 18, 20, 30-32        entry H          line    30 file /opt/anaconda/envs/psi4v1.5/share/psi4/basis/aug-cc-pvtz-ri.gbs 
    atoms 3, 6-7, 10, 13, 19, 22-23, 26, 29 entry C          line   148 file /opt/anaconda/envs/psi4v1.5/share/psi4/basis/aug-cc-pvtz-ri.gbs 
    atoms 8, 24                             entry O          line   264 file /opt/anaconda/envs/psi4v1.5/share/psi4/basis/aug-cc-pvtz-ri.gbs 

	 --------------------------------------------------------
	                          DF-MP2                         
	      2nd-Order Density-Fitted Moller-Plesset Theory     
	              RMP2 Wavefunction,   8 Threads             
	                                                         
	        Rob Parrish, Justin Turney, Andy Simmonett,      
	           Ed Hohenstein, and C. David Sherrill          
	 --------------------------------------------------------

   => Auxiliary Basis Set <=

  Basis Set: (AUG-CC-PVTZ AUX)
    Blend: AUG-CC-PVTZ-RI
    Number of shells: 756
    Number of basis functions: 2792
    Number of Cartesian functions: 3542
    Spherical Harmonics?: true
    Max angular momentum: 4

	 --------------------------------------------------------
	                 NBF =  1242, NAUX =  2792
	 --------------------------------------------------------
	   CLASS    FOCC     OCC    AOCC    AVIR     VIR    FVIR
	   PAIRS      11      39      28    1203    1203       0
	 --------------------------------------------------------

	 Will attempt to load fitting metric from file 97.

	-----------------------------------------------------------
	 ==================> DF-MP2 Energies <==================== 
	-----------------------------------------------------------
	 Reference Energy          =    -539.5871875401797979 [Eh]
	 Singles Energy            =      -0.0000000000000000 [Eh]
	 Same-Spin Energy          =      -0.5424879541603139 [Eh]
	 Opposite-Spin Energy      =      -1.4996183458320667 [Eh]
	 Correlation Energy        =      -2.0421062999923807 [Eh]
	 Total Energy              =    -541.6292938401721813 [Eh]
	-----------------------------------------------------------
	 ================> DF-SCS-MP2 Energies <================== 
	-----------------------------------------------------------
	 SCS Same-Spin Scale       =       0.3333333333333333 [-]
	 SCS Opposite-Spin Scale   =       1.2000000000000000 [-]
	 SCS Same-Spin Energy      =      -0.1808293180534380 [Eh]
	 SCS Opposite-Spin Energy  =      -1.7995420149984800 [Eh]
	 SCS Correlation Energy    =      -1.9803713330519179 [Eh]
	 SCS Total Energy          =    -541.5675588732317465 [Eh]
	-----------------------------------------------------------


*** tstop() called on node158.bme.utexas.edu at Wed Jan 17 11:12:09 2024
Module time:
	user time   =     229.79 seconds =       3.83 minutes
	system time =       4.79 seconds =       0.08 minutes
	total time  =         41 seconds =       0.68 minutes
Total time:
	user time   =    4751.15 seconds =      79.19 minutes
	system time =      53.36 seconds =       0.89 minutes
	total time  =        740 seconds =      12.33 minutes
  Constructing Basis Sets for SAPT...

   => Loading Basis Set <=

    Name: (AUG-CC-PVTZ AUX)
    Role: RIFIT
    Keyword: DF_BASIS_SAPT
    atoms 1, 5, 9, 11-12, 17, 21, 25, 27-28 entry N          line   206 file /opt/anaconda/envs/psi4v1.5/share/psi4/basis/aug-cc-pvtz-ri.gbs 
    atoms 2, 4, 14-16, 18, 20, 30-32        entry H          line    30 file /opt/anaconda/envs/psi4v1.5/share/psi4/basis/aug-cc-pvtz-ri.gbs 
    atoms 3, 6-7, 10, 13, 19, 22-23, 26, 29 entry C          line   148 file /opt/anaconda/envs/psi4v1.5/share/psi4/basis/aug-cc-pvtz-ri.gbs 
    atoms 8, 24                             entry O          line   264 file /opt/anaconda/envs/psi4v1.5/share/psi4/basis/aug-cc-pvtz-ri.gbs 


  //>>>>>>>>>>>>>>>>>>>>>>>>>>>>>>>>>>>//
  //           SAPT2+(3)DMP2           //
  //<<<<<<<<<<<<<<<<<<<<<<<<<<<<<<<<<<<//


*** tstart() called on node158.bme.utexas.edu
*** at Wed Jan 17 11:12:10 2024

      SAPT2+(3)  
    Ed Hohenstein
     6 June 2009

      Orbital Information
  --------------------------
    NSO        =      1242
    NMO        =      1242
    NRI        =      2792
    NOCC A     =        39
    NOCC B     =        39
    FOCC A     =        11
    FOCC B     =        11
    NVIR A     =      1203
    NVIR B     =      1203

    Estimated memory usage: 85153.8 MB

    Natural Orbital Cutoff:   1.000E-06
    Disp(T3) Truncation:            Yes
    CCD (vv|vv) Truncation:         Yes
    MBPT T2 Truncation:             Yes

    Monomer A: 661 virtual orbitals dropped
    Monomer B: 663 virtual orbitals dropped

    Elst10,r            =    -0.003091209962 [Eh]
    Exch10 (S^2)        =     0.018580068482 [Eh]
    Exch10              =     0.018595647678 [Eh]
    Ind20,r (A<-B)      =    -0.006404506633 [Eh]
    Ind20,r (B<-A)      =    -0.004068673327 [Eh]
    Ind20,r             =    -0.010473179960 [Eh]
    Exch-Ind20,r (A<-B) =     0.004184074917 [Eh]
    Exch-Ind20,r (B<-A) =     0.003421828735 [Eh]
    Exch-Ind20,r        =     0.007605903651 [Eh]
    Disp20              =    -0.029936445486 [Eh]
    Disp20 (NO)         =    -0.027970905561 [Eh]
    Exch-Disp20         =     0.002933554028 [Eh]
    Elst12,r            =    -0.002228164575 [Eh]
    Exch11              =     0.000448268254 [Eh]
    Exch12              =     0.001136535218 [Eh]
    Ind22               =    -0.000316780501 [Eh]
    Disp21              =     0.010252865364 [Eh]
    Disp22 (SDQ)        =    -0.002040686131 [Eh]

    (i =   1 of  28)       3952 seconds
    (i =   2 of  28)       8553 seconds
    (i =   3 of  28)      13132 seconds
    (i =   4 of  28)      17704 seconds
    (i =   5 of  28)      22271 seconds
    (i =   6 of  28)      26839 seconds
    (i =   7 of  28)      31412 seconds
    (i =   8 of  28)      35974 seconds
    (i =   9 of  28)      40536 seconds
    (i =  10 of  28)      45108 seconds
    (i =  11 of  28)      49695 seconds
    (i =  12 of  28)      54283 seconds
    (i =  13 of  28)      58866 seconds
    (i =  14 of  28)      63441 seconds
    (i =  15 of  28)      68013 seconds
    (i =  16 of  28)      72591 seconds
    (i =  17 of  28)      77171 seconds
    (i =  18 of  28)      81744 seconds
    (i =  19 of  28)      86328 seconds
    (i =  20 of  28)      90910 seconds
    (i =  21 of  28)      95493 seconds
    (i =  22 of  28)     100064 seconds
    (i =  23 of  28)     104564 seconds
    (i =  24 of  28)     108082 seconds
    (i =  25 of  28)     110704 seconds
    (i =  26 of  28)     113331 seconds
    (i =  27 of  28)     115997 seconds
    (i =  28 of  28)     118677 seconds

    Disp220 (T)         =    -0.003427480455 [Eh]

    (i =   1 of  28)       2532 seconds
    (i =   2 of  28)       5052 seconds
    (i =   3 of  28)       7573 seconds
    (i =   4 of  28)      10127 seconds
    (i =   5 of  28)      12703 seconds
    (i =   6 of  28)      15278 seconds
    (i =   7 of  28)      17854 seconds
    (i =   8 of  28)      20427 seconds
    (i =   9 of  28)      23001 seconds
    (i =  10 of  28)      25576 seconds
    (i =  11 of  28)      28153 seconds
    (i =  12 of  28)      30731 seconds
    (i =  13 of  28)      33308 seconds
    (i =  14 of  28)      35881 seconds
    (i =  15 of  28)      38462 seconds
    (i =  16 of  28)      41043 seconds
    (i =  17 of  28)      43621 seconds
    (i =  18 of  28)      46206 seconds
    (i =  19 of  28)      49130 seconds
    (i =  20 of  28)      52827 seconds
    (i =  21 of  28)      56163 seconds
    (i =  22 of  28)      59628 seconds
    (i =  23 of  28)      63090 seconds
    (i =  24 of  28)      66573 seconds
    (i =  25 of  28)      70063 seconds
    (i =  26 of  28)      73552 seconds
    (i =  27 of  28)      77044 seconds
    (i =  28 of  28)      80536 seconds

    Disp202 (T)         =    -0.003495145619 [Eh]

    Disp22 (T)          =    -0.006922626073 [Eh]

    Est. Disp220 (T)    =    -0.003668332495 [Eh]
    Est. Disp202 (T)    =    -0.003740752549 [Eh]

    Est. Disp22 (T)     =    -0.007409085044 [Eh]
    Elst13,r            =     0.001178904023 [Eh]
    Disp30              =     0.000731610572 [Eh]

    SAPT Results 
  --------------------------------------------------------------------------------------------------------
    Electrostatics                 -4.14047051 [mEh]      -2.59818447 [kcal/mol]     -10.87080384 [kJ/mol]
      Elst10,r                     -3.09120996 [mEh]      -1.93976354 [kcal/mol]      -8.11597064 [kJ/mol]
      Elst12,r                     -2.22816458 [mEh]      -1.39819438 [kcal/mol]      -5.85004529 [kJ/mol]
      Elst13,r                      1.17890402 [mEh]       0.73977344 [kcal/mol]       3.09521209 [kJ/mol]

    Exchange                       20.18045115 [mEh]      12.66342428 [kcal/mol]      52.98376719 [kJ/mol]
      Exch10                       18.59564768 [mEh]      11.66894509 [kcal/mol]      48.82286625 [kJ/mol]
      Exch10(S^2)                  18.58006848 [mEh]      11.65916900 [kcal/mol]      48.78196308 [kJ/mol]
      Exch11(S^2)                   0.44826825 [mEh]       0.28129258 [kcal/mol]       1.17692814 [kJ/mol]
      Exch12(S^2)                   1.13653522 [mEh]       0.71318662 [kcal/mol]       2.98397280 [kJ/mol]

    Induction                      -3.38953248 [mEh]      -2.12696375 [kcal/mol]      -8.89921631 [kJ/mol]
      Ind20,r                     -10.47317996 [mEh]      -6.57201965 [kcal/mol]     -27.49733020 [kJ/mol]
      Ind22                        -0.31678050 [mEh]      -0.19878277 [kcal/mol]      -0.83170709 [kJ/mol]
      Exch-Ind20,r                  7.60590365 [mEh]       4.77277660 [kcal/mol]      19.96929729 [kJ/mol]
      Exch-Ind22                    0.23005448 [mEh]       0.14436137 [kcal/mol]       0.60400795 [kJ/mol]
      delta HF,r (2)               -1.16942624 [mEh]      -0.73382605 [kcal/mol]      -3.07032818 [kJ/mol]
      delta MP2,r (2)               0.73389609 [mEh]       0.46052675 [kcal/mol]       1.92684391 [kJ/mol]

    Dispersion                    -25.46818670 [mEh]     -15.98152843 [kcal/mol]     -66.86671496 [kJ/mol]
      Disp20                      -29.93644549 [mEh]     -18.78540315 [kcal/mol]     -78.59812679 [kJ/mol]
      Disp30                        0.73161057 [mEh]       0.45909257 [kcal/mol]       1.92084329 [kJ/mol]
      Disp21                       10.25286536 [mEh]       6.43377015 [kcal/mol]      26.91889430 [kJ/mol]
      Disp22 (SDQ)                 -2.04068613 [mEh]      -1.28054988 [kcal/mol]      -5.35782070 [kJ/mol]
      Disp22 (T)                   -6.92262607 [mEh]      -4.34401344 [kcal/mol]     -18.17535225 [kJ/mol]
      Est. Disp22 (T)              -7.40908504 [mEh]      -4.64927106 [kcal/mol]     -19.45255010 [kJ/mol]
      Exch-Disp20                   2.93355403 [mEh]       1.84083294 [kcal/mol]       7.70204504 [kJ/mol]

  Total HF                         11.46773516 [mEh]       7.19611246 [kcal/mol]      30.10853453 [kJ/mol]
  Total SAPT0                     -15.53515629 [mEh]      -9.74845775 [kcal/mol]     -40.78754723 [kJ/mol]
  Total SAPT2                     -16.26524342 [mEh]     -10.20659434 [kcal/mol]     -42.70439071 [kJ/mol]
  Total SAPT2+                    -15.46214923 [mEh]      -9.70264513 [kcal/mol]     -40.59586721 [kJ/mol]
  Total SAPT2+(3)                 -13.55163464 [mEh]      -8.50377912 [kcal/mol]     -35.57981183 [kJ/mol]
  Total SAPT2+dMP2                -14.72825314 [mEh]      -9.24211838 [kcal/mol]     -38.66902330 [kJ/mol]
  Total SAPT2+(3)dMP2             -12.81773855 [mEh]      -8.04325237 [kcal/mol]     -33.65296792 [kJ/mol]

  Special recipe for scaled SAPT0 (see Manual):
    Electrostatics sSAPT0          -3.09120996 [mEh]      -1.93976354 [kcal/mol]      -8.11597064 [kJ/mol]
    Exchange sSAPT0                18.59564768 [mEh]      11.66894509 [kcal/mol]      48.82286625 [kJ/mol]
    Induction sSAPT0               -4.01755409 [mEh]      -2.52105325 [kcal/mol]     -10.54808681 [kJ/mol]
    Dispersion sSAPT0             -26.99550600 [mEh]     -16.93993577 [kcal/mol]     -70.87669125 [kJ/mol]
  Total sSAPT0                    -15.50862238 [mEh]      -9.73180747 [kcal/mol]     -40.71788244 [kJ/mol]
  --------------------------------------------------------------------------------------------------------

*** tstop() called on node158.bme.utexas.edu at Sat Jan 20 03:07:13 2024
Module time:
	user time   = 1414847.63 seconds =   23580.79 minutes
	system time =    2603.60 seconds =      43.39 minutes
	total time  =     230103 seconds =    3835.05 minutes
Total time:
	user time   = 1419599.25 seconds =   23659.99 minutes
	system time =    2656.97 seconds =      44.28 minutes
	total time  =     230844 seconds =    3847.40 minutes

    Psi4 stopped on: Saturday, 20 January 2024 03:07AM
    Psi4 wall time for execution: 2 days, 16:07:24.24

*** Psi4 exiting successfully. Buy a developer a beer!
