
    -----------------------------------------------------------------------
          Psi4: An Open-Source Ab Initio Electronic Structure Package
                               Psi4 1.5 release

                         Git: Rev {HEAD} e9f4d6d 


    D. G. A. Smith, L. A. Burns, A. C. Simmonett, R. M. Parrish,
    M. C. Schieber, R. Galvelis, P. Kraus, H. Kruse, R. Di Remigio,
    A. Alenaizan, A. M. James, S. Lehtola, J. P. Misiewicz, M. Scheurer,
    R. A. Shaw, J. B. Schriber, Y. Xie, Z. L. Glick, D. A. Sirianni,
    J. S. O'Brien, J. M. Waldrop, A. Kumar, E. G. Hohenstein,
    B. P. Pritchard, B. R. Brooks, H. F. Schaefer III, A. Yu. Sokolov,
    K. Patkowski, A. E. DePrince III, U. Bozkaya, R. A. King,
    F. A. Evangelista, J. M. Turney, T. D. Crawford, C. D. Sherrill,
    J. Chem. Phys. 152(18) 184108 (2020). https://doi.org/10.1063/5.0006002

                            Additional Code Authors
    E. T. Seidl, C. L. Janssen, E. F. Valeev, M. L. Leininger,
    J. F. Gonthier, R. M. Richard, H. R. McAlexander, M. Saitow, X. Wang,
    P. Verma, M. H. Lechner, and A. Jiang

             Previous Authors, Complete List of Code Contributors,
                       and Citations for Specific Modules
    https://github.com/psi4/psi4/blob/master/codemeta.json
    https://github.com/psi4/psi4/graphs/contributors
    http://psicode.org/psi4manual/master/introduction.html#citing-psifour

    -----------------------------------------------------------------------


    Psi4 started on: Saturday, 20 January 2024 01:46PM

    Process ID: 1142802
    Host:       node150.bme.utexas.edu
    PSIDATADIR: /opt/anaconda/envs/psi4v1.5/share/psi4
    Memory:     500.0 MiB
    Threads:    8
    
  ==> Input File <==

--------------------------------------------------------------------------
memory 80GB

molecule {
0 1
N -2.86529 -0.49039 -0.03903
H -3.48718 -0.43564 -0.83871
C -2.69145 -1.54739 0.82019
H -3.3539 -2.40407 0.81472
N -1.67361 -1.37524 1.6542
C -1.16306 -0.14637 1.29663
C 0.0035 0.54127 1.78969
O 0.78855 0.24181 2.68476
N 0.20297 1.73479 1.03179
C -0.57642 2.18607 -0.0041
N -0.11507 3.29519 -0.68462
N -1.66482 1.58641 -0.42508
C -1.87478 0.41343 0.23557
H 1.11438 2.16391 1.1851
H 0.38827 3.98594 -0.13926
H -0.83351 3.69937 -1.27637
--
0 1
N 0.12414 -2.01404 -1.06879
H -0.60586 -2.71673 -1.07833
C -0.11385 -0.91449 -1.87168
O -1.07432 -0.82337 -2.63133
N 0.86465 0.05792 -1.73222
H 0.71127 0.91249 -2.26443
C 1.9267 0.09473 -0.8162
O 2.64364 1.0955 -0.73287
C 2.07531 -1.11151 -0.0104
C 1.14723 -2.09044 -0.14695
H 1.16033 -2.99325 0.4562
C 3.18782 -1.15739 0.98873
H 3.24653 -2.14431 1.455
H 4.14302 -0.93368 0.50611
H 3.01711 -0.41556 1.773
 units angstrom
 no_reorient
 symmetry c1
}
set
 {scf_type DF
 basis aug-cc-pvtz
 freeze_core True
 guess SAD
}
energy('sapt2+(3)dmp2')
--------------------------------------------------------------------------

  Memory set to  74.506 GiB by Python driver.

Scratch directory: /tmp/
   => Loading Basis Set <=

    Name: AUG-CC-PVTZ
    Role: ORBITAL
    Keyword: BASIS
    atoms 1, 5, 9, 11-12, 17, 21            entry N          line   285 file /opt/anaconda/envs/psi4v1.5/share/psi4/basis/aug-cc-pvtz.gbs 
    atoms 2, 4, 14-16, 18, 22, 27, 29-31    entry H          line    40 file /opt/anaconda/envs/psi4v1.5/share/psi4/basis/aug-cc-pvtz.gbs 
    atoms 3, 6-7, 10, 13, 19, 23, 25-26, 28 entry C          line   239 file /opt/anaconda/envs/psi4v1.5/share/psi4/basis/aug-cc-pvtz.gbs 
    atoms 8, 20, 24                         entry O          line   331 file /opt/anaconda/envs/psi4v1.5/share/psi4/basis/aug-cc-pvtz.gbs 

   => Loading Basis Set <=

    Name: AUG-CC-PVTZ
    Role: ORBITAL
    Keyword: BASIS
    atoms 1, 5, 9, 11-12, 17, 21            entry N          line   285 file /opt/anaconda/envs/psi4v1.5/share/psi4/basis/aug-cc-pvtz.gbs 
    atoms 2, 4, 14-16, 18, 22, 27, 29-31    entry H          line    40 file /opt/anaconda/envs/psi4v1.5/share/psi4/basis/aug-cc-pvtz.gbs 
    atoms 3, 6-7, 10, 13, 19, 23, 25-26, 28 entry C          line   239 file /opt/anaconda/envs/psi4v1.5/share/psi4/basis/aug-cc-pvtz.gbs 
    atoms 8, 20, 24                         entry O          line   331 file /opt/anaconda/envs/psi4v1.5/share/psi4/basis/aug-cc-pvtz.gbs 


  //>>>>>>>>>>>>>>>>>>>>>>>>>>>>>>>>>>>//
  //              Dimer HF             //
  //<<<<<<<<<<<<<<<<<<<<<<<<<<<<<<<<<<<//


*** tstart() called on node150.bme.utexas.edu
*** at Sat Jan 20 13:46:07 2024

   => Loading Basis Set <=

    Name: AUG-CC-PVTZ
    Role: ORBITAL
    Keyword: BASIS
    atoms 1, 5, 9, 11-12, 17, 21            entry N          line   285 file /opt/anaconda/envs/psi4v1.5/share/psi4/basis/aug-cc-pvtz.gbs 
    atoms 2, 4, 14-16, 18, 22, 27, 29-31    entry H          line    40 file /opt/anaconda/envs/psi4v1.5/share/psi4/basis/aug-cc-pvtz.gbs 
    atoms 3, 6-7, 10, 13, 19, 23, 25-26, 28 entry C          line   239 file /opt/anaconda/envs/psi4v1.5/share/psi4/basis/aug-cc-pvtz.gbs 
    atoms 8, 20, 24                         entry O          line   331 file /opt/anaconda/envs/psi4v1.5/share/psi4/basis/aug-cc-pvtz.gbs 


         ---------------------------------------------------------
                                   SCF
               by Justin Turney, Rob Parrish, Andy Simmonett
                          and Daniel G. A. Smith
                              RHF Reference
                        8 Threads,  76293 MiB Core
         ---------------------------------------------------------

  ==> Geometry <==

    Molecular point group: c1
    Full point group: C1

    Geometry (in Angstrom), charge = 0, multiplicity = 1:

       Center              X                  Y                   Z               Mass       
    ------------   -----------------  -----------------  -----------------  -----------------
         N           -2.845496057098    -0.494999795978    -0.036906018192    14.003074004430
         H           -3.467386057098    -0.440249795978    -0.836586018192     1.007825032230
         C           -2.671656057098    -1.551999795978     0.822313981808    12.000000000000
         H           -3.334106057098    -2.408679795978     0.816843981808     1.007825032230
         N           -1.653816057098    -1.379849795978     1.656323981808    14.003074004430
         C           -1.143266057098    -0.150979795978     1.298753981808    12.000000000000
         C            0.023293942902     0.536660204022     1.791813981808    12.000000000000
         O            0.808343942902     0.237200204022     2.686883981808    15.994914619570
         N            0.222763942902     1.730180204022     1.033913981808    14.003074004430
         C           -0.556626057098     2.181460204022    -0.001976018192    12.000000000000
         N           -0.095276057098     3.290580204022    -0.682496018192    14.003074004430
         N           -1.645026057098     1.581800204022    -0.422956018192    14.003074004430
         C           -1.854986057098     0.408820204022     0.237693981808    12.000000000000
         H            1.134173942902     2.159300204022     1.187223981808     1.007825032230
         H            0.408063942902     3.981330204022    -0.137136018192     1.007825032230
         H           -0.813716057098     3.694760204022    -1.274246018192     1.007825032230
         N            0.143933942902    -2.018649795978    -1.066666018192    14.003074004430
         H           -0.586066057098    -2.721339795978    -1.076206018192     1.007825032230
         C           -0.094056057098    -0.919099795978    -1.869556018192    12.000000000000
         O           -1.054526057098    -0.827979795978    -2.629206018192    15.994914619570
         N            0.884443942902     0.053310204022    -1.730096018192    14.003074004430
         H            0.731063942902     0.907880204022    -2.262306018192     1.007825032230
         C            1.946493942902     0.090120204022    -0.814076018192    12.000000000000
         O            2.663433942902     1.090890204022    -0.730746018192    15.994914619570
         C            2.095103942902    -1.116119795978    -0.008276018192    12.000000000000
         C            1.167023942902    -2.095049795978    -0.144826018192    12.000000000000
         H            1.180123942902    -2.997859795978     0.458323981808     1.007825032230
         C            3.207613942902    -1.161999795978     0.990853981808    12.000000000000
         H            3.266323942902    -2.148919795978     1.457123981808     1.007825032230
         H            4.162813942902    -0.938289795978     0.508233981808     1.007825032230
         H            3.036903942902    -0.420169795978     1.775123981808     1.007825032230

  Running in c1 symmetry.

  Rotational constants: A =      0.01538  B =      0.01304  C =      0.01212 [cm^-1]
  Rotational constants: A =    461.01822  B =    390.83381  C =    363.42892 [MHz]
  Nuclear repulsion = 1698.822554106723828

  Charge       = 0
  Multiplicity = 1
  Electrons    = 144
  Nalpha       = 72
  Nbeta        = 72

  ==> Algorithm <==

  SCF Algorithm Type is DF.
  DIIS enabled.
  MOM disabled.
  Fractional occupation disabled.
  Guess Type is SAD.
  Energy threshold   = 1.00e-08
  Density threshold  = 1.00e-08
  Integral threshold = 1.00e-12

  ==> Primary Basis <==

  Basis Set: AUG-CC-PVTZ
    Blend: AUG-CC-PVTZ
    Number of shells: 379
    Number of basis functions: 1173
    Number of Cartesian functions: 1375
    Spherical Harmonics?: true
    Max angular momentum: 3

   => Loading Basis Set <=

    Name: (AUG-CC-PVTZ AUX)
    Role: JKFIT
    Keyword: DF_BASIS_SCF
    atoms 1, 5, 9, 11-12, 17, 21            entry N          line   224 file /opt/anaconda/envs/psi4v1.5/share/psi4/basis/aug-cc-pvtz-jkfit.gbs 
    atoms 2, 4, 14-16, 18, 22, 27, 29-31    entry H          line    70 file /opt/anaconda/envs/psi4v1.5/share/psi4/basis/aug-cc-pvtz-jkfit.gbs 
    atoms 3, 6-7, 10, 13, 19, 23, 25-26, 28 entry C          line   162 file /opt/anaconda/envs/psi4v1.5/share/psi4/basis/aug-cc-pvtz-jkfit.gbs 
    atoms 8, 20, 24                         entry O          line   286 file /opt/anaconda/envs/psi4v1.5/share/psi4/basis/aug-cc-pvtz-jkfit.gbs 

  ==> Integral Setup <==

  ==> DiskDFJK: Density-Fitted J/K Matrices <==

    J tasked:                  Yes
    K tasked:                  Yes
    wK tasked:                  No
    OpenMP threads:              8
    Integrals threads:           8
    Memory [MiB]:            57220
    Algorithm:                Core
    Integral Cache:           SAVE
    Schwarz Cutoff:          1E-12
    Fitting Condition:       1E-10

   => Auxiliary Basis Set <=

  Basis Set: (AUG-CC-PVTZ AUX)
    Blend: AUG-CC-PVTZ-JKFIT
    Number of shells: 754
    Number of basis functions: 2586
    Number of Cartesian functions: 3225
    Spherical Harmonics?: true
    Max angular momentum: 4

  Minimum eigenvalue in the overlap matrix is 7.5833758673E-07.
  Reciprocal condition number of the overlap matrix is 3.0190676970E-08.
    Using symmetric orthogonalization.

  ==> Pre-Iterations <==

  SCF Guess: Superposition of Atomic Densities via on-the-fly atomic UHF (no occupation information).

   -------------------------
    Irrep   Nso     Nmo    
   -------------------------
     A       1173    1173 
   -------------------------
    Total    1173    1173
   -------------------------

  ==> Iterations <==

                           Total Energy        Delta E     RMS |[F,P]|

   @DF-RHF iter SAD:  -990.72554284373632   -9.90726e+02   0.00000e+00 
   @DF-RHF iter   1:  -990.66889967652889    5.66432e-02   9.41937e-04 DIIS
   @DF-RHF iter   2:  -991.08417271584824   -4.15273e-01   5.72469e-04 DIIS
   @DF-RHF iter   3:  -991.24057054688933   -1.56398e-01   1.20617e-04 DIIS
   @DF-RHF iter   4:  -991.25082480462152   -1.02543e-02   5.08321e-05 DIIS
   @DF-RHF iter   5:  -991.25293721771482   -2.11241e-03   1.09545e-05 DIIS
   @DF-RHF iter   6:  -991.25314951353562   -2.12296e-04   5.65379e-06 DIIS
   @DF-RHF iter   7:  -991.25320882710400   -5.93136e-05   2.41011e-06 DIIS
   @DF-RHF iter   8:  -991.25321938107027   -1.05540e-05   9.10326e-07 DIIS
   @DF-RHF iter   9:  -991.25322077223689   -1.39117e-06   3.53511e-07 DIIS
   @DF-RHF iter  10:  -991.25322099046173   -2.18225e-07   1.51336e-07 DIIS
   @DF-RHF iter  11:  -991.25322103028316   -3.98214e-08   5.94222e-08 DIIS
   @DF-RHF iter  12:  -991.25322103649194   -6.20878e-09   1.92138e-08 DIIS
   @DF-RHF iter  13:  -991.25322103718304   -6.91102e-10   7.77819e-09 DIIS
  Energy and wave function converged.


  ==> Post-Iterations <==

    Orbital Energies [Eh]
    ---------------------

    Doubly Occupied:                                                      

       1A    -20.540724     2A    -20.537934     3A    -20.527752  
       4A    -15.637307     5A    -15.632576     6A    -15.630878  
       7A    -15.624827     8A    -15.611477     9A    -15.573207  
      10A    -15.570526    11A    -11.414301    12A    -11.398688  
      13A    -11.376575    14A    -11.372257    15A    -11.330271  
      16A    -11.321806    17A    -11.320009    18A    -11.255249  
      19A    -11.249125    20A    -11.218914    21A     -1.423635  
      22A     -1.396841    23A     -1.387502    24A     -1.364918  
      25A     -1.338061    26A     -1.299252    27A     -1.235847  
      28A     -1.221898    29A     -1.219916    30A     -1.182219  
      31A     -1.096722    32A     -1.035303    33A     -0.956317  
      34A     -0.910280    35A     -0.907089    36A     -0.887732  
      37A     -0.886514    38A     -0.848180    39A     -0.801961  
      40A     -0.761318    41A     -0.758221    42A     -0.742360  
      43A     -0.734104    44A     -0.702948    45A     -0.699041  
      46A     -0.684248    47A     -0.674343    48A     -0.670078  
      49A     -0.639837    50A     -0.635898    51A     -0.632326  
      52A     -0.619821    53A     -0.611844    54A     -0.607166  
      55A     -0.605209    56A     -0.580500    57A     -0.553322  
      58A     -0.552602    59A     -0.541967    60A     -0.533596  
      61A     -0.508098    62A     -0.499927    63A     -0.476215  
      64A     -0.460515    65A     -0.448016    66A     -0.444258  
      67A     -0.439648    68A     -0.437177    69A     -0.432165  
      70A     -0.412725    71A     -0.344178    72A     -0.307345  

    Virtual:                                                              

      73A      0.020114    74A      0.022030    75A      0.031926  
      76A      0.039791    77A      0.041241    78A      0.046472  
      79A      0.048506    80A      0.057461    81A      0.059384  
      82A      0.060888    83A      0.067947    84A      0.077963  
      85A      0.080306    86A      0.082990    87A      0.087630  
      88A      0.089620    89A      0.091598    90A      0.097640  
      91A      0.098793    92A      0.103460    93A      0.106529  
      94A      0.113305    95A      0.114203    96A      0.118388  
      97A      0.120214    98A      0.120753    99A      0.124913  
     100A      0.126758   101A      0.129160   102A      0.130333  
     103A      0.131830   104A      0.134371   105A      0.137935  
     106A      0.146050   107A      0.147463   108A      0.149750  
     109A      0.150625   110A      0.155380   111A      0.157906  
     112A      0.161927   113A      0.166765   114A      0.169435  
     115A      0.171359   116A      0.174566   117A      0.178318  
     118A      0.179944   119A      0.182352   120A      0.185848  
     121A      0.191119   122A      0.197089   123A      0.197839  
     124A      0.202299   125A      0.206891   126A      0.211158  
     127A      0.214886   128A      0.216668   129A      0.220708  
     130A      0.224914   131A      0.227108   132A      0.231504  
     133A      0.233801   134A      0.239186   135A      0.242308  
     136A      0.244303   137A      0.251610   138A      0.252532  
     139A      0.255609   140A      0.258706   141A      0.263013  
     142A      0.264074   143A      0.268523   144A      0.271920  
     145A      0.272926   146A      0.275351   147A      0.279535  
     148A      0.282606   149A      0.286027   150A      0.287557  
     151A      0.289266   152A      0.292349   153A      0.294953  
     154A      0.301867   155A      0.305517   156A      0.310049  
     157A      0.312396   158A      0.314692   159A      0.317832  
     160A      0.321574   161A      0.324568   162A      0.330251  
     163A      0.330994   164A      0.332823   165A      0.335038  
     166A      0.341609   167A      0.345786   168A      0.348089  
     169A      0.352918   170A      0.356742   171A      0.360127  
     172A      0.364262   173A      0.364393   174A      0.367201  
     175A      0.367470   176A      0.368871   177A      0.374185  
     178A      0.376111   179A      0.380978   180A      0.383819  
     181A      0.387529   182A      0.390722   183A      0.393568  
     184A      0.397964   185A      0.401995   186A      0.403572  
     187A      0.410441   188A      0.410960   189A      0.416294  
     190A      0.418891   191A      0.420568   192A      0.425081  
     193A      0.426351   194A      0.432122   195A      0.435624  
     196A      0.436203   197A      0.443486   198A      0.445562  
     199A      0.451065   200A      0.452715   201A      0.458312  
     202A      0.460151   203A      0.460851   204A      0.463055  
     205A      0.467403   206A      0.469324   207A      0.471937  
     208A      0.476133   209A      0.479890   210A      0.485157  
     211A      0.486563   212A      0.489720   213A      0.491547  
     214A      0.493396   215A      0.495799   216A      0.498307  
     217A      0.500824   218A      0.503182   219A      0.507347  
     220A      0.510375   221A      0.513548   222A      0.514363  
     223A      0.521856   224A      0.524275   225A      0.527249  
     226A      0.532060   227A      0.533466   228A      0.535546  
     229A      0.538517   230A      0.544988   231A      0.548568  
     232A      0.552304   233A      0.556463   234A      0.557456  
     235A      0.560799   236A      0.564094   237A      0.568356  
     238A      0.570859   239A      0.575237   240A      0.577913  
     241A      0.579144   242A      0.582670   243A      0.586082  
     244A      0.588627   245A      0.593966   246A      0.595286  
     247A      0.599306   248A      0.603219   249A      0.605905  
     250A      0.609700   251A      0.619130   252A      0.622658  
     253A      0.624038   254A      0.626549   255A      0.630753  
     256A      0.638459   257A      0.643469   258A      0.645900  
     259A      0.651854   260A      0.653734   261A      0.657770  
     262A      0.660740   263A      0.667097   264A      0.667340  
     265A      0.671124   266A      0.673110   267A      0.676437  
     268A      0.685646   269A      0.690120   270A      0.694225  
     271A      0.698572   272A      0.701510   273A      0.707756  
     274A      0.713562   275A      0.721217   276A      0.724103  
     277A      0.726092   278A      0.730529   279A      0.732530  
     280A      0.738384   281A      0.744262   282A      0.747164  
     283A      0.748129   284A      0.755760   285A      0.759686  
     286A      0.761861   287A      0.764983   288A      0.775436  
     289A      0.778073   290A      0.783335   291A      0.785848  
     292A      0.789928   293A      0.792987   294A      0.798098  
     295A      0.803271   296A      0.806055   297A      0.810339  
     298A      0.815897   299A      0.818764   300A      0.821433  
     301A      0.826434   302A      0.831629   303A      0.834849  
     304A      0.840585   305A      0.844034   306A      0.849099  
     307A      0.851778   308A      0.858433   309A      0.859508  
     310A      0.862288   311A      0.865269   312A      0.871772  
     313A      0.874952   314A      0.880414   315A      0.882438  
     316A      0.887970   317A      0.890537   318A      0.897141  
     319A      0.900582   320A      0.906851   321A      0.914619  
     322A      0.915740   323A      0.919305   324A      0.921846  
     325A      0.925222   326A      0.928840   327A      0.932917  
     328A      0.935586   329A      0.942845   330A      0.944667  
     331A      0.950388   332A      0.954095   333A      0.957682  
     334A      0.959283   335A      0.964372   336A      0.965143  
     337A      0.970925   338A      0.979453   339A      0.979960  
     340A      0.982867   341A      0.984191   342A      0.990661  
     343A      0.992485   344A      0.995995   345A      0.998991  
     346A      1.004978   347A      1.009744   348A      1.011874  
     349A      1.015389   350A      1.020696   351A      1.024710  
     352A      1.030808   353A      1.035260   354A      1.037310  
     355A      1.041725   356A      1.045448   357A      1.050082  
     358A      1.054861   359A      1.058594   360A      1.062087  
     361A      1.064279   362A      1.066767   363A      1.073542  
     364A      1.076341   365A      1.082973   366A      1.087994  
     367A      1.088909   368A      1.094995   369A      1.096409  
     370A      1.100899   371A      1.104470   372A      1.114974  
     373A      1.117839   374A      1.121076   375A      1.122364  
     376A      1.125338   377A      1.133663   378A      1.136323  
     379A      1.141413   380A      1.142367   381A      1.145412  
     382A      1.151089   383A      1.155479   384A      1.163257  
     385A      1.165835   386A      1.168480   387A      1.172492  
     388A      1.176856   389A      1.181608   390A      1.185397  
     391A      1.189762   392A      1.191715   393A      1.197380  
     394A      1.199080   395A      1.200850   396A      1.207190  
     397A      1.207994   398A      1.214740   399A      1.217333  
     400A      1.219912   401A      1.225008   402A      1.229419  
     403A      1.234158   404A      1.234683   405A      1.240238  
     406A      1.247337   407A      1.254598   408A      1.255915  
     409A      1.259729   410A      1.261688   411A      1.271299  
     412A      1.274966   413A      1.279076   414A      1.285723  
     415A      1.288354   416A      1.295066   417A      1.298582  
     418A      1.301409   419A      1.304971   420A      1.306614  
     421A      1.315458   422A      1.318305   423A      1.323805  
     424A      1.332517   425A      1.337303   426A      1.339312  
     427A      1.345161   428A      1.349646   429A      1.353374  
     430A      1.355420   431A      1.362448   432A      1.364907  
     433A      1.366062   434A      1.377189   435A      1.379466  
     436A      1.384735   437A      1.391303   438A      1.393075  
     439A      1.397117   440A      1.401848   441A      1.409340  
     442A      1.410595   443A      1.415270   444A      1.416509  
     445A      1.427199   446A      1.430801   447A      1.433198  
     448A      1.438458   449A      1.443106   450A      1.447671  
     451A      1.448721   452A      1.456664   453A      1.457436  
     454A      1.460988   455A      1.467268   456A      1.473755  
     457A      1.475492   458A      1.476735   459A      1.486249  
     460A      1.489254   461A      1.494413   462A      1.498131  
     463A      1.507391   464A      1.509917   465A      1.516810  
     466A      1.520462   467A      1.526125   468A      1.526641  
     469A      1.531304   470A      1.536128   471A      1.545336  
     472A      1.546833   473A      1.552669   474A      1.557346  
     475A      1.563354   476A      1.569229   477A      1.574669  
     478A      1.576305   479A      1.584238   480A      1.586650  
     481A      1.591692   482A      1.597051   483A      1.601047  
     484A      1.606950   485A      1.611136   486A      1.617639  
     487A      1.622921   488A      1.627694   489A      1.630099  
     490A      1.634714   491A      1.646698   492A      1.648002  
     493A      1.653336   494A      1.657896   495A      1.659548  
     496A      1.667212   497A      1.671003   498A      1.675051  
     499A      1.678838   500A      1.682555   501A      1.686938  
     502A      1.699366   503A      1.704082   504A      1.707086  
     505A      1.712676   506A      1.718380   507A      1.722124  
     508A      1.726366   509A      1.729622   510A      1.733690  
     511A      1.739951   512A      1.743392   513A      1.746296  
     514A      1.751217   515A      1.755284   516A      1.759410  
     517A      1.767889   518A      1.769395   519A      1.777112  
     520A      1.790599   521A      1.794786   522A      1.802782  
     523A      1.804279   524A      1.809708   525A      1.817142  
     526A      1.824307   527A      1.828188   528A      1.833718  
     529A      1.836022   530A      1.845747   531A      1.852814  
     532A      1.854377   533A      1.857660   534A      1.862318  
     535A      1.867128   536A      1.871322   537A      1.874316  
     538A      1.882869   539A      1.889138   540A      1.897387  
     541A      1.904071   542A      1.908517   543A      1.910309  
     544A      1.919581   545A      1.927737   546A      1.933177  
     547A      1.939694   548A      1.945064   549A      1.948304  
     550A      1.955932   551A      1.959266   552A      1.965258  
     553A      1.969743   554A      1.971140   555A      1.976016  
     556A      1.984774   557A      1.994226   558A      1.996005  
     559A      2.007331   560A      2.010041   561A      2.017333  
     562A      2.021770   563A      2.033250   564A      2.035890  
     565A      2.050877   566A      2.054463   567A      2.060066  
     568A      2.063865   569A      2.066031   570A      2.076036  
     571A      2.082183   572A      2.086670   573A      2.095109  
     574A      2.099687   575A      2.109352   576A      2.113020  
     577A      2.120032   578A      2.129122   579A      2.133499  
     580A      2.136516   581A      2.147387   582A      2.152482  
     583A      2.155290   584A      2.159356   585A      2.168914  
     586A      2.179095   587A      2.186696   588A      2.191962  
     589A      2.195914   590A      2.202473   591A      2.207593  
     592A      2.214921   593A      2.216855   594A      2.223501  
     595A      2.224208   596A      2.237196   597A      2.244432  
     598A      2.250378   599A      2.252043   600A      2.257131  
     601A      2.266640   602A      2.270982   603A      2.274752  
     604A      2.280755   605A      2.282204   606A      2.288491  
     607A      2.291168   608A      2.301624   609A      2.311414  
     610A      2.316513   611A      2.320823   612A      2.327306  
     613A      2.332453   614A      2.338098   615A      2.347680  
     616A      2.349736   617A      2.354414   618A      2.360367  
     619A      2.368280   620A      2.370805   621A      2.375131  
     622A      2.377257   623A      2.385533   624A      2.392544  
     625A      2.407824   626A      2.412601   627A      2.416656  
     628A      2.421945   629A      2.422448   630A      2.433788  
     631A      2.439965   632A      2.444682   633A      2.449699  
     634A      2.457401   635A      2.463407   636A      2.470134  
     637A      2.474412   638A      2.478595   639A      2.488484  
     640A      2.491716   641A      2.505389   642A      2.507635  
     643A      2.516127   644A      2.519969   645A      2.525338  
     646A      2.535842   647A      2.543615   648A      2.550077  
     649A      2.551874   650A      2.564056   651A      2.572561  
     652A      2.575907   653A      2.582284   654A      2.592280  
     655A      2.600979   656A      2.603767   657A      2.610918  
     658A      2.618603   659A      2.628388   660A      2.635898  
     661A      2.636984   662A      2.647730   663A      2.653029  
     664A      2.660885   665A      2.662830   666A      2.670348  
     667A      2.682554   668A      2.685365   669A      2.695537  
     670A      2.696789   671A      2.704134   672A      2.710722  
     673A      2.718816   674A      2.726166   675A      2.730633  
     676A      2.743801   677A      2.747514   678A      2.754760  
     679A      2.759333   680A      2.766814   681A      2.776541  
     682A      2.785859   683A      2.791094   684A      2.798592  
     685A      2.804555   686A      2.805866   687A      2.815937  
     688A      2.819192   689A      2.830539   690A      2.836056  
     691A      2.841991   692A      2.848004   693A      2.857903  
     694A      2.860312   695A      2.871033   696A      2.875406  
     697A      2.887054   698A      2.896270   699A      2.899254  
     700A      2.904716   701A      2.918450   702A      2.924956  
     703A      2.940328   704A      2.951610   705A      2.956802  
     706A      2.964771   707A      2.975077   708A      2.980029  
     709A      2.986803   710A      2.996530   711A      3.011583  
     712A      3.026663   713A      3.031793   714A      3.036621  
     715A      3.049558   716A      3.062561   717A      3.076203  
     718A      3.080674   719A      3.092752   720A      3.106876  
     721A      3.107702   722A      3.123775   723A      3.124929  
     724A      3.143717   725A      3.155165   726A      3.160567  
     727A      3.171015   728A      3.180816   729A      3.198636  
     730A      3.209353   731A      3.213326   732A      3.224889  
     733A      3.248848   734A      3.263612   735A      3.275760  
     736A      3.293153   737A      3.306144   738A      3.336152  
     739A      3.338574   740A      3.353029   741A      3.364541  
     742A      3.369042   743A      3.373515   744A      3.394068  
     745A      3.411117   746A      3.420246   747A      3.433631  
     748A      3.436943   749A      3.445518   750A      3.458568  
     751A      3.471096   752A      3.478318   753A      3.483940  
     754A      3.500410   755A      3.506828   756A      3.525274  
     757A      3.526161   758A      3.537752   759A      3.542126  
     760A      3.560536   761A      3.572512   762A      3.575641  
     763A      3.592767   764A      3.600070   765A      3.616786  
     766A      3.619195   767A      3.630766   768A      3.639933  
     769A      3.644384   770A      3.662722   771A      3.665423  
     772A      3.675847   773A      3.680977   774A      3.692505  
     775A      3.697930   776A      3.711686   777A      3.720370  
     778A      3.724225   779A      3.729742   780A      3.735569  
     781A      3.741195   782A      3.745494   783A      3.757345  
     784A      3.770800   785A      3.777053   786A      3.788363  
     787A      3.788821   788A      3.797385   789A      3.798292  
     790A      3.804934   791A      3.809090   792A      3.814453  
     793A      3.823568   794A      3.829433   795A      3.848958  
     796A      3.853365   797A      3.859493   798A      3.867684  
     799A      3.870861   800A      3.874883   801A      3.887321  
     802A      3.899869   803A      3.906118   804A      3.916987  
     805A      3.921341   806A      3.924790   807A      3.934720  
     808A      3.936752   809A      3.944895   810A      3.954440  
     811A      3.965065   812A      3.966474   813A      3.975093  
     814A      3.983106   815A      3.994013   816A      3.994989  
     817A      4.004090   818A      4.006939   819A      4.016274  
     820A      4.032049   821A      4.036186   822A      4.041218  
     823A      4.045114   824A      4.049065   825A      4.060281  
     826A      4.067287   827A      4.075463   828A      4.082802  
     829A      4.094303   830A      4.099871   831A      4.110841  
     832A      4.113498   833A      4.132972   834A      4.138415  
     835A      4.146203   836A      4.149150   837A      4.155832  
     838A      4.170122   839A      4.171150   840A      4.175875  
     841A      4.183161   842A      4.191846   843A      4.200356  
     844A      4.204733   845A      4.207064   846A      4.213374  
     847A      4.220322   848A      4.226246   849A      4.236492  
     850A      4.240228   851A      4.251995   852A      4.257108  
     853A      4.261475   854A      4.266611   855A      4.273142  
     856A      4.277291   857A      4.292281   858A      4.297802  
     859A      4.303214   860A      4.307339   861A      4.315619  
     862A      4.319004   863A      4.323887   864A      4.334625  
     865A      4.338667   866A      4.342116   867A      4.357309  
     868A      4.363184   869A      4.381960   870A      4.383291  
     871A      4.389596   872A      4.397306   873A      4.403230  
     874A      4.411190   875A      4.418167   876A      4.422477  
     877A      4.428034   878A      4.436729   879A      4.444803  
     880A      4.452559   881A      4.455806   882A      4.474233  
     883A      4.476507   884A      4.480674   885A      4.493284  
     886A      4.509570   887A      4.509931   888A      4.512687  
     889A      4.520084   890A      4.535849   891A      4.538111  
     892A      4.551830   893A      4.560213   894A      4.564263  
     895A      4.566480   896A      4.577699   897A      4.587407  
     898A      4.597092   899A      4.605529   900A      4.608604  
     901A      4.614425   902A      4.620397   903A      4.628294  
     904A      4.633691   905A      4.646960   906A      4.652245  
     907A      4.660085   908A      4.671710   909A      4.675566  
     910A      4.678693   911A      4.696798   912A      4.700251  
     913A      4.711162   914A      4.716290   915A      4.728473  
     916A      4.739689   917A      4.747819   918A      4.751199  
     919A      4.769788   920A      4.776062   921A      4.780558  
     922A      4.799050   923A      4.800836   924A      4.813568  
     925A      4.814825   926A      4.828632   927A      4.845121  
     928A      4.849219   929A      4.852612   930A      4.860126  
     931A      4.864046   932A      4.864854   933A      4.884490  
     934A      4.887742   935A      4.907267   936A      4.914226  
     937A      4.920559   938A      4.932034   939A      4.936457  
     940A      4.944344   941A      4.959563   942A      4.964301  
     943A      4.969385   944A      4.984195   945A      4.991425  
     946A      5.001199   947A      5.011376   948A      5.016849  
     949A      5.028988   950A      5.034979   951A      5.049527  
     952A      5.055369   953A      5.072032   954A      5.076531  
     955A      5.094577   956A      5.106563   957A      5.110841  
     958A      5.128099   959A      5.129713   960A      5.136836  
     961A      5.146513   962A      5.161527   963A      5.187028  
     964A      5.196534   965A      5.202237   966A      5.215132  
     967A      5.227556   968A      5.233637   969A      5.244415  
     970A      5.256555   971A      5.270133   972A      5.283437  
     973A      5.294447   974A      5.296416   975A      5.309557  
     976A      5.313549   977A      5.316646   978A      5.329431  
     979A      5.350822   980A      5.354947   981A      5.362249  
     982A      5.374007   983A      5.393049   984A      5.398395  
     985A      5.415148   986A      5.422262   987A      5.438011  
     988A      5.446155   989A      5.460661   990A      5.476094  
     991A      5.485116   992A      5.492942   993A      5.497855  
     994A      5.520201   995A      5.524259   996A      5.536080  
     997A      5.549806   998A      5.552541   999A      5.563854  
    1000A      5.566618  1001A      5.576263  1002A      5.595841  
    1003A      5.606513  1004A      5.612952  1005A      5.619158  
    1006A      5.635496  1007A      5.644161  1008A      5.648998  
    1009A      5.663483  1010A      5.673898  1011A      5.681644  
    1012A      5.686510  1013A      5.697589  1014A      5.699994  
    1015A      5.710493  1016A      5.720220  1017A      5.728723  
    1018A      5.738257  1019A      5.748826  1020A      5.762975  
    1021A      5.772373  1022A      5.783765  1023A      5.789573  
    1024A      5.799070  1025A      5.807556  1026A      5.815013  
    1027A      5.834253  1028A      5.836521  1029A      5.852894  
    1030A      5.864666  1031A      5.876624  1032A      5.892978  
    1033A      5.901407  1034A      5.903424  1035A      5.931689  
    1036A      5.935020  1037A      5.948770  1038A      5.964577  
    1039A      5.965834  1040A      5.976049  1041A      5.981683  
    1042A      5.989460  1043A      6.001595  1044A      6.013045  
    1045A      6.023851  1046A      6.028979  1047A      6.054027  
    1048A      6.061380  1049A      6.080668  1050A      6.101407  
    1051A      6.109807  1052A      6.116160  1053A      6.131324  
    1054A      6.156627  1055A      6.159602  1056A      6.170199  
    1057A      6.176635  1058A      6.187607  1059A      6.206760  
    1060A      6.211488  1061A      6.214785  1062A      6.217631  
    1063A      6.228638  1064A      6.239776  1065A      6.251082  
    1066A      6.254281  1067A      6.284639  1068A      6.305136  
    1069A      6.311674  1070A      6.330666  1071A      6.377332  
    1072A      6.383122  1073A      6.388064  1074A      6.397849  
    1075A      6.472078  1076A      6.481581  1077A      6.505748  
    1078A      6.539323  1079A      6.565605  1080A      6.587225  
    1081A      6.616731  1082A      6.628791  1083A      6.658470  
    1084A      6.691652  1085A      6.728192  1086A      6.734032  
    1087A      6.753292  1088A      6.780405  1089A      6.784038  
    1090A      6.795950  1091A      6.808019  1092A      6.820181  
    1093A      6.839011  1094A      6.841101  1095A      6.853652  
    1096A      6.868455  1097A      6.874401  1098A      6.890227  
    1099A      6.903690  1100A      6.913604  1101A      6.919084  
    1102A      6.932783  1103A      6.957436  1104A      6.967611  
    1105A      6.969802  1106A      6.998248  1107A      7.030902  
    1108A      7.038335  1109A      7.048901  1110A      7.066845  
    1111A      7.095246  1112A      7.111040  1113A      7.115898  
    1114A      7.131711  1115A      7.136531  1116A      7.172766  
    1117A      7.229978  1118A      7.240493  1119A      7.257648  
    1120A      7.275989  1121A      7.325941  1122A      7.339565  
    1123A      7.345085  1124A      7.391249  1125A      7.411100  
    1126A      7.437336  1127A      7.482927  1128A      7.500642  
    1129A      7.517196  1130A      7.520223  1131A      7.546942  
    1132A      7.571868  1133A      7.581876  1134A      7.592262  
    1135A      7.675324  1136A      7.684972  1137A      7.753378  
    1138A      7.800287  1139A      7.826875  1140A      7.858640  
    1141A      7.865957  1142A      7.879709  1143A      7.900920  
    1144A      7.933286  1145A      7.944226  1146A      7.996028  
    1147A      8.019371  1148A      8.033945  1149A      8.045565  
    1150A      8.099552  1151A      8.101195  1152A      8.128803  
    1153A      8.140388  1154A     16.295380  1155A     16.368387  
    1156A     16.509679  1157A     16.635807  1158A     16.755371  
    1159A     16.929075  1160A     17.202635  1161A     17.337609  
    1162A     18.043520  1163A     18.380249  1164A     18.663606  
    1165A     19.335681  1166A     19.532159  1167A     19.624766  
    1168A     20.678579  1169A     20.797736  1170A     21.118653  
    1171A     21.275429  1172A     21.606029  1173A     21.635485  

    Final Occupation by Irrep:
              A 
    DOCC [    72 ]

  @DF-RHF Final Energy:  -991.25322103718304

   => Energetics <=

    Nuclear Repulsion Energy =           1698.8225541067238282
    One-Electron Energy =               -4731.5603002297993953
    Two-Electron Energy =                2041.4845250858923009
    Total Energy =                       -991.2532210371830388

Computation Completed


Properties will be evaluated at   0.000000,   0.000000,   0.000000 [a0]

Properties computed using the SCF density matrix

  Nuclear Dipole Moment: [e a0]
     X:     5.3867      Y:    -1.2546      Z:     0.5782

  Electronic Dipole Moment: [e a0]
     X:    -6.4691      Y:     1.3831      Z:    -1.4053

  Dipole Moment: [e a0]
     X:    -1.0824      Y:     0.1286      Z:    -0.8271     Total:     1.3683

  Dipole Moment: [D]
     X:    -2.7511      Y:     0.3268      Z:    -2.1023     Total:     3.4778


*** tstop() called on node150.bme.utexas.edu at Sat Jan 20 13:48:56 2024
Module time:
	user time   =    1167.00 seconds =      19.45 minutes
	system time =      10.69 seconds =       0.18 minutes
	total time  =        169 seconds =       2.82 minutes
Total time:
	user time   =    1167.00 seconds =      19.45 minutes
	system time =      10.69 seconds =       0.18 minutes
	total time  =        169 seconds =       2.82 minutes

*** tstart() called on node150.bme.utexas.edu
*** at Sat Jan 20 13:48:56 2024


  //>>>>>>>>>>>>>>>>>>>>>>>>>>>>>>>>>>>//
  //               DFMP2               //
  //<<<<<<<<<<<<<<<<<<<<<<<<<<<<<<<<<<<//

   => Loading Basis Set <=

    Name: (AUG-CC-PVTZ AUX)
    Role: RIFIT
    Keyword: DF_BASIS_MP2
    atoms 1, 5, 9, 11-12, 17, 21            entry N          line   206 file /opt/anaconda/envs/psi4v1.5/share/psi4/basis/aug-cc-pvtz-ri.gbs 
    atoms 2, 4, 14-16, 18, 22, 27, 29-31    entry H          line    30 file /opt/anaconda/envs/psi4v1.5/share/psi4/basis/aug-cc-pvtz-ri.gbs 
    atoms 3, 6-7, 10, 13, 19, 23, 25-26, 28 entry C          line   148 file /opt/anaconda/envs/psi4v1.5/share/psi4/basis/aug-cc-pvtz-ri.gbs 
    atoms 8, 20, 24                         entry O          line   264 file /opt/anaconda/envs/psi4v1.5/share/psi4/basis/aug-cc-pvtz-ri.gbs 

	 --------------------------------------------------------
	                          DF-MP2                         
	      2nd-Order Density-Fitted Moller-Plesset Theory     
	              RMP2 Wavefunction,   8 Threads             
	                                                         
	        Rob Parrish, Justin Turney, Andy Simmonett,      
	           Ed Hohenstein, and C. David Sherrill          
	 --------------------------------------------------------

   => Auxiliary Basis Set <=

  Basis Set: (AUG-CC-PVTZ AUX)
    Blend: AUG-CC-PVTZ-RI
    Number of shells: 714
    Number of basis functions: 2626
    Number of Cartesian functions: 3325
    Spherical Harmonics?: true
    Max angular momentum: 4

	 --------------------------------------------------------
	                 NBF =  1173, NAUX =  2626
	 --------------------------------------------------------
	   CLASS    FOCC     OCC    AOCC    AVIR     VIR    FVIR
	   PAIRS      20      72      52    1101    1101       0
	 --------------------------------------------------------

	 Will save fitting metric to file 97.

	-----------------------------------------------------------
	 ==================> DF-MP2 Energies <==================== 
	-----------------------------------------------------------
	 Reference Energy          =    -991.2532210371830388 [Eh]
	 Singles Energy            =      -0.0000000000000000 [Eh]
	 Same-Spin Energy          =      -0.9922156772264634 [Eh]
	 Opposite-Spin Energy      =      -2.7670394866494199 [Eh]
	 Correlation Energy        =      -3.7592551638758831 [Eh]
	 Total Energy              =    -995.0124762010589166 [Eh]
	-----------------------------------------------------------
	 ================> DF-SCS-MP2 Energies <================== 
	-----------------------------------------------------------
	 SCS Same-Spin Scale       =       0.3333333333333333 [-]
	 SCS Opposite-Spin Scale   =       1.2000000000000000 [-]
	 SCS Same-Spin Energy      =      -0.3307385590754878 [Eh]
	 SCS Opposite-Spin Energy  =      -3.3204473839793036 [Eh]
	 SCS Correlation Energy    =      -3.6511859430547915 [Eh]
	 SCS Total Energy          =    -994.9044069802378090 [Eh]
	-----------------------------------------------------------


*** tstop() called on node150.bme.utexas.edu at Sat Jan 20 13:50:02 2024
Module time:
	user time   =     417.29 seconds =       6.95 minutes
	system time =       6.01 seconds =       0.10 minutes
	total time  =         66 seconds =       1.10 minutes
Total time:
	user time   =    1584.30 seconds =      26.40 minutes
	system time =      16.70 seconds =       0.28 minutes
	total time  =        235 seconds =       3.92 minutes

  //>>>>>>>>>>>>>>>>>>>>>>>>>>>>>>>>>>>//
  //            Monomer A HF           //
  //<<<<<<<<<<<<<<<<<<<<<<<<<<<<<<<<<<<//


*** tstart() called on node150.bme.utexas.edu
*** at Sat Jan 20 13:50:02 2024

   => Loading Basis Set <=

    Name: AUG-CC-PVTZ
    Role: ORBITAL
    Keyword: BASIS
    atoms 1, 5, 9, 11-12, 17, 21            entry N          line   285 file /opt/anaconda/envs/psi4v1.5/share/psi4/basis/aug-cc-pvtz.gbs 
    atoms 2, 4, 14-16, 18, 22, 27, 29-31    entry H          line    40 file /opt/anaconda/envs/psi4v1.5/share/psi4/basis/aug-cc-pvtz.gbs 
    atoms 3, 6-7, 10, 13, 19, 23, 25-26, 28 entry C          line   239 file /opt/anaconda/envs/psi4v1.5/share/psi4/basis/aug-cc-pvtz.gbs 
    atoms 8, 20, 24                         entry O          line   331 file /opt/anaconda/envs/psi4v1.5/share/psi4/basis/aug-cc-pvtz.gbs 


         ---------------------------------------------------------
                                   SCF
               by Justin Turney, Rob Parrish, Andy Simmonett
                          and Daniel G. A. Smith
                              RHF Reference
                        8 Threads,  76293 MiB Core
         ---------------------------------------------------------

  ==> Geometry <==

    Molecular point group: c1
    Full point group: C1

    Geometry (in Angstrom), charge = 0, multiplicity = 1:

       Center              X                  Y                   Z               Mass       
    ------------   -----------------  -----------------  -----------------  -----------------
         N           -2.845496057098    -0.494999795978    -0.036906018192    14.003074004430
         H           -3.467386057098    -0.440249795978    -0.836586018192     1.007825032230
         C           -2.671656057098    -1.551999795978     0.822313981808    12.000000000000
         H           -3.334106057098    -2.408679795978     0.816843981808     1.007825032230
         N           -1.653816057098    -1.379849795978     1.656323981808    14.003074004430
         C           -1.143266057098    -0.150979795978     1.298753981808    12.000000000000
         C            0.023293942902     0.536660204022     1.791813981808    12.000000000000
         O            0.808343942902     0.237200204022     2.686883981808    15.994914619570
         N            0.222763942902     1.730180204022     1.033913981808    14.003074004430
         C           -0.556626057098     2.181460204022    -0.001976018192    12.000000000000
         N           -0.095276057098     3.290580204022    -0.682496018192    14.003074004430
         N           -1.645026057098     1.581800204022    -0.422956018192    14.003074004430
         C           -1.854986057098     0.408820204022     0.237693981808    12.000000000000
         H            1.134173942902     2.159300204022     1.187223981808     1.007825032230
         H            0.408063942902     3.981330204022    -0.137136018192     1.007825032230
         H           -0.813716057098     3.694760204022    -1.274246018192     1.007825032230
      Gh(N)           0.143933942902    -2.018649795978    -1.066666018192    14.003074004430
      Gh(H)          -0.586066057098    -2.721339795978    -1.076206018192     1.007825032230
      Gh(C)          -0.094056057098    -0.919099795978    -1.869556018192    12.000000000000
      Gh(O)          -1.054526057098    -0.827979795978    -2.629206018192    15.994914619570
      Gh(N)           0.884443942902     0.053310204022    -1.730096018192    14.003074004430
      Gh(H)           0.731063942902     0.907880204022    -2.262306018192     1.007825032230
      Gh(C)           1.946493942902     0.090120204022    -0.814076018192    12.000000000000
      Gh(O)           2.663433942902     1.090890204022    -0.730746018192    15.994914619570
      Gh(C)           2.095103942902    -1.116119795978    -0.008276018192    12.000000000000
      Gh(C)           1.167023942902    -2.095049795978    -0.144826018192    12.000000000000
      Gh(H)           1.180123942902    -2.997859795978     0.458323981808     1.007825032230
      Gh(C)           3.207613942902    -1.161999795978     0.990853981808    12.000000000000
      Gh(H)           3.266323942902    -2.148919795978     1.457123981808     1.007825032230
      Gh(H)           4.162813942902    -0.938289795978     0.508233981808     1.007825032230
      Gh(H)           3.036903942902    -0.420169795978     1.775123981808     1.007825032230

  Running in c1 symmetry.

  Rotational constants: A =      0.01538  B =      0.01304  C =      0.01212 [cm^-1]
  Rotational constants: A =    461.01822  B =    390.83381  C =    363.42892 [MHz]
  Nuclear repulsion =  594.003092965492669

  Charge       = 0
  Multiplicity = 1
  Electrons    = 78
  Nalpha       = 39
  Nbeta        = 39

  ==> Algorithm <==

  SCF Algorithm Type is DF.
  DIIS enabled.
  MOM disabled.
  Fractional occupation disabled.
  Guess Type is SAD.
  Energy threshold   = 1.00e-08
  Density threshold  = 1.00e-08
  Integral threshold = 1.00e-12

  ==> Primary Basis <==

  Basis Set: AUG-CC-PVTZ
    Blend: AUG-CC-PVTZ
    Number of shells: 379
    Number of basis functions: 1173
    Number of Cartesian functions: 1375
    Spherical Harmonics?: true
    Max angular momentum: 3

   => Loading Basis Set <=

    Name: (AUG-CC-PVTZ AUX)
    Role: JKFIT
    Keyword: DF_BASIS_SCF
    atoms 1, 5, 9, 11-12, 17, 21            entry N          line   224 file /opt/anaconda/envs/psi4v1.5/share/psi4/basis/aug-cc-pvtz-jkfit.gbs 
    atoms 2, 4, 14-16, 18, 22, 27, 29-31    entry H          line    70 file /opt/anaconda/envs/psi4v1.5/share/psi4/basis/aug-cc-pvtz-jkfit.gbs 
    atoms 3, 6-7, 10, 13, 19, 23, 25-26, 28 entry C          line   162 file /opt/anaconda/envs/psi4v1.5/share/psi4/basis/aug-cc-pvtz-jkfit.gbs 
    atoms 8, 20, 24                         entry O          line   286 file /opt/anaconda/envs/psi4v1.5/share/psi4/basis/aug-cc-pvtz-jkfit.gbs 

  ==> Integral Setup <==

  ==> DiskDFJK: Density-Fitted J/K Matrices <==

    J tasked:                  Yes
    K tasked:                  Yes
    wK tasked:                  No
    OpenMP threads:              8
    Integrals threads:           8
    Memory [MiB]:            57220
    Algorithm:                Core
    Integral Cache:           LOAD
    Schwarz Cutoff:          1E-12
    Fitting Condition:       1E-10

   => Auxiliary Basis Set <=

  Basis Set: (AUG-CC-PVTZ AUX)
    Blend: AUG-CC-PVTZ-JKFIT
    Number of shells: 754
    Number of basis functions: 2586
    Number of Cartesian functions: 3225
    Spherical Harmonics?: true
    Max angular momentum: 4

  Minimum eigenvalue in the overlap matrix is 7.5833758673E-07.
  Reciprocal condition number of the overlap matrix is 3.0190676970E-08.
    Using symmetric orthogonalization.

  ==> Pre-Iterations <==

  SCF Guess: Superposition of Atomic Densities via on-the-fly atomic UHF (no occupation information).

   -------------------------
    Irrep   Nso     Nmo    
   -------------------------
     A       1173    1173 
   -------------------------
    Total    1173    1173
   -------------------------

  ==> Iterations <==

                           Total Energy        Delta E     RMS |[F,P]|

   @DF-RHF iter SAD:  -539.31614418538493   -5.39316e+02   0.00000e+00 
   @DF-RHF iter   1:  -539.27830082343860    3.78434e-02   6.76791e-04 DIIS
   @DF-RHF iter   2:  -539.50170290529809   -2.23402e-01   4.00930e-04 DIIS
   @DF-RHF iter   3:  -539.58043788592477   -7.87350e-02   8.36781e-05 DIIS
   @DF-RHF iter   4:  -539.58554180316162   -5.10392e-03   3.44819e-05 DIIS
   @DF-RHF iter   5:  -539.58651947726230   -9.77674e-04   7.25655e-06 DIIS
   @DF-RHF iter   6:  -539.58662181065290   -1.02333e-04   3.79721e-06 DIIS
   @DF-RHF iter   7:  -539.58664838719176   -2.65765e-05   1.58254e-06 DIIS
   @DF-RHF iter   8:  -539.58665345469933   -5.06751e-06   5.52767e-07 DIIS
   @DF-RHF iter   9:  -539.58665404563567   -5.90936e-07   2.17538e-07 DIIS
   @DF-RHF iter  10:  -539.58665414912070   -1.03485e-07   8.72485e-08 DIIS
   @DF-RHF iter  11:  -539.58665416412100   -1.50003e-08   3.34063e-08 DIIS
   @DF-RHF iter  12:  -539.58665416610665   -1.98565e-09   1.23511e-08 DIIS
   @DF-RHF iter  13:  -539.58665416638871   -2.82057e-10   5.40658e-09 DIIS
  Energy and wave function converged.


  ==> Post-Iterations <==

    Orbital Energies [Eh]
    ---------------------

    Doubly Occupied:                                                      

       1A    -20.523484     2A    -15.635204     3A    -15.633063  
       4A    -15.614105     5A    -15.571560     6A    -15.565052  
       7A    -11.399387     8A    -11.367569     9A    -11.326537  
      10A    -11.313522    11A    -11.249970    12A     -1.392898  
      13A     -1.359940    14A     -1.336168    15A     -1.222371  
      16A     -1.218485    17A     -1.177489    18A     -1.030009  
      19A     -0.906687    20A     -0.886020    21A     -0.844189  
      22A     -0.800641    23A     -0.741106    24A     -0.732131  
      25A     -0.701075    26A     -0.672868    27A     -0.657575  
      28A     -0.633207    29A     -0.612867    30A     -0.599935  
      31A     -0.598295    32A     -0.548193    33A     -0.498864  
      34A     -0.460826    35A     -0.442723    36A     -0.433349  
      37A     -0.431665    38A     -0.411885    39A     -0.300672  

    Virtual:                                                              

      40A      0.013978    41A      0.021163    42A      0.029354  
      43A      0.033786    44A      0.041444    45A      0.044116  
      46A      0.046464    47A      0.055296    48A      0.059588  
      49A      0.061755    50A      0.065317    51A      0.076344  
      52A      0.078010    53A      0.080070    54A      0.084656  
      55A      0.087024    56A      0.087681    57A      0.093547  
      58A      0.097759    59A      0.101108    60A      0.103552  
      61A      0.108980    62A      0.112207    63A      0.117509  
      64A      0.117690    65A      0.119231    66A      0.121636  
      67A      0.125848    68A      0.127750    69A      0.128767  
      70A      0.131612    71A      0.133868    72A      0.138642  
      73A      0.143822    74A      0.145888    75A      0.148459  
      76A      0.148893    77A      0.156714    78A      0.159992  
      79A      0.164423    80A      0.165582    81A      0.170398  
      82A      0.173943    83A      0.176396    84A      0.177327  
      85A      0.180582    86A      0.185294    87A      0.189460  
      88A      0.191941    89A      0.196475    90A      0.197156  
      91A      0.199112    92A      0.203458    93A      0.208031  
      94A      0.211736    95A      0.214376    96A      0.216267  
      97A      0.219373    98A      0.226419    99A      0.229828  
     100A      0.231965   101A      0.234146   102A      0.235948  
     103A      0.242497   104A      0.244500   105A      0.248754  
     106A      0.251177   107A      0.253196   108A      0.258706  
     109A      0.263843   110A      0.265692   111A      0.267380  
     112A      0.268645   113A      0.275347   114A      0.278381  
     115A      0.280185   116A      0.284461   117A      0.286163  
     118A      0.290095   119A      0.292022   120A      0.294740  
     121A      0.298909   122A      0.303557   123A      0.305993  
     124A      0.309253   125A      0.309547   126A      0.316955  
     127A      0.320907   128A      0.324216   129A      0.325845  
     130A      0.332280   131A      0.334999   132A      0.337860  
     133A      0.343298   134A      0.347838   135A      0.350888  
     136A      0.355027   137A      0.358213   138A      0.362177  
     139A      0.363088   140A      0.366899   141A      0.368152  
     142A      0.372365   143A      0.377108   144A      0.379642  
     145A      0.383027   146A      0.384730   147A      0.393014  
     148A      0.393578   149A      0.394746   150A      0.397773  
     151A      0.402854   152A      0.406672   153A      0.411404  
     154A      0.415347   155A      0.418339   156A      0.418993  
     157A      0.424041   158A      0.430835   159A      0.433273  
     160A      0.435706   161A      0.437697   162A      0.442546  
     163A      0.447701   164A      0.449836   165A      0.452390  
     166A      0.456781   167A      0.459059   168A      0.462568  
     169A      0.463682   170A      0.469703   171A      0.472526  
     172A      0.473715   173A      0.474497   174A      0.478137  
     175A      0.483331   176A      0.488529   177A      0.491862  
     178A      0.493534   179A      0.497896   180A      0.499899  
     181A      0.502207   182A      0.503633   183A      0.508766  
     184A      0.511727   185A      0.516599   186A      0.520928  
     187A      0.523511   188A      0.527455   189A      0.528919  
     190A      0.530729   191A      0.535855   192A      0.538590  
     193A      0.542186   194A      0.546112   195A      0.550677  
     196A      0.555556   197A      0.559240   198A      0.561086  
     199A      0.565958   200A      0.572195   201A      0.573822  
     202A      0.577197   203A      0.580210   204A      0.580706  
     205A      0.585483   206A      0.593149   207A      0.595503  
     208A      0.597459   209A      0.601670   210A      0.603311  
     211A      0.608341   212A      0.613004   213A      0.618420  
     214A      0.622301   215A      0.623341   216A      0.627365  
     217A      0.631256   218A      0.632087   219A      0.637808  
     220A      0.645087   221A      0.646692   222A      0.653589  
     223A      0.658456   224A      0.662107   225A      0.667534  
     226A      0.668925   227A      0.673027   228A      0.674248  
     229A      0.682898   230A      0.688309   231A      0.692994  
     232A      0.696052   233A      0.699425   234A      0.700500  
     235A      0.707223   236A      0.713419   237A      0.714407  
     238A      0.720006   239A      0.722849   240A      0.726512  
     241A      0.731728   242A      0.736185   243A      0.740081  
     244A      0.744137   245A      0.747059   246A      0.755244  
     247A      0.756263   248A      0.760652   249A      0.762068  
     250A      0.767867   251A      0.771343   252A      0.774934  
     253A      0.776578   254A      0.783322   255A      0.788771  
     256A      0.790679   257A      0.793224   258A      0.796451  
     259A      0.802597   260A      0.810194   261A      0.810472  
     262A      0.818360   263A      0.820791   264A      0.827915  
     265A      0.829115   266A      0.832181   267A      0.840755  
     268A      0.843299   269A      0.847607   270A      0.854982  
     271A      0.858641   272A      0.862521   273A      0.863237  
     274A      0.868192   275A      0.871434   276A      0.878576  
     277A      0.885869   278A      0.893439   279A      0.893870  
     280A      0.902944   281A      0.905922   282A      0.911222  
     283A      0.914602   284A      0.920578   285A      0.921796  
     286A      0.924310   287A      0.926797   288A      0.934178  
     289A      0.937439   290A      0.940677   291A      0.946331  
     292A      0.952547   293A      0.958416   294A      0.960514  
     295A      0.965290   296A      0.968405   297A      0.973124  
     298A      0.976088   299A      0.984181   300A      0.988339  
     301A      0.989954   302A      0.993942   303A      0.995819  
     304A      1.000802   305A      1.004992   306A      1.010682  
     307A      1.013133   308A      1.018220   309A      1.022070  
     310A      1.025516   311A      1.027699   312A      1.033795  
     313A      1.036179   314A      1.038872   315A      1.047527  
     316A      1.052138   317A      1.055344   318A      1.059745  
     319A      1.062761   320A      1.067163   321A      1.072949  
     322A      1.076569   323A      1.080917   324A      1.086180  
     325A      1.088388   326A      1.093399   327A      1.095412  
     328A      1.097155   329A      1.102819   330A      1.106046  
     331A      1.113198   332A      1.115013   333A      1.118234  
     334A      1.122467   335A      1.128335   336A      1.130018  
     337A      1.135281   338A      1.136301   339A      1.142516  
     340A      1.150160   341A      1.155911   342A      1.160785  
     343A      1.165128   344A      1.166729   345A      1.169244  
     346A      1.171943   347A      1.177209   348A      1.182244  
     349A      1.185960   350A      1.189504   351A      1.192202  
     352A      1.197847   353A      1.202665   354A      1.208118  
     355A      1.210690   356A      1.216919   357A      1.223330  
     358A      1.224528   359A      1.227371   360A      1.231864  
     361A      1.236527   362A      1.239424   363A      1.245686  
     364A      1.249525   365A      1.252700   366A      1.259682  
     367A      1.264500   368A      1.269172   369A      1.273611  
     370A      1.276638   371A      1.278718   372A      1.282915  
     373A      1.288530   374A      1.292702   375A      1.296762  
     376A      1.302325   377A      1.310762   378A      1.317061  
     379A      1.319081   380A      1.324055   381A      1.326842  
     382A      1.329588   383A      1.332610   384A      1.335252  
     385A      1.340208   386A      1.346067   387A      1.350251  
     388A      1.352908   389A      1.354389   390A      1.357166  
     391A      1.365955   392A      1.366931   393A      1.371117  
     394A      1.376072   395A      1.383379   396A      1.386295  
     397A      1.393231   398A      1.394158   399A      1.402812  
     400A      1.403873   401A      1.407566   402A      1.413744  
     403A      1.417786   404A      1.424316   405A      1.430573  
     406A      1.430854   407A      1.434731   408A      1.440188  
     409A      1.445610   410A      1.451784   411A      1.452770  
     412A      1.455158   413A      1.464262   414A      1.469803  
     415A      1.472064   416A      1.473826   417A      1.480382  
     418A      1.482728   419A      1.488071   420A      1.492917  
     421A      1.500625   422A      1.502304   423A      1.508715  
     424A      1.513337   425A      1.521719   426A      1.523509  
     427A      1.528972   428A      1.533541   429A      1.539241  
     430A      1.544573   431A      1.549696   432A      1.558414  
     433A      1.561271   434A      1.565412   435A      1.569388  
     436A      1.571209   437A      1.583855   438A      1.587016  
     439A      1.589151   440A      1.592151   441A      1.601884  
     442A      1.606549   443A      1.614490   444A      1.619847  
     445A      1.623372   446A      1.625835   447A      1.632161  
     448A      1.634551   449A      1.644042   450A      1.646956  
     451A      1.651924   452A      1.653699   453A      1.662260  
     454A      1.663756   455A      1.670579   456A      1.676932  
     457A      1.682047   458A      1.686868   459A      1.691251  
     460A      1.693731   461A      1.697393   462A      1.703005  
     463A      1.711597   464A      1.718453   465A      1.723084  
     466A      1.731707   467A      1.736442   468A      1.740203  
     469A      1.744038   470A      1.746519   471A      1.751508  
     472A      1.758661   473A      1.765356   474A      1.772849  
     475A      1.781285   476A      1.787212   477A      1.789218  
     478A      1.799328   479A      1.801273   480A      1.805181  
     481A      1.809258   482A      1.815939   483A      1.824216  
     484A      1.827721   485A      1.832942   486A      1.840656  
     487A      1.845455   488A      1.850259   489A      1.852137  
     490A      1.859624   491A      1.865663   492A      1.869402  
     493A      1.871066   494A      1.876771   495A      1.884756  
     496A      1.891361   497A      1.898780   498A      1.901888  
     499A      1.917581   500A      1.918935   501A      1.929549  
     502A      1.939924   503A      1.941722   504A      1.948195  
     505A      1.951212   506A      1.957172   507A      1.965576  
     508A      1.971009   509A      1.973429   510A      1.979307  
     511A      1.983052   512A      1.988985   513A      1.994712  
     514A      2.004641   515A      2.010327   516A      2.015397  
     517A      2.025326   518A      2.030554   519A      2.033508  
     520A      2.040661   521A      2.049830   522A      2.055465  
     523A      2.060611   524A      2.066018   525A      2.071002  
     526A      2.073805   527A      2.076624   528A      2.086187  
     529A      2.092768   530A      2.100648   531A      2.103948  
     532A      2.113110   533A      2.116220   534A      2.119941  
     535A      2.127667   536A      2.132583   537A      2.136017  
     538A      2.142237   539A      2.146568   540A      2.150967  
     541A      2.154828   542A      2.163529   543A      2.170011  
     544A      2.173810   545A      2.177336   546A      2.184416  
     547A      2.189289   548A      2.194164   549A      2.205559  
     550A      2.208496   551A      2.221082   552A      2.222070  
     553A      2.231330   554A      2.241121   555A      2.247028  
     556A      2.253605   557A      2.256591   558A      2.260921  
     559A      2.269143   560A      2.273106   561A      2.276501  
     562A      2.283994   563A      2.296378   564A      2.296975  
     565A      2.308361   566A      2.312763   567A      2.315545  
     568A      2.323587   569A      2.327820   570A      2.332956  
     571A      2.344329   572A      2.346003   573A      2.356574  
     574A      2.358869   575A      2.369590   576A      2.375609  
     577A      2.382429   578A      2.387624   579A      2.389972  
     580A      2.397014   581A      2.407379   582A      2.415315  
     583A      2.415844   584A      2.424513   585A      2.428415  
     586A      2.433242   587A      2.436574   588A      2.440165  
     589A      2.447656   590A      2.455704   591A      2.468014  
     592A      2.471028   593A      2.479846   594A      2.484017  
     595A      2.487416   596A      2.494561   597A      2.502889  
     598A      2.505339   599A      2.511043   600A      2.516821  
     601A      2.518386   602A      2.531152   603A      2.535167  
     604A      2.535606   605A      2.546066   606A      2.547690  
     607A      2.555901   608A      2.569051   609A      2.576027  
     610A      2.585333   611A      2.590553   612A      2.593962  
     613A      2.604293   614A      2.606966   615A      2.610762  
     616A      2.617949   617A      2.620496   618A      2.626168  
     619A      2.635204   620A      2.645644   621A      2.648985  
     622A      2.654255   623A      2.660416   624A      2.671853  
     625A      2.679651   626A      2.690205   627A      2.699831  
     628A      2.708458   629A      2.714003   630A      2.724618  
     631A      2.726822   632A      2.730640   633A      2.734433  
     634A      2.748375   635A      2.752429   636A      2.754947  
     637A      2.770210   638A      2.778492   639A      2.784433  
     640A      2.794271   641A      2.795547   642A      2.807001  
     643A      2.811947   644A      2.819453   645A      2.822393  
     646A      2.829175   647A      2.834578   648A      2.838410  
     649A      2.856942   650A      2.858616   651A      2.862493  
     652A      2.867202   653A      2.880752   654A      2.884348  
     655A      2.887423   656A      2.899500   657A      2.901164  
     658A      2.904611   659A      2.921550   660A      2.930470  
     661A      2.937874   662A      2.946984   663A      2.951142  
     664A      2.956181   665A      2.963380   666A      2.975482  
     667A      2.982046   668A      2.983724   669A      2.989610  
     670A      3.002171   671A      3.009067   672A      3.013943  
     673A      3.020262   674A      3.028357   675A      3.034348  
     676A      3.039028   677A      3.057916   678A      3.059895  
     679A      3.076338   680A      3.078593   681A      3.083322  
     682A      3.093117   683A      3.101862   684A      3.107658  
     685A      3.123238   686A      3.134456   687A      3.136988  
     688A      3.149510   689A      3.164168   690A      3.168544  
     691A      3.179329   692A      3.188552   693A      3.191387  
     694A      3.200614   695A      3.204888   696A      3.221951  
     697A      3.235435   698A      3.245193   699A      3.259934  
     700A      3.263795   701A      3.281287   702A      3.290969  
     703A      3.309372   704A      3.314589   705A      3.334353  
     706A      3.341769   707A      3.354610   708A      3.362546  
     709A      3.378178   710A      3.386390   711A      3.396047  
     712A      3.404519   713A      3.408675   714A      3.438100  
     715A      3.440401   716A      3.457270   717A      3.461992  
     718A      3.476208   719A      3.484958   720A      3.500937  
     721A      3.509704   722A      3.524293   723A      3.549192  
     724A      3.560340   725A      3.563202   726A      3.591359  
     727A      3.599847   728A      3.610073   729A      3.612926  
     730A      3.622799   731A      3.628928   732A      3.652722  
     733A      3.661875   734A      3.666906   735A      3.688365  
     736A      3.704494   737A      3.724310   738A      3.730685  
     739A      3.738387   740A      3.744951   741A      3.745570  
     742A      3.761517   743A      3.764864   744A      3.779691  
     745A      3.793021   746A      3.800459   747A      3.805162  
     748A      3.822379   749A      3.826671   750A      3.830967  
     751A      3.841592   752A      3.851075   753A      3.859159  
     754A      3.876123   755A      3.878915   756A      3.886011  
     757A      3.892224   758A      3.900879   759A      3.912471  
     760A      3.917592   761A      3.928729   762A      3.932638  
     763A      3.946411   764A      3.954371   765A      3.978881  
     766A      3.989674   767A      4.003021   768A      4.010371  
     769A      4.024645   770A      4.036952   771A      4.046158  
     772A      4.052357   773A      4.060541   774A      4.071796  
     775A      4.085186   776A      4.091343   777A      4.105291  
     778A      4.110644   779A      4.122426   780A      4.137948  
     781A      4.139969   782A      4.155600   783A      4.160639  
     784A      4.167938   785A      4.178383   786A      4.187310  
     787A      4.196140   788A      4.199735   789A      4.202258  
     790A      4.209048   791A      4.217132   792A      4.226916  
     793A      4.239135   794A      4.242818   795A      4.253668  
     796A      4.259331   797A      4.271880   798A      4.277159  
     799A      4.284843   800A      4.290776   801A      4.304409  
     802A      4.312191   803A      4.317697   804A      4.328558  
     805A      4.331245   806A      4.334644   807A      4.345119  
     808A      4.350160   809A      4.368240   810A      4.372603  
     811A      4.389152   812A      4.392781   813A      4.403490  
     814A      4.414069   815A      4.416725   816A      4.420018  
     817A      4.428800   818A      4.443867   819A      4.446631  
     820A      4.461530   821A      4.468075   822A      4.471673  
     823A      4.476160   824A      4.485781   825A      4.494794  
     826A      4.510883   827A      4.520369   828A      4.526633  
     829A      4.532583   830A      4.538329   831A      4.551201  
     832A      4.559612   833A      4.567083   834A      4.571704  
     835A      4.585031   836A      4.594631   837A      4.600732  
     838A      4.610030   839A      4.621899   840A      4.624184  
     841A      4.631305   842A      4.638113   843A      4.646750  
     844A      4.654968   845A      4.659739   846A      4.671600  
     847A      4.676186   848A      4.693388   849A      4.696489  
     850A      4.703856   851A      4.712339   852A      4.720511  
     853A      4.730874   854A      4.737677   855A      4.750461  
     856A      4.764240   857A      4.771975   858A      4.779357  
     859A      4.787509   860A      4.794819   861A      4.803473  
     862A      4.812774   863A      4.817236   864A      4.830854  
     865A      4.841431   866A      4.843668   867A      4.864269  
     868A      4.877061   869A      4.880070   870A      4.890027  
     871A      4.892791   872A      4.912317   873A      4.919270  
     874A      4.927414   875A      4.934212   876A      4.942500  
     877A      4.957751   878A      4.959602   879A      4.970561  
     880A      4.973953   881A      4.985157   882A      4.988188  
     883A      4.996660   884A      5.008442   885A      5.021636  
     886A      5.024074   887A      5.036542   888A      5.048445  
     889A      5.050364   890A      5.061326   891A      5.075087  
     892A      5.083475   893A      5.094460   894A      5.097105  
     895A      5.117101   896A      5.124326   897A      5.143339  
     898A      5.154510   899A      5.156844   900A      5.170920  
     901A      5.180121   902A      5.191587   903A      5.205676  
     904A      5.214588   905A      5.226088   906A      5.238065  
     907A      5.241561   908A      5.251331   909A      5.270963  
     910A      5.283095   911A      5.284926   912A      5.290220  
     913A      5.301724   914A      5.314575   915A      5.328395  
     916A      5.331980   917A      5.342426   918A      5.347472  
     919A      5.356500   920A      5.359870   921A      5.368006  
     922A      5.381272   923A      5.390206   924A      5.402831  
     925A      5.406111   926A      5.411295   927A      5.417179  
     928A      5.434810   929A      5.441833   930A      5.452359  
     931A      5.456451   932A      5.458893   933A      5.482754  
     934A      5.487135   935A      5.499357   936A      5.510510  
     937A      5.518805   938A      5.525919   939A      5.539775  
     940A      5.549126   941A      5.553465   942A      5.560931  
     943A      5.569993   944A      5.579053   945A      5.591844  
     946A      5.595954   947A      5.603562   948A      5.613238  
     949A      5.624559   950A      5.636203   951A      5.644255  
     952A      5.656340   953A      5.666054   954A      5.671290  
     955A      5.677628   956A      5.683103   957A      5.700364  
     958A      5.702223   959A      5.712111   960A      5.727720  
     961A      5.732435   962A      5.738264   963A      5.748896  
     964A      5.760447   965A      5.769646   966A      5.778961  
     967A      5.784851   968A      5.791337   969A      5.800902  
     970A      5.818504   971A      5.850115   972A      5.857901  
     973A      5.867000   974A      5.884951   975A      5.888310  
     976A      5.902601   977A      5.910072   978A      5.914336  
     979A      5.930491   980A      5.941106   981A      5.948047  
     982A      5.967818   983A      5.977078   984A      5.981035  
     985A      5.991700   986A      5.999294   987A      6.018191  
     988A      6.029216   989A      6.035724   990A      6.054950  
     991A      6.075130   992A      6.095264   993A      6.107847  
     994A      6.117947   995A      6.125110   996A      6.131703  
     997A      6.162290   998A      6.168983   999A      6.184605  
    1000A      6.189427  1001A      6.201841  1002A      6.212240  
    1003A      6.225525  1004A      6.236564  1005A      6.247568  
    1006A      6.270181  1007A      6.283046  1008A      6.296383  
    1009A      6.302848  1010A      6.313821  1011A      6.348264  
    1012A      6.356077  1013A      6.376588  1014A      6.388096  
    1015A      6.404779  1016A      6.427983  1017A      6.466086  
    1018A      6.478829  1019A      6.500607  1020A      6.531489  
    1021A      6.543627  1022A      6.564124  1023A      6.571428  
    1024A      6.593273  1025A      6.620275  1026A      6.649341  
    1027A      6.666634  1028A      6.678091  1029A      6.699823  
    1030A      6.711325  1031A      6.729919  1032A      6.743623  
    1033A      6.748996  1034A      6.775416  1035A      6.793350  
    1036A      6.799636  1037A      6.822775  1038A      6.835397  
    1039A      6.851275  1040A      6.866096  1041A      6.883295  
    1042A      6.888641  1043A      6.904030  1044A      6.905848  
    1045A      6.927494  1046A      6.951484  1047A      6.963031  
    1048A      6.985937  1049A      7.030684  1050A      7.038598  
    1051A      7.057015  1052A      7.082323  1053A      7.106980  
    1054A      7.119114  1055A      7.164658  1056A      7.190031  
    1057A      7.202296  1058A      7.228114  1059A      7.241334  
    1060A      7.275410  1061A      7.331259  1062A      7.336292  
    1063A      7.352713  1064A      7.362086  1065A      7.397998  
    1066A      7.417412  1067A      7.439624  1068A      7.450122  
    1069A      7.474868  1070A      7.496227  1071A      7.548593  
    1072A      7.578536  1073A      7.620945  1074A      7.656299  
    1075A      7.664864  1076A      7.676313  1077A      7.685458  
    1078A      7.695821  1079A      7.723630  1080A      7.745945  
    1081A      7.773340  1082A      7.784447  1083A      7.796891  
    1084A      7.833167  1085A      7.837504  1086A      7.848156  
    1087A      7.860613  1088A      7.882026  1089A      7.895030  
    1090A      7.899246  1091A      7.912415  1092A      7.924979  
    1093A      7.951438  1094A      7.960745  1095A      7.967381  
    1096A      7.993752  1097A      8.006263  1098A      8.042432  
    1099A      8.055128  1100A      8.078701  1101A      8.085045  
    1102A      8.118024  1103A      8.151091  1104A      8.222768  
    1105A      8.268485  1106A      8.287764  1107A      8.355145  
    1108A      8.373079  1109A      8.377606  1110A      8.431556  
    1111A      8.511237  1112A      8.600739  1113A      8.692856  
    1114A      8.759134  1115A      8.816512  1116A      8.919595  
    1117A      8.975644  1118A      9.036979  1119A      9.184164  
    1120A      9.235758  1121A      9.704835  1122A      9.727392  
    1123A      9.756289  1124A      9.798046  1125A     10.006135  
    1126A     10.033223  1127A     10.054915  1128A     10.108803  
    1129A     10.146369  1130A     10.359551  1131A     10.375954  
    1132A     10.408888  1133A     10.430987  1134A     10.528174  
    1135A     10.575554  1136A     10.641428  1137A     10.823024  
    1138A     11.009828  1139A     11.301696  1140A     11.520641  
    1141A     11.711622  1142A     12.093553  1143A     12.159047  
    1144A     12.189361  1145A     12.206787  1146A     12.437432  
    1147A     12.588317  1148A     12.804900  1149A     12.898314  
    1150A     13.541653  1151A     13.734577  1152A     14.212150  
    1153A     14.251987  1154A     16.367365  1155A     16.631200  
    1156A     16.850841  1157A     17.330088  1158A     18.036216  
    1159A     18.667756  1160A     19.363289  1161A     19.629442  
    1162A     20.714327  1163A     21.244608  1164A     21.597424  
    1165A     52.557615  1166A     53.185711  1167A     54.528053  
    1168A     55.652947  1169A     59.156658  1170A     61.742627  
    1171A     62.440789  1172A     70.295180  1173A     70.868113  

    Final Occupation by Irrep:
              A 
    DOCC [    39 ]

  @DF-RHF Final Energy:  -539.58665416638871

   => Energetics <=

    Nuclear Repulsion Energy =            594.0030929654926695
    One-Electron Energy =               -1913.4763221127107045
    Two-Electron Energy =                 779.8865749808293231
    Total Energy =                       -539.5866541663887119

Computation Completed


Properties will be evaluated at   0.000000,   0.000000,   0.000000 [a0]

Properties computed using the SCF density matrix

  Nuclear Dipole Moment: [e a0]
     X:  -149.1818      Y:    95.4724      Z:   107.6727

  Electronic Dipole Moment: [e a0]
     X:   148.1742      Y:   -93.7785      Z:  -109.6639

  Dipole Moment: [e a0]
     X:    -1.0076      Y:     1.6939      Z:    -1.9912     Total:     2.8017

  Dipole Moment: [D]
     X:    -2.5611      Y:     4.3054      Z:    -5.0611     Total:     7.1211


*** tstop() called on node150.bme.utexas.edu at Sat Jan 20 13:56:24 2024
Module time:
	user time   =    2203.81 seconds =      36.73 minutes
	system time =      15.35 seconds =       0.26 minutes
	total time  =        382 seconds =       6.37 minutes
Total time:
	user time   =    3788.11 seconds =      63.14 minutes
	system time =      32.05 seconds =       0.53 minutes
	total time  =        617 seconds =      10.28 minutes

*** tstart() called on node150.bme.utexas.edu
*** at Sat Jan 20 13:56:24 2024


  //>>>>>>>>>>>>>>>>>>>>>>>>>>>>>>>>>>>//
  //               DFMP2               //
  //<<<<<<<<<<<<<<<<<<<<<<<<<<<<<<<<<<<//

   => Loading Basis Set <=

    Name: (AUG-CC-PVTZ AUX)
    Role: RIFIT
    Keyword: DF_BASIS_MP2
    atoms 1, 5, 9, 11-12, 17, 21            entry N          line   206 file /opt/anaconda/envs/psi4v1.5/share/psi4/basis/aug-cc-pvtz-ri.gbs 
    atoms 2, 4, 14-16, 18, 22, 27, 29-31    entry H          line    30 file /opt/anaconda/envs/psi4v1.5/share/psi4/basis/aug-cc-pvtz-ri.gbs 
    atoms 3, 6-7, 10, 13, 19, 23, 25-26, 28 entry C          line   148 file /opt/anaconda/envs/psi4v1.5/share/psi4/basis/aug-cc-pvtz-ri.gbs 
    atoms 8, 20, 24                         entry O          line   264 file /opt/anaconda/envs/psi4v1.5/share/psi4/basis/aug-cc-pvtz-ri.gbs 

	 --------------------------------------------------------
	                          DF-MP2                         
	      2nd-Order Density-Fitted Moller-Plesset Theory     
	              RMP2 Wavefunction,   8 Threads             
	                                                         
	        Rob Parrish, Justin Turney, Andy Simmonett,      
	           Ed Hohenstein, and C. David Sherrill          
	 --------------------------------------------------------

   => Auxiliary Basis Set <=

  Basis Set: (AUG-CC-PVTZ AUX)
    Blend: AUG-CC-PVTZ-RI
    Number of shells: 714
    Number of basis functions: 2626
    Number of Cartesian functions: 3325
    Spherical Harmonics?: true
    Max angular momentum: 4

	 --------------------------------------------------------
	                 NBF =  1173, NAUX =  2626
	 --------------------------------------------------------
	   CLASS    FOCC     OCC    AOCC    AVIR     VIR    FVIR
	   PAIRS      11      39      28    1134    1134       0
	 --------------------------------------------------------

	 Will attempt to load fitting metric from file 97.

	-----------------------------------------------------------
	 ==================> DF-MP2 Energies <==================== 
	-----------------------------------------------------------
	 Reference Energy          =    -539.5866541663887119 [Eh]
	 Singles Energy            =      -0.0000000000000000 [Eh]
	 Same-Spin Energy          =      -0.5425562838778888 [Eh]
	 Opposite-Spin Energy      =      -1.4998513435725824 [Eh]
	 Correlation Energy        =      -2.0424076274504710 [Eh]
	 Total Energy              =    -541.6290617938391279 [Eh]
	-----------------------------------------------------------
	 ================> DF-SCS-MP2 Energies <================== 
	-----------------------------------------------------------
	 SCS Same-Spin Scale       =       0.3333333333333333 [-]
	 SCS Opposite-Spin Scale   =       1.2000000000000000 [-]
	 SCS Same-Spin Energy      =      -0.1808520946259629 [Eh]
	 SCS Opposite-Spin Energy  =      -1.7998216122870989 [Eh]
	 SCS Correlation Energy    =      -1.9806737069130618 [Eh]
	 SCS Total Energy          =    -541.5673278733017924 [Eh]
	-----------------------------------------------------------


*** tstop() called on node150.bme.utexas.edu at Sat Jan 20 13:57:24 2024
Module time:
	user time   =     285.07 seconds =       4.75 minutes
	system time =       9.67 seconds =       0.16 minutes
	total time  =         60 seconds =       1.00 minutes
Total time:
	user time   =    4073.19 seconds =      67.89 minutes
	system time =      41.72 seconds =       0.70 minutes
	total time  =        677 seconds =      11.28 minutes

  //>>>>>>>>>>>>>>>>>>>>>>>>>>>>>>>>>>>//
  //            Monomer B HF           //
  //<<<<<<<<<<<<<<<<<<<<<<<<<<<<<<<<<<<//


*** tstart() called on node150.bme.utexas.edu
*** at Sat Jan 20 13:57:24 2024

   => Loading Basis Set <=

    Name: AUG-CC-PVTZ
    Role: ORBITAL
    Keyword: BASIS
    atoms 1, 5, 9, 11-12, 17, 21            entry N          line   285 file /opt/anaconda/envs/psi4v1.5/share/psi4/basis/aug-cc-pvtz.gbs 
    atoms 2, 4, 14-16, 18, 22, 27, 29-31    entry H          line    40 file /opt/anaconda/envs/psi4v1.5/share/psi4/basis/aug-cc-pvtz.gbs 
    atoms 3, 6-7, 10, 13, 19, 23, 25-26, 28 entry C          line   239 file /opt/anaconda/envs/psi4v1.5/share/psi4/basis/aug-cc-pvtz.gbs 
    atoms 8, 20, 24                         entry O          line   331 file /opt/anaconda/envs/psi4v1.5/share/psi4/basis/aug-cc-pvtz.gbs 


         ---------------------------------------------------------
                                   SCF
               by Justin Turney, Rob Parrish, Andy Simmonett
                          and Daniel G. A. Smith
                              RHF Reference
                        8 Threads,  76293 MiB Core
         ---------------------------------------------------------

  ==> Geometry <==

    Molecular point group: c1
    Full point group: C1

    Geometry (in Angstrom), charge = 0, multiplicity = 1:

       Center              X                  Y                   Z               Mass       
    ------------   -----------------  -----------------  -----------------  -----------------
      Gh(N)          -2.845496057098    -0.494999795978    -0.036906018192    14.003074004430
      Gh(H)          -3.467386057098    -0.440249795978    -0.836586018192     1.007825032230
      Gh(C)          -2.671656057098    -1.551999795978     0.822313981808    12.000000000000
      Gh(H)          -3.334106057098    -2.408679795978     0.816843981808     1.007825032230
      Gh(N)          -1.653816057098    -1.379849795978     1.656323981808    14.003074004430
      Gh(C)          -1.143266057098    -0.150979795978     1.298753981808    12.000000000000
      Gh(C)           0.023293942902     0.536660204022     1.791813981808    12.000000000000
      Gh(O)           0.808343942902     0.237200204022     2.686883981808    15.994914619570
      Gh(N)           0.222763942902     1.730180204022     1.033913981808    14.003074004430
      Gh(C)          -0.556626057098     2.181460204022    -0.001976018192    12.000000000000
      Gh(N)          -0.095276057098     3.290580204022    -0.682496018192    14.003074004430
      Gh(N)          -1.645026057098     1.581800204022    -0.422956018192    14.003074004430
      Gh(C)          -1.854986057098     0.408820204022     0.237693981808    12.000000000000
      Gh(H)           1.134173942902     2.159300204022     1.187223981808     1.007825032230
      Gh(H)           0.408063942902     3.981330204022    -0.137136018192     1.007825032230
      Gh(H)          -0.813716057098     3.694760204022    -1.274246018192     1.007825032230
         N            0.143933942902    -2.018649795978    -1.066666018192    14.003074004430
         H           -0.586066057098    -2.721339795978    -1.076206018192     1.007825032230
         C           -0.094056057098    -0.919099795978    -1.869556018192    12.000000000000
         O           -1.054526057098    -0.827979795978    -2.629206018192    15.994914619570
         N            0.884443942902     0.053310204022    -1.730096018192    14.003074004430
         H            0.731063942902     0.907880204022    -2.262306018192     1.007825032230
         C            1.946493942902     0.090120204022    -0.814076018192    12.000000000000
         O            2.663433942902     1.090890204022    -0.730746018192    15.994914619570
         C            2.095103942902    -1.116119795978    -0.008276018192    12.000000000000
         C            1.167023942902    -2.095049795978    -0.144826018192    12.000000000000
         H            1.180123942902    -2.997859795978     0.458323981808     1.007825032230
         C            3.207613942902    -1.161999795978     0.990853981808    12.000000000000
         H            3.266323942902    -2.148919795978     1.457123981808     1.007825032230
         H            4.162813942902    -0.938289795978     0.508233981808     1.007825032230
         H            3.036903942902    -0.420169795978     1.775123981808     1.007825032230

  Running in c1 symmetry.

  Rotational constants: A =      0.01538  B =      0.01304  C =      0.01212 [cm^-1]
  Rotational constants: A =    461.01822  B =    390.83381  C =    363.42892 [MHz]
  Nuclear repulsion =  438.278504717332225

  Charge       = 0
  Multiplicity = 1
  Electrons    = 66
  Nalpha       = 33
  Nbeta        = 33

  ==> Algorithm <==

  SCF Algorithm Type is DF.
  DIIS enabled.
  MOM disabled.
  Fractional occupation disabled.
  Guess Type is SAD.
  Energy threshold   = 1.00e-08
  Density threshold  = 1.00e-08
  Integral threshold = 1.00e-12

  ==> Primary Basis <==

  Basis Set: AUG-CC-PVTZ
    Blend: AUG-CC-PVTZ
    Number of shells: 379
    Number of basis functions: 1173
    Number of Cartesian functions: 1375
    Spherical Harmonics?: true
    Max angular momentum: 3

   => Loading Basis Set <=

    Name: (AUG-CC-PVTZ AUX)
    Role: JKFIT
    Keyword: DF_BASIS_SCF
    atoms 1, 5, 9, 11-12, 17, 21            entry N          line   224 file /opt/anaconda/envs/psi4v1.5/share/psi4/basis/aug-cc-pvtz-jkfit.gbs 
    atoms 2, 4, 14-16, 18, 22, 27, 29-31    entry H          line    70 file /opt/anaconda/envs/psi4v1.5/share/psi4/basis/aug-cc-pvtz-jkfit.gbs 
    atoms 3, 6-7, 10, 13, 19, 23, 25-26, 28 entry C          line   162 file /opt/anaconda/envs/psi4v1.5/share/psi4/basis/aug-cc-pvtz-jkfit.gbs 
    atoms 8, 20, 24                         entry O          line   286 file /opt/anaconda/envs/psi4v1.5/share/psi4/basis/aug-cc-pvtz-jkfit.gbs 

  ==> Integral Setup <==

  ==> DiskDFJK: Density-Fitted J/K Matrices <==

    J tasked:                  Yes
    K tasked:                  Yes
    wK tasked:                  No
    OpenMP threads:              8
    Integrals threads:           8
    Memory [MiB]:            57220
    Algorithm:                Core
    Integral Cache:           LOAD
    Schwarz Cutoff:          1E-12
    Fitting Condition:       1E-10

   => Auxiliary Basis Set <=

  Basis Set: (AUG-CC-PVTZ AUX)
    Blend: AUG-CC-PVTZ-JKFIT
    Number of shells: 754
    Number of basis functions: 2586
    Number of Cartesian functions: 3225
    Spherical Harmonics?: true
    Max angular momentum: 4

  Minimum eigenvalue in the overlap matrix is 7.5833758673E-07.
  Reciprocal condition number of the overlap matrix is 3.0190676970E-08.
    Using symmetric orthogonalization.

  ==> Pre-Iterations <==

  SCF Guess: Superposition of Atomic Densities via on-the-fly atomic UHF (no occupation information).

   -------------------------
    Irrep   Nso     Nmo    
   -------------------------
     A       1173    1173 
   -------------------------
    Total    1173    1173
   -------------------------

  ==> Iterations <==

                           Total Energy        Delta E     RMS |[F,P]|

   @DF-RHF iter SAD:  -450.93865918863639   -4.50939e+02   0.00000e+00 
   @DF-RHF iter   1:  -451.37646558311701   -4.37806e-01   6.75572e-04 DIIS
   @DF-RHF iter   2:  -451.57393633189099   -1.97471e-01   4.42012e-04 DIIS
   @DF-RHF iter   3:  -451.66488008917628   -9.09438e-02   8.56406e-05 DIIS
   @DF-RHF iter   4:  -451.67028537397266   -5.40528e-03   3.44050e-05 DIIS
   @DF-RHF iter   5:  -451.67137665948565   -1.09129e-03   6.92948e-06 DIIS
   @DF-RHF iter   6:  -451.67148854254066   -1.11883e-04   3.55661e-06 DIIS
   @DF-RHF iter   7:  -451.67151211166123   -2.35691e-05   1.52388e-06 DIIS
   @DF-RHF iter   8:  -451.67151636484107   -4.25318e-06   5.88289e-07 DIIS
   @DF-RHF iter   9:  -451.67151685163509   -4.86794e-07   1.95967e-07 DIIS
   @DF-RHF iter  10:  -451.67151693278345   -8.11484e-08   7.84021e-08 DIIS
   @DF-RHF iter  11:  -451.67151694231598   -9.53253e-09   2.98360e-08 DIIS
   @DF-RHF iter  12:  -451.67151694383688   -1.52090e-09   9.46260e-09 DIIS
  Energy and wave function converged.


  ==> Post-Iterations <==

    Orbital Energies [Eh]
    ---------------------

    Doubly Occupied:                                                      

       1A    -20.544290     2A    -20.542684     3A    -15.641386  
       4A    -15.628984     5A    -11.418467     6A    -11.381198  
       7A    -11.332705     8A    -11.263108     9A    -11.239893  
      10A     -1.426454    11A     -1.389734    12A     -1.305727  
      13A     -1.240383    14A     -1.109272    15A     -0.970856  
      16A     -0.916652    17A     -0.893556    18A     -0.770666  
      19A     -0.766078    20A     -0.707701    21A     -0.673647  
      22A     -0.665768    23A     -0.639325    24A     -0.615621  
      25A     -0.593383    26A     -0.568066    27A     -0.558274  
      28A     -0.551219    29A     -0.511324    30A     -0.479382  
      31A     -0.448347    32A     -0.434383    33A     -0.355039  

    Virtual:                                                              

      34A      0.011868    35A      0.026519    36A      0.027455  
      37A      0.034420    38A      0.040494    39A      0.045914  
      40A      0.048512    41A      0.052003    42A      0.053026  
      43A      0.062299    44A      0.065414    45A      0.067547  
      46A      0.074825    47A      0.075806    48A      0.078837  
      49A      0.081580    50A      0.085740    51A      0.089797  
      52A      0.090885    53A      0.099031    54A      0.101175  
      55A      0.104552    56A      0.108749    57A      0.110705  
      58A      0.114990    59A      0.117172    60A      0.119828  
      61A      0.122303    62A      0.124975    63A      0.126381  
      64A      0.132024    65A      0.134572    66A      0.137422  
      67A      0.141753    68A      0.145363    69A      0.149616  
      70A      0.150624    71A      0.154120    72A      0.158008  
      73A      0.158861    74A      0.162418    75A      0.165700  
      76A      0.169999    77A      0.170416    78A      0.175978  
      79A      0.177183    80A      0.178220    81A      0.181770  
      82A      0.185996    83A      0.194169    84A      0.196244  
      85A      0.203633    86A      0.204828    87A      0.206915  
      88A      0.209488    89A      0.215725    90A      0.217297  
      91A      0.225754    92A      0.226075    93A      0.229666  
      94A      0.231860    95A      0.233852    96A      0.235607  
      97A      0.237031    98A      0.243058    99A      0.248215  
     100A      0.250131   101A      0.253782   102A      0.255474  
     103A      0.260434   104A      0.264347   105A      0.265214  
     106A      0.269469   107A      0.272703   108A      0.276064  
     109A      0.278093   110A      0.281133   111A      0.284105  
     112A      0.285103   113A      0.289391   114A      0.289996  
     115A      0.297888   116A      0.301135   117A      0.301982  
     118A      0.306044   119A      0.307950   120A      0.311719  
     121A      0.318143   122A      0.320609   123A      0.322247  
     124A      0.326579   125A      0.329497   126A      0.333112  
     127A      0.335905   128A      0.340873   129A      0.344618  
     130A      0.348891   131A      0.352237   132A      0.355226  
     133A      0.359389   134A      0.361462   135A      0.365679  
     136A      0.368023   137A      0.375223   138A      0.377804  
     139A      0.381105   140A      0.387310   141A      0.388642  
     142A      0.394805   143A      0.396991   144A      0.401051  
     145A      0.403475   146A      0.409506   147A      0.412922  
     148A      0.414348   149A      0.421863   150A      0.423032  
     151A      0.425302   152A      0.428687   153A      0.431025  
     154A      0.433143   155A      0.439713   156A      0.442753  
     157A      0.445311   158A      0.448343   159A      0.450690  
     160A      0.452860   161A      0.458047   162A      0.462353  
     163A      0.464043   164A      0.464123   165A      0.466030  
     166A      0.468072   167A      0.474701   168A      0.476568  
     169A      0.477111   170A      0.480788   171A      0.483987  
     172A      0.487323   173A      0.491326   174A      0.493655  
     175A      0.498541   176A      0.501501   177A      0.505490  
     178A      0.506651   179A      0.510861   180A      0.512810  
     181A      0.514824   182A      0.518620   183A      0.522010  
     184A      0.526045   185A      0.531437   186A      0.532927  
     187A      0.540913   188A      0.542331   189A      0.545938  
     190A      0.554100   191A      0.556010   192A      0.558589  
     193A      0.559758   194A      0.561996   195A      0.564507  
     196A      0.567288   197A      0.572420   198A      0.575107  
     199A      0.578198   200A      0.579813   201A      0.585999  
     202A      0.588098   203A      0.590195   204A      0.595532  
     205A      0.600517   206A      0.605203   207A      0.608580  
     208A      0.613134   209A      0.621931   210A      0.623414  
     211A      0.625593   212A      0.635855   213A      0.638429  
     214A      0.641413   215A      0.645554   216A      0.647611  
     217A      0.654429   218A      0.658324   219A      0.659092  
     220A      0.663758   221A      0.666618   222A      0.671200  
     223A      0.674774   224A      0.678971   225A      0.683813  
     226A      0.692277   227A      0.700883   228A      0.703889  
     229A      0.707506   230A      0.714647   231A      0.719845  
     232A      0.724726   233A      0.726912   234A      0.727983  
     235A      0.735141   236A      0.740540   237A      0.745204  
     238A      0.751287   239A      0.755162   240A      0.760587  
     241A      0.763780   242A      0.766896   243A      0.775786  
     244A      0.778688   245A      0.779894   246A      0.782638  
     247A      0.790826   248A      0.797378   249A      0.798404  
     250A      0.805398   251A      0.806521   252A      0.810261  
     253A      0.814757   254A      0.821869   255A      0.823584  
     256A      0.830596   257A      0.834718   258A      0.839806  
     259A      0.840384   260A      0.842084   261A      0.849055  
     262A      0.852878   263A      0.856549   264A      0.863769  
     265A      0.865972   266A      0.871110   267A      0.873494  
     268A      0.874077   269A      0.883704   270A      0.886173  
     271A      0.890533   272A      0.893146   273A      0.894902  
     274A      0.901309   275A      0.903191   276A      0.908384  
     277A      0.914849   278A      0.914959   279A      0.916794  
     280A      0.922801   281A      0.926084   282A      0.928123  
     283A      0.934432   284A      0.939732   285A      0.941415  
     286A      0.946992   287A      0.948746   288A      0.951351  
     289A      0.955709   290A      0.958720   291A      0.963748  
     292A      0.967937   293A      0.973128   294A      0.976550  
     295A      0.981000   296A      0.983319   297A      0.991118  
     298A      0.992094   299A      0.995753   300A      0.999627  
     301A      1.002142   302A      1.004036   303A      1.005635  
     304A      1.012435   305A      1.013189   306A      1.018964  
     307A      1.025426   308A      1.025737   309A      1.029254  
     310A      1.036446   311A      1.042617   312A      1.047082  
     313A      1.054997   314A      1.059989   315A      1.060632  
     316A      1.067557   317A      1.069765   318A      1.074728  
     319A      1.080686   320A      1.082399   321A      1.088339  
     322A      1.089613   323A      1.094688   324A      1.098648  
     325A      1.102032   326A      1.105338   327A      1.110874  
     328A      1.118050   329A      1.124147   330A      1.128969  
     331A      1.132252   332A      1.137205   333A      1.140771  
     334A      1.149138   335A      1.151969   336A      1.156781  
     337A      1.158172   338A      1.163457   339A      1.166877  
     340A      1.168549   341A      1.177128   342A      1.181913  
     343A      1.182628   344A      1.188707   345A      1.191885  
     346A      1.194239   347A      1.196565   348A      1.201712  
     349A      1.207046   350A      1.211459   351A      1.213039  
     352A      1.217257   353A      1.219578   354A      1.228097  
     355A      1.231729   356A      1.232005   357A      1.239035  
     358A      1.239200   359A      1.245801   360A      1.250420  
     361A      1.256265   362A      1.260751   363A      1.264061  
     364A      1.272530   365A      1.277588   366A      1.284460  
     367A      1.285586   368A      1.288929   369A      1.291898  
     370A      1.302114   371A      1.307798   372A      1.309388  
     373A      1.313871   374A      1.316496   375A      1.322980  
     376A      1.328418   377A      1.332938   378A      1.336385  
     379A      1.340255   380A      1.344554   381A      1.358400  
     382A      1.365723   383A      1.367111   384A      1.371460  
     385A      1.372686   386A      1.377031   387A      1.380681  
     388A      1.385977   389A      1.387508   390A      1.393670  
     391A      1.397045   392A      1.399699   393A      1.409812  
     394A      1.415693   395A      1.419153   396A      1.428026  
     397A      1.430506   398A      1.434715   399A      1.439526  
     400A      1.444715   401A      1.445282   402A      1.452047  
     403A      1.455739   404A      1.461953   405A      1.468299  
     406A      1.473133   407A      1.479499   408A      1.485635  
     409A      1.488119   410A      1.501725   411A      1.508444  
     412A      1.509487   413A      1.514466   414A      1.518351  
     415A      1.519599   416A      1.523028   417A      1.524501  
     418A      1.536380   419A      1.538811   420A      1.542644  
     421A      1.549112   422A      1.558538   423A      1.558843  
     424A      1.565138   425A      1.571640   426A      1.573832  
     427A      1.578376   428A      1.581250   429A      1.587352  
     430A      1.593287   431A      1.600016   432A      1.604413  
     433A      1.609725   434A      1.612428   435A      1.616505  
     436A      1.624682   437A      1.627818   438A      1.631567  
     439A      1.638262   440A      1.642678   441A      1.646554  
     442A      1.651067   443A      1.660743   444A      1.665228  
     445A      1.667134   446A      1.674960   447A      1.677569  
     448A      1.685067   449A      1.694026   450A      1.695517  
     451A      1.699033   452A      1.707717   453A      1.714074  
     454A      1.717518   455A      1.720427   456A      1.726922  
     457A      1.727386   458A      1.734149   459A      1.738106  
     460A      1.743941   461A      1.746879   462A      1.752051  
     463A      1.758261   464A      1.761530   465A      1.767273  
     466A      1.771545   467A      1.779484   468A      1.780794  
     469A      1.781443   470A      1.785234   471A      1.791977  
     472A      1.798819   473A      1.803060   474A      1.808456  
     475A      1.810759   476A      1.814569   477A      1.823186  
     478A      1.828276   479A      1.831535   480A      1.838044  
     481A      1.840691   482A      1.846373   483A      1.853990  
     484A      1.856310   485A      1.865223   486A      1.868178  
     487A      1.870049   488A      1.875221   489A      1.882114  
     490A      1.889611   491A      1.893724   492A      1.901418  
     493A      1.910510   494A      1.914780   495A      1.916521  
     496A      1.924985   497A      1.925741   498A      1.933317  
     499A      1.938220   500A      1.945462   501A      1.957353  
     502A      1.960519   503A      1.965819   504A      1.972584  
     505A      1.975009   506A      1.982944   507A      1.993042  
     508A      1.997116   509A      2.006223   510A      2.008310  
     511A      2.017650   512A      2.025792   513A      2.028759  
     514A      2.031995   515A      2.040625   516A      2.044563  
     517A      2.047701   518A      2.058716   519A      2.061057  
     520A      2.066116   521A      2.073179   522A      2.080295  
     523A      2.085878   524A      2.095377   525A      2.099382  
     526A      2.104782   527A      2.108891   528A      2.111699  
     529A      2.116488   530A      2.125026   531A      2.131077  
     532A      2.140316   533A      2.143783   534A      2.151715  
     535A      2.158561   536A      2.162995   537A      2.168586  
     538A      2.175387   539A      2.180271   540A      2.190548  
     541A      2.195068   542A      2.202913   543A      2.206018  
     544A      2.211487   545A      2.218149   546A      2.221585  
     547A      2.228489   548A      2.231152   549A      2.236860  
     550A      2.242216   551A      2.249175   552A      2.254844  
     553A      2.257758   554A      2.264824   555A      2.269235  
     556A      2.274180   557A      2.282586   558A      2.284550  
     559A      2.288724   560A      2.291904   561A      2.296954  
     562A      2.307118   563A      2.315183   564A      2.323936  
     565A      2.329053   566A      2.337545   567A      2.340628  
     568A      2.344164   569A      2.351781   570A      2.359051  
     571A      2.361519   572A      2.373214   573A      2.381557  
     574A      2.383700   575A      2.384543   576A      2.397619  
     577A      2.403091   578A      2.408861   579A      2.417794  
     580A      2.421081   581A      2.425800   582A      2.438612  
     583A      2.452700   584A      2.458477   585A      2.464860  
     586A      2.469340   587A      2.480866   588A      2.488889  
     589A      2.491417   590A      2.503073   591A      2.512389  
     592A      2.516950   593A      2.525367   594A      2.526456  
     595A      2.540147   596A      2.545688   597A      2.547731  
     598A      2.557767   599A      2.558012   600A      2.568527  
     601A      2.575581   602A      2.579203   603A      2.582657  
     604A      2.588479   605A      2.612891   606A      2.613666  
     607A      2.623276   608A      2.626084   609A      2.632812  
     610A      2.642346   611A      2.646721   612A      2.655177  
     613A      2.661864   614A      2.670800   615A      2.672888  
     616A      2.683346   617A      2.691453   618A      2.696240  
     619A      2.703536   620A      2.715562   621A      2.718872  
     622A      2.725114   623A      2.735238   624A      2.744611  
     625A      2.754487   626A      2.755620   627A      2.762404  
     628A      2.768484   629A      2.775025   630A      2.779220  
     631A      2.788550   632A      2.794850   633A      2.804196  
     634A      2.813192   635A      2.819064   636A      2.825979  
     637A      2.836147   638A      2.841561   639A      2.847733  
     640A      2.854871   641A      2.863702   642A      2.866939  
     643A      2.870805   644A      2.876596   645A      2.890997  
     646A      2.895317   647A      2.903346   648A      2.907848  
     649A      2.917104   650A      2.922735   651A      2.925432  
     652A      2.934413   653A      2.943647   654A      2.958031  
     655A      2.961188   656A      2.970420   657A      2.973365  
     658A      2.978568   659A      2.984302   660A      3.002253  
     661A      3.004013   662A      3.021251   663A      3.021799  
     664A      3.028475   665A      3.032271   666A      3.044260  
     667A      3.056554   668A      3.057028   669A      3.060768  
     670A      3.071865   671A      3.077861   672A      3.090202  
     673A      3.096523   674A      3.104797   675A      3.107016  
     676A      3.121942   677A      3.126726   678A      3.139897  
     679A      3.144928   680A      3.154986   681A      3.161295  
     682A      3.170085   683A      3.181413   684A      3.191753  
     685A      3.199029   686A      3.206425   687A      3.208589  
     688A      3.220070   689A      3.222574   690A      3.241796  
     691A      3.247006   692A      3.258083   693A      3.263272  
     694A      3.280218   695A      3.293331   696A      3.298053  
     697A      3.311194   698A      3.320075   699A      3.325551  
     700A      3.341301   701A      3.343458   702A      3.349137  
     703A      3.363339   704A      3.382853   705A      3.393089  
     706A      3.398154   707A      3.402145   708A      3.423806  
     709A      3.431602   710A      3.434131   711A      3.448282  
     712A      3.461032   713A      3.468644   714A      3.479254  
     715A      3.491787   716A      3.501738   717A      3.516904  
     718A      3.519372   719A      3.531497   720A      3.547390  
     721A      3.550521   722A      3.555963   723A      3.571822  
     724A      3.582382   725A      3.595739   726A      3.602989  
     727A      3.608220   728A      3.619037   729A      3.633044  
     730A      3.648553   731A      3.669544   732A      3.678223  
     733A      3.684760   734A      3.702872   735A      3.709963  
     736A      3.719617   737A      3.744404   738A      3.750501  
     739A      3.757628   740A      3.767389   741A      3.771199  
     742A      3.776517   743A      3.795048   744A      3.796393  
     745A      3.804970   746A      3.813447   747A      3.822771  
     748A      3.832581   749A      3.844155   750A      3.854908  
     751A      3.867872   752A      3.873338   753A      3.877279  
     754A      3.893138   755A      3.898993   756A      3.912605  
     757A      3.921286   758A      3.930785   759A      3.937315  
     760A      3.946565   761A      3.954014   762A      3.968665  
     763A      3.973938   764A      3.976340   765A      3.996138  
     766A      4.007609   767A      4.018278   768A      4.028615  
     769A      4.036939   770A      4.041113   771A      4.051867  
     772A      4.072034   773A      4.079490   774A      4.103878  
     775A      4.109864   776A      4.125438   777A      4.134590  
     778A      4.140531   779A      4.155873   780A      4.169994  
     781A      4.192078   782A      4.196230   783A      4.204525  
     784A      4.214745   785A      4.220350   786A      4.231863  
     787A      4.245803   788A      4.246848   789A      4.255577  
     790A      4.271278   791A      4.275391   792A      4.283978  
     793A      4.295632   794A      4.297017   795A      4.306733  
     796A      4.318855   797A      4.329292   798A      4.332421  
     799A      4.337434   800A      4.345461   801A      4.348946  
     802A      4.364919   803A      4.369763   804A      4.386525  
     805A      4.391608   806A      4.411755   807A      4.416245  
     808A      4.423030   809A      4.439526   810A      4.449502  
     811A      4.453156   812A      4.461572   813A      4.480297  
     814A      4.483723   815A      4.499207   816A      4.516694  
     817A      4.521671   818A      4.539140   819A      4.545995  
     820A      4.556696   821A      4.570778   822A      4.575508  
     823A      4.575906   824A      4.586292   825A      4.595753  
     826A      4.605987   827A      4.606863   828A      4.625679  
     829A      4.634192   830A      4.636245   831A      4.644588  
     832A      4.654829   833A      4.668278   834A      4.687427  
     835A      4.699140   836A      4.704621   837A      4.714714  
     838A      4.719536   839A      4.730127   840A      4.733760  
     841A      4.746427   842A      4.754210   843A      4.757049  
     844A      4.762544   845A      4.769682   846A      4.776313  
     847A      4.784342   848A      4.795084   849A      4.805423  
     850A      4.810558   851A      4.822432   852A      4.825038  
     853A      4.826061   854A      4.847094   855A      4.850445  
     856A      4.859101   857A      4.868357   858A      4.874893  
     859A      4.888216   860A      4.894569   861A      4.904190  
     862A      4.916103   863A      4.928011   864A      4.937274  
     865A      4.941395   866A      4.963784   867A      4.974184  
     868A      4.983731   869A      4.984806   870A      4.990083  
     871A      4.992432   872A      5.000044   873A      5.012938  
     874A      5.016101   875A      5.025383   876A      5.032800  
     877A      5.046520   878A      5.062312   879A      5.066291  
     880A      5.070251   881A      5.078997   882A      5.090953  
     883A      5.095889   884A      5.099194   885A      5.105591  
     886A      5.119676   887A      5.127490   888A      5.135205  
     889A      5.145383   890A      5.152239   891A      5.160408  
     892A      5.167598   893A      5.176896   894A      5.195160  
     895A      5.205588   896A      5.210446   897A      5.222471  
     898A      5.226464   899A      5.241223   900A      5.250394  
     901A      5.252795   902A      5.265130   903A      5.279788  
     904A      5.291330   905A      5.301676   906A      5.303565  
     907A      5.325998   908A      5.331300   909A      5.337446  
     910A      5.351124   911A      5.354923   912A      5.358851  
     913A      5.377019   914A      5.381325   915A      5.395427  
     916A      5.405388   917A      5.412483   918A      5.425161  
     919A      5.432562   920A      5.447281   921A      5.451207  
     922A      5.473415   923A      5.476018   924A      5.488892  
     925A      5.499514   926A      5.511029   927A      5.522286  
     928A      5.529700   929A      5.541834   930A      5.551917  
     931A      5.571258   932A      5.574629   933A      5.589636  
     934A      5.596783   935A      5.610218   936A      5.618970  
     937A      5.629427   938A      5.638364   939A      5.643363  
     940A      5.652326   941A      5.668101   942A      5.672836  
     943A      5.686984   944A      5.692824   945A      5.699974  
     946A      5.707918   947A      5.711568   948A      5.723775  
     949A      5.748001   950A      5.767736   951A      5.774416  
     952A      5.785005   953A      5.791056   954A      5.809264  
     955A      5.814436   956A      5.829282   957A      5.832671  
     958A      5.858785   959A      5.871742   960A      5.894335  
     961A      5.902638   962A      5.945068   963A      5.951677  
     964A      5.962014   965A      5.969700   966A      5.980890  
     967A      5.986944   968A      6.003491   969A      6.031835  
     970A      6.044302   971A      6.070893   972A      6.078077  
     973A      6.096939   974A      6.117432   975A      6.136972  
     976A      6.141730   977A      6.160660   978A      6.168887  
     979A      6.182794   980A      6.191168   981A      6.206707  
     982A      6.223737   983A      6.234306   984A      6.237775  
     985A      6.252677   986A      6.268227   987A      6.290880  
     988A      6.299362   989A      6.307532   990A      6.324452  
     991A      6.366760   992A      6.374024   993A      6.405110  
     994A      6.408699   995A      6.466992   996A      6.474570  
     997A      6.488291   998A      6.505416   999A      6.519454  
    1000A      6.533183  1001A      6.543411  1002A      6.554103  
    1003A      6.569582  1004A      6.589032  1005A      6.605373  
    1006A      6.619344  1007A      6.633064  1008A      6.647405  
    1009A      6.683025  1010A      6.700903  1011A      6.726469  
    1012A      6.749137  1013A      6.775591  1014A      6.780465  
    1015A      6.792597  1016A      6.797618  1017A      6.814278  
    1018A      6.834164  1019A      6.838053  1020A      6.854932  
    1021A      6.856663  1022A      6.863100  1023A      6.879883  
    1024A      6.894567  1025A      6.900340  1026A      6.911777  
    1027A      6.918379  1028A      6.927025  1029A      6.941745  
    1030A      6.964702  1031A      6.974125  1032A      6.992224  
    1033A      7.016168  1034A      7.024773  1035A      7.033934  
    1036A      7.063070  1037A      7.082016  1038A      7.089894  
    1039A      7.095633  1040A      7.115613  1041A      7.127090  
    1042A      7.150399  1043A      7.228225  1044A      7.240081  
    1045A      7.252836  1046A      7.286781  1047A      7.309633  
    1048A      7.338288  1049A      7.352262  1050A      7.372786  
    1051A      7.377694  1052A      7.389977  1053A      7.457650  
    1054A      7.467306  1055A      7.485760  1056A      7.498343  
    1057A      7.521569  1058A      7.537128  1059A      7.562703  
    1060A      7.574569  1061A      7.587942  1062A      7.605920  
    1063A      7.622852  1064A      7.657654  1065A      7.666471  
    1066A      7.685509  1067A      7.702777  1068A      7.703300  
    1069A      7.735530  1070A      7.754478  1071A      7.756006  
    1072A      7.759713  1073A      7.773354  1074A      7.805170  
    1075A      7.819092  1076A      7.832362  1077A      7.855776  
    1078A      7.866247  1079A      7.880457  1080A      7.902264  
    1081A      7.906807  1082A      7.919376  1083A      7.939890  
    1084A      7.952399  1085A      7.968092  1086A      7.983486  
    1087A      8.008629  1088A      8.016151  1089A      8.030522  
    1090A      8.044244  1091A      8.052297  1092A      8.076874  
    1093A      8.093167  1094A      8.102757  1095A      8.118146  
    1096A      8.142527  1097A      8.162231  1098A      8.199205  
    1099A      8.250900  1100A      8.298750  1101A      8.302048  
    1102A      8.351894  1103A      8.370543  1104A      8.421120  
    1105A      8.516037  1106A      8.581870  1107A      8.592655  
    1108A      8.722582  1109A      8.773621  1110A      8.815225  
    1111A      8.848848  1112A      8.894213  1113A      9.041385  
    1114A      9.102564  1115A      9.162718  1116A      9.308162  
    1117A      9.361329  1118A      9.422841  1119A      9.698782  
    1120A      9.725212  1121A      9.778633  1122A      9.855215  
    1123A      9.876206  1124A      9.979807  1125A     10.052839  
    1126A     10.083462  1127A     10.199213  1128A     10.368811  
    1129A     10.432718  1130A     10.479887  1131A     10.539169  
    1132A     10.613760  1133A     10.745605  1134A     11.161761  
    1135A     11.216335  1136A     11.299743  1137A     11.450715  
    1138A     11.485515  1139A     11.622799  1140A     11.725023  
    1141A     12.005360  1142A     12.047897  1143A     12.106531  
    1144A     12.183655  1145A     12.283539  1146A     12.338278  
    1147A     12.428008  1148A     12.567784  1149A     12.829154  
    1150A     12.981689  1151A     13.387490  1152A     13.703861  
    1153A     14.290656  1154A     16.389970  1155A     16.566611  
    1156A     16.790698  1157A     17.216350  1158A     18.371046  
    1159A     19.531453  1160A     20.789936  1161A     21.084113  
    1162A     21.601474  1163A     52.568744  1164A     53.120026  
    1165A     53.639113  1166A     54.572523  1167A     57.517587  
    1168A     60.337842  1169A     62.247888  1170A     62.595928  
    1171A     63.891906  1172A     66.209582  1173A     71.019222  

    Final Occupation by Irrep:
              A 
    DOCC [    33 ]

  @DF-RHF Final Energy:  -451.67151694383688

   => Energetics <=

    Nuclear Repulsion Energy =            438.2785047173322255
    One-Electron Energy =               -1484.7328811282040988
    Two-Electron Energy =                 594.7828594670349958
    Total Energy =                       -451.6715169438368775

Computation Completed


Properties will be evaluated at   0.000000,   0.000000,   0.000000 [a0]

Properties computed using the SCF density matrix

  Nuclear Dipole Moment: [e a0]
     X:   154.5685      Y:   -96.7269      Z:  -107.0944

  Electronic Dipole Moment: [e a0]
     X:  -154.5657      Y:    95.0601      Z:   108.1444

  Dipole Moment: [e a0]
     X:     0.0029      Y:    -1.6668      Z:     1.0500     Total:     1.9700

  Dipole Moment: [D]
     X:     0.0073      Y:    -4.2366      Z:     2.6689     Total:     5.0071


*** tstop() called on node150.bme.utexas.edu at Sat Jan 20 14:04:40 2024
Module time:
	user time   =    2408.99 seconds =      40.15 minutes
	system time =      16.40 seconds =       0.27 minutes
	total time  =        436 seconds =       7.27 minutes
Total time:
	user time   =    6482.18 seconds =     108.04 minutes
	system time =      58.12 seconds =       0.97 minutes
	total time  =       1113 seconds =      18.55 minutes

*** tstart() called on node150.bme.utexas.edu
*** at Sat Jan 20 14:04:40 2024


  //>>>>>>>>>>>>>>>>>>>>>>>>>>>>>>>>>>>//
  //               DFMP2               //
  //<<<<<<<<<<<<<<<<<<<<<<<<<<<<<<<<<<<//

   => Loading Basis Set <=

    Name: (AUG-CC-PVTZ AUX)
    Role: RIFIT
    Keyword: DF_BASIS_MP2
    atoms 1, 5, 9, 11-12, 17, 21            entry N          line   206 file /opt/anaconda/envs/psi4v1.5/share/psi4/basis/aug-cc-pvtz-ri.gbs 
    atoms 2, 4, 14-16, 18, 22, 27, 29-31    entry H          line    30 file /opt/anaconda/envs/psi4v1.5/share/psi4/basis/aug-cc-pvtz-ri.gbs 
    atoms 3, 6-7, 10, 13, 19, 23, 25-26, 28 entry C          line   148 file /opt/anaconda/envs/psi4v1.5/share/psi4/basis/aug-cc-pvtz-ri.gbs 
    atoms 8, 20, 24                         entry O          line   264 file /opt/anaconda/envs/psi4v1.5/share/psi4/basis/aug-cc-pvtz-ri.gbs 

	 --------------------------------------------------------
	                          DF-MP2                         
	      2nd-Order Density-Fitted Moller-Plesset Theory     
	              RMP2 Wavefunction,   8 Threads             
	                                                         
	        Rob Parrish, Justin Turney, Andy Simmonett,      
	           Ed Hohenstein, and C. David Sherrill          
	 --------------------------------------------------------

   => Auxiliary Basis Set <=

  Basis Set: (AUG-CC-PVTZ AUX)
    Blend: AUG-CC-PVTZ-RI
    Number of shells: 714
    Number of basis functions: 2626
    Number of Cartesian functions: 3325
    Spherical Harmonics?: true
    Max angular momentum: 4

	 --------------------------------------------------------
	                 NBF =  1173, NAUX =  2626
	 --------------------------------------------------------
	   CLASS    FOCC     OCC    AOCC    AVIR     VIR    FVIR
	   PAIRS       9      33      24    1140    1140       0
	 --------------------------------------------------------

	 Will attempt to load fitting metric from file 97.

	-----------------------------------------------------------
	 ==================> DF-MP2 Energies <==================== 
	-----------------------------------------------------------
	 Reference Energy          =    -451.6715169438368775 [Eh]
	 Singles Energy            =      -0.0000000000000000 [Eh]
	 Same-Spin Energy          =      -0.4342809403706020 [Eh]
	 Opposite-Spin Energy      =      -1.2528495648154681 [Eh]
	 Correlation Energy        =      -1.6871305051860701 [Eh]
	 Total Energy              =    -453.3586474490229534 [Eh]
	-----------------------------------------------------------
	 ================> DF-SCS-MP2 Energies <================== 
	-----------------------------------------------------------
	 SCS Same-Spin Scale       =       0.3333333333333333 [-]
	 SCS Opposite-Spin Scale   =       1.2000000000000000 [-]
	 SCS Same-Spin Energy      =      -0.1447603134568673 [Eh]
	 SCS Opposite-Spin Energy  =      -1.5034194777785617 [Eh]
	 SCS Correlation Energy    =      -1.6481797912354290 [Eh]
	 SCS Total Energy          =    -453.3196967350722844 [Eh]
	-----------------------------------------------------------


*** tstop() called on node150.bme.utexas.edu at Sat Jan 20 14:05:40 2024
Module time:
	user time   =     319.28 seconds =       5.32 minutes
	system time =       7.06 seconds =       0.12 minutes
	total time  =         60 seconds =       1.00 minutes
Total time:
	user time   =    6801.47 seconds =     113.36 minutes
	system time =      65.18 seconds =       1.09 minutes
	total time  =       1173 seconds =      19.55 minutes
  Constructing Basis Sets for SAPT...

   => Loading Basis Set <=

    Name: (AUG-CC-PVTZ AUX)
    Role: RIFIT
    Keyword: DF_BASIS_SAPT
    atoms 1, 5, 9, 11-12, 17, 21            entry N          line   206 file /opt/anaconda/envs/psi4v1.5/share/psi4/basis/aug-cc-pvtz-ri.gbs 
    atoms 2, 4, 14-16, 18, 22, 27, 29-31    entry H          line    30 file /opt/anaconda/envs/psi4v1.5/share/psi4/basis/aug-cc-pvtz-ri.gbs 
    atoms 3, 6-7, 10, 13, 19, 23, 25-26, 28 entry C          line   148 file /opt/anaconda/envs/psi4v1.5/share/psi4/basis/aug-cc-pvtz-ri.gbs 
    atoms 8, 20, 24                         entry O          line   264 file /opt/anaconda/envs/psi4v1.5/share/psi4/basis/aug-cc-pvtz-ri.gbs 


  //>>>>>>>>>>>>>>>>>>>>>>>>>>>>>>>>>>>//
  //           SAPT2+(3)DMP2           //
  //<<<<<<<<<<<<<<<<<<<<<<<<<<<<<<<<<<<//


*** tstart() called on node150.bme.utexas.edu
*** at Sat Jan 20 14:05:40 2024

      SAPT2+(3)  
    Ed Hohenstein
     6 June 2009

      Orbital Information
  --------------------------
    NSO        =      1173
    NMO        =      1173
    NRI        =      2626
    NOCC A     =        39
    NOCC B     =        33
    FOCC A     =        11
    FOCC B     =         9
    NVIR A     =      1134
    NVIR B     =      1140

    Estimated memory usage: 74742.6 MB

    Natural Orbital Cutoff:   1.000E-06
    Disp(T3) Truncation:            Yes
    CCD (vv|vv) Truncation:         Yes
    MBPT T2 Truncation:             Yes

    Monomer A: 588 virtual orbitals dropped
    Monomer B: 657 virtual orbitals dropped

    Elst10,r            =    -0.022229855984 [Eh]
    Exch10 (S^2)        =     0.032423393557 [Eh]
    Exch10              =     0.032473084432 [Eh]
    Ind20,r (A<-B)      =    -0.007887334842 [Eh]
    Ind20,r (B<-A)      =    -0.007368615600 [Eh]
    Ind20,r             =    -0.015255950442 [Eh]
    Exch-Ind20,r (A<-B) =     0.006305056502 [Eh]
    Exch-Ind20,r (B<-A) =     0.005779959240 [Eh]
    Exch-Ind20,r        =     0.012085015742 [Eh]
    Disp20              =    -0.038214849373 [Eh]
    Disp20 (NO)         =    -0.035565590843 [Eh]
    Exch-Disp20         =     0.004429560897 [Eh]
    Elst12,r            =    -0.000141059619 [Eh]
    Exch11              =     0.000637542325 [Eh]
    Exch12              =     0.002435437804 [Eh]
    Ind22               =    -0.000702608693 [Eh]
    Disp21              =     0.011454438145 [Eh]
    Disp22 (SDQ)        =    -0.002107019168 [Eh]

    (i =   1 of  24)       4535 seconds
    (i =   2 of  24)       9994 seconds
    (i =   3 of  24)      15302 seconds
    (i =   4 of  24)      20653 seconds
    (i =   5 of  24)      26516 seconds
    (i =   6 of  24)      32056 seconds
    (i =   7 of  24)      38118 seconds
    (i =   8 of  24)      43528 seconds
    (i =   9 of  24)      49630 seconds
    (i =  10 of  24)      55097 seconds
    (i =  11 of  24)      61293 seconds
    (i =  12 of  24)      66817 seconds
    (i =  13 of  24)      72914 seconds
    (i =  14 of  24)      78442 seconds
    (i =  15 of  24)      84725 seconds
    (i =  16 of  24)      90263 seconds
    (i =  17 of  24)      96571 seconds
    (i =  18 of  24)     102775 seconds
    (i =  19 of  24)     109994 seconds
    (i =  20 of  24)     116702 seconds
    (i =  21 of  24)     123596 seconds
    (i =  22 of  24)     130610 seconds
    (i =  23 of  24)     137066 seconds
    (i =  24 of  24)     143656 seconds

    Disp220 (T)         =    -0.004272634010 [Eh]

    (i =   1 of  28)       5420 seconds
    (i =   2 of  28)      10869 seconds
    (i =   3 of  28)      16683 seconds
    (i =   4 of  28)      22288 seconds
    (i =   5 of  28)      28160 seconds
    (i =   6 of  28)      33524 seconds
    (i =   7 of  28)      39466 seconds
    (i =   8 of  28)      44833 seconds
    (i =   9 of  28)      50808 seconds
    (i =  10 of  28)      56190 seconds
    (i =  11 of  28)      62205 seconds
    (i =  12 of  28)      66455 seconds
    (i =  13 of  28)      70539 seconds
    (i =  14 of  28)      74877 seconds
    (i =  15 of  28)      77451 seconds
    (i =  16 of  28)      79536 seconds
    (i =  17 of  28)      84598 seconds
    (i =  18 of  28)      89644 seconds
    (i =  19 of  28)      94465 seconds
    (i =  20 of  28)     100153 seconds
    (i =  21 of  28)     104635 seconds
    (i =  22 of  28)     110600 seconds
    (i =  23 of  28)     115282 seconds
    (i =  24 of  28)     120533 seconds
    (i =  25 of  28)     125624 seconds
    (i =  26 of  28)     130125 seconds
    (i =  27 of  28)     135615 seconds
    (i =  28 of  28)     140161 seconds

    Disp202 (T)         =    -0.004058468967 [Eh]

    Disp22 (T)          =    -0.008331102977 [Eh]

    Est. Disp220 (T)    =    -0.004590899834 [Eh]
    Est. Disp202 (T)    =    -0.004360781772 [Eh]

    Est. Disp22 (T)     =    -0.008951681606 [Eh]
    Elst13,r            =     0.000764980831 [Eh]
    Disp30              =     0.000991438413 [Eh]

    SAPT Results 
  --------------------------------------------------------------------------------------------------------
    Electrostatics                -21.60593477 [mEh]     -13.55792876 [kcal/mol]     -56.72637393 [kJ/mol]
      Elst10,r                    -22.22985598 [mEh]     -13.94944523 [kcal/mol]     -58.36447885 [kJ/mol]
      Elst12,r                     -0.14105962 [mEh]      -0.08851625 [kcal/mol]      -0.37035198 [kJ/mol]
      Elst13,r                      0.76498083 [mEh]       0.48003272 [kcal/mol]       2.00845689 [kJ/mol]

    Exchange                       35.54606456 [mEh]      22.30549227 [kcal/mol]      93.32617965 [kJ/mol]
      Exch10                       32.47308443 [mEh]      20.37716812 [kcal/mol]      85.25807143 [kJ/mol]
      Exch10(S^2)                  32.42339356 [mEh]      20.34598663 [kcal/mol]      85.12760806 [kJ/mol]
      Exch11(S^2)                   0.63754232 [mEh]       0.40006385 [kcal/mol]       1.67386714 [kJ/mol]
      Exch12(S^2)                   2.43543780 [mEh]       1.52826029 [kcal/mol]       6.39424107 [kJ/mol]

    Induction                      -4.15681868 [mEh]      -2.60844310 [kcal/mol]     -10.91372594 [kJ/mol]
      Ind20,r                     -15.25595044 [mEh]      -9.57325343 [kcal/mol]     -40.05449237 [kJ/mol]
      Ind22                        -0.70260869 [mEh]      -0.44089361 [kcal/mol]      -1.84469887 [kJ/mol]
      Exch-Ind20,r                 12.08501574 [mEh]       7.58346187 [kcal/mol]      31.72920446 [kJ/mol]
      Exch-Ind22                    0.55657215 [mEh]       0.34925430 [kcal/mol]       1.46127998 [kJ/mol]
      delta HF,r (2)               -2.12222071 [mEh]      -1.33171360 [kcal/mol]      -5.57188969 [kJ/mol]
      delta MP2,r (2)               1.28237327 [mEh]       0.80470138 [kcal/mol]       3.36687056 [kJ/mol]

    Dispersion                    -32.39811269 [mEh]     -20.33012265 [kcal/mol]     -85.06123315 [kJ/mol]
      Disp20                      -38.21484937 [mEh]     -23.98018002 [kcal/mol]    -100.33307321 [kJ/mol]
      Disp30                        0.99143841 [mEh]       0.62213700 [kcal/mol]       2.60302119 [kJ/mol]
      Disp21                       11.45443815 [mEh]       7.18776845 [kcal/mol]      30.07362321 [kJ/mol]
      Disp22 (SDQ)                 -2.10701917 [mEh]      -1.32217449 [kcal/mol]      -5.53197806 [kJ/mol]
      Disp22 (T)                   -8.33110298 [mEh]      -5.22784604 [kcal/mol]     -21.87330785 [kJ/mol]
      Est. Disp22 (T)              -8.95168161 [mEh]      -5.61726501 [kcal/mol]     -23.50263682 [kJ/mol]
      Exch-Disp20                   4.42956090 [mEh]       2.77959143 [kcal/mol]      11.62981053 [kJ/mol]

  Total HF                          4.95007304 [mEh]       3.10621773 [kcal/mol]      12.99641498 [kJ/mol]
  Total SAPT0                     -28.83521543 [mEh]     -18.09437086 [kcal/mol]     -75.70684769 [kJ/mol]
  Total SAPT2                     -26.04933147 [mEh]     -16.34620228 [kcal/mol]     -68.39251035 [kJ/mol]
  Total SAPT2+                    -25.65359410 [mEh]     -16.09787333 [kcal/mol]     -67.35350202 [kJ/mol]
  Total SAPT2+(3)                 -23.89717485 [mEh]     -14.99570362 [kcal/mol]     -62.74202393 [kJ/mol]
  Total SAPT2+dMP2                -24.37122083 [mEh]     -15.29317196 [kcal/mol]     -63.98663146 [kJ/mol]
  Total SAPT2+(3)dMP2             -22.61480158 [mEh]     -14.19100224 [kcal/mol]     -59.37515338 [kJ/mol]

  Special recipe for scaled SAPT0 (see Manual):
    Electrostatics sSAPT0         -22.22985598 [mEh]     -13.94944523 [kcal/mol]     -58.36447885 [kJ/mol]
    Exchange sSAPT0                32.47308443 [mEh]      20.37716812 [kcal/mol]      85.25807143 [kJ/mol]
    Induction sSAPT0               -5.23750708 [mEh]      -3.28658531 [kcal/mol]     -13.75107296 [kJ/mol]
    Dispersion sSAPT0             -33.76489151 [mEh]     -21.18778930 [kcal/mol]     -88.64971045 [kJ/mol]
  Total sSAPT0                    -28.75917015 [mEh]     -18.04665173 [kcal/mol]     -75.50719082 [kJ/mol]
  --------------------------------------------------------------------------------------------------------

*** tstop() called on node150.bme.utexas.edu at Wed Jan 24 06:04:21 2024
Module time:
	user time   = 1766563.79 seconds =   29442.73 minutes
	system time =    4241.30 seconds =      70.69 minutes
	total time  =     316721 seconds =    5278.68 minutes
Total time:
	user time   = 1773365.67 seconds =   29556.09 minutes
	system time =    4306.49 seconds =      71.77 minutes
	total time  =     317894 seconds =    5298.23 minutes

    Psi4 stopped on: Wednesday, 24 January 2024 06:04AM
    Psi4 wall time for execution: 3 days, 16:18:13.80

*** Psi4 exiting successfully. Buy a developer a beer!
