
    -----------------------------------------------------------------------
          Psi4: An Open-Source Ab Initio Electronic Structure Package
                               Psi4 1.5 release

                         Git: Rev {HEAD} e9f4d6d 


    D. G. A. Smith, L. A. Burns, A. C. Simmonett, R. M. Parrish,
    M. C. Schieber, R. Galvelis, P. Kraus, H. Kruse, R. Di Remigio,
    A. Alenaizan, A. M. James, S. Lehtola, J. P. Misiewicz, M. Scheurer,
    R. A. Shaw, J. B. Schriber, Y. Xie, Z. L. Glick, D. A. Sirianni,
    J. S. O'Brien, J. M. Waldrop, A. Kumar, E. G. Hohenstein,
    B. P. Pritchard, B. R. Brooks, H. F. Schaefer III, A. Yu. Sokolov,
    K. Patkowski, A. E. DePrince III, U. Bozkaya, R. A. King,
    F. A. Evangelista, J. M. Turney, T. D. Crawford, C. D. Sherrill,
    J. Chem. Phys. 152(18) 184108 (2020). https://doi.org/10.1063/5.0006002

                            Additional Code Authors
    E. T. Seidl, C. L. Janssen, E. F. Valeev, M. L. Leininger,
    J. F. Gonthier, R. M. Richard, H. R. McAlexander, M. Saitow, X. Wang,
    P. Verma, M. H. Lechner, and A. Jiang

             Previous Authors, Complete List of Code Contributors,
                       and Citations for Specific Modules
    https://github.com/psi4/psi4/blob/master/codemeta.json
    https://github.com/psi4/psi4/graphs/contributors
    http://psicode.org/psi4manual/master/introduction.html#citing-psifour

    -----------------------------------------------------------------------


    Psi4 started on: Tuesday, 16 January 2024 01:21PM

    Process ID: 46872
    Host:       node150.bme.utexas.edu
    PSIDATADIR: /opt/anaconda/envs/psi4v1.5/share/psi4
    Memory:     500.0 MiB
    Threads:    8
    
  ==> Input File <==

--------------------------------------------------------------------------
memory 90GB

molecule {
0 1
N 1.20442 1.51424 1.52541
H 1.15815 1.76291 2.5067
C 0.18528 2.02844 0.74511
O -0.72017 2.72961 1.19269
N 0.30611 1.66976 -0.58497
H -0.42708 2.01398 -1.20659
C 1.19626 0.74118 -1.15278
O 1.11204 0.44674 -2.34464
C 2.17718 0.19041 -0.22044
C 2.13875 0.60437 1.0699
H 2.84276 0.24918 1.81737
C 3.13478 -0.83229 -0.7447
H 3.86357 -1.11273 0.02084
H 2.58463 -1.7249 -1.05658
H 3.66696 -0.44576 -1.61786
--
0 1
N -2.33099 0.22306 0.431
H -2.74629 1.11974 0.66739
C -2.0829 0.0565 -0.92158
O -2.50577 0.82337 -1.78205
N -1.31837 -1.06611 -1.1947
H -1.05041 -1.17037 -2.17252
C -0.56973 -1.82511 -0.28385
O 0.21824 -2.6871 -0.67768
C -0.81781 -1.50499 1.1199
C -1.65671 -0.48012 1.40878
H -1.8743 -0.17142 2.42766
C -0.07762 -2.29462 2.15245
H -0.34077 -1.96411 3.16122
H -0.30705 -3.35997 2.06026
H 1.00202 -2.18681 2.01159
 units angstrom
 no_reorient
 symmetry c1
}
set
 {scf_type DF
 basis aug-cc-pvtz
 freeze_core True
 guess SAD
}
energy('sapt2+(3)dmp2')
--------------------------------------------------------------------------

  Memory set to  83.819 GiB by Python driver.

Scratch directory: /tmp/
   => Loading Basis Set <=

    Name: AUG-CC-PVTZ
    Role: ORBITAL
    Keyword: BASIS
    atoms 1, 5, 16, 20                       entry N          line   285 file /opt/anaconda/envs/psi4v1.5/share/psi4/basis/aug-cc-pvtz.gbs 
    atoms 2, 6, 11, 13-15, 17, 21, 26, 28-30 entry H          line    40 file /opt/anaconda/envs/psi4v1.5/share/psi4/basis/aug-cc-pvtz.gbs 
    atoms 3, 7, 9-10, 12, 18, 22, 24-25, 27  entry C          line   239 file /opt/anaconda/envs/psi4v1.5/share/psi4/basis/aug-cc-pvtz.gbs 
    atoms 4, 8, 19, 23                       entry O          line   331 file /opt/anaconda/envs/psi4v1.5/share/psi4/basis/aug-cc-pvtz.gbs 

   => Loading Basis Set <=

    Name: AUG-CC-PVTZ
    Role: ORBITAL
    Keyword: BASIS
    atoms 1, 5, 16, 20                       entry N          line   285 file /opt/anaconda/envs/psi4v1.5/share/psi4/basis/aug-cc-pvtz.gbs 
    atoms 2, 6, 11, 13-15, 17, 21, 26, 28-30 entry H          line    40 file /opt/anaconda/envs/psi4v1.5/share/psi4/basis/aug-cc-pvtz.gbs 
    atoms 3, 7, 9-10, 12, 18, 22, 24-25, 27  entry C          line   239 file /opt/anaconda/envs/psi4v1.5/share/psi4/basis/aug-cc-pvtz.gbs 
    atoms 4, 8, 19, 23                       entry O          line   331 file /opt/anaconda/envs/psi4v1.5/share/psi4/basis/aug-cc-pvtz.gbs 


  //>>>>>>>>>>>>>>>>>>>>>>>>>>>>>>>>>>>//
  //              Dimer HF             //
  //<<<<<<<<<<<<<<<<<<<<<<<<<<<<<<<<<<<//


*** tstart() called on node150.bme.utexas.edu
*** at Tue Jan 16 13:21:17 2024

   => Loading Basis Set <=

    Name: AUG-CC-PVTZ
    Role: ORBITAL
    Keyword: BASIS
    atoms 1, 5, 16, 20                       entry N          line   285 file /opt/anaconda/envs/psi4v1.5/share/psi4/basis/aug-cc-pvtz.gbs 
    atoms 2, 6, 11, 13-15, 17, 21, 26, 28-30 entry H          line    40 file /opt/anaconda/envs/psi4v1.5/share/psi4/basis/aug-cc-pvtz.gbs 
    atoms 3, 7, 9-10, 12, 18, 22, 24-25, 27  entry C          line   239 file /opt/anaconda/envs/psi4v1.5/share/psi4/basis/aug-cc-pvtz.gbs 
    atoms 4, 8, 19, 23                       entry O          line   331 file /opt/anaconda/envs/psi4v1.5/share/psi4/basis/aug-cc-pvtz.gbs 


         ---------------------------------------------------------
                                   SCF
               by Justin Turney, Rob Parrish, Andy Simmonett
                          and Daniel G. A. Smith
                              RHF Reference
                        8 Threads,  85830 MiB Core
         ---------------------------------------------------------

  ==> Geometry <==

    Molecular point group: c1
    Full point group: C1

    Geometry (in Angstrom), charge = 0, multiplicity = 1:

       Center              X                  Y                   Z               Mass       
    ------------   -----------------  -----------------  -----------------  -----------------
         N            1.237359777473     1.486725477569     1.559260380970    14.003074004430
         H            1.191089777473     1.735395477569     2.540550380970     1.007825032230
         C            0.218219777473     2.000925477569     0.778960380970    12.000000000000
         O           -0.687230222527     2.702095477569     1.226540380970    15.994914619570
         N            0.339049777473     1.642245477569    -0.551119619030    14.003074004430
         H           -0.394140222527     1.986465477569    -1.172739619030     1.007825032230
         C            1.229199777473     0.713665477569    -1.118929619030    12.000000000000
         O            1.144979777473     0.419225477569    -2.310789619030    15.994914619570
         C            2.210119777473     0.162895477569    -0.186589619030    12.000000000000
         C            2.171689777473     0.576855477569     1.103750380970    12.000000000000
         H            2.875699777473     0.221665477569     1.851220380970     1.007825032230
         C            3.167719777473    -0.859804522431    -0.710849619030    12.000000000000
         H            3.896509777473    -1.140244522431     0.054690380970     1.007825032230
         H            2.617569777473    -1.752414522431    -1.022729619030     1.007825032230
         H            3.699899777473    -0.473274522431    -1.584009619030     1.007825032230
         N           -2.298050222527     0.195545477569     0.464850380970    14.003074004430
         H           -2.713350222527     1.092225477569     0.701240380970     1.007825032230
         C           -2.049960222527     0.028985477569    -0.887729619030    12.000000000000
         O           -2.472830222527     0.795855477569    -1.748199619030    15.994914619570
         N           -1.285430222527    -1.093624522431    -1.160849619030    14.003074004430
         H           -1.017470222527    -1.197884522431    -2.138669619030     1.007825032230
         C           -0.536790222527    -1.852624522431    -0.249999619030    12.000000000000
         O            0.251179777473    -2.714614522431    -0.643829619030    15.994914619570
         C           -0.784870222527    -1.532504522431     1.153750380970    12.000000000000
         C           -1.623770222527    -0.507634522431     1.442630380970    12.000000000000
         H           -1.841360222527    -0.198934522431     2.461510380970     1.007825032230
         C           -0.044680222527    -2.322134522431     2.186300380970    12.000000000000
         H           -0.307830222527    -1.991624522431     3.195070380970     1.007825032230
         H           -0.274110222527    -3.387484522431     2.094110380970     1.007825032230
         H            1.034959777473    -2.214324522431     2.045440380970     1.007825032230

  Running in c1 symmetry.

  Rotational constants: A =      0.01696  B =      0.01566  C =      0.01373 [cm^-1]
  Rotational constants: A =    508.59418  B =    469.34253  C =    411.72305 [MHz]
  Nuclear repulsion = 1443.337991066405266

  Charge       = 0
  Multiplicity = 1
  Electrons    = 132
  Nalpha       = 66
  Nbeta        = 66

  ==> Algorithm <==

  SCF Algorithm Type is DF.
  DIIS enabled.
  MOM disabled.
  Fractional occupation disabled.
  Guess Type is SAD.
  Energy threshold   = 1.00e-08
  Density threshold  = 1.00e-08
  Integral threshold = 1.00e-12

  ==> Primary Basis <==

  Basis Set: AUG-CC-PVTZ
    Blend: AUG-CC-PVTZ
    Number of shells: 360
    Number of basis functions: 1104
    Number of Cartesian functions: 1290
    Spherical Harmonics?: true
    Max angular momentum: 3

   => Loading Basis Set <=

    Name: (AUG-CC-PVTZ AUX)
    Role: JKFIT
    Keyword: DF_BASIS_SCF
    atoms 1, 5, 16, 20                       entry N          line   224 file /opt/anaconda/envs/psi4v1.5/share/psi4/basis/aug-cc-pvtz-jkfit.gbs 
    atoms 2, 6, 11, 13-15, 17, 21, 26, 28-30 entry H          line    70 file /opt/anaconda/envs/psi4v1.5/share/psi4/basis/aug-cc-pvtz-jkfit.gbs 
    atoms 3, 7, 9-10, 12, 18, 22, 24-25, 27  entry C          line   162 file /opt/anaconda/envs/psi4v1.5/share/psi4/basis/aug-cc-pvtz-jkfit.gbs 
    atoms 4, 8, 19, 23                       entry O          line   286 file /opt/anaconda/envs/psi4v1.5/share/psi4/basis/aug-cc-pvtz-jkfit.gbs 

  ==> Integral Setup <==

  ==> DiskDFJK: Density-Fitted J/K Matrices <==

    J tasked:                  Yes
    K tasked:                  Yes
    wK tasked:                  No
    OpenMP threads:              8
    Integrals threads:           8
    Memory [MiB]:            64373
    Algorithm:                Core
    Integral Cache:           SAVE
    Schwarz Cutoff:          1E-12
    Fitting Condition:       1E-10

   => Auxiliary Basis Set <=

  Basis Set: (AUG-CC-PVTZ AUX)
    Blend: AUG-CC-PVTZ-JKFIT
    Number of shells: 708
    Number of basis functions: 2424
    Number of Cartesian functions: 3018
    Spherical Harmonics?: true
    Max angular momentum: 4

  Minimum eigenvalue in the overlap matrix is 1.0160942960E-06.
  Reciprocal condition number of the overlap matrix is 4.0741431456E-08.
    Using symmetric orthogonalization.

  ==> Pre-Iterations <==

  SCF Guess: Superposition of Atomic Densities via on-the-fly atomic UHF (no occupation information).

   -------------------------
    Irrep   Nso     Nmo    
   -------------------------
     A       1104    1104 
   -------------------------
    Total    1104    1104
   -------------------------

  ==> Iterations <==

                           Total Energy        Delta E     RMS |[F,P]|

   @DF-RHF iter SAD:  -902.30143010431607   -9.02301e+02   0.00000e+00 
   @DF-RHF iter   1:  -902.76060035489763   -4.59170e-01   1.00198e-03 DIIS
   @DF-RHF iter   2:  -903.14624969915837   -3.85649e-01   6.52709e-04 DIIS
   @DF-RHF iter   3:  -903.32284893243991   -1.76599e-01   1.34573e-04 DIIS
   @DF-RHF iter   4:  -903.33423421981638   -1.13853e-02   5.35465e-05 DIIS
   @DF-RHF iter   5:  -903.33652002858798   -2.28581e-03   1.09837e-05 DIIS
   @DF-RHF iter   6:  -903.33674667941432   -2.26651e-04   5.82862e-06 DIIS
   @DF-RHF iter   7:  -903.33680025240051   -5.35730e-05   2.50093e-06 DIIS
   @DF-RHF iter   8:  -903.33681023055146   -9.97815e-06   9.00428e-07 DIIS
   @DF-RHF iter   9:  -903.33681140070212   -1.17015e-06   2.93359e-07 DIIS
   @DF-RHF iter  10:  -903.33681155890235   -1.58200e-07   1.21517e-07 DIIS
   @DF-RHF iter  11:  -903.33681157837634   -1.94740e-08   4.74812e-08 DIIS
   @DF-RHF iter  12:  -903.33681158166644   -3.29010e-09   1.60524e-08 DIIS
   @DF-RHF iter  13:  -903.33681158200488   -3.38446e-10   5.03502e-09 DIIS
  Energy and wave function converged.


  ==> Post-Iterations <==

    Orbital Energies [Eh]
    ---------------------

    Doubly Occupied:                                                      

       1A    -20.554693     2A    -20.546678     3A    -20.543977  
       4A    -20.543838     5A    -15.647920     6A    -15.634770  
       7A    -15.633528     8A    -15.624940     9A    -11.427650  
      10A    -11.416166    11A    -11.385077    12A    -11.381698  
      13A    -11.334239    14A    -11.331704    15A    -11.265683  
      16A    -11.264284    17A    -11.246082    18A    -11.232004  
      19A     -1.437050    20A     -1.426282    21A     -1.397295  
      22A     -1.392056    23A     -1.312362    24A     -1.303315  
      25A     -1.246848    26A     -1.239124    27A     -1.110860  
      28A     -1.109339    29A     -0.972481    30A     -0.969918  
      31A     -0.919000    32A     -0.915010    33A     -0.899209  
      34A     -0.890096    35A     -0.774698    36A     -0.770767  
      37A     -0.767268    38A     -0.764094    39A     -0.713161  
      40A     -0.704603    41A     -0.692926    42A     -0.680478  
      43A     -0.673284    44A     -0.650724    45A     -0.646042  
      46A     -0.638043    47A     -0.620111    48A     -0.616763  
      49A     -0.602305    50A     -0.593225    51A     -0.571739  
      52A     -0.566531    53A     -0.560745    54A     -0.556892  
      55A     -0.554100    56A     -0.546268    57A     -0.519890  
      58A     -0.507039    59A     -0.489051    60A     -0.479119  
      61A     -0.453455    62A     -0.449505    63A     -0.443645  
      64A     -0.433802    65A     -0.358292    66A     -0.356782  

    Virtual:                                                              

      67A      0.011239    68A      0.024720    69A      0.030284  
      70A      0.034875    71A      0.044434    72A      0.046125  
      73A      0.049798    74A      0.053638    75A      0.055357  
      76A      0.065047    77A      0.069405    78A      0.073607  
      79A      0.077461    80A      0.078245    81A      0.079974  
      82A      0.083220    83A      0.088732    84A      0.091046  
      85A      0.094653    86A      0.100157    87A      0.105656  
      88A      0.110704    89A      0.111287    90A      0.117339  
      91A      0.117868    92A      0.120844    93A      0.123616  
      94A      0.126758    95A      0.130525    96A      0.132505  
      97A      0.134132    98A      0.137914    99A      0.138867  
     100A      0.145339   101A      0.146319   102A      0.151520  
     103A      0.153212   104A      0.156440   105A      0.157995  
     106A      0.163009   107A      0.167454   108A      0.170160  
     109A      0.171923   110A      0.174639   111A      0.177069  
     112A      0.181772   113A      0.183110   114A      0.187685  
     115A      0.193817   116A      0.196290   117A      0.204391  
     118A      0.210346   119A      0.217842   120A      0.218919  
     121A      0.219679   122A      0.227935   123A      0.230019  
     124A      0.231483   125A      0.237017   126A      0.237621  
     127A      0.242563   128A      0.244591   129A      0.248374  
     130A      0.251195   131A      0.255330   132A      0.259729  
     133A      0.261925   134A      0.264194   135A      0.269711  
     136A      0.274600   137A      0.276382   138A      0.281285  
     139A      0.284160   140A      0.285936   141A      0.289113  
     142A      0.291790   143A      0.297035   144A      0.299338  
     145A      0.302654   146A      0.307350   147A      0.310138  
     148A      0.313084   149A      0.315404   150A      0.318482  
     151A      0.320975   152A      0.322620   153A      0.326779  
     154A      0.328329   155A      0.334134   156A      0.336831  
     157A      0.340110   158A      0.341697   159A      0.344926  
     160A      0.349545   161A      0.352523   162A      0.355882  
     163A      0.363005   164A      0.366451   165A      0.368234  
     166A      0.372915   167A      0.374703   168A      0.377610  
     169A      0.382896   170A      0.385381   171A      0.387347  
     172A      0.392706   173A      0.394349   174A      0.398556  
     175A      0.400819   176A      0.402328   177A      0.407734  
     178A      0.411041   179A      0.419127   180A      0.421644  
     181A      0.423675   182A      0.425748   183A      0.429361  
     184A      0.431246   185A      0.438108   186A      0.443529  
     187A      0.445481   188A      0.446640   189A      0.450723  
     190A      0.455697   191A      0.456390   192A      0.461573  
     193A      0.462859   194A      0.466018   195A      0.468940  
     196A      0.470592   197A      0.474730   198A      0.477371  
     199A      0.483351   200A      0.486207   201A      0.487068  
     202A      0.491540   203A      0.494206   204A      0.495593  
     205A      0.501235   206A      0.502646   207A      0.507473  
     208A      0.511426   209A      0.515634   210A      0.516964  
     211A      0.522240   212A      0.526663   213A      0.529945  
     214A      0.533948   215A      0.537304   216A      0.540054  
     217A      0.543023   218A      0.545879   219A      0.546640  
     220A      0.547577   221A      0.553942   222A      0.556743  
     223A      0.561892   224A      0.562144   225A      0.569996  
     226A      0.573260   227A      0.576495   228A      0.578622  
     229A      0.582893   230A      0.584323   231A      0.590008  
     232A      0.594219   233A      0.596315   234A      0.603587  
     235A      0.607842   236A      0.612644   237A      0.616397  
     238A      0.618813   239A      0.620251   240A      0.626816  
     241A      0.627405   242A      0.631405   243A      0.635064  
     244A      0.638636   245A      0.642160   246A      0.649810  
     247A      0.652089   248A      0.655535   249A      0.661078  
     250A      0.666867   251A      0.672834   252A      0.677320  
     253A      0.680088   254A      0.682389   255A      0.691398  
     256A      0.697004   257A      0.700750   258A      0.706577  
     259A      0.710518   260A      0.711179   261A      0.720608  
     262A      0.724660   263A      0.728562   264A      0.734949  
     265A      0.738033   266A      0.747159   267A      0.753122  
     268A      0.756531   269A      0.758733   270A      0.763856  
     271A      0.768283   272A      0.773392   273A      0.776601  
     274A      0.782338   275A      0.783290   276A      0.786474  
     277A      0.793466   278A      0.795638   279A      0.802226  
     280A      0.804033   281A      0.808330   282A      0.809868  
     283A      0.814764   284A      0.821278   285A      0.824946  
     286A      0.831290   287A      0.833416   288A      0.843485  
     289A      0.845289   290A      0.847262   291A      0.850114  
     292A      0.857350   293A      0.860466   294A      0.865659  
     295A      0.868162   296A      0.875800   297A      0.880649  
     298A      0.882881   299A      0.886606   300A      0.887832  
     301A      0.894098   302A      0.902958   303A      0.904984  
     304A      0.905875   305A      0.911110   306A      0.917713  
     307A      0.925422   308A      0.930873   309A      0.935309  
     310A      0.939928   311A      0.942752   312A      0.944181  
     313A      0.948365   314A      0.954375   315A      0.956009  
     316A      0.958873   317A      0.966136   318A      0.968380  
     319A      0.971819   320A      0.976039   321A      0.980693  
     322A      0.982036   323A      0.984413   324A      0.990726  
     325A      0.993087   326A      0.995860   327A      0.999561  
     328A      1.001982   329A      1.008122   330A      1.008398  
     331A      1.014315   332A      1.017814   333A      1.020828  
     334A      1.026594   335A      1.032851   336A      1.036018  
     337A      1.039179   338A      1.045970   339A      1.049545  
     340A      1.053809   341A      1.059807   342A      1.061857  
     343A      1.072600   344A      1.074879   345A      1.079956  
     346A      1.081641   347A      1.086183   348A      1.089620  
     349A      1.100565   350A      1.102459   351A      1.103908  
     352A      1.107357   353A      1.114343   354A      1.116623  
     355A      1.125573   356A      1.126743   357A      1.132393  
     358A      1.138061   359A      1.140317   360A      1.147133  
     361A      1.149368   362A      1.157255   363A      1.157719  
     364A      1.161891   365A      1.166601   366A      1.173021  
     367A      1.173827   368A      1.177952   369A      1.182137  
     370A      1.187253   371A      1.190898   372A      1.193066  
     373A      1.198789   374A      1.199940   375A      1.204332  
     376A      1.211964   377A      1.222694   378A      1.225228  
     379A      1.227445   380A      1.230481   381A      1.232933  
     382A      1.239422   383A      1.246845   384A      1.251179  
     385A      1.256396   386A      1.258044   387A      1.264901  
     388A      1.267924   389A      1.272633   390A      1.276092  
     391A      1.277323   392A      1.281457   393A      1.288903  
     394A      1.289641   395A      1.301649   396A      1.307475  
     397A      1.310146   398A      1.320246   399A      1.321578  
     400A      1.322151   401A      1.326253   402A      1.330851  
     403A      1.335485   404A      1.340655   405A      1.347326  
     406A      1.351908   407A      1.358878   408A      1.359687  
     409A      1.363385   410A      1.369176   411A      1.372882  
     412A      1.381759   413A      1.385146   414A      1.392647  
     415A      1.396430   416A      1.405929   417A      1.406610  
     418A      1.408552   419A      1.415787   420A      1.418631  
     421A      1.424202   422A      1.429127   423A      1.432548  
     424A      1.436615   425A      1.440396   426A      1.440855  
     427A      1.445371   428A      1.447782   429A      1.451353  
     430A      1.458128   431A      1.463745   432A      1.471682  
     433A      1.478849   434A      1.481463   435A      1.482420  
     436A      1.487893   437A      1.492619   438A      1.498228  
     439A      1.500235   440A      1.513989   441A      1.514820  
     442A      1.518107   443A      1.523910   444A      1.527408  
     445A      1.532431   446A      1.532856   447A      1.543744  
     448A      1.550478   449A      1.555286   450A      1.556910  
     451A      1.569759   452A      1.574242   453A      1.580805  
     454A      1.586882   455A      1.589736   456A      1.592964  
     457A      1.596114   458A      1.603352   459A      1.610200  
     460A      1.621127   461A      1.626251   462A      1.626538  
     463A      1.634007   464A      1.637891   465A      1.642715  
     466A      1.648057   467A      1.650262   468A      1.656727  
     469A      1.663944   470A      1.670587   471A      1.672542  
     472A      1.678050   473A      1.681852   474A      1.687164  
     475A      1.689670   476A      1.697139   477A      1.700907  
     478A      1.703453   479A      1.709962   480A      1.714795  
     481A      1.716270   482A      1.723155   483A      1.730193  
     484A      1.738235   485A      1.744497   486A      1.748058  
     487A      1.752544   488A      1.756117   489A      1.758703  
     490A      1.765149   491A      1.771255   492A      1.775105  
     493A      1.777864   494A      1.786868   495A      1.792556  
     496A      1.801067   497A      1.808002   498A      1.811041  
     499A      1.813936   500A      1.817475   501A      1.825437  
     502A      1.830763   503A      1.839168   504A      1.844506  
     505A      1.854046   506A      1.856503   507A      1.864657  
     508A      1.868927   509A      1.872275   510A      1.875184  
     511A      1.883672   512A      1.889078   513A      1.891005  
     514A      1.902359   515A      1.904688   516A      1.912202  
     517A      1.918458   518A      1.926063   519A      1.931779  
     520A      1.934634   521A      1.943436   522A      1.946045  
     523A      1.952079   524A      1.956768   525A      1.962907  
     526A      1.966319   527A      1.970366   528A      1.983049  
     529A      1.986976   530A      1.996630   531A      2.004609  
     532A      2.009590   533A      2.017615   534A      2.031520  
     535A      2.033709   536A      2.045988   537A      2.052652  
     538A      2.054934   539A      2.064428   540A      2.071481  
     541A      2.080790   542A      2.084321   543A      2.089246  
     544A      2.093581   545A      2.102814   546A      2.109240  
     547A      2.114545   548A      2.123379   549A      2.128007  
     550A      2.138466   551A      2.145832   552A      2.154392  
     553A      2.163480   554A      2.166514   555A      2.170149  
     556A      2.172663   557A      2.180887   558A      2.187138  
     559A      2.193706   560A      2.200461   561A      2.203204  
     562A      2.210497   563A      2.217984   564A      2.226373  
     565A      2.229247   566A      2.231790   567A      2.234927  
     568A      2.244178   569A      2.247933   570A      2.251235  
     571A      2.261961   572A      2.264956   573A      2.274816  
     574A      2.277756   575A      2.287430   576A      2.290102  
     577A      2.298856   578A      2.305066   579A      2.310166  
     580A      2.314529   581A      2.320778   582A      2.328097  
     583A      2.339144   584A      2.342039   585A      2.346612  
     586A      2.352223   587A      2.358866   588A      2.378061  
     589A      2.380895   590A      2.390362   591A      2.397846  
     592A      2.400012   593A      2.411152   594A      2.414809  
     595A      2.424100   596A      2.428074   597A      2.436792  
     598A      2.441669   599A      2.453162   600A      2.454149  
     601A      2.470683   602A      2.487329   603A      2.491883  
     604A      2.502743   605A      2.506094   606A      2.516593  
     607A      2.518571   608A      2.525952   609A      2.529715  
     610A      2.544644   611A      2.547987   612A      2.553339  
     613A      2.563564   614A      2.574561   615A      2.581093  
     616A      2.593738   617A      2.596471   618A      2.599017  
     619A      2.606371   620A      2.616202   621A      2.628000  
     622A      2.633780   623A      2.644632   624A      2.651584  
     625A      2.654738   626A      2.658354   627A      2.678339  
     628A      2.681059   629A      2.687881   630A      2.693452  
     631A      2.698901   632A      2.710094   633A      2.712079  
     634A      2.721505   635A      2.732368   636A      2.739815  
     637A      2.746820   638A      2.755576   639A      2.756659  
     640A      2.766723   641A      2.772861   642A      2.779059  
     643A      2.783570   644A      2.787147   645A      2.798974  
     646A      2.802681   647A      2.814719   648A      2.827762  
     649A      2.830457   650A      2.839485   651A      2.842245  
     652A      2.849794   653A      2.861356   654A      2.868219  
     655A      2.872940   656A      2.879382   657A      2.897752  
     658A      2.906582   659A      2.912108   660A      2.924769  
     661A      2.934105   662A      2.949085   663A      2.969515  
     664A      2.972477   665A      2.984511   666A      3.000626  
     667A      3.013403   668A      3.017398   669A      3.032203  
     670A      3.036600   671A      3.037082   672A      3.042428  
     673A      3.051769   674A      3.064998   675A      3.079864  
     676A      3.088377   677A      3.100792   678A      3.109439  
     679A      3.115164   680A      3.132555   681A      3.138616  
     682A      3.151606   683A      3.163706   684A      3.175609  
     685A      3.184701   686A      3.208805   687A      3.217068  
     688A      3.235144   689A      3.260313   690A      3.260867  
     691A      3.278348   692A      3.286080   693A      3.300222  
     694A      3.314319   695A      3.320005   696A      3.331793  
     697A      3.345984   698A      3.352809   699A      3.372709  
     700A      3.382077   701A      3.400477   702A      3.404377  
     703A      3.419797   704A      3.427793   705A      3.434943  
     706A      3.440311   707A      3.455674   708A      3.468540  
     709A      3.482591   710A      3.487042   711A      3.497118  
     712A      3.506147   713A      3.508696   714A      3.517147  
     715A      3.537206   716A      3.547810   717A      3.554639  
     718A      3.563587   719A      3.568727   720A      3.579788  
     721A      3.587290   722A      3.593282   723A      3.614919  
     724A      3.621922   725A      3.622705   726A      3.638109  
     727A      3.643455   728A      3.657710   729A      3.665309  
     730A      3.673164   731A      3.686120   732A      3.695529  
     733A      3.702577   734A      3.704744   735A      3.718091  
     736A      3.723423   737A      3.726184   738A      3.731477  
     739A      3.737078   740A      3.746821   741A      3.755728  
     742A      3.761071   743A      3.764386   744A      3.774841  
     745A      3.792955   746A      3.801961   747A      3.817229  
     748A      3.823838   749A      3.831063   750A      3.834851  
     751A      3.840063   752A      3.845477   753A      3.856330  
     754A      3.861901   755A      3.868621   756A      3.876260  
     757A      3.881047   758A      3.888169   759A      3.902156  
     760A      3.903149   761A      3.909453   762A      3.921358  
     763A      3.922769   764A      3.933874   765A      3.941758  
     766A      3.950494   767A      3.953264   768A      3.959365  
     769A      3.966145   770A      3.973996   771A      3.981395  
     772A      3.982807   773A      3.998872   774A      4.003618  
     775A      4.014550   776A      4.019372   777A      4.025152  
     778A      4.027023   779A      4.037560   780A      4.043004  
     781A      4.056260   782A      4.058160   783A      4.065375  
     784A      4.069839   785A      4.078180   786A      4.085134  
     787A      4.090890   788A      4.105991   789A      4.111713  
     790A      4.122128   791A      4.139893   792A      4.146155  
     793A      4.152812   794A      4.158652   795A      4.160148  
     796A      4.168038   797A      4.174379   798A      4.188696  
     799A      4.192727   800A      4.206818   801A      4.210114  
     802A      4.215183   803A      4.232329   804A      4.239268  
     805A      4.240332   806A      4.241103   807A      4.250186  
     808A      4.258944   809A      4.272664   810A      4.273785  
     811A      4.283734   812A      4.293095   813A      4.297515  
     814A      4.303195   815A      4.312975   816A      4.322286  
     817A      4.332479   818A      4.334692   819A      4.347244  
     820A      4.351811   821A      4.362844   822A      4.371148  
     823A      4.380833   824A      4.390936   825A      4.392581  
     826A      4.402101   827A      4.403527   828A      4.412594  
     829A      4.420126   830A      4.424600   831A      4.437494  
     832A      4.443383   833A      4.448850   834A      4.457995  
     835A      4.463921   836A      4.471845   837A      4.483803  
     838A      4.487029   839A      4.490906   840A      4.510897  
     841A      4.523366   842A      4.528411   843A      4.540002  
     844A      4.552476   845A      4.557147   846A      4.569671  
     847A      4.574896   848A      4.583303   849A      4.589409  
     850A      4.602179   851A      4.616231   852A      4.619453  
     853A      4.634273   854A      4.646938   855A      4.652173  
     856A      4.656386   857A      4.658206   858A      4.668635  
     859A      4.688882   860A      4.700836   861A      4.710907  
     862A      4.715548   863A      4.726110   864A      4.735803  
     865A      4.747812   866A      4.757326   867A      4.760901  
     868A      4.767600   869A      4.770824   870A      4.786159  
     871A      4.790574   872A      4.799328   873A      4.802376  
     874A      4.817529   875A      4.824227   876A      4.831343  
     877A      4.837696   878A      4.842486   879A      4.845141  
     880A      4.856651   881A      4.865670   882A      4.876081  
     883A      4.883697   884A      4.888663   885A      4.897866  
     886A      4.901681   887A      4.909162   888A      4.915655  
     889A      4.938885   890A      4.955838   891A      4.971333  
     892A      4.975484   893A      4.984366   894A      4.990137  
     895A      4.998831   896A      5.002795   897A      5.018364  
     898A      5.033145   899A      5.044707   900A      5.058511  
     901A      5.071786   902A      5.089800   903A      5.093503  
     904A      5.106827   905A      5.113889   906A      5.121955  
     907A      5.130252   908A      5.136451   909A      5.152518  
     910A      5.166967   911A      5.168698   912A      5.186123  
     913A      5.213764   914A      5.219770   915A      5.222988  
     916A      5.235517   917A      5.245328   918A      5.255853  
     919A      5.263962   920A      5.278373   921A      5.280030  
     922A      5.289966   923A      5.311686   924A      5.316106  
     925A      5.329071   926A      5.343157   927A      5.349947  
     928A      5.375132   929A      5.393758   930A      5.399072  
     931A      5.419965   932A      5.441425   933A      5.455481  
     934A      5.463315   935A      5.474300   936A      5.485920  
     937A      5.494169   938A      5.504116   939A      5.510827  
     940A      5.519398   941A      5.527472   942A      5.543807  
     943A      5.561773   944A      5.566263   945A      5.569705  
     946A      5.593516   947A      5.606248   948A      5.619544  
     949A      5.623802   950A      5.635328   951A      5.641382  
     952A      5.647885   953A      5.658048   954A      5.661886  
     955A      5.674734   956A      5.680712   957A      5.688775  
     958A      5.704602   959A      5.719076   960A      5.736434  
     961A      5.737115   962A      5.766037   963A      5.767679  
     964A      5.771591   965A      5.786394   966A      5.795575  
     967A      5.806713   968A      5.813160   969A      5.831667  
     970A      5.840265   971A      5.885011   972A      5.893544  
     973A      5.923107   974A      5.943050   975A      5.945597  
     976A      5.951036   977A      5.962428   978A      5.979246  
     979A      5.993314   980A      6.012071   981A      6.021463  
     982A      6.045797   983A      6.062304   984A      6.067511  
     985A      6.087752   986A      6.100563   987A      6.124237  
     988A      6.132542   989A      6.155072   990A      6.162335  
     991A      6.171879   992A      6.176860   993A      6.179856  
     994A      6.194272   995A      6.207416   996A      6.208815  
     997A      6.234591   998A      6.243979   999A      6.261292  
    1000A      6.272584  1001A      6.284568  1002A      6.306199  
    1003A      6.326748  1004A      6.352136  1005A      6.366347  
    1006A      6.404658  1007A      6.452620  1008A      6.475147  
    1009A      6.523497  1010A      6.544397  1011A      6.610443  
    1012A      6.623952  1013A      6.701566  1014A      6.714244  
    1015A      6.746177  1016A      6.748251  1017A      6.764087  
    1018A      6.781995  1019A      6.798896  1020A      6.802366  
    1021A      6.814021  1022A      6.828231  1023A      6.835750  
    1024A      6.836060  1025A      6.847816  1026A      6.859641  
    1027A      6.869497  1028A      6.882192  1029A      6.888068  
    1030A      6.893811  1031A      6.899724  1032A      6.914183  
    1033A      6.920553  1034A      6.933006  1035A      6.937294  
    1036A      6.955851  1037A      6.973942  1038A      6.982448  
    1039A      6.995967  1040A      7.017851  1041A      7.056997  
    1042A      7.073902  1043A      7.090659  1044A      7.099785  
    1045A      7.113552  1046A      7.129226  1047A      7.229948  
    1048A      7.235473  1049A      7.265759  1050A      7.278430  
    1051A      7.312209  1052A      7.328830  1053A      7.355534  
    1054A      7.379543  1055A      7.464339  1056A      7.479690  
    1057A      7.491813  1058A      7.498083  1059A      7.512489  
    1060A      7.529598  1061A      7.549558  1062A      7.561719  
    1063A      7.574677  1064A      7.586657  1065A      7.659562  
    1066A      7.676296  1067A      7.726125  1068A      7.745496  
    1069A      7.832954  1070A      7.838494  1071A      7.863069  
    1072A      7.877276  1073A      7.888142  1074A      7.905059  
    1075A      7.918404  1076A      7.931125  1077A      7.977096  
    1078A      8.003881  1079A      8.015507  1080A      8.030665  
    1081A      8.056497  1082A      8.066836  1083A      8.088191  
    1084A      8.088945  1085A      8.112179  1086A      8.120848  
    1087A     16.259137  1088A     16.375078  1089A     16.473275  
    1090A     16.591446  1091A     16.758942  1092A     16.812680  
    1093A     17.073690  1094A     17.235641  1095A     18.342824  
    1096A     18.413542  1097A     19.464880  1098A     19.520537  
    1099A     20.447746  1100A     20.726409  1101A     20.836356  
    1102A     20.947281  1103A     21.434008  1104A     21.557542  

    Final Occupation by Irrep:
              A 
    DOCC [    66 ]

  @DF-RHF Final Energy:  -903.33681158200488

   => Energetics <=

    Nuclear Repulsion Energy =           1443.3379910664052659
    One-Electron Energy =               -4102.7285410901640716
    Two-Electron Energy =                1756.0537384417539215
    Total Energy =                       -903.3368115820048843

Computation Completed


Properties will be evaluated at   0.000000,   0.000000,   0.000000 [a0]

Properties computed using the SCF density matrix

  Nuclear Dipole Moment: [e a0]
     X:     8.2166      Y:    -6.8634      Z:     8.4437

  Electronic Dipole Moment: [e a0]
     X:    -7.3484      Y:     6.8142      Z:    -5.5257

  Dipole Moment: [e a0]
     X:     0.8682      Y:    -0.0492      Z:     2.9180     Total:     3.0448

  Dipole Moment: [D]
     X:     2.2068      Y:    -0.1251      Z:     7.4167     Total:     7.7391


*** tstop() called on node150.bme.utexas.edu at Tue Jan 16 13:26:12 2024
Module time:
	user time   =    1922.61 seconds =      32.04 minutes
	system time =      21.42 seconds =       0.36 minutes
	total time  =        295 seconds =       4.92 minutes
Total time:
	user time   =    1922.61 seconds =      32.04 minutes
	system time =      21.42 seconds =       0.36 minutes
	total time  =        295 seconds =       4.92 minutes

*** tstart() called on node150.bme.utexas.edu
*** at Tue Jan 16 13:26:12 2024


  //>>>>>>>>>>>>>>>>>>>>>>>>>>>>>>>>>>>//
  //               DFMP2               //
  //<<<<<<<<<<<<<<<<<<<<<<<<<<<<<<<<<<<//

   => Loading Basis Set <=

    Name: (AUG-CC-PVTZ AUX)
    Role: RIFIT
    Keyword: DF_BASIS_MP2
    atoms 1, 5, 16, 20                       entry N          line   206 file /opt/anaconda/envs/psi4v1.5/share/psi4/basis/aug-cc-pvtz-ri.gbs 
    atoms 2, 6, 11, 13-15, 17, 21, 26, 28-30 entry H          line    30 file /opt/anaconda/envs/psi4v1.5/share/psi4/basis/aug-cc-pvtz-ri.gbs 
    atoms 3, 7, 9-10, 12, 18, 22, 24-25, 27  entry C          line   148 file /opt/anaconda/envs/psi4v1.5/share/psi4/basis/aug-cc-pvtz-ri.gbs 
    atoms 4, 8, 19, 23                       entry O          line   264 file /opt/anaconda/envs/psi4v1.5/share/psi4/basis/aug-cc-pvtz-ri.gbs 

	 --------------------------------------------------------
	                          DF-MP2                         
	      2nd-Order Density-Fitted Moller-Plesset Theory     
	              RMP2 Wavefunction,   8 Threads             
	                                                         
	        Rob Parrish, Justin Turney, Andy Simmonett,      
	           Ed Hohenstein, and C. David Sherrill          
	 --------------------------------------------------------

   => Auxiliary Basis Set <=

  Basis Set: (AUG-CC-PVTZ AUX)
    Blend: AUG-CC-PVTZ-RI
    Number of shells: 672
    Number of basis functions: 2460
    Number of Cartesian functions: 3108
    Spherical Harmonics?: true
    Max angular momentum: 4

	 --------------------------------------------------------
	                 NBF =  1104, NAUX =  2460
	 --------------------------------------------------------
	   CLASS    FOCC     OCC    AOCC    AVIR     VIR    FVIR
	   PAIRS      18      66      48    1038    1038       0
	 --------------------------------------------------------

	 Will save fitting metric to file 97.

	-----------------------------------------------------------
	 ==================> DF-MP2 Energies <==================== 
	-----------------------------------------------------------
	 Reference Energy          =    -903.3368115820048843 [Eh]
	 Singles Energy            =      -0.0000000000000000 [Eh]
	 Same-Spin Energy          =      -0.8812170940046256 [Eh]
	 Opposite-Spin Energy      =      -2.5175187391890255 [Eh]
	 Correlation Energy        =      -3.3987358331936512 [Eh]
	 Total Energy              =    -906.7355474151985391 [Eh]
	-----------------------------------------------------------
	 ================> DF-SCS-MP2 Energies <================== 
	-----------------------------------------------------------
	 SCS Same-Spin Scale       =       0.3333333333333333 [-]
	 SCS Opposite-Spin Scale   =       1.2000000000000000 [-]
	 SCS Same-Spin Energy      =      -0.2937390313348752 [Eh]
	 SCS Opposite-Spin Energy  =      -3.0210224870268303 [Eh]
	 SCS Correlation Energy    =      -3.3147615183617054 [Eh]
	 SCS Total Energy          =    -906.6515731003665906 [Eh]
	-----------------------------------------------------------


*** tstop() called on node150.bme.utexas.edu at Tue Jan 16 13:27:13 2024
Module time:
	user time   =     335.11 seconds =       5.59 minutes
	system time =      11.20 seconds =       0.19 minutes
	total time  =         61 seconds =       1.02 minutes
Total time:
	user time   =    2257.73 seconds =      37.63 minutes
	system time =      32.62 seconds =       0.54 minutes
	total time  =        356 seconds =       5.93 minutes

  //>>>>>>>>>>>>>>>>>>>>>>>>>>>>>>>>>>>//
  //            Monomer A HF           //
  //<<<<<<<<<<<<<<<<<<<<<<<<<<<<<<<<<<<//


*** tstart() called on node150.bme.utexas.edu
*** at Tue Jan 16 13:27:13 2024

   => Loading Basis Set <=

    Name: AUG-CC-PVTZ
    Role: ORBITAL
    Keyword: BASIS
    atoms 1, 5, 16, 20                       entry N          line   285 file /opt/anaconda/envs/psi4v1.5/share/psi4/basis/aug-cc-pvtz.gbs 
    atoms 2, 6, 11, 13-15, 17, 21, 26, 28-30 entry H          line    40 file /opt/anaconda/envs/psi4v1.5/share/psi4/basis/aug-cc-pvtz.gbs 
    atoms 3, 7, 9-10, 12, 18, 22, 24-25, 27  entry C          line   239 file /opt/anaconda/envs/psi4v1.5/share/psi4/basis/aug-cc-pvtz.gbs 
    atoms 4, 8, 19, 23                       entry O          line   331 file /opt/anaconda/envs/psi4v1.5/share/psi4/basis/aug-cc-pvtz.gbs 


         ---------------------------------------------------------
                                   SCF
               by Justin Turney, Rob Parrish, Andy Simmonett
                          and Daniel G. A. Smith
                              RHF Reference
                        8 Threads,  85830 MiB Core
         ---------------------------------------------------------

  ==> Geometry <==

    Molecular point group: c1
    Full point group: C1

    Geometry (in Angstrom), charge = 0, multiplicity = 1:

       Center              X                  Y                   Z               Mass       
    ------------   -----------------  -----------------  -----------------  -----------------
         N            1.237359777473     1.486725477569     1.559260380970    14.003074004430
         H            1.191089777473     1.735395477569     2.540550380970     1.007825032230
         C            0.218219777473     2.000925477569     0.778960380970    12.000000000000
         O           -0.687230222527     2.702095477569     1.226540380970    15.994914619570
         N            0.339049777473     1.642245477569    -0.551119619030    14.003074004430
         H           -0.394140222527     1.986465477569    -1.172739619030     1.007825032230
         C            1.229199777473     0.713665477569    -1.118929619030    12.000000000000
         O            1.144979777473     0.419225477569    -2.310789619030    15.994914619570
         C            2.210119777473     0.162895477569    -0.186589619030    12.000000000000
         C            2.171689777473     0.576855477569     1.103750380970    12.000000000000
         H            2.875699777473     0.221665477569     1.851220380970     1.007825032230
         C            3.167719777473    -0.859804522431    -0.710849619030    12.000000000000
         H            3.896509777473    -1.140244522431     0.054690380970     1.007825032230
         H            2.617569777473    -1.752414522431    -1.022729619030     1.007825032230
         H            3.699899777473    -0.473274522431    -1.584009619030     1.007825032230
      Gh(N)          -2.298050222527     0.195545477569     0.464850380970    14.003074004430
      Gh(H)          -2.713350222527     1.092225477569     0.701240380970     1.007825032230
      Gh(C)          -2.049960222527     0.028985477569    -0.887729619030    12.000000000000
      Gh(O)          -2.472830222527     0.795855477569    -1.748199619030    15.994914619570
      Gh(N)          -1.285430222527    -1.093624522431    -1.160849619030    14.003074004430
      Gh(H)          -1.017470222527    -1.197884522431    -2.138669619030     1.007825032230
      Gh(C)          -0.536790222527    -1.852624522431    -0.249999619030    12.000000000000
      Gh(O)           0.251179777473    -2.714614522431    -0.643829619030    15.994914619570
      Gh(C)          -0.784870222527    -1.532504522431     1.153750380970    12.000000000000
      Gh(C)          -1.623770222527    -0.507634522431     1.442630380970    12.000000000000
      Gh(H)          -1.841360222527    -0.198934522431     2.461510380970     1.007825032230
      Gh(C)          -0.044680222527    -2.322134522431     2.186300380970    12.000000000000
      Gh(H)          -0.307830222527    -1.991624522431     3.195070380970     1.007825032230
      Gh(H)          -0.274110222527    -3.387484522431     2.094110380970     1.007825032230
      Gh(H)           1.034959777473    -2.214324522431     2.045440380970     1.007825032230

  Running in c1 symmetry.

  Rotational constants: A =      0.01696  B =      0.01566  C =      0.01373 [cm^-1]
  Rotational constants: A =    508.59418  B =    469.34253  C =    411.72305 [MHz]
  Nuclear repulsion =  438.248315736147049

  Charge       = 0
  Multiplicity = 1
  Electrons    = 66
  Nalpha       = 33
  Nbeta        = 33

  ==> Algorithm <==

  SCF Algorithm Type is DF.
  DIIS enabled.
  MOM disabled.
  Fractional occupation disabled.
  Guess Type is SAD.
  Energy threshold   = 1.00e-08
  Density threshold  = 1.00e-08
  Integral threshold = 1.00e-12

  ==> Primary Basis <==

  Basis Set: AUG-CC-PVTZ
    Blend: AUG-CC-PVTZ
    Number of shells: 360
    Number of basis functions: 1104
    Number of Cartesian functions: 1290
    Spherical Harmonics?: true
    Max angular momentum: 3

   => Loading Basis Set <=

    Name: (AUG-CC-PVTZ AUX)
    Role: JKFIT
    Keyword: DF_BASIS_SCF
    atoms 1, 5, 16, 20                       entry N          line   224 file /opt/anaconda/envs/psi4v1.5/share/psi4/basis/aug-cc-pvtz-jkfit.gbs 
    atoms 2, 6, 11, 13-15, 17, 21, 26, 28-30 entry H          line    70 file /opt/anaconda/envs/psi4v1.5/share/psi4/basis/aug-cc-pvtz-jkfit.gbs 
    atoms 3, 7, 9-10, 12, 18, 22, 24-25, 27  entry C          line   162 file /opt/anaconda/envs/psi4v1.5/share/psi4/basis/aug-cc-pvtz-jkfit.gbs 
    atoms 4, 8, 19, 23                       entry O          line   286 file /opt/anaconda/envs/psi4v1.5/share/psi4/basis/aug-cc-pvtz-jkfit.gbs 

  ==> Integral Setup <==

  ==> DiskDFJK: Density-Fitted J/K Matrices <==

    J tasked:                  Yes
    K tasked:                  Yes
    wK tasked:                  No
    OpenMP threads:              8
    Integrals threads:           8
    Memory [MiB]:            64373
    Algorithm:                Core
    Integral Cache:           LOAD
    Schwarz Cutoff:          1E-12
    Fitting Condition:       1E-10

   => Auxiliary Basis Set <=

  Basis Set: (AUG-CC-PVTZ AUX)
    Blend: AUG-CC-PVTZ-JKFIT
    Number of shells: 708
    Number of basis functions: 2424
    Number of Cartesian functions: 3018
    Spherical Harmonics?: true
    Max angular momentum: 4

  Minimum eigenvalue in the overlap matrix is 1.0160942960E-06.
  Reciprocal condition number of the overlap matrix is 4.0741431456E-08.
    Using symmetric orthogonalization.

  ==> Pre-Iterations <==

  SCF Guess: Superposition of Atomic Densities via on-the-fly atomic UHF (no occupation information).

   -------------------------
    Irrep   Nso     Nmo    
   -------------------------
     A       1104    1104 
   -------------------------
    Total    1104    1104
   -------------------------

  ==> Iterations <==

                           Total Energy        Delta E     RMS |[F,P]|

   @DF-RHF iter SAD:  -450.93085607510017   -4.50931e+02   0.00000e+00 
   @DF-RHF iter   1:  -451.37718569201581   -4.46330e-01   7.17159e-04 DIIS
   @DF-RHF iter   2:  -451.57454497850904   -1.97359e-01   4.68741e-04 DIIS
   @DF-RHF iter   3:  -451.66506721980915   -9.05222e-02   9.08345e-05 DIIS
   @DF-RHF iter   4:  -451.67046398516959   -5.39677e-03   3.65049e-05 DIIS
   @DF-RHF iter   5:  -451.67155442237834   -1.09044e-03   7.33924e-06 DIIS
   @DF-RHF iter   6:  -451.67166673989095   -1.12318e-04   3.74495e-06 DIIS
   @DF-RHF iter   7:  -451.67169009646631   -2.33566e-05   1.60617e-06 DIIS
   @DF-RHF iter   8:  -451.67169429494265   -4.19848e-06   6.17367e-07 DIIS
   @DF-RHF iter   9:  -451.67169476759136   -4.72649e-07   2.07001e-07 DIIS
   @DF-RHF iter  10:  -451.67169484726281   -7.96715e-08   8.22613e-08 DIIS
   @DF-RHF iter  11:  -451.67169485654404   -9.28122e-09   3.13610e-08 DIIS
   @DF-RHF iter  12:  -451.67169485803049   -1.48646e-09   9.90093e-09 DIIS
  Energy and wave function converged.


  ==> Post-Iterations <==

    Orbital Energies [Eh]
    ---------------------

    Doubly Occupied:                                                      

       1A    -20.543715     2A    -20.543139     3A    -15.640725  
       4A    -15.629100     5A    -11.417603     6A    -11.381549  
       7A    -11.332796     8A    -11.263393     9A    -11.240091  
      10A     -1.425599    11A     -1.391545    12A     -1.304193  
      13A     -1.240107    14A     -1.108684    15A     -0.970623  
      16A     -0.915310    17A     -0.893156    18A     -0.770219  
      19A     -0.765607    20A     -0.707250    21A     -0.674329  
      22A     -0.665113    23A     -0.638018    24A     -0.616753  
      25A     -0.592765    26A     -0.568255    27A     -0.558383  
      28A     -0.551933    29A     -0.510488    30A     -0.478572  
      31A     -0.448603    32A     -0.434522    33A     -0.354757  

    Virtual:                                                              

      34A      0.012887    35A      0.025357    36A      0.029060  
      37A      0.033542    38A      0.043125    39A      0.046335  
      40A      0.048910    41A      0.049554    42A      0.053250  
      43A      0.063685    44A      0.066004    45A      0.067729  
      46A      0.075207    47A      0.078242    48A      0.082346  
      49A      0.083320    50A      0.084665    51A      0.089828  
      52A      0.094735    53A      0.098532    54A      0.101021  
      55A      0.109608    56A      0.110559    57A      0.115196  
      58A      0.116506    59A      0.118812    60A      0.122826  
      61A      0.124185    62A      0.125508    63A      0.129693  
      64A      0.130885    65A      0.136046    66A      0.139468  
      67A      0.142099    68A      0.145236    69A      0.147703  
      70A      0.154578    71A      0.156525    72A      0.160113  
      73A      0.163408    74A      0.168946    75A      0.169543  
      76A      0.171610    77A      0.174219    78A      0.179234  
      79A      0.183819    80A      0.188608    81A      0.189681  
      82A      0.196199    83A      0.196779    84A      0.199419  
      85A      0.201685    86A      0.205212    87A      0.216988  
      88A      0.220388    89A      0.225624    90A      0.227352  
      91A      0.232540    92A      0.233264    93A      0.238408  
      94A      0.240191    95A      0.241997    96A      0.244919  
      97A      0.248895    98A      0.251173    99A      0.257105  
     100A      0.262442   101A      0.265852   102A      0.269242  
     103A      0.270994   104A      0.276452   105A      0.279349  
     106A      0.280072   107A      0.286707   108A      0.287530  
     109A      0.291042   110A      0.292361   111A      0.297362  
     112A      0.301980   113A      0.306986   114A      0.308165  
     115A      0.311246   116A      0.314727   117A      0.318662  
     118A      0.321862   119A      0.323850   120A      0.328071  
     121A      0.330788   122A      0.334058   123A      0.336938  
     124A      0.345557   125A      0.347224   126A      0.350367  
     127A      0.352365   128A      0.355985   129A      0.361813  
     130A      0.363369   131A      0.366093   132A      0.369104  
     133A      0.372188   134A      0.374793   135A      0.379578  
     136A      0.388739   137A      0.391865   138A      0.395903  
     139A      0.396726   140A      0.402051   141A      0.405619  
     142A      0.408328   143A      0.413150   144A      0.416911  
     145A      0.418855   146A      0.423431   147A      0.426490  
     148A      0.429844   149A      0.433074   150A      0.440846  
     151A      0.442879   152A      0.448572   153A      0.451018  
     154A      0.454230   155A      0.456813   156A      0.460276  
     157A      0.462576   158A      0.464195   159A      0.470731  
     160A      0.473088   161A      0.476816   162A      0.480478  
     163A      0.484450   164A      0.487611   165A      0.487875  
     166A      0.491036   167A      0.493735   168A      0.497047  
     169A      0.501942   170A      0.507673   171A      0.511442  
     172A      0.515108   173A      0.517142   174A      0.518348  
     175A      0.523236   176A      0.526880   177A      0.529219  
     178A      0.534939   179A      0.536815   180A      0.541939  
     181A      0.544724   182A      0.551311   183A      0.553120  
     184A      0.557370   185A      0.559270   186A      0.559859  
     187A      0.562663   188A      0.565313   189A      0.576192  
     190A      0.579622   191A      0.582401   192A      0.583491  
     193A      0.589261   194A      0.592024   195A      0.600427  
     196A      0.602608   197A      0.604556   198A      0.609312  
     199A      0.610690   200A      0.614030   201A      0.619610  
     202A      0.621816   203A      0.623724   204A      0.630368  
     205A      0.633221   206A      0.639001   207A      0.641669  
     208A      0.645955   209A      0.649947   210A      0.652653  
     211A      0.654964   212A      0.666992   213A      0.669911  
     214A      0.673339   215A      0.675479   216A      0.678339  
     217A      0.682492   218A      0.690070   219A      0.697332  
     220A      0.698382   221A      0.700214   222A      0.702686  
     223A      0.711602   224A      0.718603   225A      0.725874  
     226A      0.733009   227A      0.738283   228A      0.740445  
     229A      0.745429   230A      0.750661   231A      0.753027  
     232A      0.759132   233A      0.763275   234A      0.769569  
     235A      0.770889   236A      0.775057   237A      0.776089  
     238A      0.777908   239A      0.786214   240A      0.793341  
     241A      0.798951   242A      0.801078   243A      0.805485  
     244A      0.812030   245A      0.816538   246A      0.821291  
     247A      0.823890   248A      0.828921   249A      0.837514  
     250A      0.840537   251A      0.845501   252A      0.853024  
     253A      0.857015   254A      0.862933   255A      0.865062  
     256A      0.869328   257A      0.873358   258A      0.878896  
     259A      0.885346   260A      0.887269   261A      0.891611  
     262A      0.897423   263A      0.900632   264A      0.905931  
     265A      0.914554   266A      0.919258   267A      0.922855  
     268A      0.926689   269A      0.930390   270A      0.934874  
     271A      0.939429   272A      0.943770   273A      0.948784  
     274A      0.951606   275A      0.956433   276A      0.961258  
     277A      0.963771   278A      0.964122   279A      0.972105  
     280A      0.975237   281A      0.978354   282A      0.984410  
     283A      0.986290   284A      0.991154   285A      0.994186  
     286A      0.999187   287A      1.003735   288A      1.006469  
     289A      1.007938   290A      1.016152   291A      1.020471  
     292A      1.026431   293A      1.027074   294A      1.034021  
     295A      1.042838   296A      1.046962   297A      1.053831  
     298A      1.056531   299A      1.060000   300A      1.063408  
     301A      1.066876   302A      1.072655   303A      1.078997  
     304A      1.081957   305A      1.089113   306A      1.089813  
     307A      1.092405   308A      1.096513   309A      1.097428  
     310A      1.103220   311A      1.108070   312A      1.114631  
     313A      1.117846   314A      1.121059   315A      1.126990  
     316A      1.130164   317A      1.137526   318A      1.141968  
     319A      1.146202   320A      1.151050   321A      1.152382  
     322A      1.161414   323A      1.164521   324A      1.169678  
     325A      1.172744   326A      1.174215   327A      1.177214  
     328A      1.183246   329A      1.185925   330A      1.190960  
     331A      1.195318   332A      1.198480   333A      1.205217  
     334A      1.209106   335A      1.215180   336A      1.217195  
     337A      1.222576   338A      1.229563   339A      1.231954  
     340A      1.238127   341A      1.239891   342A      1.244695  
     343A      1.249439   344A      1.254889   345A      1.261135  
     346A      1.263067   347A      1.264523   348A      1.269026  
     349A      1.275545   350A      1.283778   351A      1.288220  
     352A      1.292959   353A      1.297928   354A      1.300755  
     355A      1.304850   356A      1.306453   357A      1.312665  
     358A      1.316388   359A      1.320673   360A      1.324179  
     361A      1.329300   362A      1.338895   363A      1.339402  
     364A      1.345946   365A      1.352039   366A      1.353974  
     367A      1.363435   368A      1.367467   369A      1.368737  
     370A      1.375289   371A      1.384746   372A      1.386603  
     373A      1.391642   374A      1.396725   375A      1.403745  
     376A      1.406686   377A      1.413038   378A      1.418006  
     379A      1.421564   380A      1.425472   381A      1.430589  
     382A      1.433670   383A      1.437831   384A      1.442290  
     385A      1.447331   386A      1.451260   387A      1.455492  
     388A      1.461999   389A      1.463903   390A      1.469687  
     391A      1.473801   392A      1.477250   393A      1.482393  
     394A      1.486314   395A      1.495515   396A      1.499133  
     397A      1.501361   398A      1.505908   399A      1.509088  
     400A      1.516624   401A      1.519353   402A      1.530496  
     403A      1.536326   404A      1.537267   405A      1.546282  
     406A      1.550495   407A      1.557069   408A      1.557837  
     409A      1.568491   410A      1.575060   411A      1.578437  
     412A      1.583536   413A      1.587806   414A      1.589430  
     415A      1.598202   416A      1.601424   417A      1.608165  
     418A      1.612193   419A      1.617905   420A      1.623151  
     421A      1.630462   422A      1.639457   423A      1.641927  
     424A      1.649663   425A      1.652552   426A      1.654900  
     427A      1.665169   428A      1.665578   429A      1.670960  
     430A      1.677748   431A      1.683537   432A      1.685260  
     433A      1.689387   434A      1.695186   435A      1.704060  
     436A      1.706381   437A      1.715716   438A      1.717923  
     439A      1.727104   440A      1.729992   441A      1.738061  
     442A      1.739307   443A      1.746577   444A      1.754890  
     445A      1.759458   446A      1.766811   447A      1.772454  
     448A      1.774748   449A      1.779595   450A      1.783375  
     451A      1.784893   452A      1.790565   453A      1.803613  
     454A      1.805445   455A      1.807976   456A      1.818016  
     457A      1.822809   458A      1.826459   459A      1.834940  
     460A      1.841255   461A      1.845708   462A      1.848111  
     463A      1.850761   464A      1.857118   465A      1.863404  
     466A      1.869557   467A      1.880081   468A      1.885097  
     469A      1.890078   470A      1.900487   471A      1.909158  
     472A      1.913012   473A      1.914645   474A      1.928569  
     475A      1.933579   476A      1.937422   477A      1.940074  
     478A      1.947276   479A      1.952007   480A      1.957070  
     481A      1.964944   482A      1.969977   483A      1.971580  
     484A      1.983568   485A      1.994754   486A      1.998847  
     487A      2.005054   488A      2.011912   489A      2.020994  
     490A      2.028007   491A      2.035331   492A      2.037667  
     493A      2.050969   494A      2.052848   495A      2.059083  
     496A      2.063667   497A      2.069308   498A      2.077592  
     499A      2.083849   500A      2.090945   501A      2.096483  
     502A      2.103275   503A      2.112404   504A      2.115542  
     505A      2.121985   506A      2.127321   507A      2.137514  
     508A      2.141672   509A      2.145091   510A      2.147942  
     511A      2.156554   512A      2.166009   513A      2.171798  
     514A      2.181006   515A      2.184299   516A      2.189493  
     517A      2.191629   518A      2.199388   519A      2.206103  
     520A      2.213221   521A      2.218819   522A      2.220240  
     523A      2.233141   524A      2.237622   525A      2.252167  
     526A      2.258096   527A      2.262457   528A      2.264324  
     529A      2.266330   530A      2.273720   531A      2.276586  
     532A      2.287059   533A      2.288298   534A      2.297359  
     535A      2.309635   536A      2.313086   537A      2.323245  
     538A      2.331657   539A      2.335800   540A      2.351314  
     541A      2.351679   542A      2.359393   543A      2.366278  
     544A      2.371323   545A      2.378790   546A      2.383923  
     547A      2.389912   548A      2.392215   549A      2.409907  
     550A      2.413071   551A      2.419886   552A      2.431778  
     553A      2.439506   554A      2.449880   555A      2.451275  
     556A      2.457302   557A      2.465001   558A      2.468809  
     559A      2.480559   560A      2.489369   561A      2.496051  
     562A      2.503185   563A      2.508913   564A      2.516290  
     565A      2.523858   566A      2.527226   567A      2.537869  
     568A      2.552084   569A      2.553956   570A      2.560904  
     571A      2.571613   572A      2.574008   573A      2.583563  
     574A      2.586522   575A      2.600949   576A      2.606056  
     577A      2.608822   578A      2.614143   579A      2.627207  
     580A      2.635451   581A      2.647061   582A      2.651645  
     583A      2.657579   584A      2.659594   585A      2.673589  
     586A      2.679746   587A      2.692946   588A      2.697874  
     589A      2.707835   590A      2.713376   591A      2.719001  
     592A      2.725257   593A      2.731807   594A      2.741293  
     595A      2.743727   596A      2.751413   597A      2.754577  
     598A      2.760324   599A      2.777533   600A      2.782831  
     601A      2.786549   602A      2.799136   603A      2.812715  
     604A      2.817148   605A      2.822757   606A      2.830617  
     607A      2.832593   608A      2.843200   609A      2.848934  
     610A      2.861345   611A      2.868153   612A      2.869739  
     613A      2.871648   614A      2.892881   615A      2.901766  
     616A      2.908523   617A      2.916039   618A      2.920106  
     619A      2.928933   620A      2.935019   621A      2.947207  
     622A      2.952517   623A      2.955256   624A      2.967943  
     625A      2.968300   626A      2.988979   627A      2.994194  
     628A      3.003487   629A      3.008159   630A      3.022205  
     631A      3.032982   632A      3.045065   633A      3.053177  
     634A      3.059368   635A      3.064105   636A      3.068413  
     637A      3.079605   638A      3.084008   639A      3.093573  
     640A      3.113819   641A      3.118821   642A      3.128896  
     643A      3.138470   644A      3.142375   645A      3.159082  
     646A      3.162938   647A      3.176733   648A      3.178834  
     649A      3.187516   650A      3.197456   651A      3.209332  
     652A      3.224951   653A      3.235548   654A      3.241618  
     655A      3.256278   656A      3.268709   657A      3.270091  
     658A      3.289877   659A      3.301839   660A      3.307059  
     661A      3.314886   662A      3.329345   663A      3.341060  
     664A      3.351264   665A      3.364210   666A      3.370887  
     667A      3.390048   668A      3.397180   669A      3.409763  
     670A      3.415258   671A      3.434728   672A      3.437192  
     673A      3.446775   674A      3.454624   675A      3.482645  
     676A      3.493202   677A      3.502731   678A      3.510095  
     679A      3.525879   680A      3.538923   681A      3.545599  
     682A      3.566487   683A      3.571212   684A      3.573573  
     685A      3.593278   686A      3.613146   687A      3.629292  
     688A      3.636784   689A      3.645409   690A      3.667904  
     691A      3.669648   692A      3.685637   693A      3.698284  
     694A      3.706564   695A      3.718221   696A      3.727582  
     697A      3.746415   698A      3.754476   699A      3.757355  
     700A      3.766992   701A      3.781441   702A      3.786313  
     703A      3.796189   704A      3.804514   705A      3.814600  
     706A      3.821135   707A      3.826908   708A      3.839531  
     709A      3.849157   710A      3.865789   711A      3.869014  
     712A      3.875845   713A      3.888601   714A      3.893296  
     715A      3.907569   716A      3.913520   717A      3.918698  
     718A      3.934834   719A      3.938401   720A      3.954528  
     721A      3.968336   722A      3.978229   723A      3.988814  
     724A      3.991740   725A      4.011153   726A      4.015094  
     727A      4.020401   728A      4.035810   729A      4.054566  
     730A      4.059179   731A      4.068602   732A      4.080357  
     733A      4.095289   734A      4.102955   735A      4.129117  
     736A      4.138597   737A      4.140394   738A      4.154218  
     739A      4.158272   740A      4.162114   741A      4.166411  
     742A      4.180695   743A      4.189982   744A      4.191895  
     745A      4.205209   746A      4.218395   747A      4.240312  
     748A      4.243016   749A      4.253738   750A      4.263189  
     751A      4.270743   752A      4.277101   753A      4.281903  
     754A      4.289473   755A      4.314574   756A      4.321389  
     757A      4.337202   758A      4.340838   759A      4.347656  
     760A      4.349719   761A      4.354869   762A      4.364300  
     763A      4.379028   764A      4.389386   765A      4.396077  
     766A      4.400695   767A      4.409741   768A      4.419744  
     769A      4.423044   770A      4.440830   771A      4.444046  
     772A      4.451778   773A      4.457434   774A      4.463174  
     775A      4.465296   776A      4.478043   777A      4.487320  
     778A      4.495896   779A      4.505255   780A      4.514088  
     781A      4.535426   782A      4.544737   783A      4.551993  
     784A      4.558555   785A      4.569535   786A      4.574693  
     787A      4.581786   788A      4.598789   789A      4.608148  
     790A      4.610928   791A      4.634392   792A      4.645341  
     793A      4.662243   794A      4.667544   795A      4.673635  
     796A      4.691702   797A      4.699565   798A      4.710625  
     799A      4.711895   800A      4.714704   801A      4.730013  
     802A      4.740286   803A      4.754868   804A      4.760771  
     805A      4.765885   806A      4.767751   807A      4.777638  
     808A      4.790321   809A      4.793073   810A      4.799756  
     811A      4.810163   812A      4.823220   813A      4.830770  
     814A      4.844144   815A      4.845962   816A      4.855959  
     817A      4.859700   818A      4.876740   819A      4.882871  
     820A      4.885339   821A      4.904067   822A      4.917054  
     823A      4.931376   824A      4.939915   825A      4.942864  
     826A      4.950717   827A      4.952564   828A      4.971601  
     829A      4.975190   830A      4.984915   831A      4.990533  
     832A      4.999590   833A      5.013683   834A      5.024143  
     835A      5.032351   836A      5.045276   837A      5.047709  
     838A      5.057978   839A      5.068751   840A      5.077903  
     841A      5.089435   842A      5.101786   843A      5.114451  
     844A      5.120560   845A      5.135024   846A      5.140748  
     847A      5.149833   848A      5.162843   849A      5.172890  
     850A      5.179807   851A      5.190209   852A      5.196423  
     853A      5.222905   854A      5.228383   855A      5.241687  
     856A      5.244639   857A      5.248783   858A      5.271609  
     859A      5.286855   860A      5.291578   861A      5.301053  
     862A      5.316103   863A      5.323024   864A      5.328048  
     865A      5.332914   866A      5.349318   867A      5.362272  
     868A      5.382045   869A      5.386128   870A      5.393084  
     871A      5.405844   872A      5.416019   873A      5.419034  
     874A      5.432226   875A      5.450471   876A      5.454982  
     877A      5.469924   878A      5.474012   879A      5.487256  
     880A      5.499239   881A      5.511627   882A      5.521434  
     883A      5.536319   884A      5.540759   885A      5.544501  
     886A      5.547254   887A      5.559325   888A      5.576907  
     889A      5.586825   890A      5.596466   891A      5.605738  
     892A      5.612923   893A      5.618701   894A      5.626640  
     895A      5.636175   896A      5.645502   897A      5.657169  
     898A      5.666028   899A      5.668989   900A      5.683354  
     901A      5.699643   902A      5.710312   903A      5.715268  
     904A      5.724569   905A      5.734010   906A      5.750729  
     907A      5.762687   908A      5.774315   909A      5.787453  
     910A      5.793798   911A      5.815841   912A      5.842412  
     913A      5.849034   914A      5.880186   915A      5.894035  
     916A      5.899068   917A      5.907146   918A      5.932937  
     919A      5.941141   920A      5.954013   921A      5.961332  
     922A      5.980777   923A      6.018166   924A      6.025091  
     925A      6.035568   926A      6.061597   927A      6.084727  
     928A      6.090213   929A      6.107152   930A      6.119296  
     931A      6.128822   932A      6.151074   933A      6.173724  
     934A      6.182166   935A      6.184476   936A      6.199072  
     937A      6.218198   938A      6.225324   939A      6.251692  
     940A      6.257161   941A      6.266398   942A      6.281580  
     943A      6.310162   944A      6.344531   945A      6.349873  
     946A      6.361207   947A      6.364724   948A      6.381456  
     949A      6.403006   950A      6.451586   951A      6.491906  
     952A      6.518401   953A      6.531580   954A      6.572887  
     955A      6.608050   956A      6.640669   957A      6.660719  
     958A      6.669635   959A      6.699556   960A      6.729190  
     961A      6.755290   962A      6.769086   963A      6.783685  
     964A      6.796768   965A      6.805337   966A      6.818482  
     967A      6.826990   968A      6.840404   969A      6.858895  
     970A      6.866431   971A      6.871035   972A      6.880262  
     973A      6.898389   974A      6.904529   975A      6.914508  
     976A      6.924683   977A      6.941496   978A      6.946810  
     979A      6.966842   980A      6.987805   981A      7.015379  
     982A      7.025576   983A      7.076570   984A      7.100104  
     985A      7.121987   986A      7.149566   987A      7.200384  
     988A      7.231255   989A      7.251365   990A      7.261406  
     991A      7.308521   992A      7.317180   993A      7.339783  
     994A      7.368292   995A      7.383447   996A      7.415398  
     997A      7.459110   998A      7.497046   999A      7.509156  
    1000A      7.521795  1001A      7.539443  1002A      7.571522  
    1003A      7.598252  1004A      7.626026  1005A      7.649798  
    1006A      7.665440  1007A      7.684824  1008A      7.705902  
    1009A      7.720051  1010A      7.734705  1011A      7.752364  
    1012A      7.779042  1013A      7.801432  1014A      7.814818  
    1015A      7.824781  1016A      7.835498  1017A      7.857617  
    1018A      7.869358  1019A      7.884906  1020A      7.890505  
    1021A      7.906367  1022A      7.916433  1023A      7.924376  
    1024A      7.936908  1025A      7.946221  1026A      7.979108  
    1027A      7.985905  1028A      8.022215  1029A      8.030007  
    1030A      8.039638  1031A      8.050292  1032A      8.079148  
    1033A      8.087728  1034A      8.090913  1035A      8.118717  
    1036A      8.135687  1037A      8.216604  1038A      8.229217  
    1039A      8.294227  1040A      8.332599  1041A      8.362863  
    1042A      8.379185  1043A      8.407953  1044A      8.497503  
    1045A      8.584692  1046A      8.691617  1047A      8.750364  
    1048A      8.764679  1049A      8.871054  1050A      8.905958  
    1051A      9.014983  1052A      9.149813  1053A      9.239724  
    1054A      9.672557  1055A      9.719215  1056A      9.732557  
    1057A      9.779762  1058A     10.007940  1059A     10.016594  
    1060A     10.052345  1061A     10.092324  1062A     10.160840  
    1063A     10.337969  1064A     10.357008  1065A     10.411357  
    1066A     10.434731  1067A     10.509209  1068A     10.561048  
    1069A     10.601390  1070A     10.793697  1071A     10.971735  
    1072A     11.288012  1073A     11.526324  1074A     11.666054  
    1075A     12.071350  1076A     12.122212  1077A     12.155958  
    1078A     12.214843  1079A     12.357226  1080A     12.497068  
    1081A     12.776176  1082A     12.869479  1083A     13.508731  
    1084A     13.650597  1085A     14.189291  1086A     14.241341  
    1087A     16.427273  1088A     16.510911  1089A     16.805648  
    1090A     17.181774  1091A     18.374737  1092A     19.490354  
    1093A     20.674106  1094A     20.944910  1095A     21.547598  
    1096A     52.368720  1097A     53.122193  1098A     54.562267  
    1099A     55.451087  1100A     58.960225  1101A     61.617672  
    1102A     62.124145  1103A     69.763592  1104A     70.665066  

    Final Occupation by Irrep:
              A 
    DOCC [    33 ]

  @DF-RHF Final Energy:  -451.67169485803049

   => Energetics <=

    Nuclear Repulsion Energy =            438.2483157361470489
    One-Electron Energy =               -1484.6862239303154638
    Two-Electron Energy =                 594.7662133361378665
    Total Energy =                       -451.6716948580304916

Computation Completed


Properties will be evaluated at   0.000000,   0.000000,   0.000000 [a0]

Properties computed using the SCF density matrix

  Nuclear Dipole Moment: [e a0]
     X:   156.0256      Y:   119.0871      Z:    -3.3108

  Electronic Dipole Moment: [e a0]
     X:  -154.7513      Y:  -119.6847      Z:     4.6634

  Dipole Moment: [e a0]
     X:     1.2743      Y:    -0.5976      Z:     1.3527     Total:     1.9521

  Dipole Moment: [D]
     X:     3.2390      Y:    -1.5189      Z:     3.4382     Total:     4.9618


*** tstop() called on node150.bme.utexas.edu at Tue Jan 16 13:30:36 2024
Module time:
	user time   =    1281.56 seconds =      21.36 minutes
	system time =       9.53 seconds =       0.16 minutes
	total time  =        203 seconds =       3.38 minutes
Total time:
	user time   =    3539.29 seconds =      58.99 minutes
	system time =      42.15 seconds =       0.70 minutes
	total time  =        559 seconds =       9.32 minutes

*** tstart() called on node150.bme.utexas.edu
*** at Tue Jan 16 13:30:36 2024


  //>>>>>>>>>>>>>>>>>>>>>>>>>>>>>>>>>>>//
  //               DFMP2               //
  //<<<<<<<<<<<<<<<<<<<<<<<<<<<<<<<<<<<//

   => Loading Basis Set <=

    Name: (AUG-CC-PVTZ AUX)
    Role: RIFIT
    Keyword: DF_BASIS_MP2
    atoms 1, 5, 16, 20                       entry N          line   206 file /opt/anaconda/envs/psi4v1.5/share/psi4/basis/aug-cc-pvtz-ri.gbs 
    atoms 2, 6, 11, 13-15, 17, 21, 26, 28-30 entry H          line    30 file /opt/anaconda/envs/psi4v1.5/share/psi4/basis/aug-cc-pvtz-ri.gbs 
    atoms 3, 7, 9-10, 12, 18, 22, 24-25, 27  entry C          line   148 file /opt/anaconda/envs/psi4v1.5/share/psi4/basis/aug-cc-pvtz-ri.gbs 
    atoms 4, 8, 19, 23                       entry O          line   264 file /opt/anaconda/envs/psi4v1.5/share/psi4/basis/aug-cc-pvtz-ri.gbs 

	 --------------------------------------------------------
	                          DF-MP2                         
	      2nd-Order Density-Fitted Moller-Plesset Theory     
	              RMP2 Wavefunction,   8 Threads             
	                                                         
	        Rob Parrish, Justin Turney, Andy Simmonett,      
	           Ed Hohenstein, and C. David Sherrill          
	 --------------------------------------------------------

   => Auxiliary Basis Set <=

  Basis Set: (AUG-CC-PVTZ AUX)
    Blend: AUG-CC-PVTZ-RI
    Number of shells: 672
    Number of basis functions: 2460
    Number of Cartesian functions: 3108
    Spherical Harmonics?: true
    Max angular momentum: 4

	 --------------------------------------------------------
	                 NBF =  1104, NAUX =  2460
	 --------------------------------------------------------
	   CLASS    FOCC     OCC    AOCC    AVIR     VIR    FVIR
	   PAIRS       9      33      24    1071    1071       0
	 --------------------------------------------------------

	 Will attempt to load fitting metric from file 97.

	-----------------------------------------------------------
	 ==================> DF-MP2 Energies <==================== 
	-----------------------------------------------------------
	 Reference Energy          =    -451.6716948580304916 [Eh]
	 Singles Energy            =      -0.0000000000000000 [Eh]
	 Same-Spin Energy          =      -0.4341768786605451 [Eh]
	 Opposite-Spin Energy      =      -1.2526210429644120 [Eh]
	 Correlation Energy        =      -1.6867979216249571 [Eh]
	 Total Energy              =    -453.3584927796554211 [Eh]
	-----------------------------------------------------------
	 ================> DF-SCS-MP2 Energies <================== 
	-----------------------------------------------------------
	 SCS Same-Spin Scale       =       0.3333333333333333 [-]
	 SCS Opposite-Spin Scale   =       1.2000000000000000 [-]
	 SCS Same-Spin Energy      =      -0.1447256262201817 [Eh]
	 SCS Opposite-Spin Energy  =      -1.5031452515572943 [Eh]
	 SCS Correlation Energy    =      -1.6478708777774760 [Eh]
	 SCS Total Energy          =    -453.3195657358079416 [Eh]
	-----------------------------------------------------------


*** tstop() called on node150.bme.utexas.edu at Tue Jan 16 13:31:16 2024
Module time:
	user time   =     182.52 seconds =       3.04 minutes
	system time =       8.85 seconds =       0.15 minutes
	total time  =         40 seconds =       0.67 minutes
Total time:
	user time   =    3721.81 seconds =      62.03 minutes
	system time =      51.00 seconds =       0.85 minutes
	total time  =        599 seconds =       9.98 minutes

  //>>>>>>>>>>>>>>>>>>>>>>>>>>>>>>>>>>>//
  //            Monomer B HF           //
  //<<<<<<<<<<<<<<<<<<<<<<<<<<<<<<<<<<<//


*** tstart() called on node150.bme.utexas.edu
*** at Tue Jan 16 13:31:16 2024

   => Loading Basis Set <=

    Name: AUG-CC-PVTZ
    Role: ORBITAL
    Keyword: BASIS
    atoms 1, 5, 16, 20                       entry N          line   285 file /opt/anaconda/envs/psi4v1.5/share/psi4/basis/aug-cc-pvtz.gbs 
    atoms 2, 6, 11, 13-15, 17, 21, 26, 28-30 entry H          line    40 file /opt/anaconda/envs/psi4v1.5/share/psi4/basis/aug-cc-pvtz.gbs 
    atoms 3, 7, 9-10, 12, 18, 22, 24-25, 27  entry C          line   239 file /opt/anaconda/envs/psi4v1.5/share/psi4/basis/aug-cc-pvtz.gbs 
    atoms 4, 8, 19, 23                       entry O          line   331 file /opt/anaconda/envs/psi4v1.5/share/psi4/basis/aug-cc-pvtz.gbs 


         ---------------------------------------------------------
                                   SCF
               by Justin Turney, Rob Parrish, Andy Simmonett
                          and Daniel G. A. Smith
                              RHF Reference
                        8 Threads,  85830 MiB Core
         ---------------------------------------------------------

  ==> Geometry <==

    Molecular point group: c1
    Full point group: C1

    Geometry (in Angstrom), charge = 0, multiplicity = 1:

       Center              X                  Y                   Z               Mass       
    ------------   -----------------  -----------------  -----------------  -----------------
      Gh(N)           1.237359777473     1.486725477569     1.559260380970    14.003074004430
      Gh(H)           1.191089777473     1.735395477569     2.540550380970     1.007825032230
      Gh(C)           0.218219777473     2.000925477569     0.778960380970    12.000000000000
      Gh(O)          -0.687230222527     2.702095477569     1.226540380970    15.994914619570
      Gh(N)           0.339049777473     1.642245477569    -0.551119619030    14.003074004430
      Gh(H)          -0.394140222527     1.986465477569    -1.172739619030     1.007825032230
      Gh(C)           1.229199777473     0.713665477569    -1.118929619030    12.000000000000
      Gh(O)           1.144979777473     0.419225477569    -2.310789619030    15.994914619570
      Gh(C)           2.210119777473     0.162895477569    -0.186589619030    12.000000000000
      Gh(C)           2.171689777473     0.576855477569     1.103750380970    12.000000000000
      Gh(H)           2.875699777473     0.221665477569     1.851220380970     1.007825032230
      Gh(C)           3.167719777473    -0.859804522431    -0.710849619030    12.000000000000
      Gh(H)           3.896509777473    -1.140244522431     0.054690380970     1.007825032230
      Gh(H)           2.617569777473    -1.752414522431    -1.022729619030     1.007825032230
      Gh(H)           3.699899777473    -0.473274522431    -1.584009619030     1.007825032230
         N           -2.298050222527     0.195545477569     0.464850380970    14.003074004430
         H           -2.713350222527     1.092225477569     0.701240380970     1.007825032230
         C           -2.049960222527     0.028985477569    -0.887729619030    12.000000000000
         O           -2.472830222527     0.795855477569    -1.748199619030    15.994914619570
         N           -1.285430222527    -1.093624522431    -1.160849619030    14.003074004430
         H           -1.017470222527    -1.197884522431    -2.138669619030     1.007825032230
         C           -0.536790222527    -1.852624522431    -0.249999619030    12.000000000000
         O            0.251179777473    -2.714614522431    -0.643829619030    15.994914619570
         C           -0.784870222527    -1.532504522431     1.153750380970    12.000000000000
         C           -1.623770222527    -0.507634522431     1.442630380970    12.000000000000
         H           -1.841360222527    -0.198934522431     2.461510380970     1.007825032230
         C           -0.044680222527    -2.322134522431     2.186300380970    12.000000000000
         H           -0.307830222527    -1.991624522431     3.195070380970     1.007825032230
         H           -0.274110222527    -3.387484522431     2.094110380970     1.007825032230
         H            1.034959777473    -2.214324522431     2.045440380970     1.007825032230

  Running in c1 symmetry.

  Rotational constants: A =      0.01696  B =      0.01566  C =      0.01373 [cm^-1]
  Rotational constants: A =    508.59418  B =    469.34253  C =    411.72305 [MHz]
  Nuclear repulsion =  438.525384844901055

  Charge       = 0
  Multiplicity = 1
  Electrons    = 66
  Nalpha       = 33
  Nbeta        = 33

  ==> Algorithm <==

  SCF Algorithm Type is DF.
  DIIS enabled.
  MOM disabled.
  Fractional occupation disabled.
  Guess Type is SAD.
  Energy threshold   = 1.00e-08
  Density threshold  = 1.00e-08
  Integral threshold = 1.00e-12

  ==> Primary Basis <==

  Basis Set: AUG-CC-PVTZ
    Blend: AUG-CC-PVTZ
    Number of shells: 360
    Number of basis functions: 1104
    Number of Cartesian functions: 1290
    Spherical Harmonics?: true
    Max angular momentum: 3

   => Loading Basis Set <=

    Name: (AUG-CC-PVTZ AUX)
    Role: JKFIT
    Keyword: DF_BASIS_SCF
    atoms 1, 5, 16, 20                       entry N          line   224 file /opt/anaconda/envs/psi4v1.5/share/psi4/basis/aug-cc-pvtz-jkfit.gbs 
    atoms 2, 6, 11, 13-15, 17, 21, 26, 28-30 entry H          line    70 file /opt/anaconda/envs/psi4v1.5/share/psi4/basis/aug-cc-pvtz-jkfit.gbs 
    atoms 3, 7, 9-10, 12, 18, 22, 24-25, 27  entry C          line   162 file /opt/anaconda/envs/psi4v1.5/share/psi4/basis/aug-cc-pvtz-jkfit.gbs 
    atoms 4, 8, 19, 23                       entry O          line   286 file /opt/anaconda/envs/psi4v1.5/share/psi4/basis/aug-cc-pvtz-jkfit.gbs 

  ==> Integral Setup <==

  ==> DiskDFJK: Density-Fitted J/K Matrices <==

    J tasked:                  Yes
    K tasked:                  Yes
    wK tasked:                  No
    OpenMP threads:              8
    Integrals threads:           8
    Memory [MiB]:            64373
    Algorithm:                Core
    Integral Cache:           LOAD
    Schwarz Cutoff:          1E-12
    Fitting Condition:       1E-10

   => Auxiliary Basis Set <=

  Basis Set: (AUG-CC-PVTZ AUX)
    Blend: AUG-CC-PVTZ-JKFIT
    Number of shells: 708
    Number of basis functions: 2424
    Number of Cartesian functions: 3018
    Spherical Harmonics?: true
    Max angular momentum: 4

  Minimum eigenvalue in the overlap matrix is 1.0160942960E-06.
  Reciprocal condition number of the overlap matrix is 4.0741431456E-08.
    Using symmetric orthogonalization.

  ==> Pre-Iterations <==

  SCF Guess: Superposition of Atomic Densities via on-the-fly atomic UHF (no occupation information).

   -------------------------
    Irrep   Nso     Nmo    
   -------------------------
     A       1104    1104 
   -------------------------
    Total    1104    1104
   -------------------------

  ==> Iterations <==

                           Total Energy        Delta E     RMS |[F,P]|

   @DF-RHF iter SAD:  -450.94043930993814   -4.50940e+02   0.00000e+00 
   @DF-RHF iter   1:  -451.37515472203933   -4.34715e-01   7.17356e-04 DIIS
   @DF-RHF iter   2:  -451.57298339000255   -1.97829e-01   4.69346e-04 DIIS
   @DF-RHF iter   3:  -451.66383399668246   -9.08506e-02   9.09997e-05 DIIS
   @DF-RHF iter   4:  -451.66929255650325   -5.45856e-03   3.67372e-05 DIIS
   @DF-RHF iter   5:  -451.67040554185792   -1.11299e-03   7.47637e-06 DIIS
   @DF-RHF iter   6:  -451.67052153232731   -1.15990e-04   3.81370e-06 DIIS
   @DF-RHF iter   7:  -451.67054554848738   -2.40162e-05   1.62892e-06 DIIS
   @DF-RHF iter   8:  -451.67054980742631   -4.25894e-06   6.28659e-07 DIIS
   @DF-RHF iter   9:  -451.67055029554740   -4.88121e-07   2.11422e-07 DIIS
   @DF-RHF iter  10:  -451.67055037878197   -8.32346e-08   8.32147e-08 DIIS
   @DF-RHF iter  11:  -451.67055038827704   -9.49507e-09   3.16107e-08 DIIS
   @DF-RHF iter  12:  -451.67055038977497   -1.49794e-09   1.00166e-08 DIIS
   @DF-RHF iter  13:  -451.67055038992140   -1.46429e-10   3.32979e-09 DIIS
  Energy and wave function converged.


  ==> Post-Iterations <==

    Orbital Energies [Eh]
    ---------------------

    Doubly Occupied:                                                      

       1A    -20.545484     2A    -20.544385     3A    -15.640693  
       4A    -15.629784     5A    -11.418405     6A    -11.381794  
       7A    -11.331693     8A    -11.263671     9A    -11.239869  
      10A     -1.427780    11A     -1.391587    12A     -1.305448  
      13A     -1.242448    14A     -1.108109    15A     -0.969652  
      16A     -0.915829    17A     -0.892769    18A     -0.769186  
      19A     -0.765540    20A     -0.707076    21A     -0.674417  
      22A     -0.666777    23A     -0.638904    24A     -0.615930  
      25A     -0.591547    26A     -0.568959    27A     -0.559097  
      28A     -0.551695    29A     -0.511556    30A     -0.480135  
      31A     -0.449454    32A     -0.435768    33A     -0.356095  

    Virtual:                                                              

      34A      0.013075    35A      0.025069    36A      0.029309  
      37A      0.033442    38A      0.042607    39A      0.045220  
      40A      0.048981    41A      0.052380    42A      0.054661  
      43A      0.062513    44A      0.067353    45A      0.069739  
      46A      0.075290    47A      0.075704    48A      0.079076  
      49A      0.084872    50A      0.086652    51A      0.089157  
      52A      0.091824    53A      0.095398    54A      0.100456  
      55A      0.106336    56A      0.111434    57A      0.114711  
      58A      0.118001    59A      0.121002    60A      0.122767  
      61A      0.125315    62A      0.127124    63A      0.130473  
      64A      0.132421    65A      0.133039    66A      0.138463  
      67A      0.141709    68A      0.144284    69A      0.147008  
      70A      0.154091    71A      0.158544    72A      0.162296  
      73A      0.165543    74A      0.169031    75A      0.171813  
      76A      0.173305    77A      0.175542    78A      0.178501  
      79A      0.183988    80A      0.186654    81A      0.190093  
      82A      0.191100    83A      0.192408    84A      0.198928  
      85A      0.202939    86A      0.207166    87A      0.213292  
      88A      0.218824    89A      0.220938    90A      0.224673  
      91A      0.230510    92A      0.233095    93A      0.235260  
      94A      0.240338    95A      0.241934    96A      0.245802  
      97A      0.247029    98A      0.251885    99A      0.257310  
     100A      0.258481   101A      0.263742   102A      0.264057  
     103A      0.269606   104A      0.273680   105A      0.278087  
     106A      0.279357   107A      0.282910   108A      0.284233  
     109A      0.289749   110A      0.292662   111A      0.295766  
     112A      0.297574   113A      0.306176   114A      0.307555  
     115A      0.309426   116A      0.315525   117A      0.320362  
     118A      0.323506   119A      0.327168   120A      0.329686  
     121A      0.332954   122A      0.336954   123A      0.340179  
     124A      0.341487   125A      0.348316   126A      0.353910  
     127A      0.356676   128A      0.357830   129A      0.362081  
     130A      0.364378   131A      0.367833   132A      0.373100  
     133A      0.376778   134A      0.378015   135A      0.380524  
     136A      0.382978   137A      0.387436   138A      0.394222  
     139A      0.401345   140A      0.401414   141A      0.406341  
     142A      0.409262   143A      0.410819   144A      0.415825  
     145A      0.417899   146A      0.419621   147A      0.422187  
     148A      0.428988   149A      0.434543   150A      0.438334  
     151A      0.441143   152A      0.442099   153A      0.449305  
     154A      0.452692   155A      0.454790   156A      0.460293  
     157A      0.461616   158A      0.465286   159A      0.467458  
     160A      0.470143   161A      0.474976   162A      0.476287  
     163A      0.479361   164A      0.483259   165A      0.484469  
     166A      0.492079   167A      0.495870   168A      0.498431  
     169A      0.500856   170A      0.502162   171A      0.507950  
     172A      0.511992   173A      0.514822   174A      0.521266  
     175A      0.525143   176A      0.525875   177A      0.531147  
     178A      0.533844   179A      0.542437   180A      0.544893  
     181A      0.551638   182A      0.553282   183A      0.554278  
     184A      0.555713   185A      0.559157   186A      0.560798  
     187A      0.564728   188A      0.573133   189A      0.576248  
     190A      0.577764   191A      0.580056   192A      0.581034  
     193A      0.585461   194A      0.591478   195A      0.598472  
     196A      0.600560   197A      0.603213   198A      0.607910  
     199A      0.609935   200A      0.616345   201A      0.619534  
     202A      0.620501   203A      0.631461   204A      0.635097  
     205A      0.635908   206A      0.643194   207A      0.644366  
     208A      0.645881   209A      0.649638   210A      0.657255  
     211A      0.660475   212A      0.663891   213A      0.668933  
     214A      0.674128   215A      0.676814   216A      0.679113  
     217A      0.681245   218A      0.693886   219A      0.696413  
     220A      0.702683   221A      0.704657   222A      0.709219  
     223A      0.720743   224A      0.722851   225A      0.723987  
     226A      0.728000   227A      0.735703   228A      0.739424  
     229A      0.743292   230A      0.747584   231A      0.748117  
     232A      0.756331   233A      0.759146   234A      0.766267  
     235A      0.770159   236A      0.774321   237A      0.779058  
     238A      0.782833   239A      0.787848   240A      0.791179  
     241A      0.794578   242A      0.797633   243A      0.802571  
     244A      0.810825   245A      0.816791   246A      0.822309  
     247A      0.824042   248A      0.827722   249A      0.831036  
     250A      0.832726   251A      0.848268   252A      0.851603  
     253A      0.856589   254A      0.857992   255A      0.864544  
     256A      0.869774   257A      0.873914   258A      0.876734  
     259A      0.881651   260A      0.882120   261A      0.891883  
     262A      0.896972   263A      0.903344   264A      0.906578  
     265A      0.911624   266A      0.915306   267A      0.916161  
     268A      0.921663   269A      0.922506   270A      0.927861  
     271A      0.936373   272A      0.941155   273A      0.944324  
     274A      0.947433   275A      0.950765   276A      0.951954  
     277A      0.961779   278A      0.962046   279A      0.968118  
     280A      0.970358   281A      0.977377   282A      0.981954  
     283A      0.984467   284A      0.986599   285A      0.992069  
     286A      0.996273   287A      0.997704   288A      1.004352  
     289A      1.008832   290A      1.013943   291A      1.017951  
     292A      1.024670   293A      1.029512   294A      1.035543  
     295A      1.038616   296A      1.044682   297A      1.046360  
     298A      1.056840   299A      1.060327   300A      1.063947  
     301A      1.068500   302A      1.070636   303A      1.073053  
     304A      1.078163   305A      1.084444   306A      1.087519  
     307A      1.092410   308A      1.098305   309A      1.101888  
     310A      1.103062   311A      1.108863   312A      1.110998  
     313A      1.120354   314A      1.124715   315A      1.126543  
     316A      1.133056   317A      1.140135   318A      1.146445  
     319A      1.148960   320A      1.157352   321A      1.158818  
     322A      1.160430   323A      1.167892   324A      1.169955  
     325A      1.172199   326A      1.175411   327A      1.178557  
     328A      1.182532   329A      1.188077   330A      1.191503  
     331A      1.198499   332A      1.202744   333A      1.208563  
     334A      1.210787   335A      1.215116   336A      1.225055  
     337A      1.228696   338A      1.233547   339A      1.236039  
     340A      1.242011   341A      1.243626   342A      1.247285  
     343A      1.251011   344A      1.256708   345A      1.258251  
     346A      1.267349   347A      1.269793   348A      1.271639  
     349A      1.278793   350A      1.280923   351A      1.282847  
     352A      1.287384   353A      1.290237   354A      1.297241  
     355A      1.306329   356A      1.310207   357A      1.316674  
     358A      1.319781   359A      1.325194   360A      1.326916  
     361A      1.333067   362A      1.338522   363A      1.341673  
     364A      1.343663   365A      1.350424   366A      1.357891  
     367A      1.363168   368A      1.364659   369A      1.374935  
     370A      1.376336   371A      1.381230   372A      1.387586  
     373A      1.391008   374A      1.397088   375A      1.399807  
     376A      1.402163   377A      1.407521   378A      1.409875  
     379A      1.418938   380A      1.422757   381A      1.424860  
     382A      1.427450   383A      1.433513   384A      1.439180  
     385A      1.444332   386A      1.450123   387A      1.453853  
     388A      1.457611   389A      1.464456   390A      1.465273  
     391A      1.470336   392A      1.475043   393A      1.479234  
     394A      1.485359   395A      1.491829   396A      1.495446  
     397A      1.502062   398A      1.503905   399A      1.511652  
     400A      1.514739   401A      1.522669   402A      1.526029  
     403A      1.531664   404A      1.539809   405A      1.544119  
     406A      1.551759   407A      1.552793   408A      1.558441  
     409A      1.559268   410A      1.563977   411A      1.571767  
     412A      1.576633   413A      1.587207   414A      1.593622  
     415A      1.597550   416A      1.601710   417A      1.607571  
     418A      1.612850   419A      1.621254   420A      1.621554  
     421A      1.629785   422A      1.631877   423A      1.641216  
     424A      1.644082   425A      1.648869   426A      1.653171  
     427A      1.659367   428A      1.659937   429A      1.665639  
     430A      1.676619   431A      1.679832   432A      1.682312  
     433A      1.688196   434A      1.697388   435A      1.699194  
     436A      1.708077   437A      1.717243   438A      1.723475  
     439A      1.724251   440A      1.732988   441A      1.736976  
     442A      1.745575   443A      1.752357   444A      1.754535  
     445A      1.760919   446A      1.766668   447A      1.770943  
     448A      1.776162   449A      1.778463   450A      1.780997  
     451A      1.787653   452A      1.797215   453A      1.801024  
     454A      1.803384   455A      1.806008   456A      1.813712  
     457A      1.821400   458A      1.822824   459A      1.831626  
     460A      1.833485   461A      1.843420   462A      1.847604  
     463A      1.858474   464A      1.864523   465A      1.867582  
     466A      1.873487   467A      1.877809   468A      1.887682  
     469A      1.895125   470A      1.899328   471A      1.903502  
     472A      1.911657   473A      1.914729   474A      1.917659  
     475A      1.929216   476A      1.940789   477A      1.945455  
     478A      1.953573   479A      1.964960   480A      1.965443  
     481A      1.968255   482A      1.981536   483A      1.984774  
     484A      1.989497   485A      1.994728   486A      2.003809  
     487A      2.008833   488A      2.014501   489A      2.024861  
     490A      2.031906   491A      2.034469   492A      2.036811  
     493A      2.040207   494A      2.047400   495A      2.050572  
     496A      2.059431   497A      2.067408   498A      2.073716  
     499A      2.077091   500A      2.086337   501A      2.092126  
     502A      2.097094   503A      2.102408   504A      2.110584  
     505A      2.120154   506A      2.122462   507A      2.127265  
     508A      2.132586   509A      2.140687   510A      2.152357  
     511A      2.155251   512A      2.164707   513A      2.167563  
     514A      2.177397   515A      2.182372   516A      2.185243  
     517A      2.190495   518A      2.197572   519A      2.203834  
     520A      2.207499   521A      2.216968   522A      2.225105  
     523A      2.232668   524A      2.236017   525A      2.246312  
     526A      2.249198   527A      2.254238   528A      2.262337  
     529A      2.271013   530A      2.280083   531A      2.282093  
     532A      2.289953   533A      2.294837   534A      2.301031  
     535A      2.306295   536A      2.311307   537A      2.314443  
     538A      2.324571   539A      2.332735   540A      2.343847  
     541A      2.352497   542A      2.357529   543A      2.360165  
     544A      2.369950   545A      2.379520   546A      2.384416  
     547A      2.385745   548A      2.398631   549A      2.402322  
     550A      2.407431   551A      2.415216   552A      2.423597  
     553A      2.428188   554A      2.432770   555A      2.449937  
     556A      2.457149   557A      2.458315   558A      2.468678  
     559A      2.479828   560A      2.482485   561A      2.490574  
     562A      2.499379   563A      2.506329   564A      2.514942  
     565A      2.520111   566A      2.532167   567A      2.535600  
     568A      2.549710   569A      2.560287   570A      2.564002  
     571A      2.573160   572A      2.579615   573A      2.588102  
     574A      2.593918   575A      2.599553   576A      2.605809  
     577A      2.613104   578A      2.620140   579A      2.632086  
     580A      2.634553   581A      2.642960   582A      2.649985  
     583A      2.653964   584A      2.665876   585A      2.673297  
     586A      2.678728   587A      2.691255   588A      2.699113  
     589A      2.704286   590A      2.710475   591A      2.715513  
     592A      2.725526   593A      2.731298   594A      2.732053  
     595A      2.738768   596A      2.755777   597A      2.756967  
     598A      2.759519   599A      2.768219   600A      2.775349  
     601A      2.782087   602A      2.791221   603A      2.798300  
     604A      2.806663   605A      2.809884   606A      2.820132  
     607A      2.829060   608A      2.838268   609A      2.841218  
     610A      2.844614   611A      2.860299   612A      2.864497  
     613A      2.866752   614A      2.869410   615A      2.878077  
     616A      2.883361   617A      2.902219   618A      2.910512  
     619A      2.919611   620A      2.929350   621A      2.936574  
     622A      2.943821   623A      2.949435   624A      2.959716  
     625A      2.968060   626A      2.987702   627A      2.995908  
     628A      2.999872   629A      3.007669   630A      3.019101  
     631A      3.024977   632A      3.031697   633A      3.041967  
     634A      3.051479   635A      3.059560   636A      3.066186  
     637A      3.078890   638A      3.080809   639A      3.089765  
     640A      3.093897   641A      3.111212   642A      3.124817  
     643A      3.135218   644A      3.142016   645A      3.147811  
     646A      3.156467   647A      3.164527   648A      3.173626  
     649A      3.187406   650A      3.198487   651A      3.209577  
     652A      3.224429   653A      3.227486   654A      3.244490  
     655A      3.259121   656A      3.263122   657A      3.281758  
     658A      3.286449   659A      3.297598   660A      3.313451  
     661A      3.316269   662A      3.327264   663A      3.349291  
     664A      3.364132   665A      3.377886   666A      3.379857  
     667A      3.382012   668A      3.385022   669A      3.405756  
     670A      3.414654   671A      3.431181   672A      3.440509  
     673A      3.467423   674A      3.488109   675A      3.491613  
     676A      3.495092   677A      3.505236   678A      3.519157  
     679A      3.534761   680A      3.551166   681A      3.554160  
     682A      3.559006   683A      3.578834   684A      3.587551  
     685A      3.596055   686A      3.599058   687A      3.617798  
     688A      3.648661   689A      3.657543   690A      3.666955  
     691A      3.686955   692A      3.693402   693A      3.702162  
     694A      3.710915   695A      3.713064   696A      3.729401  
     697A      3.734310   698A      3.746778   699A      3.757446  
     700A      3.759976   701A      3.772231   702A      3.788611  
     703A      3.793351   704A      3.803846   705A      3.811837  
     706A      3.818307   707A      3.826713   708A      3.838913  
     709A      3.862339   710A      3.867309   711A      3.874979  
     712A      3.881045   713A      3.887691   714A      3.897369  
     715A      3.903460   716A      3.916269   717A      3.925183  
     718A      3.937898   719A      3.956316   720A      3.964141  
     721A      3.970005   722A      3.975349   723A      3.980821  
     724A      3.996095   725A      3.999888   726A      4.028998  
     727A      4.036190   728A      4.048367   729A      4.061102  
     730A      4.065880   731A      4.069381   732A      4.095314  
     733A      4.112068   734A      4.121451   735A      4.123983  
     736A      4.132674   737A      4.139855   738A      4.154922  
     739A      4.157169   740A      4.171498   741A      4.179603  
     742A      4.187085   743A      4.191426   744A      4.203071  
     745A      4.216833   746A      4.224597   747A      4.231188  
     748A      4.234773   749A      4.249024   750A      4.258183  
     751A      4.260126   752A      4.275160   753A      4.291774  
     754A      4.296154   755A      4.302047   756A      4.307189  
     757A      4.318236   758A      4.332449   759A      4.337950  
     760A      4.350869   761A      4.362312   762A      4.374704  
     763A      4.382871   764A      4.388536   765A      4.391637  
     766A      4.398706   767A      4.406865   768A      4.413673  
     769A      4.415944   770A      4.429537   771A      4.441510  
     772A      4.444638   773A      4.452448   774A      4.457670  
     775A      4.473401   776A      4.485307   777A      4.491059  
     778A      4.502385   779A      4.507331   780A      4.523960  
     781A      4.536543   782A      4.539848   783A      4.548971  
     784A      4.551939   785A      4.566828   786A      4.573999  
     787A      4.588021   788A      4.601520   789A      4.603311  
     790A      4.617810   791A      4.626393   792A      4.630213  
     793A      4.653014   794A      4.664521   795A      4.668452  
     796A      4.679433   797A      4.682446   798A      4.704865  
     799A      4.710658   800A      4.723392   801A      4.732723  
     802A      4.736014   803A      4.747311   804A      4.758880  
     805A      4.762355   806A      4.772402   807A      4.778704  
     808A      4.788127   809A      4.794681   810A      4.805432  
     811A      4.814840   812A      4.816596   813A      4.829216  
     814A      4.839458   815A      4.845110   816A      4.856807  
     817A      4.860098   818A      4.867228   819A      4.874186  
     820A      4.888147   821A      4.892007   822A      4.903601  
     823A      4.909932   824A      4.926624   825A      4.934085  
     826A      4.945653   827A      4.949725   828A      4.970726  
     829A      4.980620   830A      4.986809   831A      4.994906  
     832A      4.999970   833A      5.010261   834A      5.021517  
     835A      5.026731   836A      5.044073   837A      5.045104  
     838A      5.065934   839A      5.074468   840A      5.080125  
     841A      5.083930   842A      5.098358   843A      5.103741  
     844A      5.118432   845A      5.137931   846A      5.147391  
     847A      5.154378   848A      5.166678   849A      5.173644  
     850A      5.181840   851A      5.191342   852A      5.194809  
     853A      5.216852   854A      5.217507   855A      5.246939  
     856A      5.259172   857A      5.262149   858A      5.272630  
     859A      5.279353   860A      5.292092   861A      5.296760  
     862A      5.303559   863A      5.313975   864A      5.326058  
     865A      5.336235   866A      5.342365   867A      5.346547  
     868A      5.357448   869A      5.374683   870A      5.383822  
     871A      5.392534   872A      5.405819   873A      5.425384  
     874A      5.436738   875A      5.447592   876A      5.451512  
     877A      5.465583   878A      5.470241   879A      5.483518  
     880A      5.495065   881A      5.500025   882A      5.509701  
     883A      5.525374   884A      5.535393   885A      5.539588  
     886A      5.554203   887A      5.563585   888A      5.572033  
     889A      5.582910   890A      5.585667   891A      5.605401  
     892A      5.617361   893A      5.629123   894A      5.636399  
     895A      5.640505   896A      5.645287   897A      5.652734  
     898A      5.658560   899A      5.667607   900A      5.681824  
     901A      5.690241   902A      5.706980   903A      5.709714  
     904A      5.714284   905A      5.727489   906A      5.743929  
     907A      5.762825   908A      5.766257   909A      5.781583  
     910A      5.787601   911A      5.797800   912A      5.824598  
     913A      5.853332   914A      5.867583   915A      5.890462  
     916A      5.892552   917A      5.913116   918A      5.949662  
     919A      5.963409   920A      5.974023   921A      5.975817  
     922A      5.981719   923A      6.008652   924A      6.045892  
     925A      6.053487   926A      6.065760   927A      6.080829  
     928A      6.090018   929A      6.116395   930A      6.131930  
     931A      6.145014   932A      6.164951   933A      6.170249  
     934A      6.180431   935A      6.186518   936A      6.200480  
     937A      6.222625   938A      6.241891   939A      6.252445  
     940A      6.271453   941A      6.282484   942A      6.303060  
     943A      6.316025   944A      6.321545   945A      6.351346  
     946A      6.360150   947A      6.386982   948A      6.405597  
     949A      6.442417   950A      6.485509   951A      6.502770  
     952A      6.512899   953A      6.523410   954A      6.554576  
     955A      6.610367   956A      6.635423   957A      6.657464  
     958A      6.674996   959A      6.701239   960A      6.723600  
     961A      6.744156   962A      6.755906   963A      6.761431  
     964A      6.791781   965A      6.799245   966A      6.816710  
     967A      6.827149   968A      6.846993   969A      6.852831  
     970A      6.860615   971A      6.869138   972A      6.875482  
     973A      6.886743   974A      6.895302   975A      6.903645  
     976A      6.914069   977A      6.928502   978A      6.936624  
     979A      6.953805   980A      6.970537   981A      6.976036  
     982A      7.024332   983A      7.070398   984A      7.078659  
     985A      7.101128   986A      7.167324   987A      7.202067  
     988A      7.234162   989A      7.243878   990A      7.271916  
     991A      7.322131   992A      7.331706   993A      7.341784  
     994A      7.365306   995A      7.374238   996A      7.431395  
     997A      7.444023   998A      7.483179   999A      7.494628  
    1000A      7.511376  1001A      7.524746  1002A      7.562650  
    1003A      7.601717  1004A      7.604357  1005A      7.641924  
    1006A      7.660909  1007A      7.668568  1008A      7.674472  
    1009A      7.695243  1010A      7.708082  1011A      7.736023  
    1012A      7.752167  1013A      7.786787  1014A      7.803457  
    1015A      7.815004  1016A      7.827696  1017A      7.857641  
    1018A      7.865810  1019A      7.882733  1020A      7.887610  
    1021A      7.893331  1022A      7.903528  1023A      7.912151  
    1024A      7.920072  1025A      7.938480  1026A      7.949667  
    1027A      7.973613  1028A      7.977336  1029A      8.009225  
    1030A      8.014282  1031A      8.029859  1032A      8.064598  
    1033A      8.071694  1034A      8.085184  1035A      8.102973  
    1036A      8.132509  1037A      8.194269  1038A      8.231427  
    1039A      8.273402  1040A      8.337272  1041A      8.366165  
    1042A      8.367778  1043A      8.408961  1044A      8.483372  
    1045A      8.587132  1046A      8.693807  1047A      8.758213  
    1048A      8.799461  1049A      8.906596  1050A      8.958614  
    1051A      9.017631  1052A      9.163892  1053A      9.208675  
    1054A      9.651567  1055A      9.671327  1056A      9.736212  
    1057A      9.774457  1058A      9.968924  1059A     10.030209  
    1060A     10.055130  1061A     10.130022  1062A     10.146273  
    1063A     10.332089  1064A     10.354220  1065A     10.391458  
    1066A     10.423222  1067A     10.507826  1068A     10.574322  
    1069A     10.629196  1070A     10.802559  1071A     10.991556  
    1072A     11.278860  1073A     11.487861  1074A     11.664589  
    1075A     12.079641  1076A     12.117696  1077A     12.139540  
    1078A     12.198592  1079A     12.481400  1080A     12.535523  
    1081A     12.794890  1082A     12.881320  1083A     13.517333  
    1084A     13.728540  1085A     14.194210  1086A     14.264808  
    1087A     16.384725  1088A     16.523323  1089A     16.717656  
    1090A     17.161477  1091A     18.362901  1092A     19.499483  
    1093A     20.548889  1094A     20.817396  1095A     21.406472  
    1096A     52.285847  1097A     53.135522  1098A     54.539961  
    1099A     55.616200  1100A     59.050226  1101A     61.703389  
    1102A     62.113979  1103A     70.014493  1104A     71.055025  

    Final Occupation by Irrep:
              A 
    DOCC [    33 ]

  @DF-RHF Final Energy:  -451.67055038992140

   => Energetics <=

    Nuclear Repulsion Energy =            438.5253848449010547
    One-Electron Energy =               -1485.2088047083589117
    Two-Electron Energy =                 595.0128694735363979
    Total Energy =                       -451.6705503899214591

Computation Completed


Properties will be evaluated at   0.000000,   0.000000,   0.000000 [a0]

Properties computed using the SCF density matrix

  Nuclear Dipole Moment: [e a0]
     X:  -147.8090      Y:  -125.9505      Z:    11.7544

  Electronic Dipole Moment: [e a0]
     X:   147.4197      Y:   126.5362      Z:    -9.9627

  Dipole Moment: [e a0]
     X:    -0.3893      Y:     0.5857      Z:     1.7917     Total:     1.9248

  Dipole Moment: [D]
     X:    -0.9896      Y:     1.4887      Z:     4.5542     Total:     4.8924


*** tstop() called on node150.bme.utexas.edu at Tue Jan 16 13:34:42 2024
Module time:
	user time   =    1325.42 seconds =      22.09 minutes
	system time =      11.24 seconds =       0.19 minutes
	total time  =        206 seconds =       3.43 minutes
Total time:
	user time   =    5047.26 seconds =      84.12 minutes
	system time =      62.24 seconds =       1.04 minutes
	total time  =        805 seconds =      13.42 minutes

*** tstart() called on node150.bme.utexas.edu
*** at Tue Jan 16 13:34:42 2024


  //>>>>>>>>>>>>>>>>>>>>>>>>>>>>>>>>>>>//
  //               DFMP2               //
  //<<<<<<<<<<<<<<<<<<<<<<<<<<<<<<<<<<<//

   => Loading Basis Set <=

    Name: (AUG-CC-PVTZ AUX)
    Role: RIFIT
    Keyword: DF_BASIS_MP2
    atoms 1, 5, 16, 20                       entry N          line   206 file /opt/anaconda/envs/psi4v1.5/share/psi4/basis/aug-cc-pvtz-ri.gbs 
    atoms 2, 6, 11, 13-15, 17, 21, 26, 28-30 entry H          line    30 file /opt/anaconda/envs/psi4v1.5/share/psi4/basis/aug-cc-pvtz-ri.gbs 
    atoms 3, 7, 9-10, 12, 18, 22, 24-25, 27  entry C          line   148 file /opt/anaconda/envs/psi4v1.5/share/psi4/basis/aug-cc-pvtz-ri.gbs 
    atoms 4, 8, 19, 23                       entry O          line   264 file /opt/anaconda/envs/psi4v1.5/share/psi4/basis/aug-cc-pvtz-ri.gbs 

	 --------------------------------------------------------
	                          DF-MP2                         
	      2nd-Order Density-Fitted Moller-Plesset Theory     
	              RMP2 Wavefunction,   8 Threads             
	                                                         
	        Rob Parrish, Justin Turney, Andy Simmonett,      
	           Ed Hohenstein, and C. David Sherrill          
	 --------------------------------------------------------

   => Auxiliary Basis Set <=

  Basis Set: (AUG-CC-PVTZ AUX)
    Blend: AUG-CC-PVTZ-RI
    Number of shells: 672
    Number of basis functions: 2460
    Number of Cartesian functions: 3108
    Spherical Harmonics?: true
    Max angular momentum: 4

	 --------------------------------------------------------
	                 NBF =  1104, NAUX =  2460
	 --------------------------------------------------------
	   CLASS    FOCC     OCC    AOCC    AVIR     VIR    FVIR
	   PAIRS       9      33      24    1071    1071       0
	 --------------------------------------------------------

	 Will attempt to load fitting metric from file 97.

	-----------------------------------------------------------
	 ==================> DF-MP2 Energies <==================== 
	-----------------------------------------------------------
	 Reference Energy          =    -451.6705503899214023 [Eh]
	 Singles Energy            =      -0.0000000000000000 [Eh]
	 Same-Spin Energy          =      -0.4340877035290725 [Eh]
	 Opposite-Spin Energy      =      -1.2527438059330622 [Eh]
	 Correlation Energy        =      -1.6868315094621347 [Eh]
	 Total Energy              =    -453.3573818993835403 [Eh]
	-----------------------------------------------------------
	 ================> DF-SCS-MP2 Energies <================== 
	-----------------------------------------------------------
	 SCS Same-Spin Scale       =       0.3333333333333333 [-]
	 SCS Opposite-Spin Scale   =       1.2000000000000000 [-]
	 SCS Same-Spin Energy      =      -0.1446959011763575 [Eh]
	 SCS Opposite-Spin Energy  =      -1.5032925671196746 [Eh]
	 SCS Correlation Energy    =      -1.6479884682960322 [Eh]
	 SCS Total Energy          =    -453.3185388582174369 [Eh]
	-----------------------------------------------------------


*** tstop() called on node150.bme.utexas.edu at Tue Jan 16 13:35:19 2024
Module time:
	user time   =     173.78 seconds =       2.90 minutes
	system time =       7.99 seconds =       0.13 minutes
	total time  =         37 seconds =       0.62 minutes
Total time:
	user time   =    5221.05 seconds =      87.02 minutes
	system time =      70.23 seconds =       1.17 minutes
	total time  =        842 seconds =      14.03 minutes
  Constructing Basis Sets for SAPT...

   => Loading Basis Set <=

    Name: (AUG-CC-PVTZ AUX)
    Role: RIFIT
    Keyword: DF_BASIS_SAPT
    atoms 1, 5, 16, 20                       entry N          line   206 file /opt/anaconda/envs/psi4v1.5/share/psi4/basis/aug-cc-pvtz-ri.gbs 
    atoms 2, 6, 11, 13-15, 17, 21, 26, 28-30 entry H          line    30 file /opt/anaconda/envs/psi4v1.5/share/psi4/basis/aug-cc-pvtz-ri.gbs 
    atoms 3, 7, 9-10, 12, 18, 22, 24-25, 27  entry C          line   148 file /opt/anaconda/envs/psi4v1.5/share/psi4/basis/aug-cc-pvtz-ri.gbs 
    atoms 4, 8, 19, 23                       entry O          line   264 file /opt/anaconda/envs/psi4v1.5/share/psi4/basis/aug-cc-pvtz-ri.gbs 


  //>>>>>>>>>>>>>>>>>>>>>>>>>>>>>>>>>>>//
  //           SAPT2+(3)DMP2           //
  //<<<<<<<<<<<<<<<<<<<<<<<<<<<<<<<<<<<//


*** tstart() called on node150.bme.utexas.edu
*** at Tue Jan 16 13:35:19 2024

      SAPT2+(3)  
    Ed Hohenstein
     6 June 2009

      Orbital Information
  --------------------------
    NSO        =      1104
    NMO        =      1104
    NRI        =      2460
    NOCC A     =        33
    NOCC B     =        33
    FOCC A     =         9
    FOCC B     =         9
    NVIR A     =      1071
    NVIR B     =      1071

    Estimated memory usage: 52552.8 MB

    Natural Orbital Cutoff:   1.000E-06
    Disp(T3) Truncation:            Yes
    CCD (vv|vv) Truncation:         Yes
    MBPT T2 Truncation:             Yes

    Monomer A: 589 virtual orbitals dropped
    Monomer B: 589 virtual orbitals dropped

    Elst10,r            =    -0.017769597815 [Eh]
    Exch10 (S^2)        =     0.027827141418 [Eh]
    Exch10              =     0.027889269380 [Eh]
    Ind20,r (A<-B)      =    -0.006601554134 [Eh]
    Ind20,r (B<-A)      =    -0.006128823907 [Eh]
    Ind20,r             =    -0.012730378041 [Eh]
    Exch-Ind20,r (A<-B) =     0.005033579036 [Eh]
    Exch-Ind20,r (B<-A) =     0.004846251638 [Eh]
    Exch-Ind20,r        =     0.009879830674 [Eh]
    Disp20              =    -0.031211052390 [Eh]
    Disp20 (NO)         =    -0.028947687369 [Eh]
    Exch-Disp20         =     0.003465749820 [Eh]
    Elst12,r            =    -0.001112571891 [Eh]
    Exch11              =     0.000405510013 [Eh]
    Exch12              =     0.002420435003 [Eh]
    Ind22               =    -0.000729190724 [Eh]
    Disp21              =     0.008014144658 [Eh]
    Disp22 (SDQ)        =    -0.001270516169 [Eh]

    (i =   1 of  24)       1571 seconds
    (i =   2 of  24)       3137 seconds
    (i =   3 of  24)       4703 seconds
    (i =   4 of  24)       6270 seconds
    (i =   5 of  24)       7845 seconds
    (i =   6 of  24)       9418 seconds
    (i =   7 of  24)      10990 seconds
    (i =   8 of  24)      12563 seconds
    (i =   9 of  24)      14132 seconds
    (i =  10 of  24)      15701 seconds
    (i =  11 of  24)      17269 seconds
    (i =  12 of  24)      18834 seconds
    (i =  13 of  24)      20399 seconds
    (i =  14 of  24)      21970 seconds
    (i =  15 of  24)      23542 seconds
    (i =  16 of  24)      25114 seconds
    (i =  17 of  24)      26684 seconds
    (i =  18 of  24)      28253 seconds
    (i =  19 of  24)      29821 seconds
    (i =  20 of  24)      31387 seconds
    (i =  21 of  24)      32955 seconds
    (i =  22 of  24)      34526 seconds
    (i =  23 of  24)      36097 seconds
    (i =  24 of  24)      37667 seconds

    Disp220 (T)         =    -0.003257000963 [Eh]

    (i =   1 of  24)       1482 seconds
    (i =   2 of  24)       2967 seconds
    (i =   3 of  24)       4441 seconds
    (i =   4 of  24)       5919 seconds
    (i =   5 of  24)       7388 seconds
    (i =   6 of  24)       8851 seconds
    (i =   7 of  24)      10312 seconds
    (i =   8 of  24)      11777 seconds
    (i =   9 of  24)      13242 seconds
    (i =  10 of  24)      14710 seconds
    (i =  11 of  24)      16174 seconds
    (i =  12 of  24)      17638 seconds
    (i =  13 of  24)      19101 seconds
    (i =  14 of  24)      20567 seconds
    (i =  15 of  24)      22033 seconds
    (i =  16 of  24)      23498 seconds
    (i =  17 of  24)      24970 seconds
    (i =  18 of  24)      26441 seconds
    (i =  19 of  24)      27910 seconds
    (i =  20 of  24)      29382 seconds
    (i =  21 of  24)      31089 seconds
    (i =  22 of  24)      33638 seconds
    (i =  23 of  24)      36431 seconds
    (i =  24 of  24)      39213 seconds

    Disp202 (T)         =    -0.003235041127 [Eh]

    Disp22 (T)          =    -0.006492042089 [Eh]

    Est. Disp220 (T)    =    -0.003511659719 [Eh]
    Est. Disp202 (T)    =    -0.003487982885 [Eh]

    Est. Disp22 (T)     =    -0.006999642603 [Eh]
    Elst13,r            =     0.000839017653 [Eh]
    Disp30              =     0.000806243136 [Eh]

    SAPT Results 
  --------------------------------------------------------------------------------------------------------
    Electrostatics                -18.04315205 [mEh]     -11.32224885 [kcal/mol]     -47.37228919 [kJ/mol]
      Elst10,r                    -17.76959781 [mEh]     -11.15059097 [kcal/mol]     -46.65407264 [kJ/mol]
      Elst12,r                     -1.11257189 [mEh]      -0.69814940 [kcal/mol]      -2.92105710 [kJ/mol]
      Elst13,r                      0.83901765 [mEh]       0.52649153 [kcal/mol]       2.20284054 [kJ/mol]

    Exchange                       30.71521440 [mEh]      19.27408802 [kcal/mol]      80.64278429 [kJ/mol]
      Exch10                       27.88926938 [mEh]      17.50078075 [kcal/mol]      73.22326667 [kJ/mol]
      Exch10(S^2)                  27.82714142 [mEh]      17.46179487 [kcal/mol]      73.06014973 [kJ/mol]
      Exch11(S^2)                   0.40551001 [mEh]       0.25446137 [kcal/mol]       1.06466639 [kJ/mol]
      Exch12(S^2)                   2.42043500 [mEh]       1.51884590 [kcal/mol]       6.35485123 [kJ/mol]

    Induction                      -3.76047828 [mEh]      -2.35973575 [kcal/mol]      -9.87313436 [kJ/mol]
      Ind20,r                     -12.73037804 [mEh]      -7.98843283 [kcal/mol]     -33.42360294 [kJ/mol]
      Ind22                        -0.72919072 [mEh]      -0.45757409 [kcal/mol]      -1.91448998 [kJ/mol]
      Exch-Ind20,r                  9.87983067 [mEh]       6.19968735 [kcal/mol]      25.93949186 [kJ/mol]
      Exch-Ind22                    0.56591256 [mEh]       0.35511550 [kcal/mol]       1.48580323 [kJ/mol]
      delta HF,r (2)               -1.83545825 [mEh]      -1.15176744 [kcal/mol]      -4.81899497 [kJ/mol]
      delta MP2,r (2)               1.08880550 [mEh]       0.68323577 [kcal/mol]       2.85865844 [kJ/mol]

    Dispersion                    -27.19507355 [mEh]     -17.06516629 [kcal/mol]     -71.40065576 [kJ/mol]
      Disp20                      -31.21105239 [mEh]     -19.58523106 [kcal/mol]     -81.94460676 [kJ/mol]
      Disp30                        0.80624314 [mEh]       0.50592521 [kcal/mol]       2.11679106 [kJ/mol]
      Disp21                        8.01414466 [mEh]       5.02895170 [kcal/mol]      21.04113390 [kJ/mol]
      Disp22 (SDQ)                 -1.27051617 [mEh]      -0.79726093 [kcal/mol]      -3.33573974 [kJ/mol]
      Disp22 (T)                   -6.49204209 [mEh]      -4.07381792 [kcal/mol]     -17.04485416 [kJ/mol]
      Est. Disp22 (T)              -6.99964260 [mEh]      -4.39234205 [kcal/mol]     -18.37755912 [kJ/mol]
      Exch-Disp20                   3.46574982 [mEh]       2.17479085 [kcal/mol]       9.09932490 [kJ/mol]

  Total HF                          5.43366595 [mEh]       3.40967686 [kcal/mol]      14.26608798 [kJ/mol]
  Total SAPT0                     -22.31163662 [mEh]     -14.00076336 [kcal/mol]     -58.57919388 [kJ/mol]
  Total SAPT2                     -20.76154166 [mEh]     -13.02806408 [kcal/mol]     -54.50942011 [kJ/mol]
  Total SAPT2+                    -21.01755577 [mEh]     -13.18871536 [kcal/mol]     -55.18158507 [kJ/mol]
  Total SAPT2+(3)                 -19.37229498 [mEh]     -12.15629863 [kcal/mol]     -50.86195347 [kJ/mol]
  Total SAPT2+dMP2                -19.92875027 [mEh]     -12.50547960 [kcal/mol]     -52.32292663 [kJ/mol]
  Total SAPT2+(3)dMP2             -18.28348948 [mEh]     -11.47306286 [kcal/mol]     -48.00329503 [kJ/mol]

  Special recipe for scaled SAPT0 (see Manual):
    Electrostatics sSAPT0         -17.76959781 [mEh]     -11.15059097 [kcal/mol]     -46.65407264 [kJ/mol]
    Exchange sSAPT0                27.88926938 [mEh]      17.50078075 [kcal/mol]      73.22326667 [kJ/mol]
    Induction sSAPT0               -4.61968348 [mEh]      -2.89889515 [kcal/mol]     -12.12897730 [kJ/mol]
    Dispersion sSAPT0             -27.72203740 [mEh]     -17.39584110 [kcal/mol]     -72.78419917 [kJ/mol]
  Total sSAPT0                    -22.22204931 [mEh]     -13.94454647 [kcal/mol]     -58.34398243 [kJ/mol]
  --------------------------------------------------------------------------------------------------------

*** tstop() called on node150.bme.utexas.edu at Wed Jan 17 18:00:06 2024
Module time:
	user time   =  693660.54 seconds =   11561.01 minutes
	system time =    1920.55 seconds =      32.01 minutes
	total time  =     102287 seconds =    1704.78 minutes
Total time:
	user time   =  698882.27 seconds =   11648.04 minutes
	system time =    1990.79 seconds =      33.18 minutes
	total time  =     103129 seconds =    1718.82 minutes

    Psi4 stopped on: Wednesday, 17 January 2024 06:00PM
    Psi4 wall time for execution: 1 day, 4:38:50.66

*** Psi4 exiting successfully. Buy a developer a beer!
