30

N 1.20442 1.51424 1.52541
H 1.15815 1.76291 2.5067
C 0.18528 2.02844 0.74511
O -0.72017 2.72961 1.19269
N 0.30611 1.66976 -0.58497
H -0.42708 2.01398 -1.20659
C 1.19626 0.74118 -1.15278
O 1.11204 0.44674 -2.34464
C 2.17718 0.19041 -0.22044
C 2.13875 0.60437 1.0699
H 2.84276 0.24918 1.81737
C 3.13478 -0.83229 -0.7447
H 3.86357 -1.11273 0.02084
H 2.58463 -1.7249 -1.05658
H 3.66696 -0.44576 -1.61786
N -1.7858953333333332 0.574036 0.3182212
H -2.2011953333333336 1.470716 0.5546112000000001
C -1.5378053333333332 0.407476 -1.0343588
O -1.9606753333333333 1.1743460000000001 -1.8948288
N -0.7732753333333333 -0.7151339999999999 -1.3074788000000002
H -0.5053153333333333 -0.819394 -2.2852988
C -0.02463533333333323 -1.474134 -0.3966288
O 0.7633346666666667 -2.336124 -0.7904587999999999
C -0.2727153333333333 -1.154014 1.0071211999999998
C -1.1116153333333332 -0.12914399999999998 1.2960011999999999
H -1.3292053333333333 0.17955600000000002 2.3148812
C 0.4674746666666667 -1.9436440000000001 2.0396712
H 0.2043246666666667 -1.613134 3.0484412
H 0.23804466666666674 -3.008994 1.9474812
H 1.5471146666666666 -1.835834 1.8988112
