
    -----------------------------------------------------------------------
          Psi4: An Open-Source Ab Initio Electronic Structure Package
                               Psi4 1.5 release

                         Git: Rev {HEAD} e9f4d6d 


    D. G. A. Smith, L. A. Burns, A. C. Simmonett, R. M. Parrish,
    M. C. Schieber, R. Galvelis, P. Kraus, H. Kruse, R. Di Remigio,
    A. Alenaizan, A. M. James, S. Lehtola, J. P. Misiewicz, M. Scheurer,
    R. A. Shaw, J. B. Schriber, Y. Xie, Z. L. Glick, D. A. Sirianni,
    J. S. O'Brien, J. M. Waldrop, A. Kumar, E. G. Hohenstein,
    B. P. Pritchard, B. R. Brooks, H. F. Schaefer III, A. Yu. Sokolov,
    K. Patkowski, A. E. DePrince III, U. Bozkaya, R. A. King,
    F. A. Evangelista, J. M. Turney, T. D. Crawford, C. D. Sherrill,
    J. Chem. Phys. 152(18) 184108 (2020). https://doi.org/10.1063/5.0006002

                            Additional Code Authors
    E. T. Seidl, C. L. Janssen, E. F. Valeev, M. L. Leininger,
    J. F. Gonthier, R. M. Richard, H. R. McAlexander, M. Saitow, X. Wang,
    P. Verma, M. H. Lechner, and A. Jiang

             Previous Authors, Complete List of Code Contributors,
                       and Citations for Specific Modules
    https://github.com/psi4/psi4/blob/master/codemeta.json
    https://github.com/psi4/psi4/graphs/contributors
    http://psicode.org/psi4manual/master/introduction.html#citing-psifour

    -----------------------------------------------------------------------


    Psi4 started on: Saturday, 13 January 2024 03:38PM

    Process ID: 54076
    Host:       node157.bme.utexas.edu
    PSIDATADIR: /opt/anaconda/envs/psi4v1.5/share/psi4
    Memory:     500.0 MiB
    Threads:    8
    
  ==> Input File <==

--------------------------------------------------------------------------
memory 50GB

molecule {
0 1
N -2.27772 -0.44018 1.0557
H -2.59769 -0.98387 1.84855
C -1.64742 -1.17203 0.06054
O -1.48199 -2.38772 0.12986
N -1.23877 -0.38821 -1.00137
C -1.21848 1.01994 -1.08573
O -0.69081 1.57628 -2.04507
C -1.86132 1.67687 0.04234
H -1.90163 2.75811 0.05415
C -2.35263 0.93581 1.06098
H -2.83473 1.37351 1.92914
H -0.73991 -0.87785 -1.7463
--
0 1
N 1.6303719166666666 -1.640476875 0.3078515416666667
H 1.2946419166666667 -2.5777368750000003 0.10691154166666668
C 1.7807519166666665 -0.839106875 -0.8149584583333334
O 1.7088819166666667 -1.279646875 -1.9591684583333333
N 2.013531916666667 0.488923125 -0.5095584583333334
C 1.8838919166666666 1.121613125 0.7430415416666667
O 1.9646819166666667 2.3427431249999997 0.8396315416666666
C 1.6545519166666667 0.188423125 1.8385315416666668
H 1.5721119166666666 0.585253125 2.8420615416666664
C 1.5016119166666666 -1.130436875 1.5803915416666667
H 1.3029819166666667 -1.865526875 2.3539715416666667
H 2.0412919166666668 1.112663125 -1.3152084583333332
 units angstrom
 no_reorient
 symmetry c1
}
set
 {scf_type DF
 basis aug-cc-pvtz
 freeze_core True
 guess SAD
}
energy('sapt2+(3)dmp2')
--------------------------------------------------------------------------

  Memory set to  46.566 GiB by Python driver.

Scratch directory: /tmp/
   => Loading Basis Set <=

    Name: AUG-CC-PVTZ
    Role: ORBITAL
    Keyword: BASIS
    atoms 1, 5, 13, 17                entry N          line   285 file /opt/anaconda/envs/psi4v1.5/share/psi4/basis/aug-cc-pvtz.gbs 
    atoms 2, 9, 11-12, 14, 21, 23-24  entry H          line    40 file /opt/anaconda/envs/psi4v1.5/share/psi4/basis/aug-cc-pvtz.gbs 
    atoms 3, 6, 8, 10, 15, 18, 20, 22 entry C          line   239 file /opt/anaconda/envs/psi4v1.5/share/psi4/basis/aug-cc-pvtz.gbs 
    atoms 4, 7, 16, 19                entry O          line   331 file /opt/anaconda/envs/psi4v1.5/share/psi4/basis/aug-cc-pvtz.gbs 

   => Loading Basis Set <=

    Name: AUG-CC-PVTZ
    Role: ORBITAL
    Keyword: BASIS
    atoms 1, 5, 13, 17                entry N          line   285 file /opt/anaconda/envs/psi4v1.5/share/psi4/basis/aug-cc-pvtz.gbs 
    atoms 2, 9, 11-12, 14, 21, 23-24  entry H          line    40 file /opt/anaconda/envs/psi4v1.5/share/psi4/basis/aug-cc-pvtz.gbs 
    atoms 3, 6, 8, 10, 15, 18, 20, 22 entry C          line   239 file /opt/anaconda/envs/psi4v1.5/share/psi4/basis/aug-cc-pvtz.gbs 
    atoms 4, 7, 16, 19                entry O          line   331 file /opt/anaconda/envs/psi4v1.5/share/psi4/basis/aug-cc-pvtz.gbs 


  //>>>>>>>>>>>>>>>>>>>>>>>>>>>>>>>>>>>//
  //              Dimer HF             //
  //<<<<<<<<<<<<<<<<<<<<<<<<<<<<<<<<<<<//


*** tstart() called on node157.bme.utexas.edu
*** at Sat Jan 13 15:38:55 2024

   => Loading Basis Set <=

    Name: AUG-CC-PVTZ
    Role: ORBITAL
    Keyword: BASIS
    atoms 1, 5, 13, 17                entry N          line   285 file /opt/anaconda/envs/psi4v1.5/share/psi4/basis/aug-cc-pvtz.gbs 
    atoms 2, 9, 11-12, 14, 21, 23-24  entry H          line    40 file /opt/anaconda/envs/psi4v1.5/share/psi4/basis/aug-cc-pvtz.gbs 
    atoms 3, 6, 8, 10, 15, 18, 20, 22 entry C          line   239 file /opt/anaconda/envs/psi4v1.5/share/psi4/basis/aug-cc-pvtz.gbs 
    atoms 4, 7, 16, 19                entry O          line   331 file /opt/anaconda/envs/psi4v1.5/share/psi4/basis/aug-cc-pvtz.gbs 


         ---------------------------------------------------------
                                   SCF
               by Justin Turney, Rob Parrish, Andy Simmonett
                          and Daniel G. A. Smith
                              RHF Reference
                        8 Threads,  47683 MiB Core
         ---------------------------------------------------------

  ==> Geometry <==

    Molecular point group: c1
    Full point group: C1

    Geometry (in Angstrom), charge = 0, multiplicity = 1:

       Center              X                  Y                   Z               Mass       
    ------------   -----------------  -----------------  -----------------  -----------------
         N           -2.370566837680    -0.428726287227     1.070793707646    14.003074004430
         H           -2.690536837680    -0.972416287227     1.863643707646     1.007825032230
         C           -1.740266837680    -1.160576287227     0.075633707646    12.000000000000
         O           -1.574836837680    -2.376266287227     0.144953707646    15.994914619570
         N           -1.331616837680    -0.376756287227    -0.986276292354    14.003074004430
         C           -1.311326837680     1.031393712773    -1.070636292354    12.000000000000
         O           -0.783656837680     1.587733712773    -2.029976292354    15.994914619570
         C           -1.954166837680     1.688323712773     0.057433707646    12.000000000000
         H           -1.994476837680     2.769563712773     0.069243707646     1.007825032230
         C           -2.445476837680     0.947263712773     1.076073707646    12.000000000000
         H           -2.927576837680     1.384963712773     1.944233707646     1.007825032230
         H           -0.832756837680    -0.866396287227    -1.731206292354     1.007825032230
         N            1.537525078986    -1.629023162227     0.322945249313    14.003074004430
         H            1.201795078986    -2.566283162227     0.122005249313     1.007825032230
         C            1.687905078986    -0.827653162227    -0.799864750687    12.000000000000
         O            1.616035078986    -1.268193162227    -1.944074750687    15.994914619570
         N            1.920685078986     0.500376837773    -0.494464750687    14.003074004430
         C            1.791045078986     1.133066837773     0.758135249313    12.000000000000
         O            1.871835078986     2.354196837773     0.854725249313    15.994914619570
         C            1.561705078986     0.199876837773     1.853625249313    12.000000000000
         H            1.479265078986     0.596706837773     2.857155249313     1.007825032230
         C            1.408765078986    -1.118983162227     1.595485249313    12.000000000000
         H            1.210135078986    -1.854073162227     2.369065249313     1.007825032230
         H            1.948445078986     1.124116837773    -1.300114750687     1.007825032230

  Running in c1 symmetry.

  Rotational constants: A =      0.02282  B =      0.01723  C =      0.01543 [cm^-1]
  Rotational constants: A =    683.98132  B =    516.46953  C =    462.63465 [MHz]
  Nuclear repulsion = 1140.731035405975263

  Charge       = 0
  Multiplicity = 1
  Electrons    = 116
  Nalpha       = 58
  Nbeta        = 58

  ==> Algorithm <==

  SCF Algorithm Type is DF.
  DIIS enabled.
  MOM disabled.
  Fractional occupation disabled.
  Guess Type is SAD.
  Energy threshold   = 1.00e-08
  Density threshold  = 1.00e-08
  Integral threshold = 1.00e-12

  ==> Primary Basis <==

  Basis Set: AUG-CC-PVTZ
    Blend: AUG-CC-PVTZ
    Number of shells: 296
    Number of basis functions: 920
    Number of Cartesian functions: 1080
    Spherical Harmonics?: true
    Max angular momentum: 3

   => Loading Basis Set <=

    Name: (AUG-CC-PVTZ AUX)
    Role: JKFIT
    Keyword: DF_BASIS_SCF
    atoms 1, 5, 13, 17                entry N          line   224 file /opt/anaconda/envs/psi4v1.5/share/psi4/basis/aug-cc-pvtz-jkfit.gbs 
    atoms 2, 9, 11-12, 14, 21, 23-24  entry H          line    70 file /opt/anaconda/envs/psi4v1.5/share/psi4/basis/aug-cc-pvtz-jkfit.gbs 
    atoms 3, 6, 8, 10, 15, 18, 20, 22 entry C          line   162 file /opt/anaconda/envs/psi4v1.5/share/psi4/basis/aug-cc-pvtz-jkfit.gbs 
    atoms 4, 7, 16, 19                entry O          line   286 file /opt/anaconda/envs/psi4v1.5/share/psi4/basis/aug-cc-pvtz-jkfit.gbs 

  ==> Integral Setup <==

  ==> DiskDFJK: Density-Fitted J/K Matrices <==

    J tasked:                  Yes
    K tasked:                  Yes
    wK tasked:                  No
    OpenMP threads:              8
    Integrals threads:           8
    Memory [MiB]:            35762
    Algorithm:                Core
    Integral Cache:           SAVE
    Schwarz Cutoff:          1E-12
    Fitting Condition:       1E-10

   => Auxiliary Basis Set <=

  Basis Set: (AUG-CC-PVTZ AUX)
    Blend: AUG-CC-PVTZ-JKFIT
    Number of shells: 592
    Number of basis functions: 2032
    Number of Cartesian functions: 2536
    Spherical Harmonics?: true
    Max angular momentum: 4

  Minimum eigenvalue in the overlap matrix is 2.0771183055E-06.
  Reciprocal condition number of the overlap matrix is 9.5425600668E-08.
    Using symmetric orthogonalization.

  ==> Pre-Iterations <==

  SCF Guess: Superposition of Atomic Densities via on-the-fly atomic UHF (no occupation information).

   -------------------------
    Irrep   Nso     Nmo    
   -------------------------
     A        920     920 
   -------------------------
    Total     920     920
   -------------------------

  ==> Iterations <==

                           Total Energy        Delta E     RMS |[F,P]|

   @DF-RHF iter SAD:  -823.93383473019946   -8.23934e+02   0.00000e+00 
   @DF-RHF iter   1:  -824.75561562819257   -8.21781e-01   1.13570e-03 DIIS
   @DF-RHF iter   2:  -825.06980620996933   -3.14191e-01   7.62865e-04 DIIS
   @DF-RHF iter   3:  -825.22945460739538   -1.59648e-01   1.43739e-04 DIIS
   @DF-RHF iter   4:  -825.23849637447165   -9.04177e-03   5.81874e-05 DIIS
   @DF-RHF iter   5:  -825.24037448053480   -1.87811e-03   1.19406e-05 DIIS
   @DF-RHF iter   6:  -825.24059266758945   -2.18187e-04   6.04249e-06 DIIS
   @DF-RHF iter   7:  -825.24063444780768   -4.17802e-05   2.52546e-06 DIIS
   @DF-RHF iter   8:  -825.24064192249568   -7.47469e-06   8.52347e-07 DIIS
   @DF-RHF iter   9:  -825.24064253854328   -6.16048e-07   3.54081e-07 DIIS
   @DF-RHF iter  10:  -825.24064267988240   -1.41339e-07   1.20484e-07 DIIS
   @DF-RHF iter  11:  -825.24064269719656   -1.73142e-08   4.26334e-08 DIIS
   @DF-RHF iter  12:  -825.24064269886048   -1.66392e-09   1.51102e-08 DIIS
   @DF-RHF iter  13:  -825.24064269906626   -2.05773e-10   4.75113e-09 DIIS
  Energy and wave function converged.


  ==> Post-Iterations <==

    Orbital Energies [Eh]
    ---------------------

    Doubly Occupied:                                                      

       1A    -20.558844     2A    -20.547694     3A    -20.547047  
       4A    -20.543222     5A    -15.653776     6A    -15.641330  
       7A    -15.635304     8A    -15.626764     9A    -11.431813  
      10A    -11.420036    11A    -11.388994    12A    -11.383867  
      13A    -11.347252    14A    -11.342832    15A    -11.262754  
      16A    -11.260051    17A     -1.439836    18A     -1.429165  
      19A     -1.398330    20A     -1.392456    21A     -1.317249  
      22A     -1.307594    23A     -1.249446    24A     -1.241303  
      25A     -1.092509    26A     -1.086923    27A     -0.937218  
      28A     -0.929269    29A     -0.906429    30A     -0.896980  
      31A     -0.809266    32A     -0.799570    33A     -0.768389  
      34A     -0.760528    35A     -0.717983    36A     -0.709612  
      37A     -0.687836    38A     -0.681671    39A     -0.674005  
      40A     -0.660393    41A     -0.655956    42A     -0.647364  
      43A     -0.618571    44A     -0.612318    45A     -0.603899  
      46A     -0.599413    47A     -0.578307    48A     -0.565977  
      49A     -0.530595    50A     -0.521023    51A     -0.493222  
      52A     -0.482313    53A     -0.455376    54A     -0.449506  
      55A     -0.444943    56A     -0.435760    57A     -0.375008  
      58A     -0.370642  

    Virtual:                                                              

      59A      0.009298    60A      0.023060    61A      0.032530  
      62A      0.037476    63A      0.046297    64A      0.049151  
      65A      0.055728    66A      0.058159    67A      0.065590  
      68A      0.071654    69A      0.076550    70A      0.080715  
      71A      0.083601    72A      0.086760    73A      0.088430  
      74A      0.096384    75A      0.099912    76A      0.101286  
      77A      0.102237    78A      0.109246    79A      0.116288  
      80A      0.119384    81A      0.123736    82A      0.127807  
      83A      0.129564    84A      0.131729    85A      0.133410  
      86A      0.136592    87A      0.141142    88A      0.142484  
      89A      0.146252    90A      0.150098    91A      0.151833  
      92A      0.153535    93A      0.158093    94A      0.159409  
      95A      0.162800    96A      0.172842    97A      0.177219  
      98A      0.184202    99A      0.196577   100A      0.197121  
     101A      0.198532   102A      0.202441   103A      0.212245  
     104A      0.214101   105A      0.217033   106A      0.220400  
     107A      0.226078   108A      0.230603   109A      0.239497  
     110A      0.240433   111A      0.245994   112A      0.247688  
     113A      0.253017   114A      0.255112   115A      0.259282  
     116A      0.266106   117A      0.271618   118A      0.273547  
     119A      0.275674   120A      0.278298   121A      0.283699  
     122A      0.285179   123A      0.287362   124A      0.292380  
     125A      0.295069   126A      0.299711   127A      0.304161  
     128A      0.306129   129A      0.310299   130A      0.311482  
     131A      0.318761   132A      0.321709   133A      0.324912  
     134A      0.335139   135A      0.338758   136A      0.340480  
     137A      0.342011   138A      0.344133   139A      0.346955  
     140A      0.352600   141A      0.354163   142A      0.358254  
     143A      0.362565   144A      0.366743   145A      0.368964  
     146A      0.373437   147A      0.377703   148A      0.381772  
     149A      0.386198   150A      0.390008   151A      0.396542  
     152A      0.403033   153A      0.407845   154A      0.409442  
     155A      0.411877   156A      0.413300   157A      0.420449  
     158A      0.422594   159A      0.425905   160A      0.433515  
     161A      0.435763   162A      0.439530   163A      0.444883  
     164A      0.451795   165A      0.455564   166A      0.461229  
     167A      0.467188   168A      0.468367   169A      0.469903  
     170A      0.472887   171A      0.482450   172A      0.484773  
     173A      0.486864   174A      0.490866   175A      0.492892  
     176A      0.496364   177A      0.501289   178A      0.508952  
     179A      0.513093   180A      0.514321   181A      0.519916  
     182A      0.522500   183A      0.524858   184A      0.526959  
     185A      0.528597   186A      0.531819   187A      0.536361  
     188A      0.537827   189A      0.541682   190A      0.543832  
     191A      0.552089   192A      0.556691   193A      0.564888  
     194A      0.570204   195A      0.576749   196A      0.582781  
     197A      0.583735   198A      0.592847   199A      0.600864  
     200A      0.605333   201A      0.610892   202A      0.615513  
     203A      0.617608   204A      0.622740   205A      0.626481  
     206A      0.629480   207A      0.633579   208A      0.642163  
     209A      0.648413   210A      0.650280   211A      0.652028  
     212A      0.661866   213A      0.668936   214A      0.674927  
     215A      0.677718   216A      0.681983   217A      0.689872  
     218A      0.704548   219A      0.708807   220A      0.716130  
     221A      0.718813   222A      0.721262   223A      0.725769  
     224A      0.729245   225A      0.733078   226A      0.735053  
     227A      0.739354   228A      0.746706   229A      0.749409  
     230A      0.755117   231A      0.759230   232A      0.765930  
     233A      0.771515   234A      0.775819   235A      0.779039  
     236A      0.785031   237A      0.789218   238A      0.796619  
     239A      0.801232   240A      0.804868   241A      0.807470  
     242A      0.813044   243A      0.816386   244A      0.824647  
     245A      0.829554   246A      0.832457   247A      0.836760  
     248A      0.845354   249A      0.849645   250A      0.859415  
     251A      0.861777   252A      0.863228   253A      0.865331  
     254A      0.876543   255A      0.880501   256A      0.887406  
     257A      0.891535   258A      0.900509   259A      0.902694  
     260A      0.911225   261A      0.916782   262A      0.924355  
     263A      0.925285   264A      0.930031   265A      0.934661  
     266A      0.941538   267A      0.949768   268A      0.953734  
     269A      0.955442   270A      0.965346   271A      0.966454  
     272A      0.973593   273A      0.974709   274A      0.980056  
     275A      0.981709   276A      0.985834   277A      0.987209  
     278A      0.993181   279A      0.999586   280A      1.005167  
     281A      1.011141   282A      1.015593   283A      1.018262  
     284A      1.026934   285A      1.031223   286A      1.035162  
     287A      1.042040   288A      1.056646   289A      1.057581  
     290A      1.062811   291A      1.065437   292A      1.073119  
     293A      1.076360   294A      1.079749   295A      1.094626  
     296A      1.097363   297A      1.098688   298A      1.108616  
     299A      1.111337   300A      1.114486   301A      1.122552  
     302A      1.124941   303A      1.130698   304A      1.134623  
     305A      1.141906   306A      1.144317   307A      1.149595  
     308A      1.154782   309A      1.158582   310A      1.160396  
     311A      1.168356   312A      1.171508   313A      1.176167  
     314A      1.182549   315A      1.184758   316A      1.188781  
     317A      1.194356   318A      1.197265   319A      1.200464  
     320A      1.204435   321A      1.205726   322A      1.211233  
     323A      1.221071   324A      1.231855   325A      1.233465  
     326A      1.236666   327A      1.240114   328A      1.245551  
     329A      1.246523   330A      1.253841   331A      1.260648  
     332A      1.271117   333A      1.274501   334A      1.277155  
     335A      1.284487   336A      1.290280   337A      1.300573  
     338A      1.309874   339A      1.313269   340A      1.321657  
     341A      1.325622   342A      1.332598   343A      1.334396  
     344A      1.337518   345A      1.346082   346A      1.352429  
     347A      1.357595   348A      1.365699   349A      1.369898  
     350A      1.377691   351A      1.383723   352A      1.389628  
     353A      1.390775   354A      1.399719   355A      1.401780  
     356A      1.407393   357A      1.416699   358A      1.417995  
     359A      1.428242   360A      1.432488   361A      1.435881  
     362A      1.445932   363A      1.449620   364A      1.456493  
     365A      1.457912   366A      1.460529   367A      1.466459  
     368A      1.475291   369A      1.480014   370A      1.490135  
     371A      1.495886   372A      1.506063   373A      1.511396  
     374A      1.515159   375A      1.526061   376A      1.533819  
     377A      1.535227   378A      1.541575   379A      1.546167  
     380A      1.555403   381A      1.559365   382A      1.564986  
     383A      1.571078   384A      1.574315   385A      1.583026  
     386A      1.586826   387A      1.591655   388A      1.596277  
     389A      1.599600   390A      1.617463   391A      1.621227  
     392A      1.622795   393A      1.626870   394A      1.635004  
     395A      1.641298   396A      1.650565   397A      1.657798  
     398A      1.664414   399A      1.672581   400A      1.679545  
     401A      1.681710   402A      1.686878   403A      1.694974  
     404A      1.705022   405A      1.707919   406A      1.716742  
     407A      1.728043   408A      1.733183   409A      1.739503  
     410A      1.749616   411A      1.754734   412A      1.758789  
     413A      1.772799   414A      1.776844   415A      1.782565  
     416A      1.790290   417A      1.799351   418A      1.805146  
     419A      1.810587   420A      1.820986   421A      1.827812  
     422A      1.833989   423A      1.843324   424A      1.848270  
     425A      1.852239   426A      1.862769   427A      1.867598  
     428A      1.881055   429A      1.891301   430A      1.893288  
     431A      1.895326   432A      1.911404   433A      1.914684  
     434A      1.921336   435A      1.929470   436A      1.932796  
     437A      1.937407   438A      1.941602   439A      1.959991  
     440A      1.966566   441A      1.976464   442A      1.980656  
     443A      1.989257   444A      2.007080   445A      2.019061  
     446A      2.028324   447A      2.036277   448A      2.044284  
     449A      2.052319   450A      2.061166   451A      2.064142  
     452A      2.078873   453A      2.086945   454A      2.099245  
     455A      2.100990   456A      2.110469   457A      2.123385  
     458A      2.135635   459A      2.139954   460A      2.142593  
     461A      2.154431   462A      2.161779   463A      2.163276  
     464A      2.168109   465A      2.177773   466A      2.182067  
     467A      2.197675   468A      2.203151   469A      2.204500  
     470A      2.209660   471A      2.220376   472A      2.228746  
     473A      2.243815   474A      2.245223   475A      2.254064  
     476A      2.263389   477A      2.267128   478A      2.281232  
     479A      2.291988   480A      2.302982   481A      2.304125  
     482A      2.327114   483A      2.333688   484A      2.339942  
     485A      2.344241   486A      2.351164   487A      2.363566  
     488A      2.366650   489A      2.380968   490A      2.390192  
     491A      2.400073   492A      2.406410   493A      2.419999  
     494A      2.427461   495A      2.434684   496A      2.439156  
     497A      2.442914   498A      2.447799   499A      2.457091  
     500A      2.469249   501A      2.474753   502A      2.491984  
     503A      2.497199   504A      2.508949   505A      2.513887  
     506A      2.522379   507A      2.531972   508A      2.539612  
     509A      2.548912   510A      2.556219   511A      2.559019  
     512A      2.561508   513A      2.577200   514A      2.582784  
     515A      2.595107   516A      2.600765   517A      2.615943  
     518A      2.619606   519A      2.629188   520A      2.635473  
     521A      2.641392   522A      2.650905   523A      2.662308  
     524A      2.681403   525A      2.686421   526A      2.687796  
     527A      2.691823   528A      2.697239   529A      2.705647  
     530A      2.711911   531A      2.719448   532A      2.727240  
     533A      2.731685   534A      2.736370   535A      2.746060  
     536A      2.756835   537A      2.763300   538A      2.772965  
     539A      2.794868   540A      2.800988   541A      2.806066  
     542A      2.809622   543A      2.820956   544A      2.838280  
     545A      2.848851   546A      2.860282   547A      2.876490  
     548A      2.879372   549A      2.893993   550A      2.908348  
     551A      2.912164   552A      2.920168   553A      2.930373  
     554A      2.935842   555A      2.944162   556A      2.964136  
     557A      2.978041   558A      2.985542   559A      2.993406  
     560A      2.995508   561A      3.006388   562A      3.017052  
     563A      3.027972   564A      3.038781   565A      3.042175  
     566A      3.049900   567A      3.065860   568A      3.076784  
     569A      3.084866   570A      3.095084   571A      3.111992  
     572A      3.123277   573A      3.131601   574A      3.172889  
     575A      3.186176   576A      3.188712   577A      3.210784  
     578A      3.224944   579A      3.240549   580A      3.251022  
     581A      3.255550   582A      3.274852   583A      3.284131  
     584A      3.290027   585A      3.309260   586A      3.311541  
     587A      3.322626   588A      3.342764   589A      3.359504  
     590A      3.371856   591A      3.377199   592A      3.381243  
     593A      3.395215   594A      3.411637   595A      3.423370  
     596A      3.438261   597A      3.441916   598A      3.466959  
     599A      3.474881   600A      3.500666   601A      3.502777  
     602A      3.505514   603A      3.519283   604A      3.523341  
     605A      3.539489   606A      3.552031   607A      3.566739  
     608A      3.570771   609A      3.581099   610A      3.594990  
     611A      3.610071   612A      3.626287   613A      3.631535  
     614A      3.644257   615A      3.662261   616A      3.683548  
     617A      3.690244   618A      3.696113   619A      3.701404  
     620A      3.712844   621A      3.717902   622A      3.728380  
     623A      3.740302   624A      3.749008   625A      3.764345  
     626A      3.773366   627A      3.776597   628A      3.793118  
     629A      3.801420   630A      3.808697   631A      3.812755  
     632A      3.822659   633A      3.834822   634A      3.835738  
     635A      3.851389   636A      3.859442   637A      3.867969  
     638A      3.875388   639A      3.881120   640A      3.889429  
     641A      3.895330   642A      3.914943   643A      3.919236  
     644A      3.923976   645A      3.937295   646A      3.946327  
     647A      3.953534   648A      3.970095   649A      3.975895  
     650A      3.987027   651A      3.997958   652A      4.016010  
     653A      4.030527   654A      4.033758   655A      4.042244  
     656A      4.056220   657A      4.070136   658A      4.074035  
     659A      4.082868   660A      4.105313   661A      4.110573  
     662A      4.123802   663A      4.127925   664A      4.143316  
     665A      4.157379   666A      4.170371   667A      4.176813  
     668A      4.181984   669A      4.191848   670A      4.200482  
     671A      4.205742   672A      4.215921   673A      4.224535  
     674A      4.234603   675A      4.252867   676A      4.260276  
     677A      4.267851   678A      4.284576   679A      4.294291  
     680A      4.301926   681A      4.312146   682A      4.316821  
     683A      4.340652   684A      4.343527   685A      4.361681  
     686A      4.363803   687A      4.372660   688A      4.378549  
     689A      4.383130   690A      4.387846   691A      4.399130  
     692A      4.410125   693A      4.420804   694A      4.426354  
     695A      4.439967   696A      4.448016   697A      4.457751  
     698A      4.467087   699A      4.473129   700A      4.495776  
     701A      4.504716   702A      4.516554   703A      4.519080  
     704A      4.534952   705A      4.560174   706A      4.571141  
     707A      4.587537   708A      4.593223   709A      4.616384  
     710A      4.626115   711A      4.652100   712A      4.663187  
     713A      4.673592   714A      4.693005   715A      4.695382  
     716A      4.708291   717A      4.714720   718A      4.722016  
     719A      4.729688   720A      4.739508   721A      4.750770  
     722A      4.768801   723A      4.775301   724A      4.779430  
     725A      4.784682   726A      4.800091   727A      4.813056  
     728A      4.819735   729A      4.843906   730A      4.861949  
     731A      4.870315   732A      4.877663   733A      4.882687  
     734A      4.904046   735A      4.909686   736A      4.918141  
     737A      4.931738   738A      4.948719   739A      4.966476  
     740A      4.970185   741A      5.002563   742A      5.021009  
     743A      5.046406   744A      5.049056   745A      5.055443  
     746A      5.063192   747A      5.075483   748A      5.086738  
     749A      5.103195   750A      5.113800   751A      5.123479  
     752A      5.127791   753A      5.131303   754A      5.147092  
     755A      5.163694   756A      5.167413   757A      5.186447  
     758A      5.194534   759A      5.212393   760A      5.219616  
     761A      5.229834   762A      5.255221   763A      5.279353  
     764A      5.286389   765A      5.296531   766A      5.299503  
     767A      5.325289   768A      5.364432   769A      5.384295  
     770A      5.397542   771A      5.413366   772A      5.424518  
     773A      5.450093   774A      5.459199   775A      5.474429  
     776A      5.498602   777A      5.502418   778A      5.512645  
     779A      5.526235   780A      5.537134   781A      5.539934  
     782A      5.573495   783A      5.588589   784A      5.601425  
     785A      5.608747   786A      5.613333   787A      5.620758  
     788A      5.628971   789A      5.649556   790A      5.656386  
     791A      5.673132   792A      5.693302   793A      5.705857  
     794A      5.737643   795A      5.752696   796A      5.771841  
     797A      5.780426   798A      5.783431   799A      5.801494  
     800A      5.818460   801A      5.827287   802A      5.849924  
     803A      5.873186   804A      5.883309   805A      5.889157  
     806A      5.905794   807A      5.944224   808A      5.952207  
     809A      5.985876   810A      6.005317   811A      6.009556  
     812A      6.021875   813A      6.039366   814A      6.072385  
     815A      6.085818   816A      6.101955   817A      6.118984  
     818A      6.136272   819A      6.146845   820A      6.155619  
     821A      6.174514   822A      6.183305   823A      6.235128  
     824A      6.253511   825A      6.264586   826A      6.293008  
     827A      6.327120   828A      6.356397   829A      6.510528  
     830A      6.530175   831A      6.552146   832A      6.558739  
     833A      6.600275   834A      6.609547   835A      6.614299  
     836A      6.623008   837A      6.688827   838A      6.717944  
     839A      6.734216   840A      6.742974   841A      6.759314  
     842A      6.771503   843A      6.774314   844A      6.782894  
     845A      6.788769   846A      6.794976   847A      6.799969  
     848A      6.827740   849A      6.833269   850A      6.850321  
     851A      6.861413   852A      6.866763   853A      6.884886  
     854A      6.915914   855A      6.946979   856A      6.959929  
     857A      6.969057   858A      6.987015   859A      7.016382  
     860A      7.024255   861A      7.048999   862A      7.065078  
     863A      7.073850   864A      7.082707   865A      7.175292  
     866A      7.190988   867A      7.210031   868A      7.227911  
     869A      7.289022   870A      7.301631   871A      7.334731  
     872A      7.346769   873A      7.424959   874A      7.430849  
     875A      7.439768   876A      7.442113   877A      7.457745  
     878A      7.475573   879A      7.484695   880A      7.490766  
     881A      7.494916   882A      7.516595   883A      7.635075  
     884A      7.652410   885A      7.702506   886A      7.719583  
     887A      7.785833   888A      7.798462   889A      7.805594  
     890A      7.818816   891A      7.833844   892A      7.840288  
     893A      7.871988   894A      7.884093   895A      7.941716  
     896A      7.968477   897A      7.977126   898A      7.984404  
     899A      7.992446   900A      7.998706   901A      8.042497  
     902A      8.049234   903A      8.067774   904A      8.089589  
     905A     15.968724   906A     16.016021   907A     16.123683  
     908A     16.250134   909A     16.418990   910A     16.662457  
     911A     16.972479   912A     17.038355   913A     18.236916  
     914A     18.322397   915A     19.563948   916A     19.678283  
     917A     20.023398   918A     20.209644   919A     20.634952  
     920A     20.810137  

    Final Occupation by Irrep:
              A 
    DOCC [    58 ]

  @DF-RHF Final Energy:  -825.24064269906626

   => Energetics <=

    Nuclear Repulsion Energy =           1140.7310354059752626
    One-Electron Energy =               -3394.0918819422508932
    Two-Electron Energy =                1428.1202038372096013
    Total Energy =                       -825.2406426990662567

Computation Completed


Properties will be evaluated at   0.000000,   0.000000,   0.000000 [a0]

Properties computed using the SCF density matrix

  Nuclear Dipole Moment: [e a0]
     X:    -2.4366      Y:    -0.3528      Z:     5.7927

  Electronic Dipole Moment: [e a0]
     X:     1.0798      Y:    -0.5220      Z:    -3.0950

  Dipole Moment: [e a0]
     X:    -1.3568      Y:    -0.8748      Z:     2.6976     Total:     3.1438

  Dipole Moment: [D]
     X:    -3.4487      Y:    -2.2234      Z:     6.8567     Total:     7.9907


*** tstop() called on node157.bme.utexas.edu at Sat Jan 13 15:40:49 2024
Module time:
	user time   =     749.14 seconds =      12.49 minutes
	system time =       8.73 seconds =       0.15 minutes
	total time  =        114 seconds =       1.90 minutes
Total time:
	user time   =     749.14 seconds =      12.49 minutes
	system time =       8.73 seconds =       0.15 minutes
	total time  =        114 seconds =       1.90 minutes

*** tstart() called on node157.bme.utexas.edu
*** at Sat Jan 13 15:40:49 2024


  //>>>>>>>>>>>>>>>>>>>>>>>>>>>>>>>>>>>//
  //               DFMP2               //
  //<<<<<<<<<<<<<<<<<<<<<<<<<<<<<<<<<<<//

   => Loading Basis Set <=

    Name: (AUG-CC-PVTZ AUX)
    Role: RIFIT
    Keyword: DF_BASIS_MP2
    atoms 1, 5, 13, 17                entry N          line   206 file /opt/anaconda/envs/psi4v1.5/share/psi4/basis/aug-cc-pvtz-ri.gbs 
    atoms 2, 9, 11-12, 14, 21, 23-24  entry H          line    30 file /opt/anaconda/envs/psi4v1.5/share/psi4/basis/aug-cc-pvtz-ri.gbs 
    atoms 3, 6, 8, 10, 15, 18, 20, 22 entry C          line   148 file /opt/anaconda/envs/psi4v1.5/share/psi4/basis/aug-cc-pvtz-ri.gbs 
    atoms 4, 7, 16, 19                entry O          line   264 file /opt/anaconda/envs/psi4v1.5/share/psi4/basis/aug-cc-pvtz-ri.gbs 

	 --------------------------------------------------------
	                          DF-MP2                         
	      2nd-Order Density-Fitted Moller-Plesset Theory     
	              RMP2 Wavefunction,   8 Threads             
	                                                         
	        Rob Parrish, Justin Turney, Andy Simmonett,      
	           Ed Hohenstein, and C. David Sherrill          
	 --------------------------------------------------------

   => Auxiliary Basis Set <=

  Basis Set: (AUG-CC-PVTZ AUX)
    Blend: AUG-CC-PVTZ-RI
    Number of shells: 560
    Number of basis functions: 2064
    Number of Cartesian functions: 2616
    Spherical Harmonics?: true
    Max angular momentum: 4

	 --------------------------------------------------------
	                 NBF =   920, NAUX =  2064
	 --------------------------------------------------------
	   CLASS    FOCC     OCC    AOCC    AVIR     VIR    FVIR
	   PAIRS      16      58      42     862     862       0
	 --------------------------------------------------------

	 Will save fitting metric to file 97.

	-----------------------------------------------------------
	 ==================> DF-MP2 Energies <==================== 
	-----------------------------------------------------------
	 Reference Energy          =    -825.2406426990662567 [Eh]
	 Singles Energy            =      -0.0000000000000000 [Eh]
	 Same-Spin Energy          =      -0.7925653048514785 [Eh]
	 Opposite-Spin Energy      =      -2.2327496166686154 [Eh]
	 Correlation Energy        =      -3.0253149215200938 [Eh]
	 Total Energy              =    -828.2659576205863914 [Eh]
	-----------------------------------------------------------
	 ================> DF-SCS-MP2 Energies <================== 
	-----------------------------------------------------------
	 SCS Same-Spin Scale       =       0.3333333333333333 [-]
	 SCS Opposite-Spin Scale   =       1.2000000000000000 [-]
	 SCS Same-Spin Energy      =      -0.2641884349504928 [Eh]
	 SCS Opposite-Spin Energy  =      -2.6792995400023383 [Eh]
	 SCS Correlation Energy    =      -2.9434879749528311 [Eh]
	 SCS Total Energy          =    -828.1841306740191158 [Eh]
	-----------------------------------------------------------


*** tstop() called on node157.bme.utexas.edu at Sat Jan 13 15:41:20 2024
Module time:
	user time   =     178.00 seconds =       2.97 minutes
	system time =       4.21 seconds =       0.07 minutes
	total time  =         31 seconds =       0.52 minutes
Total time:
	user time   =     927.15 seconds =      15.45 minutes
	system time =      12.94 seconds =       0.22 minutes
	total time  =        145 seconds =       2.42 minutes

  //>>>>>>>>>>>>>>>>>>>>>>>>>>>>>>>>>>>//
  //            Monomer A HF           //
  //<<<<<<<<<<<<<<<<<<<<<<<<<<<<<<<<<<<//


*** tstart() called on node157.bme.utexas.edu
*** at Sat Jan 13 15:41:20 2024

   => Loading Basis Set <=

    Name: AUG-CC-PVTZ
    Role: ORBITAL
    Keyword: BASIS
    atoms 1, 5, 13, 17                entry N          line   285 file /opt/anaconda/envs/psi4v1.5/share/psi4/basis/aug-cc-pvtz.gbs 
    atoms 2, 9, 11-12, 14, 21, 23-24  entry H          line    40 file /opt/anaconda/envs/psi4v1.5/share/psi4/basis/aug-cc-pvtz.gbs 
    atoms 3, 6, 8, 10, 15, 18, 20, 22 entry C          line   239 file /opt/anaconda/envs/psi4v1.5/share/psi4/basis/aug-cc-pvtz.gbs 
    atoms 4, 7, 16, 19                entry O          line   331 file /opt/anaconda/envs/psi4v1.5/share/psi4/basis/aug-cc-pvtz.gbs 


         ---------------------------------------------------------
                                   SCF
               by Justin Turney, Rob Parrish, Andy Simmonett
                          and Daniel G. A. Smith
                              RHF Reference
                        8 Threads,  47683 MiB Core
         ---------------------------------------------------------

  ==> Geometry <==

    Molecular point group: c1
    Full point group: C1

    Geometry (in Angstrom), charge = 0, multiplicity = 1:

       Center              X                  Y                   Z               Mass       
    ------------   -----------------  -----------------  -----------------  -----------------
         N           -2.370566837680    -0.428726287227     1.070793707646    14.003074004430
         H           -2.690536837680    -0.972416287227     1.863643707646     1.007825032230
         C           -1.740266837680    -1.160576287227     0.075633707646    12.000000000000
         O           -1.574836837680    -2.376266287227     0.144953707646    15.994914619570
         N           -1.331616837680    -0.376756287227    -0.986276292354    14.003074004430
         C           -1.311326837680     1.031393712773    -1.070636292354    12.000000000000
         O           -0.783656837680     1.587733712773    -2.029976292354    15.994914619570
         C           -1.954166837680     1.688323712773     0.057433707646    12.000000000000
         H           -1.994476837680     2.769563712773     0.069243707646     1.007825032230
         C           -2.445476837680     0.947263712773     1.076073707646    12.000000000000
         H           -2.927576837680     1.384963712773     1.944233707646     1.007825032230
         H           -0.832756837680    -0.866396287227    -1.731206292354     1.007825032230
      Gh(N)           1.537525078986    -1.629023162227     0.322945249313    14.003074004430
      Gh(H)           1.201795078986    -2.566283162227     0.122005249313     1.007825032230
      Gh(C)           1.687905078986    -0.827653162227    -0.799864750687    12.000000000000
      Gh(O)           1.616035078986    -1.268193162227    -1.944074750687    15.994914619570
      Gh(N)           1.920685078986     0.500376837773    -0.494464750687    14.003074004430
      Gh(C)           1.791045078986     1.133066837773     0.758135249313    12.000000000000
      Gh(O)           1.871835078986     2.354196837773     0.854725249313    15.994914619570
      Gh(C)           1.561705078986     0.199876837773     1.853625249313    12.000000000000
      Gh(H)           1.479265078986     0.596706837773     2.857155249313     1.007825032230
      Gh(C)           1.408765078986    -1.118983162227     1.595485249313    12.000000000000
      Gh(H)           1.210135078986    -1.854073162227     2.369065249313     1.007825032230
      Gh(H)           1.948445078986     1.124116837773    -1.300114750687     1.007825032230

  Running in c1 symmetry.

  Rotational constants: A =      0.02282  B =      0.01723  C =      0.01543 [cm^-1]
  Rotational constants: A =    683.98132  B =    516.46953  C =    462.63465 [MHz]
  Nuclear repulsion =  355.429207553247466

  Charge       = 0
  Multiplicity = 1
  Electrons    = 58
  Nalpha       = 29
  Nbeta        = 29

  ==> Algorithm <==

  SCF Algorithm Type is DF.
  DIIS enabled.
  MOM disabled.
  Fractional occupation disabled.
  Guess Type is SAD.
  Energy threshold   = 1.00e-08
  Density threshold  = 1.00e-08
  Integral threshold = 1.00e-12

  ==> Primary Basis <==

  Basis Set: AUG-CC-PVTZ
    Blend: AUG-CC-PVTZ
    Number of shells: 296
    Number of basis functions: 920
    Number of Cartesian functions: 1080
    Spherical Harmonics?: true
    Max angular momentum: 3

   => Loading Basis Set <=

    Name: (AUG-CC-PVTZ AUX)
    Role: JKFIT
    Keyword: DF_BASIS_SCF
    atoms 1, 5, 13, 17                entry N          line   224 file /opt/anaconda/envs/psi4v1.5/share/psi4/basis/aug-cc-pvtz-jkfit.gbs 
    atoms 2, 9, 11-12, 14, 21, 23-24  entry H          line    70 file /opt/anaconda/envs/psi4v1.5/share/psi4/basis/aug-cc-pvtz-jkfit.gbs 
    atoms 3, 6, 8, 10, 15, 18, 20, 22 entry C          line   162 file /opt/anaconda/envs/psi4v1.5/share/psi4/basis/aug-cc-pvtz-jkfit.gbs 
    atoms 4, 7, 16, 19                entry O          line   286 file /opt/anaconda/envs/psi4v1.5/share/psi4/basis/aug-cc-pvtz-jkfit.gbs 

  ==> Integral Setup <==

  ==> DiskDFJK: Density-Fitted J/K Matrices <==

    J tasked:                  Yes
    K tasked:                  Yes
    wK tasked:                  No
    OpenMP threads:              8
    Integrals threads:           8
    Memory [MiB]:            35762
    Algorithm:                Core
    Integral Cache:           LOAD
    Schwarz Cutoff:          1E-12
    Fitting Condition:       1E-10

   => Auxiliary Basis Set <=

  Basis Set: (AUG-CC-PVTZ AUX)
    Blend: AUG-CC-PVTZ-JKFIT
    Number of shells: 592
    Number of basis functions: 2032
    Number of Cartesian functions: 2536
    Spherical Harmonics?: true
    Max angular momentum: 4

  Minimum eigenvalue in the overlap matrix is 2.0771183055E-06.
  Reciprocal condition number of the overlap matrix is 9.5425600668E-08.
    Using symmetric orthogonalization.

  ==> Pre-Iterations <==

  SCF Guess: Superposition of Atomic Densities via on-the-fly atomic UHF (no occupation information).

   -------------------------
    Irrep   Nso     Nmo    
   -------------------------
     A        920     920 
   -------------------------
    Total     920     920
   -------------------------

  ==> Iterations <==

                           Total Energy        Delta E     RMS |[F,P]|

   @DF-RHF iter SAD:  -411.85206437013733   -4.11852e+02   0.00000e+00 
   @DF-RHF iter   1:  -412.37308533958958   -5.21021e-01   8.10290e-04 DIIS
   @DF-RHF iter   2:  -412.53355374079598   -1.60468e-01   5.44966e-04 DIIS
   @DF-RHF iter   3:  -412.61487005829929   -8.13163e-02   9.80012e-05 DIIS
   @DF-RHF iter   4:  -412.61921605808681   -4.34600e-03   4.03275e-05 DIIS
   @DF-RHF iter   5:  -412.62013205838025   -9.16000e-04   8.32545e-06 DIIS
   @DF-RHF iter   6:  -412.62024232186508   -1.10263e-04   4.21079e-06 DIIS
   @DF-RHF iter   7:  -412.62026236962083   -2.00478e-05   1.70597e-06 DIIS
   @DF-RHF iter   8:  -412.62026591275469   -3.54313e-06   5.88614e-07 DIIS
   @DF-RHF iter   9:  -412.62026619252185   -2.79767e-07   2.48581e-07 DIIS
   @DF-RHF iter  10:  -412.62026626232961   -6.98078e-08   8.31730e-08 DIIS
   @DF-RHF iter  11:  -412.62026627107190   -8.74229e-09   2.75131e-08 DIIS
   @DF-RHF iter  12:  -412.62026627177829   -7.06393e-10   8.84325e-09 DIIS
  Energy and wave function converged.


  ==> Post-Iterations <==

    Orbital Energies [Eh]
    ---------------------

    Doubly Occupied:                                                      

       1A    -20.548174     2A    -20.544745     3A    -15.647472  
       4A    -15.631527     5A    -11.422596     6A    -11.385747  
       7A    -11.345308     8A    -11.260298     9A     -1.429917  
      10A     -1.393544    11A     -1.309986    12A     -1.243861  
      13A     -1.089132    14A     -0.932655    15A     -0.900730  
      16A     -0.804595    17A     -0.763499    18A     -0.713397  
      19A     -0.676956    20A     -0.666744    21A     -0.650874  
      22A     -0.614732    23A     -0.600890    24A     -0.568450  
      25A     -0.524284    26A     -0.483511    27A     -0.451002  
      28A     -0.437264    29A     -0.371006  

    Virtual:                                                              

      30A      0.012238    31A      0.026099    32A      0.031189  
      33A      0.035821    34A      0.045557    35A      0.047846  
      36A      0.051483    37A      0.062340    38A      0.062691  
      39A      0.071745    40A      0.073859    41A      0.077326  
      42A      0.084440    43A      0.085043    44A      0.093123  
      45A      0.093473    46A      0.099169    47A      0.100226  
      48A      0.101285    49A      0.107965    50A      0.112250  
      51A      0.114379    52A      0.122973    53A      0.126887  
      54A      0.127776    55A      0.131453    56A      0.136367  
      57A      0.137281    58A      0.140593    59A      0.144065  
      60A      0.145828    61A      0.146340    62A      0.156333  
      63A      0.156567    64A      0.160567    65A      0.166057  
      66A      0.170576    67A      0.176689    68A      0.180946  
      69A      0.184134    70A      0.192217    71A      0.195235  
      72A      0.198519    73A      0.203242    74A      0.208316  
      75A      0.213979    76A      0.215329    77A      0.220743  
      78A      0.228381    79A      0.231781    80A      0.234038  
      81A      0.238127    82A      0.243597    83A      0.248841  
      84A      0.251937    85A      0.253173    86A      0.257260  
      87A      0.262842    88A      0.268742    89A      0.272955  
      90A      0.277457    91A      0.282901    92A      0.283916  
      93A      0.285072    94A      0.290808    95A      0.292126  
      96A      0.294709    97A      0.299882    98A      0.301364  
      99A      0.304235   100A      0.312098   101A      0.316514  
     102A      0.320889   103A      0.324271   104A      0.332177  
     105A      0.332756   106A      0.338146   107A      0.342979  
     108A      0.347436   109A      0.350242   110A      0.354274  
     111A      0.356797   112A      0.359784   113A      0.364286  
     114A      0.369759   115A      0.371923   116A      0.377530  
     117A      0.382136   118A      0.387681   119A      0.392909  
     120A      0.395989   121A      0.399789   122A      0.403111  
     123A      0.409107   124A      0.413409   125A      0.420373  
     126A      0.426215   127A      0.431926   128A      0.434505  
     129A      0.436647   130A      0.437750   131A      0.443257  
     132A      0.450729   133A      0.455356   134A      0.458415  
     135A      0.459795   136A      0.464729   137A      0.472256  
     138A      0.472910   139A      0.478126   140A      0.480651  
     141A      0.484523   142A      0.490476   143A      0.493342  
     144A      0.499319   145A      0.505610   146A      0.508168  
     147A      0.510489   148A      0.516679   149A      0.518662  
     150A      0.522887   151A      0.525364   152A      0.530383  
     153A      0.531576   154A      0.534761   155A      0.540026  
     156A      0.541242   157A      0.546621   158A      0.550628  
     159A      0.553163   160A      0.566697   161A      0.568224  
     162A      0.574823   163A      0.581286   164A      0.590250  
     165A      0.592752   166A      0.599353   167A      0.603575  
     168A      0.607991   169A      0.611267   170A      0.612502  
     171A      0.616429   172A      0.624519   173A      0.628092  
     174A      0.632771   175A      0.638695   176A      0.644867  
     177A      0.645026   178A      0.651513   179A      0.658005  
     180A      0.663856   181A      0.670269   182A      0.677714  
     183A      0.682366   184A      0.685614   185A      0.690680  
     186A      0.698545   187A      0.707737   188A      0.713771  
     189A      0.714605   190A      0.720169   191A      0.725792  
     192A      0.730218   193A      0.732477   194A      0.738148  
     195A      0.749072   196A      0.752164   197A      0.759975  
     198A      0.763448   199A      0.770621   200A      0.774652  
     201A      0.781039   202A      0.785909   203A      0.790596  
     204A      0.793851   205A      0.801713   206A      0.803942  
     207A      0.809810   208A      0.816073   209A      0.817549  
     210A      0.824003   211A      0.834854   212A      0.840973  
     213A      0.847155   214A      0.853281   215A      0.858687  
     216A      0.861228   217A      0.867361   218A      0.869427  
     219A      0.876124   220A      0.879581   221A      0.894341  
     222A      0.896306   223A      0.903999   224A      0.907300  
     225A      0.913089   226A      0.915849   227A      0.917831  
     228A      0.924203   229A      0.933742   230A      0.938534  
     231A      0.939538   232A      0.948399   233A      0.958005  
     234A      0.960674   235A      0.963606   236A      0.967456  
     237A      0.970177   238A      0.974703   239A      0.975179  
     240A      0.985424   241A      0.993043   242A      0.995001  
     243A      1.002556   244A      1.007376   245A      1.011388  
     246A      1.015114   247A      1.021092   248A      1.024828  
     249A      1.028955   250A      1.036297   251A      1.040747  
     252A      1.048665   253A      1.051865   254A      1.054201  
     255A      1.059505   256A      1.069224   257A      1.076590  
     258A      1.079540   259A      1.087829   260A      1.093723  
     261A      1.099000   262A      1.101980   263A      1.105208  
     264A      1.113494   265A      1.116101   266A      1.122187  
     267A      1.128345   268A      1.130346   269A      1.137485  
     270A      1.138990   271A      1.148908   272A      1.151487  
     273A      1.161044   274A      1.162560   275A      1.167853  
     276A      1.169665   277A      1.173131   278A      1.177331  
     279A      1.185035   280A      1.189036   281A      1.195754  
     282A      1.203597   283A      1.207377   284A      1.210995  
     285A      1.214003   286A      1.217795   287A      1.223453  
     288A      1.224881   289A      1.228378   290A      1.238255  
     291A      1.241872   292A      1.248367   293A      1.255573  
     294A      1.259921   295A      1.267572   296A      1.270295  
     297A      1.274960   298A      1.281951   299A      1.288214  
     300A      1.293007   301A      1.295991   302A      1.302664  
     303A      1.311489   304A      1.318829   305A      1.322331  
     306A      1.324526   307A      1.329425   308A      1.336242  
     309A      1.347479   310A      1.351096   311A      1.360485  
     312A      1.369328   313A      1.370405   314A      1.379351  
     315A      1.386274   316A      1.389730   317A      1.393748  
     318A      1.400599   319A      1.402232   320A      1.409145  
     321A      1.412065   322A      1.420024   323A      1.425017  
     324A      1.436811   325A      1.441705   326A      1.452603  
     327A      1.454775   328A      1.457789   329A      1.463090  
     330A      1.467805   331A      1.473803   332A      1.486446  
     333A      1.492081   334A      1.497595   335A      1.501333  
     336A      1.513997   337A      1.515429   338A      1.524787  
     339A      1.528913   340A      1.538693   341A      1.543418  
     342A      1.545749   343A      1.552100   344A      1.561538  
     345A      1.569382   346A      1.571527   347A      1.581423  
     348A      1.591155   349A      1.597540   350A      1.607069  
     351A      1.608472   352A      1.612776   353A      1.618078  
     354A      1.625303   355A      1.629597   356A      1.640974  
     357A      1.650945   358A      1.657674   359A      1.660193  
     360A      1.667484   361A      1.670975   362A      1.676153  
     363A      1.684143   364A      1.687343   365A      1.705472  
     366A      1.708999   367A      1.721085   368A      1.725319  
     369A      1.732689   370A      1.746536   371A      1.751431  
     372A      1.754800   373A      1.763764   374A      1.768541  
     375A      1.785453   376A      1.794531   377A      1.795944  
     378A      1.800778   379A      1.811834   380A      1.813509  
     381A      1.815475   382A      1.823825   383A      1.829409  
     384A      1.835516   385A      1.844213   386A      1.847515  
     387A      1.855779   388A      1.869754   389A      1.875105  
     390A      1.886597   391A      1.898853   392A      1.903917  
     393A      1.908886   394A      1.912348   395A      1.916490  
     396A      1.926665   397A      1.927938   398A      1.943395  
     399A      1.948934   400A      1.953438   401A      1.969046  
     402A      1.975125   403A      1.980668   404A      1.988078  
     405A      1.997864   406A      2.004671   407A      2.006167  
     408A      2.020819   409A      2.026893   410A      2.031204  
     411A      2.041703   412A      2.050392   413A      2.059053  
     414A      2.067101   415A      2.076499   416A      2.084994  
     417A      2.087487   418A      2.099937   419A      2.110368  
     420A      2.115906   421A      2.122044   422A      2.130026  
     423A      2.137177   424A      2.143774   425A      2.154109  
     426A      2.162393   427A      2.166825   428A      2.168647  
     429A      2.179617   430A      2.182373   431A      2.199938  
     432A      2.205015   433A      2.212642   434A      2.222395  
     435A      2.235984   436A      2.243206   437A      2.247633  
     438A      2.251729   439A      2.262416   440A      2.276630  
     441A      2.281720   442A      2.289666   443A      2.295905  
     444A      2.301796   445A      2.310366   446A      2.319730  
     447A      2.329795   448A      2.340895   449A      2.350750  
     450A      2.365235   451A      2.370803   452A      2.378556  
     453A      2.380289   454A      2.384661   455A      2.397013  
     456A      2.405025   457A      2.423039   458A      2.425391  
     459A      2.433821   460A      2.439493   461A      2.451628  
     462A      2.455834   463A      2.476704   464A      2.483446  
     465A      2.495060   466A      2.512576   467A      2.520545  
     468A      2.522798   469A      2.529016   470A      2.538552  
     471A      2.543813   472A      2.547058   473A      2.552569  
     474A      2.568648   475A      2.573357   476A      2.575012  
     477A      2.601025   478A      2.609316   479A      2.617401  
     480A      2.621683   481A      2.627617   482A      2.632363  
     483A      2.641512   484A      2.647633   485A      2.656963  
     486A      2.673748   487A      2.678864   488A      2.682370  
     489A      2.697154   490A      2.704876   491A      2.708917  
     492A      2.719696   493A      2.731194   494A      2.735580  
     495A      2.738832   496A      2.743264   497A      2.750918  
     498A      2.759333   499A      2.772198   500A      2.776694  
     501A      2.793581   502A      2.807752   503A      2.812654  
     504A      2.818346   505A      2.822031   506A      2.825951  
     507A      2.839112   508A      2.847302   509A      2.856623  
     510A      2.866392   511A      2.876075   512A      2.878934  
     513A      2.885790   514A      2.893173   515A      2.904579  
     516A      2.910965   517A      2.924399   518A      2.937469  
     519A      2.944105   520A      2.949704   521A      2.957858  
     522A      2.969760   523A      2.972868   524A      2.983501  
     525A      2.997271   526A      3.001974   527A      3.023328  
     528A      3.033722   529A      3.038801   530A      3.040285  
     531A      3.052584   532A      3.065019   533A      3.069252  
     534A      3.090270   535A      3.101375   536A      3.105827  
     537A      3.117265   538A      3.123320   539A      3.145538  
     540A      3.163246   541A      3.167361   542A      3.171953  
     543A      3.186724   544A      3.201484   545A      3.217680  
     546A      3.226017   547A      3.239395   548A      3.241902  
     549A      3.255398   550A      3.266717   551A      3.277081  
     552A      3.288706   553A      3.300266   554A      3.306934  
     555A      3.315804   556A      3.351930   557A      3.365624  
     558A      3.368983   559A      3.374704   560A      3.394287  
     561A      3.405254   562A      3.418282   563A      3.438578  
     564A      3.452146   565A      3.464762   566A      3.479813  
     567A      3.489019   568A      3.503126   569A      3.506283  
     570A      3.525021   571A      3.535851   572A      3.553459  
     573A      3.579822   574A      3.586916   575A      3.604053  
     576A      3.617497   577A      3.626702   578A      3.642845  
     579A      3.675512   580A      3.686325   581A      3.701050  
     582A      3.705772   583A      3.720602   584A      3.725842  
     585A      3.734810   586A      3.742997   587A      3.760482  
     588A      3.773734   589A      3.782219   590A      3.785305  
     591A      3.800422   592A      3.809386   593A      3.821366  
     594A      3.836005   595A      3.852560   596A      3.861030  
     597A      3.865516   598A      3.868496   599A      3.877251  
     600A      3.884548   601A      3.907184   602A      3.923860  
     603A      3.935255   604A      3.947053   605A      3.970120  
     606A      3.975845   607A      3.982726   608A      4.009173  
     609A      4.029639   610A      4.038731   611A      4.061320  
     612A      4.070271   613A      4.077983   614A      4.089928  
     615A      4.109891   616A      4.121545   617A      4.128874  
     618A      4.134669   619A      4.156444   620A      4.163331  
     621A      4.183714   622A      4.189611   623A      4.203715  
     624A      4.215189   625A      4.222547   626A      4.239040  
     627A      4.248574   628A      4.263723   629A      4.267941  
     630A      4.289532   631A      4.302485   632A      4.315125  
     633A      4.323823   634A      4.335275   635A      4.348324  
     636A      4.355022   637A      4.362949   638A      4.388981  
     639A      4.391854   640A      4.396254   641A      4.400742  
     642A      4.417360   643A      4.424472   644A      4.437516  
     645A      4.445227   646A      4.453424   647A      4.460042  
     648A      4.477113   649A      4.489060   650A      4.490485  
     651A      4.513810   652A      4.527727   653A      4.554722  
     654A      4.569815   655A      4.580720   656A      4.591195  
     657A      4.601234   658A      4.616512   659A      4.643687  
     660A      4.654879   661A      4.662619   662A      4.676631  
     663A      4.708519   664A      4.712967   665A      4.716930  
     666A      4.729989   667A      4.743140   668A      4.749627  
     669A      4.759816   670A      4.771188   671A      4.776040  
     672A      4.800443   673A      4.814018   674A      4.820969  
     675A      4.843865   676A      4.852621   677A      4.868811  
     678A      4.873413   679A      4.880396   680A      4.890807  
     681A      4.905888   682A      4.912930   683A      4.921443  
     684A      4.929507   685A      4.944786   686A      4.962682  
     687A      4.978881   688A      4.983827   689A      5.000097  
     690A      5.027888   691A      5.033275   692A      5.034392  
     693A      5.052396   694A      5.057066   695A      5.066302  
     696A      5.081244   697A      5.090505   698A      5.120085  
     699A      5.126354   700A      5.133305   701A      5.141647  
     702A      5.148775   703A      5.153263   704A      5.167629  
     705A      5.179958   706A      5.200363   707A      5.210747  
     708A      5.222921   709A      5.231375   710A      5.249178  
     711A      5.266545   712A      5.279436   713A      5.290649  
     714A      5.309043   715A      5.320291   716A      5.326887  
     717A      5.344724   718A      5.351704   719A      5.371209  
     720A      5.383067   721A      5.387600   722A      5.410362  
     723A      5.421312   724A      5.435075   725A      5.455349  
     726A      5.474365   727A      5.500068   728A      5.506827  
     729A      5.518361   730A      5.530949   731A      5.541428  
     732A      5.547220   733A      5.561590   734A      5.572852  
     735A      5.590904   736A      5.606412   737A      5.618145  
     738A      5.623849   739A      5.633460   740A      5.644512  
     741A      5.660837   742A      5.673728   743A      5.693680  
     744A      5.715238   745A      5.728620   746A      5.751073  
     747A      5.777868   748A      5.784750   749A      5.800065  
     750A      5.815755   751A      5.827830   752A      5.835696  
     753A      5.878091   754A      5.882333   755A      5.894501  
     756A      5.923378   757A      5.949522   758A      5.952283  
     759A      5.980850   760A      5.997935   761A      6.006442  
     762A      6.025271   763A      6.055597   764A      6.065109  
     765A      6.083840   766A      6.103011   767A      6.128566  
     768A      6.133474   769A      6.154509   770A      6.169643  
     771A      6.188656   772A      6.232701   773A      6.237304  
     774A      6.243274   775A      6.268959   776A      6.314734  
     777A      6.330159   778A      6.399985   779A      6.436062  
     780A      6.465174   781A      6.514051   782A      6.553150  
     783A      6.558459   784A      6.584245   785A      6.593949  
     786A      6.608004   787A      6.626636   788A      6.656115  
     789A      6.696235   790A      6.712301   791A      6.728446  
     792A      6.745021   793A      6.775141   794A      6.779468  
     795A      6.784504   796A      6.794524   797A      6.816377  
     798A      6.827948   799A      6.838081   800A      6.848621  
     801A      6.862266   802A      6.881681   803A      6.891153  
     804A      6.907568   805A      6.951083   806A      6.962314  
     807A      6.987456   808A      6.999500   809A      7.026547  
     810A      7.066567   811A      7.082359   812A      7.143040  
     813A      7.153750   814A      7.195054   815A      7.209443  
     816A      7.214332   817A      7.269883   818A      7.296915  
     819A      7.347368   820A      7.381120   821A      7.414972  
     822A      7.433485   823A      7.455690   824A      7.461163  
     825A      7.468011   826A      7.498180   827A      7.501831  
     828A      7.577498   829A      7.581020   830A      7.628580  
     831A      7.639167   832A      7.646251   833A      7.665701  
     834A      7.681615   835A      7.708285   836A      7.726093  
     837A      7.742383   838A      7.756631   839A      7.789990  
     840A      7.804198   841A      7.808694   842A      7.818916  
     843A      7.850937   844A      7.866213   845A      7.881226  
     846A      7.891604   847A      7.923951   848A      7.952072  
     849A      7.957173   850A      7.966893   851A      7.981700  
     852A      7.991913   853A      8.004668   854A      8.024847  
     855A      8.037027   856A      8.051377   857A      8.058259  
     858A      8.095316   859A      8.179802   860A      8.242792  
     861A      8.261715   862A      8.292232   863A      8.334414  
     864A      8.408459   865A      8.575638   866A      8.652193  
     867A      8.696706   868A      8.736496   869A      8.861355  
     870A      9.005534   871A      9.073372   872A      9.167828  
     873A      9.271971   874A      9.510537   875A      9.642429  
     876A      9.673674   877A      9.885639   878A      9.964081  
     879A     10.008054   880A     10.052312   881A     10.084116  
     882A     10.265381   883A     10.279092   884A     10.335938  
     885A     10.410089   886A     10.460156   887A     10.514346  
     888A     10.544856   889A     10.928858   890A     11.238799  
     891A     11.318467   892A     11.521780   893A     12.023001  
     894A     12.035883   895A     12.071290   896A     12.157286  
     897A     12.235288   898A     12.429233   899A     12.691446  
     900A     12.852531   901A     13.327872   902A     13.544600  
     903A     14.166243   904A     14.207694   905A     16.037066  
     906A     16.183306   907A     16.653704   908A     16.974426  
     909A     18.261311   910A     19.667280   911A     20.198818  
     912A     20.803044   913A     51.815174   914A     52.067579  
     915A     54.626691   916A     55.443886   917A     60.448692  
     918A     61.380406   919A     69.011523   920A     69.703716  

    Final Occupation by Irrep:
              A 
    DOCC [    29 ]

  @DF-RHF Final Energy:  -412.62026627177829

   => Energetics <=

    Nuclear Repulsion Energy =            355.4292075532474655
    One-Electron Energy =               -1267.2731375971777652
    Two-Electron Energy =                 499.2236637721520083
    Total Energy =                       -412.6202662717782914

Computation Completed


Properties will be evaluated at   0.000000,   0.000000,   0.000000 [a0]

Properties computed using the SCF density matrix

  Nuclear Dipole Moment: [e a0]
     X:  -185.0722      Y:    10.2187      Z:   -21.7538

  Electronic Dipole Moment: [e a0]
     X:   184.0990      Y:    -9.6839      Z:    23.4136

  Dipole Moment: [e a0]
     X:    -0.9733      Y:     0.5348      Z:     1.6598     Total:     1.9971

  Dipole Moment: [D]
     X:    -2.4738      Y:     1.3594      Z:     4.2188     Total:     5.0760


*** tstop() called on node157.bme.utexas.edu at Sat Jan 13 15:42:28 2024
Module time:
	user time   =     391.36 seconds =       6.52 minutes
	system time =       4.62 seconds =       0.08 minutes
	total time  =         68 seconds =       1.13 minutes
Total time:
	user time   =    1318.53 seconds =      21.98 minutes
	system time =      17.56 seconds =       0.29 minutes
	total time  =        213 seconds =       3.55 minutes

*** tstart() called on node157.bme.utexas.edu
*** at Sat Jan 13 15:42:28 2024


  //>>>>>>>>>>>>>>>>>>>>>>>>>>>>>>>>>>>//
  //               DFMP2               //
  //<<<<<<<<<<<<<<<<<<<<<<<<<<<<<<<<<<<//

   => Loading Basis Set <=

    Name: (AUG-CC-PVTZ AUX)
    Role: RIFIT
    Keyword: DF_BASIS_MP2
    atoms 1, 5, 13, 17                entry N          line   206 file /opt/anaconda/envs/psi4v1.5/share/psi4/basis/aug-cc-pvtz-ri.gbs 
    atoms 2, 9, 11-12, 14, 21, 23-24  entry H          line    30 file /opt/anaconda/envs/psi4v1.5/share/psi4/basis/aug-cc-pvtz-ri.gbs 
    atoms 3, 6, 8, 10, 15, 18, 20, 22 entry C          line   148 file /opt/anaconda/envs/psi4v1.5/share/psi4/basis/aug-cc-pvtz-ri.gbs 
    atoms 4, 7, 16, 19                entry O          line   264 file /opt/anaconda/envs/psi4v1.5/share/psi4/basis/aug-cc-pvtz-ri.gbs 

	 --------------------------------------------------------
	                          DF-MP2                         
	      2nd-Order Density-Fitted Moller-Plesset Theory     
	              RMP2 Wavefunction,   8 Threads             
	                                                         
	        Rob Parrish, Justin Turney, Andy Simmonett,      
	           Ed Hohenstein, and C. David Sherrill          
	 --------------------------------------------------------

   => Auxiliary Basis Set <=

  Basis Set: (AUG-CC-PVTZ AUX)
    Blend: AUG-CC-PVTZ-RI
    Number of shells: 560
    Number of basis functions: 2064
    Number of Cartesian functions: 2616
    Spherical Harmonics?: true
    Max angular momentum: 4

	 --------------------------------------------------------
	                 NBF =   920, NAUX =  2064
	 --------------------------------------------------------
	   CLASS    FOCC     OCC    AOCC    AVIR     VIR    FVIR
	   PAIRS       8      29      21     891     891       0
	 --------------------------------------------------------

	 Will attempt to load fitting metric from file 97.

	-----------------------------------------------------------
	 ==================> DF-MP2 Energies <==================== 
	-----------------------------------------------------------
	 Reference Energy          =    -412.6202662717782914 [Eh]
	 Singles Energy            =      -0.0000000000000000 [Eh]
	 Same-Spin Energy          =      -0.3925923013948944 [Eh]
	 Opposite-Spin Energy      =      -1.1129597448687392 [Eh]
	 Correlation Energy        =      -1.5055520462636336 [Eh]
	 Total Energy              =    -414.1258183180419223 [Eh]
	-----------------------------------------------------------
	 ================> DF-SCS-MP2 Energies <================== 
	-----------------------------------------------------------
	 SCS Same-Spin Scale       =       0.3333333333333333 [-]
	 SCS Opposite-Spin Scale   =       1.2000000000000000 [-]
	 SCS Same-Spin Energy      =      -0.1308641004649648 [Eh]
	 SCS Opposite-Spin Energy  =      -1.3355516938424870 [Eh]
	 SCS Correlation Energy    =      -1.4664157943074518 [Eh]
	 SCS Total Energy          =    -414.0866820660857570 [Eh]
	-----------------------------------------------------------


*** tstop() called on node157.bme.utexas.edu at Sat Jan 13 15:42:50 2024
Module time:
	user time   =     105.48 seconds =       1.76 minutes
	system time =       3.38 seconds =       0.06 minutes
	total time  =         22 seconds =       0.37 minutes
Total time:
	user time   =    1424.01 seconds =      23.73 minutes
	system time =      20.94 seconds =       0.35 minutes
	total time  =        235 seconds =       3.92 minutes

  //>>>>>>>>>>>>>>>>>>>>>>>>>>>>>>>>>>>//
  //            Monomer B HF           //
  //<<<<<<<<<<<<<<<<<<<<<<<<<<<<<<<<<<<//


*** tstart() called on node157.bme.utexas.edu
*** at Sat Jan 13 15:42:50 2024

   => Loading Basis Set <=

    Name: AUG-CC-PVTZ
    Role: ORBITAL
    Keyword: BASIS
    atoms 1, 5, 13, 17                entry N          line   285 file /opt/anaconda/envs/psi4v1.5/share/psi4/basis/aug-cc-pvtz.gbs 
    atoms 2, 9, 11-12, 14, 21, 23-24  entry H          line    40 file /opt/anaconda/envs/psi4v1.5/share/psi4/basis/aug-cc-pvtz.gbs 
    atoms 3, 6, 8, 10, 15, 18, 20, 22 entry C          line   239 file /opt/anaconda/envs/psi4v1.5/share/psi4/basis/aug-cc-pvtz.gbs 
    atoms 4, 7, 16, 19                entry O          line   331 file /opt/anaconda/envs/psi4v1.5/share/psi4/basis/aug-cc-pvtz.gbs 


         ---------------------------------------------------------
                                   SCF
               by Justin Turney, Rob Parrish, Andy Simmonett
                          and Daniel G. A. Smith
                              RHF Reference
                        8 Threads,  47683 MiB Core
         ---------------------------------------------------------

  ==> Geometry <==

    Molecular point group: c1
    Full point group: C1

    Geometry (in Angstrom), charge = 0, multiplicity = 1:

       Center              X                  Y                   Z               Mass       
    ------------   -----------------  -----------------  -----------------  -----------------
      Gh(N)          -2.370566837680    -0.428726287227     1.070793707646    14.003074004430
      Gh(H)          -2.690536837680    -0.972416287227     1.863643707646     1.007825032230
      Gh(C)          -1.740266837680    -1.160576287227     0.075633707646    12.000000000000
      Gh(O)          -1.574836837680    -2.376266287227     0.144953707646    15.994914619570
      Gh(N)          -1.331616837680    -0.376756287227    -0.986276292354    14.003074004430
      Gh(C)          -1.311326837680     1.031393712773    -1.070636292354    12.000000000000
      Gh(O)          -0.783656837680     1.587733712773    -2.029976292354    15.994914619570
      Gh(C)          -1.954166837680     1.688323712773     0.057433707646    12.000000000000
      Gh(H)          -1.994476837680     2.769563712773     0.069243707646     1.007825032230
      Gh(C)          -2.445476837680     0.947263712773     1.076073707646    12.000000000000
      Gh(H)          -2.927576837680     1.384963712773     1.944233707646     1.007825032230
      Gh(H)          -0.832756837680    -0.866396287227    -1.731206292354     1.007825032230
         N            1.537525078986    -1.629023162227     0.322945249313    14.003074004430
         H            1.201795078986    -2.566283162227     0.122005249313     1.007825032230
         C            1.687905078986    -0.827653162227    -0.799864750687    12.000000000000
         O            1.616035078986    -1.268193162227    -1.944074750687    15.994914619570
         N            1.920685078986     0.500376837773    -0.494464750687    14.003074004430
         C            1.791045078986     1.133066837773     0.758135249313    12.000000000000
         O            1.871835078986     2.354196837773     0.854725249313    15.994914619570
         C            1.561705078986     0.199876837773     1.853625249313    12.000000000000
         H            1.479265078986     0.596706837773     2.857155249313     1.007825032230
         C            1.408765078986    -1.118983162227     1.595485249313    12.000000000000
         H            1.210135078986    -1.854073162227     2.369065249313     1.007825032230
         H            1.948445078986     1.124116837773    -1.300114750687     1.007825032230

  Running in c1 symmetry.

  Rotational constants: A =      0.02282  B =      0.01723  C =      0.01543 [cm^-1]
  Rotational constants: A =    683.98132  B =    516.46953  C =    462.63465 [MHz]
  Nuclear repulsion =  355.554909913449023

  Charge       = 0
  Multiplicity = 1
  Electrons    = 58
  Nalpha       = 29
  Nbeta        = 29

  ==> Algorithm <==

  SCF Algorithm Type is DF.
  DIIS enabled.
  MOM disabled.
  Fractional occupation disabled.
  Guess Type is SAD.
  Energy threshold   = 1.00e-08
  Density threshold  = 1.00e-08
  Integral threshold = 1.00e-12

  ==> Primary Basis <==

  Basis Set: AUG-CC-PVTZ
    Blend: AUG-CC-PVTZ
    Number of shells: 296
    Number of basis functions: 920
    Number of Cartesian functions: 1080
    Spherical Harmonics?: true
    Max angular momentum: 3

   => Loading Basis Set <=

    Name: (AUG-CC-PVTZ AUX)
    Role: JKFIT
    Keyword: DF_BASIS_SCF
    atoms 1, 5, 13, 17                entry N          line   224 file /opt/anaconda/envs/psi4v1.5/share/psi4/basis/aug-cc-pvtz-jkfit.gbs 
    atoms 2, 9, 11-12, 14, 21, 23-24  entry H          line    70 file /opt/anaconda/envs/psi4v1.5/share/psi4/basis/aug-cc-pvtz-jkfit.gbs 
    atoms 3, 6, 8, 10, 15, 18, 20, 22 entry C          line   162 file /opt/anaconda/envs/psi4v1.5/share/psi4/basis/aug-cc-pvtz-jkfit.gbs 
    atoms 4, 7, 16, 19                entry O          line   286 file /opt/anaconda/envs/psi4v1.5/share/psi4/basis/aug-cc-pvtz-jkfit.gbs 

  ==> Integral Setup <==

  ==> DiskDFJK: Density-Fitted J/K Matrices <==

    J tasked:                  Yes
    K tasked:                  Yes
    wK tasked:                  No
    OpenMP threads:              8
    Integrals threads:           8
    Memory [MiB]:            35762
    Algorithm:                Core
    Integral Cache:           LOAD
    Schwarz Cutoff:          1E-12
    Fitting Condition:       1E-10

   => Auxiliary Basis Set <=

  Basis Set: (AUG-CC-PVTZ AUX)
    Blend: AUG-CC-PVTZ-JKFIT
    Number of shells: 592
    Number of basis functions: 2032
    Number of Cartesian functions: 2536
    Spherical Harmonics?: true
    Max angular momentum: 4

  Minimum eigenvalue in the overlap matrix is 2.0771183055E-06.
  Reciprocal condition number of the overlap matrix is 9.5425600668E-08.
    Using symmetric orthogonalization.

  ==> Pre-Iterations <==

  SCF Guess: Superposition of Atomic Densities via on-the-fly atomic UHF (no occupation information).

   -------------------------
    Irrep   Nso     Nmo    
   -------------------------
     A        920     920 
   -------------------------
    Total     920     920
   -------------------------

  ==> Iterations <==

                           Total Energy        Delta E     RMS |[F,P]|

   @DF-RHF iter SAD:  -411.85934234806302   -4.11859e+02   0.00000e+00 
   @DF-RHF iter   1:  -412.37201827809969   -5.12676e-01   8.10140e-04 DIIS
   @DF-RHF iter   2:  -412.53280753402987   -1.60789e-01   5.44719e-04 DIIS
   @DF-RHF iter   3:  -412.61405360392888   -8.12461e-02   9.80242e-05 DIIS
   @DF-RHF iter   4:  -412.61843345344681   -4.37985e-03   4.04588e-05 DIIS
   @DF-RHF iter   5:  -412.61936220445608   -9.28751e-04   8.41736e-06 DIIS
   @DF-RHF iter   6:  -412.61947486867638   -1.12664e-04   4.23721e-06 DIIS
   @DF-RHF iter   7:  -412.61949503886558   -2.01702e-05   1.71289e-06 DIIS
   @DF-RHF iter   8:  -412.61949856777369   -3.52891e-06   5.94021e-07 DIIS
   @DF-RHF iter   9:  -412.61949885323321   -2.85460e-07   2.51074e-07 DIIS
   @DF-RHF iter  10:  -412.61949892459245   -7.13592e-08   8.32543e-08 DIIS
   @DF-RHF iter  11:  -412.61949893331240   -8.71995e-09   2.73004e-08 DIIS
   @DF-RHF iter  12:  -412.61949893400890   -6.96502e-10   8.84860e-09 DIIS
  Energy and wave function converged.


  ==> Post-Iterations <==

    Orbital Energies [Eh]
    ---------------------

    Doubly Occupied:                                                      

       1A    -20.549080     2A    -20.545775     3A    -15.647217  
       4A    -15.631839     5A    -11.422645     6A    -11.386249  
       7A    -11.344309     8A    -11.260798     9A     -1.431208  
      10A     -1.394565    11A     -1.310659    12A     -1.245602  
      13A     -1.088141    14A     -0.932484    15A     -0.900518  
      16A     -0.803480    17A     -0.763287    18A     -0.713253  
      19A     -0.677203    20A     -0.669169    21A     -0.649536  
      22A     -0.614600    23A     -0.600934    24A     -0.569499  
      25A     -0.524902    26A     -0.484152    27A     -0.451731  
      28A     -0.438154    29A     -0.372019  

    Virtual:                                                              

      30A      0.011606    31A      0.025730    32A      0.030675  
      33A      0.035300    34A      0.045383    35A      0.046971  
      36A      0.050850    37A      0.056555    38A      0.065613  
      39A      0.069851    40A      0.072514    41A      0.077059  
      42A      0.080272    43A      0.085746    44A      0.089277  
      45A      0.094159    46A      0.096259    47A      0.100804  
      48A      0.101572    49A      0.106054    50A      0.110681  
      51A      0.119166    52A      0.120177    53A      0.123555  
      54A      0.128661    55A      0.132348    56A      0.136307  
      57A      0.139336    58A      0.141514    59A      0.143363  
      60A      0.146902    61A      0.150689    62A      0.151755  
      63A      0.154547    64A      0.159254    65A      0.166410  
      66A      0.169169    67A      0.176274    68A      0.179615  
      69A      0.185789    70A      0.186189    71A      0.189153  
      72A      0.196278    73A      0.202063    74A      0.207270  
      75A      0.211975    76A      0.215004    77A      0.216409  
      78A      0.223498    79A      0.227840    80A      0.232812  
      81A      0.236892    82A      0.242523    83A      0.244751  
      84A      0.250096    85A      0.252549    86A      0.255496  
      87A      0.257036    88A      0.266868    89A      0.267946  
      90A      0.272377    91A      0.278095    92A      0.280553  
      93A      0.283224    94A      0.288422    95A      0.291033  
      96A      0.295128    97A      0.299311    98A      0.302504  
      99A      0.306017   100A      0.306622   101A      0.313000  
     102A      0.322170   103A      0.326051   104A      0.331544  
     105A      0.336378   106A      0.342178   107A      0.343678  
     108A      0.349108   109A      0.352480   110A      0.356059  
     111A      0.359767   112A      0.362106   113A      0.366632  
     114A      0.368126   115A      0.377113   116A      0.381979  
     117A      0.383207   118A      0.388574   119A      0.389751  
     120A      0.394645   121A      0.397058   122A      0.402374  
     123A      0.405182   124A      0.409923   125A      0.414064  
     126A      0.418871   127A      0.419669   128A      0.423043  
     129A      0.435287   130A      0.437290   131A      0.440024  
     132A      0.441922   133A      0.448592   134A      0.457070  
     135A      0.462438   136A      0.464540   137A      0.469523  
     138A      0.472949   139A      0.473824   140A      0.475279  
     141A      0.478554   142A      0.484283   143A      0.491293  
     144A      0.495476   145A      0.497704   146A      0.499698  
     147A      0.504710   148A      0.511132   149A      0.514461  
     150A      0.523780   151A      0.526036   152A      0.527180  
     153A      0.532576   154A      0.536470   155A      0.539645  
     156A      0.545035   157A      0.545092   158A      0.551567  
     159A      0.561562   160A      0.561905   161A      0.570957  
     162A      0.574416   163A      0.579970   164A      0.584695  
     165A      0.589535   166A      0.595369   167A      0.603202  
     168A      0.606056   169A      0.607974   170A      0.613216  
     171A      0.614409   172A      0.620613   173A      0.624168  
     174A      0.627730   175A      0.632180   176A      0.634600  
     177A      0.647857   178A      0.655052   179A      0.658630  
     180A      0.665767   181A      0.669289   182A      0.672178  
     183A      0.683234   184A      0.689806   185A      0.695807  
     186A      0.697650   187A      0.701488   188A      0.713755  
     189A      0.715089   190A      0.720743   191A      0.726961  
     192A      0.730913   193A      0.735331   194A      0.736291  
     195A      0.745485   196A      0.746534   197A      0.757232  
     198A      0.762587   199A      0.766545   200A      0.768725  
     201A      0.773978   202A      0.780985   203A      0.783695  
     204A      0.788954   205A      0.798810   206A      0.805350  
     207A      0.807509   208A      0.812012   209A      0.814190  
     210A      0.825263   211A      0.828551   212A      0.835215  
     213A      0.841439   214A      0.842784   215A      0.855903  
     216A      0.861450   217A      0.869043   218A      0.874777  
     219A      0.879269   220A      0.883453   221A      0.889282  
     222A      0.892557   223A      0.897645   224A      0.902176  
     225A      0.910158   226A      0.915665   227A      0.918960  
     228A      0.926876   229A      0.929840   230A      0.933677  
     231A      0.938686   232A      0.941231   233A      0.944118  
     234A      0.949156   235A      0.953319   236A      0.956652  
     237A      0.964616   238A      0.967484   239A      0.971163  
     240A      0.973951   241A      0.981873   242A      0.992720  
     243A      0.997017   244A      1.002787   245A      1.009407  
     246A      1.014395   247A      1.018459   248A      1.022536  
     249A      1.028038   250A      1.036430   251A      1.038918  
     252A      1.046940   253A      1.049265   254A      1.057618  
     255A      1.062882   256A      1.070943   257A      1.080397  
     258A      1.085508   259A      1.088197   260A      1.095089  
     261A      1.098156   262A      1.104433   263A      1.109994  
     264A      1.114133   265A      1.118872   266A      1.123688  
     267A      1.126065   268A      1.132753   269A      1.135564  
     270A      1.144049   271A      1.145089   272A      1.151563  
     273A      1.158255   274A      1.161891   275A      1.164765  
     276A      1.170003   277A      1.175406   278A      1.180648  
     279A      1.181999   280A      1.190364   281A      1.190906  
     282A      1.196708   283A      1.198782   284A      1.204201  
     285A      1.210231   286A      1.218343   287A      1.222336  
     288A      1.226215   289A      1.232457   290A      1.233214  
     291A      1.239406   292A      1.243309   293A      1.245382  
     294A      1.252418   295A      1.258748   296A      1.268223  
     297A      1.273667   298A      1.275822   299A      1.283283  
     300A      1.292826   301A      1.299360   302A      1.308059  
     303A      1.311929   304A      1.313101   305A      1.324107  
     306A      1.326692   307A      1.330079   308A      1.339118  
     309A      1.349390   310A      1.353019   311A      1.359293  
     312A      1.362006   313A      1.364102   314A      1.366874  
     315A      1.372828   316A      1.382176   317A      1.384100  
     318A      1.394517   319A      1.399253   320A      1.407046  
     321A      1.409076   322A      1.413004   323A      1.420638  
     324A      1.429621   325A      1.434550   326A      1.439146  
     327A      1.455170   328A      1.456793   329A      1.462257  
     330A      1.472046   331A      1.475267   332A      1.478909  
     333A      1.491135   334A      1.494054   335A      1.504646  
     336A      1.511033   337A      1.517958   338A      1.525163  
     339A      1.531150   340A      1.533053   341A      1.538292  
     342A      1.546401   343A      1.551423   344A      1.554580  
     345A      1.562916   346A      1.564708   347A      1.579831  
     348A      1.588159   349A      1.593729   350A      1.599026  
     351A      1.608038   352A      1.610884   353A      1.616367  
     354A      1.620465   355A      1.626270   356A      1.641397  
     357A      1.644828   358A      1.650286   359A      1.655573  
     360A      1.663965   361A      1.672397   362A      1.676948  
     363A      1.688836   364A      1.693146   365A      1.699694  
     366A      1.707127   367A      1.708394   368A      1.719152  
     369A      1.726869   370A      1.736588   371A      1.746999  
     372A      1.750746   373A      1.762406   374A      1.762923  
     375A      1.769189   376A      1.781567   377A      1.788060  
     378A      1.796080   379A      1.799978   380A      1.805273  
     381A      1.811980   382A      1.816025   383A      1.820093  
     384A      1.828891   385A      1.834870   386A      1.840996  
     387A      1.852113   388A      1.859935   389A      1.862598  
     390A      1.873223   391A      1.880914   392A      1.898732  
     393A      1.902297   394A      1.904544   395A      1.917228  
     396A      1.922446   397A      1.933228   398A      1.941839  
     399A      1.944626   400A      1.956732   401A      1.962980  
     402A      1.969266   403A      1.980181   404A      1.987812  
     405A      1.994027   406A      2.008596   407A      2.015973  
     408A      2.016952   409A      2.020639   410A      2.036084  
     411A      2.043999   412A      2.046689   413A      2.053040  
     414A      2.062508   415A      2.064283   416A      2.072333  
     417A      2.083755   418A      2.090998   419A      2.102266  
     420A      2.104404   421A      2.115891   422A      2.129303  
     423A      2.139987   424A      2.146295   425A      2.151965  
     426A      2.162461   427A      2.166143   428A      2.175336  
     429A      2.182923   430A      2.187208   431A      2.188836  
     432A      2.201579   433A      2.213121   434A      2.214279  
     435A      2.226011   436A      2.237980   437A      2.238771  
     438A      2.247052   439A      2.257766   440A      2.264350  
     441A      2.269423   442A      2.286146   443A      2.291336  
     444A      2.309000   445A      2.313918   446A      2.316874  
     447A      2.325014   448A      2.339950   449A      2.341252  
     450A      2.350630   451A      2.356519   452A      2.363372  
     453A      2.365459   454A      2.373894   455A      2.390374  
     456A      2.397824   457A      2.409330   458A      2.418405  
     459A      2.425409   460A      2.432587   461A      2.453464  
     462A      2.455813   463A      2.465173   464A      2.478534  
     465A      2.488847   466A      2.495124   467A      2.513134  
     468A      2.524071   469A      2.537275   470A      2.539942  
     471A      2.546863   472A      2.548588   473A      2.570504  
     474A      2.575203   475A      2.580757   476A      2.584472  
     477A      2.599363   478A      2.599593   479A      2.607223  
     480A      2.611505   481A      2.613134   482A      2.631996  
     483A      2.638013   484A      2.644421   485A      2.655121  
     486A      2.660188   487A      2.669446   488A      2.682924  
     489A      2.688264   490A      2.695181   491A      2.697103  
     492A      2.709433   493A      2.714129   494A      2.718031  
     495A      2.735733   496A      2.741775   497A      2.749824  
     498A      2.756085   499A      2.756926   500A      2.764644  
     501A      2.771592   502A      2.791866   503A      2.798620  
     504A      2.800147   505A      2.815079   506A      2.827702  
     507A      2.828205   508A      2.833570   509A      2.844097  
     510A      2.852772   511A      2.865806   512A      2.871461  
     513A      2.877320   514A      2.896404   515A      2.901058  
     516A      2.911078   517A      2.927764   518A      2.935354  
     519A      2.939642   520A      2.945517   521A      2.953922  
     522A      2.966074   523A      2.976225   524A      2.994018  
     525A      3.002491   526A      3.012488   527A      3.021124  
     528A      3.027661   529A      3.028251   530A      3.048080  
     531A      3.053067   532A      3.060535   533A      3.064193  
     534A      3.072113   535A      3.084636   536A      3.102663  
     537A      3.112740   538A      3.121582   539A      3.137417  
     540A      3.154704   541A      3.162957   542A      3.164512  
     543A      3.169926   544A      3.193251   545A      3.196679  
     546A      3.211522   547A      3.240255   548A      3.242103  
     549A      3.252639   550A      3.276372   551A      3.278409  
     552A      3.287548   553A      3.304373   554A      3.316608  
     555A      3.322185   556A      3.332527   557A      3.345852  
     558A      3.367823   559A      3.373656   560A      3.397550  
     561A      3.409735   562A      3.424192   563A      3.428352  
     564A      3.445879   565A      3.461542   566A      3.466949  
     567A      3.481518   568A      3.524826   569A      3.531730  
     570A      3.539605   571A      3.553853   572A      3.569609  
     573A      3.582938   574A      3.592524   575A      3.610386  
     576A      3.616322   577A      3.632218   578A      3.649805  
     579A      3.665388   580A      3.681674   581A      3.697487  
     582A      3.704174   583A      3.712270   584A      3.721309  
     585A      3.746190   586A      3.754434   587A      3.765667  
     588A      3.781981   589A      3.790769   590A      3.801020  
     591A      3.807173   592A      3.811955   593A      3.833474  
     594A      3.833958   595A      3.844230   596A      3.864660  
     597A      3.867204   598A      3.881643   599A      3.888182  
     600A      3.915510   601A      3.935338   602A      3.945143  
     603A      3.957079   604A      3.959752   605A      3.979500  
     606A      3.994087   607A      3.999511   608A      4.021232  
     609A      4.031154   610A      4.035440   611A      4.064254  
     612A      4.071934   613A      4.085438   614A      4.101228  
     615A      4.105542   616A      4.114607   617A      4.131877  
     618A      4.134201   619A      4.149734   620A      4.158715  
     621A      4.167865   622A      4.183843   623A      4.189798  
     624A      4.202527   625A      4.218803   626A      4.227438  
     627A      4.234812   628A      4.251227   629A      4.264500  
     630A      4.281367   631A      4.292765   632A      4.306266  
     633A      4.324571   634A      4.332712   635A      4.336453  
     636A      4.347133   637A      4.352950   638A      4.367982  
     639A      4.379711   640A      4.390193   641A      4.396901  
     642A      4.412042   643A      4.423904   644A      4.432058  
     645A      4.442280   646A      4.453352   647A      4.466567  
     648A      4.473752   649A      4.478955   650A      4.495570  
     651A      4.516662   652A      4.522412   653A      4.559041  
     654A      4.563854   655A      4.579452   656A      4.582730  
     657A      4.591980   658A      4.630626   659A      4.643163  
     660A      4.651600   661A      4.666936   662A      4.686932  
     663A      4.700765   664A      4.708835   665A      4.713448  
     666A      4.728316   667A      4.741738   668A      4.742811  
     669A      4.749162   670A      4.756826   671A      4.778627  
     672A      4.782919   673A      4.792292   674A      4.809215  
     675A      4.817804   676A      4.839787   677A      4.848714  
     678A      4.856751   679A      4.871689   680A      4.881862  
     681A      4.897743   682A      4.905068   683A      4.915112  
     684A      4.926943   685A      4.950062   686A      4.966176  
     687A      4.970795   688A      4.979197   689A      5.003335  
     690A      5.014551   691A      5.019147   692A      5.029545  
     693A      5.039924   694A      5.062041   695A      5.072324  
     696A      5.079900   697A      5.101719   698A      5.114612  
     699A      5.119597   700A      5.132377   701A      5.140361  
     702A      5.152774   703A      5.157865   704A      5.160774  
     705A      5.169679   706A      5.177209   707A      5.185797  
     708A      5.206495   709A      5.224180   710A      5.232362  
     711A      5.253118   712A      5.265541   713A      5.275612  
     714A      5.288421   715A      5.297420   716A      5.309568  
     717A      5.334328   718A      5.345999   719A      5.353969  
     720A      5.372971   721A      5.402663   722A      5.409051  
     723A      5.421024   724A      5.425072   725A      5.437414  
     726A      5.452843   727A      5.477619   728A      5.487157  
     729A      5.503295   730A      5.523701   731A      5.541656  
     732A      5.553670   733A      5.569611   734A      5.579127  
     735A      5.584772   736A      5.596813   737A      5.608184  
     738A      5.617497   739A      5.630673   740A      5.637644  
     741A      5.649540   742A      5.670501   743A      5.684302  
     744A      5.716928   745A      5.723464   746A      5.738319  
     747A      5.762565   748A      5.779634   749A      5.809838  
     750A      5.824769   751A      5.843097   752A      5.850841  
     753A      5.875891   754A      5.881620   755A      5.901907  
     756A      5.917653   757A      5.936415   758A      5.943248  
     759A      5.957024   760A      5.990617   761A      6.001374  
     762A      6.006738   763A      6.055104   764A      6.064496  
     765A      6.097581   766A      6.125335   767A      6.133260  
     768A      6.145579   769A      6.157789   770A      6.166411  
     771A      6.196164   772A      6.242916   773A      6.244974  
     774A      6.248199   775A      6.289626   776A      6.347753  
     777A      6.376845   778A      6.407661   779A      6.443275  
     780A      6.464319   781A      6.511898   782A      6.547481  
     783A      6.553923   784A      6.577056   785A      6.590988  
     786A      6.606827   787A      6.617575   788A      6.639490  
     789A      6.683055   790A      6.691373   791A      6.696009  
     792A      6.740054   793A      6.743705   794A      6.750082  
     795A      6.776947   796A      6.784657   797A      6.804442  
     798A      6.817577   799A      6.823686   800A      6.832702  
     801A      6.857303   802A      6.865989   803A      6.869276  
     804A      6.923160   805A      6.931939   806A      6.952904  
     807A      6.958682   808A      6.986259   809A      7.021688  
     810A      7.048599   811A      7.060006   812A      7.124023  
     813A      7.164490   814A      7.176948   815A      7.198977  
     816A      7.224389   817A      7.262298   818A      7.296240  
     819A      7.334530   820A      7.383340   821A      7.398047  
     822A      7.436922   823A      7.449670   824A      7.454932  
     825A      7.464744   826A      7.480469   827A      7.491317  
     828A      7.572278   829A      7.591654   830A      7.622650  
     831A      7.623273   832A      7.649731   833A      7.655418  
     834A      7.668713   835A      7.682418   836A      7.702306  
     837A      7.715679   838A      7.749882   839A      7.780865  
     840A      7.787553   841A      7.814536   842A      7.817476  
     843A      7.825987   844A      7.842522   845A      7.866305  
     846A      7.880079   847A      7.893070   848A      7.913721  
     849A      7.940498   850A      7.952338   851A      7.976328  
     852A      7.984198   853A      7.993351   854A      8.022103  
     855A      8.024674   856A      8.044885   857A      8.055367  
     858A      8.069658   859A      8.178263   860A      8.230846  
     861A      8.261842   862A      8.312620   863A      8.331632  
     864A      8.404008   865A      8.564306   866A      8.659335  
     867A      8.698580   868A      8.739017   869A      8.854146  
     870A      9.011320   871A      9.088908   872A      9.185042  
     873A      9.276717   874A      9.503535   875A      9.573382  
     876A      9.650748   877A      9.884287   878A      9.955035  
     879A     10.011234   880A     10.066597   881A     10.091141  
     882A     10.272403   883A     10.295624   884A     10.331692  
     885A     10.410243   886A     10.457672   887A     10.516739  
     888A     10.541717   889A     10.954714   890A     11.232524  
     891A     11.304415   892A     11.483812   893A     12.015991  
     894A     12.031540   895A     12.076627   896A     12.103149  
     897A     12.373202   898A     12.436965   899A     12.688371  
     900A     12.848802   901A     13.352276   902A     13.603835  
     903A     14.165516   904A     14.217219   905A     16.007263  
     906A     16.236495   907A     16.406451   908A     17.021718  
     909A     18.297693   910A     19.588937   911A     20.039828  
     912A     20.620737   913A     51.818654   914A     52.078668  
     915A     54.669642   916A     55.608574   917A     60.788396  
     918A     61.134248   919A     69.203686   920A     70.208463  

    Final Occupation by Irrep:
              A 
    DOCC [    29 ]

  @DF-RHF Final Energy:  -412.61949893400890

   => Energetics <=

    Nuclear Repulsion Energy =            355.5549099134490234
    One-Electron Energy =               -1267.5027819023162010
    Two-Electron Energy =                 499.3283730548582753
    Total Energy =                       -412.6194989340089023

Computation Completed


Properties will be evaluated at   0.000000,   0.000000,   0.000000 [a0]

Properties computed using the SCF density matrix

  Nuclear Dipole Moment: [e a0]
     X:   182.6356      Y:   -10.5715      Z:    27.5465

  Electronic Dipole Moment: [e a0]
     X:  -183.0217      Y:     9.0570      Z:   -26.3452

  Dipole Moment: [e a0]
     X:    -0.3861      Y:    -1.5145      Z:     1.2013     Total:     1.9713

  Dipole Moment: [D]
     X:    -0.9813      Y:    -3.8495      Z:     3.0534     Total:     5.0105


*** tstop() called on node157.bme.utexas.edu at Sat Jan 13 15:43:58 2024
Module time:
	user time   =     407.06 seconds =       6.78 minutes
	system time =       4.88 seconds =       0.08 minutes
	total time  =         68 seconds =       1.13 minutes
Total time:
	user time   =    1831.09 seconds =      30.52 minutes
	system time =      25.82 seconds =       0.43 minutes
	total time  =        303 seconds =       5.05 minutes

*** tstart() called on node157.bme.utexas.edu
*** at Sat Jan 13 15:43:58 2024


  //>>>>>>>>>>>>>>>>>>>>>>>>>>>>>>>>>>>//
  //               DFMP2               //
  //<<<<<<<<<<<<<<<<<<<<<<<<<<<<<<<<<<<//

   => Loading Basis Set <=

    Name: (AUG-CC-PVTZ AUX)
    Role: RIFIT
    Keyword: DF_BASIS_MP2
    atoms 1, 5, 13, 17                entry N          line   206 file /opt/anaconda/envs/psi4v1.5/share/psi4/basis/aug-cc-pvtz-ri.gbs 
    atoms 2, 9, 11-12, 14, 21, 23-24  entry H          line    30 file /opt/anaconda/envs/psi4v1.5/share/psi4/basis/aug-cc-pvtz-ri.gbs 
    atoms 3, 6, 8, 10, 15, 18, 20, 22 entry C          line   148 file /opt/anaconda/envs/psi4v1.5/share/psi4/basis/aug-cc-pvtz-ri.gbs 
    atoms 4, 7, 16, 19                entry O          line   264 file /opt/anaconda/envs/psi4v1.5/share/psi4/basis/aug-cc-pvtz-ri.gbs 

	 --------------------------------------------------------
	                          DF-MP2                         
	      2nd-Order Density-Fitted Moller-Plesset Theory     
	              RMP2 Wavefunction,   8 Threads             
	                                                         
	        Rob Parrish, Justin Turney, Andy Simmonett,      
	           Ed Hohenstein, and C. David Sherrill          
	 --------------------------------------------------------

   => Auxiliary Basis Set <=

  Basis Set: (AUG-CC-PVTZ AUX)
    Blend: AUG-CC-PVTZ-RI
    Number of shells: 560
    Number of basis functions: 2064
    Number of Cartesian functions: 2616
    Spherical Harmonics?: true
    Max angular momentum: 4

	 --------------------------------------------------------
	                 NBF =   920, NAUX =  2064
	 --------------------------------------------------------
	   CLASS    FOCC     OCC    AOCC    AVIR     VIR    FVIR
	   PAIRS       8      29      21     891     891       0
	 --------------------------------------------------------

	 Will attempt to load fitting metric from file 97.

	-----------------------------------------------------------
	 ==================> DF-MP2 Energies <==================== 
	-----------------------------------------------------------
	 Reference Energy          =    -412.6194989340089023 [Eh]
	 Singles Energy            =      -0.0000000000000000 [Eh]
	 Same-Spin Energy          =      -0.3924726320606701 [Eh]
	 Opposite-Spin Energy      =      -1.1129792233488964 [Eh]
	 Correlation Energy        =      -1.5054518554095666 [Eh]
	 Total Energy              =    -414.1249507894184489 [Eh]
	-----------------------------------------------------------
	 ================> DF-SCS-MP2 Energies <================== 
	-----------------------------------------------------------
	 SCS Same-Spin Scale       =       0.3333333333333333 [-]
	 SCS Opposite-Spin Scale   =       1.2000000000000000 [-]
	 SCS Same-Spin Energy      =      -0.1308242106868900 [Eh]
	 SCS Opposite-Spin Energy  =      -1.3355750680186758 [Eh]
	 SCS Correlation Energy    =      -1.4663992787055657 [Eh]
	 SCS Total Energy          =    -414.0858982127144827 [Eh]
	-----------------------------------------------------------


*** tstop() called on node157.bme.utexas.edu at Sat Jan 13 15:44:19 2024
Module time:
	user time   =     106.95 seconds =       1.78 minutes
	system time =       3.27 seconds =       0.05 minutes
	total time  =         21 seconds =       0.35 minutes
Total time:
	user time   =    1938.04 seconds =      32.30 minutes
	system time =      29.09 seconds =       0.48 minutes
	total time  =        324 seconds =       5.40 minutes
  Constructing Basis Sets for SAPT...

   => Loading Basis Set <=

    Name: (AUG-CC-PVTZ AUX)
    Role: RIFIT
    Keyword: DF_BASIS_SAPT
    atoms 1, 5, 13, 17                entry N          line   206 file /opt/anaconda/envs/psi4v1.5/share/psi4/basis/aug-cc-pvtz-ri.gbs 
    atoms 2, 9, 11-12, 14, 21, 23-24  entry H          line    30 file /opt/anaconda/envs/psi4v1.5/share/psi4/basis/aug-cc-pvtz-ri.gbs 
    atoms 3, 6, 8, 10, 15, 18, 20, 22 entry C          line   148 file /opt/anaconda/envs/psi4v1.5/share/psi4/basis/aug-cc-pvtz-ri.gbs 
    atoms 4, 7, 16, 19                entry O          line   264 file /opt/anaconda/envs/psi4v1.5/share/psi4/basis/aug-cc-pvtz-ri.gbs 


  //>>>>>>>>>>>>>>>>>>>>>>>>>>>>>>>>>>>//
  //           SAPT2+(3)DMP2           //
  //<<<<<<<<<<<<<<<<<<<<<<<<<<<<<<<<<<<//


*** tstart() called on node157.bme.utexas.edu
*** at Sat Jan 13 15:44:19 2024

      SAPT2+(3)  
    Ed Hohenstein
     6 June 2009

      Orbital Information
  --------------------------
    NSO        =       920
    NMO        =       920
    NRI        =      2064
    NOCC A     =        29
    NOCC B     =        29
    FOCC A     =         8
    FOCC B     =         8
    NVIR A     =       891
    NVIR B     =       891

    Estimated memory usage: 29132.3 MB

    Natural Orbital Cutoff:   1.000E-06
    Disp(T3) Truncation:            Yes
    CCD (vv|vv) Truncation:         Yes
    MBPT T2 Truncation:             Yes

    Monomer A: 490 virtual orbitals dropped
    Monomer B: 490 virtual orbitals dropped

    Elst10,r            =    -0.011011525203 [Eh]
    Exch10 (S^2)        =     0.012673950929 [Eh]
    Exch10              =     0.012696111696 [Eh]
    Ind20,r (A<-B)      =    -0.003102847688 [Eh]
    Ind20,r (B<-A)      =    -0.002767178554 [Eh]
    Ind20,r             =    -0.005870026241 [Eh]
    Exch-Ind20,r (A<-B) =     0.002175094996 [Eh]
    Exch-Ind20,r (B<-A) =     0.001896679512 [Eh]
    Exch-Ind20,r        =     0.004071774509 [Eh]
    Disp20              =    -0.017691755206 [Eh]
    Disp20 (NO)         =    -0.016478066517 [Eh]
    Exch-Disp20         =     0.001571385883 [Eh]
    Elst12,r            =    -0.000193532975 [Eh]
    Exch11              =     0.000118502559 [Eh]
    Exch12              =     0.001477657891 [Eh]
    Ind22               =    -0.000404904191 [Eh]
    Disp21              =     0.004344972116 [Eh]
    Disp22 (SDQ)        =    -0.000660760376 [Eh]

    (i =   1 of  21)       1148 seconds
    (i =   2 of  21)       2299 seconds
    (i =   3 of  21)       3448 seconds
    (i =   4 of  21)       4598 seconds
    (i =   5 of  21)       5753 seconds
    (i =   6 of  21)       6908 seconds
    (i =   7 of  21)       8061 seconds
    (i =   8 of  21)       9222 seconds
    (i =   9 of  21)      10375 seconds
    (i =  10 of  21)      11516 seconds
    (i =  11 of  21)      12667 seconds
    (i =  12 of  21)      13819 seconds
    (i =  13 of  21)      14977 seconds
    (i =  14 of  21)      16136 seconds
    (i =  15 of  21)      17282 seconds
    (i =  16 of  21)      18429 seconds
    (i =  17 of  21)      19588 seconds
    (i =  18 of  21)      20740 seconds
    (i =  19 of  21)      21892 seconds
    (i =  20 of  21)      23043 seconds
    (i =  21 of  21)      24205 seconds

    Disp220 (T)         =    -0.001921547047 [Eh]

    (i =   1 of  21)       1104 seconds
    (i =   2 of  21)       2228 seconds
    (i =   3 of  21)       3345 seconds
    (i =   4 of  21)       4457 seconds
    (i =   5 of  21)       5559 seconds
    (i =   6 of  21)       6539 seconds
    (i =   7 of  21)       7498 seconds
    (i =   8 of  21)       8448 seconds
    (i =   9 of  21)       9413 seconds
    (i =  10 of  21)      10399 seconds
    (i =  11 of  21)      11426 seconds
    (i =  12 of  21)      12105 seconds
    (i =  13 of  21)      12785 seconds
    (i =  14 of  21)      13465 seconds
    (i =  15 of  21)      14145 seconds
    (i =  16 of  21)      14827 seconds
    (i =  17 of  21)      15508 seconds
    (i =  18 of  21)      16189 seconds
    (i =  19 of  21)      16870 seconds
    (i =  20 of  21)      17551 seconds
    (i =  21 of  21)      18232 seconds

    Disp202 (T)         =    -0.001881361027 [Eh]

    Disp22 (T)          =    -0.003802908074 [Eh]

    Est. Disp220 (T)    =    -0.002063078210 [Eh]
    Est. Disp202 (T)    =    -0.002019932297 [Eh]

    Est. Disp22 (T)     =    -0.004083010507 [Eh]
    Elst13,r            =     0.000236799254 [Eh]
    Disp30              =     0.000392880914 [Eh]

    SAPT Results 
  --------------------------------------------------------------------------------------------------------
    Electrostatics                -10.96825892 [mEh]      -6.88268639 [kcal/mol]     -28.79715984 [kJ/mol]
      Elst10,r                    -11.01152520 [mEh]      -6.90983639 [kcal/mol]     -28.91075544 [kJ/mol]
      Elst12,r                     -0.19353298 [mEh]      -0.12144378 [kcal/mol]      -0.50812076 [kJ/mol]
      Elst13,r                      0.23679925 [mEh]       0.14859378 [kcal/mol]       0.62171636 [kJ/mol]

    Exchange                       14.29227215 [mEh]       8.96853617 [kcal/mol]      37.52435535 [kJ/mol]
      Exch10                       12.69611170 [mEh]       7.96693037 [kcal/mol]      33.33363666 [kJ/mol]
      Exch10(S^2)                  12.67395093 [mEh]       7.95302428 [kcal/mol]      33.27545358 [kJ/mol]
      Exch11(S^2)                   0.11850256 [mEh]       0.07436148 [kcal/mol]       0.31112843 [kJ/mol]
      Exch12(S^2)                   1.47765789 [mEh]       0.92724433 [kcal/mol]       3.87959026 [kJ/mol]

    Induction                      -2.15535777 [mEh]      -1.35250742 [kcal/mol]      -5.65889105 [kJ/mol]
      Ind20,r                      -5.87002624 [mEh]      -3.68349708 [kcal/mol]     -15.41175177 [kJ/mol]
      Ind22                        -0.40490419 [mEh]      -0.25408122 [kcal/mol]      -1.06307581 [kJ/mol]
      Exch-Ind20,r                  4.07177451 [mEh]       2.55507708 [kcal/mol]      10.69044250 [kJ/mol]
      Exch-Ind22                    0.28086392 [mEh]       0.17624477 [kcal/mol]       0.73740811 [kJ/mol]
      delta HF,r (2)               -0.76382804 [mEh]      -0.47930933 [kcal/mol]      -2.00543024 [kJ/mol]
      delta MP2,r (2)               0.53076228 [mEh]       0.33305836 [kcal/mol]       1.39351616 [kJ/mol]

    Dispersion                    -16.12628718 [mEh]     -10.11939798 [kcal/mol]     -42.33956115 [kJ/mol]
      Disp20                      -17.69175521 [mEh]     -11.10174400 [kcal/mol]     -46.44969689 [kJ/mol]
      Disp30                        0.39288091 [mEh]       0.24653650 [kcal/mol]       1.03150870 [kJ/mol]
      Disp21                        4.34497212 [mEh]       2.72651117 [kcal/mol]      11.40772272 [kJ/mol]
      Disp22 (SDQ)                 -0.66076038 [mEh]      -0.41463340 [kcal/mol]      -1.73482613 [kJ/mol]
      Disp22 (T)                   -3.80290807 [mEh]      -2.38636084 [kcal/mol]      -9.98453377 [kJ/mol]
      Est. Disp22 (T)              -4.08301051 [mEh]      -2.56212777 [kcal/mol]     -10.71994261 [kJ/mol]
      Exch-Disp20                   1.57138588 [mEh]       0.98605953 [kcal/mol]       4.12567307 [kJ/mol]

  Total HF                         -0.87749328 [mEh]      -0.55063535 [kcal/mol]      -2.30385829 [kJ/mol]
  Total SAPT0                     -16.99786260 [mEh]     -10.66631982 [kcal/mol]     -44.62788211 [kJ/mol]
  Total SAPT2                     -15.71927540 [mEh]      -9.86399424 [kcal/mol]     -41.27095188 [kJ/mol]
  Total SAPT2+                    -16.11807417 [mEh]     -10.11424424 [kcal/mol]     -42.31799790 [kJ/mol]
  Total SAPT2+(3)                 -15.48839400 [mEh]      -9.71911397 [kcal/mol]     -40.66477284 [kJ/mol]
  Total SAPT2+dMP2                -15.58731189 [mEh]      -9.78118588 [kcal/mol]     -40.92448174 [kJ/mol]
  Total SAPT2+(3)dMP2             -14.95763172 [mEh]      -9.38605561 [kcal/mol]     -39.27125668 [kJ/mol]

  Special recipe for scaled SAPT0 (see Manual):
    Electrostatics sSAPT0         -11.01152520 [mEh]      -6.90983639 [kcal/mol]     -28.91075544 [kJ/mol]
    Exchange sSAPT0                12.69611170 [mEh]       7.96693037 [kcal/mol]      33.33363666 [kJ/mol]
    Induction sSAPT0               -2.54068356 [mEh]      -1.59430300 [kcal/mol]      -6.67056377 [kJ/mol]
    Dispersion sSAPT0             -16.11211206 [mEh]     -10.11050296 [kcal/mol]     -42.30234439 [kJ/mol]
  Total sSAPT0                    -16.96820913 [mEh]     -10.64771198 [kcal/mol]     -44.55002693 [kJ/mol]
  --------------------------------------------------------------------------------------------------------

*** tstop() called on node157.bme.utexas.edu at Sun Jan 14 05:48:36 2024
Module time:
	user time   =  326789.19 seconds =    5446.49 minutes
	system time =    1163.60 seconds =      19.39 minutes
	total time  =      50657 seconds =     844.28 minutes
Total time:
	user time   =  328728.06 seconds =    5478.80 minutes
	system time =    1192.70 seconds =      19.88 minutes
	total time  =      50981 seconds =     849.68 minutes

    Psi4 stopped on: Sunday, 14 January 2024 05:48AM
    Psi4 wall time for execution: 14:09:41.53

*** Psi4 exiting successfully. Buy a developer a beer!
