
    -----------------------------------------------------------------------
          Psi4: An Open-Source Ab Initio Electronic Structure Package
                               Psi4 1.5 release

                         Git: Rev {HEAD} e9f4d6d 


    D. G. A. Smith, L. A. Burns, A. C. Simmonett, R. M. Parrish,
    M. C. Schieber, R. Galvelis, P. Kraus, H. Kruse, R. Di Remigio,
    A. Alenaizan, A. M. James, S. Lehtola, J. P. Misiewicz, M. Scheurer,
    R. A. Shaw, J. B. Schriber, Y. Xie, Z. L. Glick, D. A. Sirianni,
    J. S. O'Brien, J. M. Waldrop, A. Kumar, E. G. Hohenstein,
    B. P. Pritchard, B. R. Brooks, H. F. Schaefer III, A. Yu. Sokolov,
    K. Patkowski, A. E. DePrince III, U. Bozkaya, R. A. King,
    F. A. Evangelista, J. M. Turney, T. D. Crawford, C. D. Sherrill,
    J. Chem. Phys. 152(18) 184108 (2020). https://doi.org/10.1063/5.0006002

                            Additional Code Authors
    E. T. Seidl, C. L. Janssen, E. F. Valeev, M. L. Leininger,
    J. F. Gonthier, R. M. Richard, H. R. McAlexander, M. Saitow, X. Wang,
    P. Verma, M. H. Lechner, and A. Jiang

             Previous Authors, Complete List of Code Contributors,
                       and Citations for Specific Modules
    https://github.com/psi4/psi4/blob/master/codemeta.json
    https://github.com/psi4/psi4/graphs/contributors
    http://psicode.org/psi4manual/master/introduction.html#citing-psifour

    -----------------------------------------------------------------------


    Psi4 started on: Sunday, 14 January 2024 08:30PM

    Process ID: 3029125
    Host:       node111.bme.utexas.edu
    PSIDATADIR: /opt/anaconda/envs/psi4v1.5/share/psi4
    Memory:     500.0 MiB
    Threads:    8
    
  ==> Input File <==

--------------------------------------------------------------------------
memory 80GB

molecule {
0 1
N -2.27772 -0.44018 1.0557
H -2.59769 -0.98387 1.84855
C -1.64742 -1.17203 0.06054
O -1.48199 -2.38772 0.12986
N -1.23877 -0.38821 -1.00137
C -1.21848 1.01994 -1.08573
O -0.69081 1.57628 -2.04507
C -1.86132 1.67687 0.04234
H -1.90163 2.75811 0.05415
C -2.35263 0.93581 1.06098
H -2.83473 1.37351 1.92914
H -0.73991 -0.87785 -1.7463
--
0 1
N 1.1399861666666666 -1.56209625 0.23986691666666665
H 0.8042561666666667 -2.49935625 0.03892691666666666
C 1.2903661666666664 -0.76072625 -0.8829430833333334
O 1.2184961666666667 -1.20126625 -2.0271530833333333
N 1.5231461666666668 0.56730375 -0.5775430833333334
C 1.3935061666666666 1.19999375 0.6750569166666667
O 1.4742961666666665 2.4211237499999996 0.7716469166666666
C 1.1641661666666665 0.26680375 1.7705469166666667
H 1.0817261666666664 0.66363375 2.7740769166666666
C 1.0112261666666664 -1.05205625 1.5124069166666667
H 0.8125961666666667 -1.78714625 2.285986916666667
H 1.5509061666666666 1.19104375 -1.3831930833333332
 units angstrom
 no_reorient
 symmetry c1
}
set{
scf_type DF
basis aug-cc-pvtz
freeze_core True
guess SAD
}
energy('sapt2+(3)dmp2')
--------------------------------------------------------------------------

  Memory set to  74.506 GiB by Python driver.

Scratch directory: /tmp/
   => Loading Basis Set <=

    Name: AUG-CC-PVTZ
    Role: ORBITAL
    Keyword: BASIS
    atoms 1, 5, 13, 17                entry N          line   285 file /opt/anaconda/envs/psi4v1.5/share/psi4/basis/aug-cc-pvtz.gbs 
    atoms 2, 9, 11-12, 14, 21, 23-24  entry H          line    40 file /opt/anaconda/envs/psi4v1.5/share/psi4/basis/aug-cc-pvtz.gbs 
    atoms 3, 6, 8, 10, 15, 18, 20, 22 entry C          line   239 file /opt/anaconda/envs/psi4v1.5/share/psi4/basis/aug-cc-pvtz.gbs 
    atoms 4, 7, 16, 19                entry O          line   331 file /opt/anaconda/envs/psi4v1.5/share/psi4/basis/aug-cc-pvtz.gbs 

   => Loading Basis Set <=

    Name: AUG-CC-PVTZ
    Role: ORBITAL
    Keyword: BASIS
    atoms 1, 5, 13, 17                entry N          line   285 file /opt/anaconda/envs/psi4v1.5/share/psi4/basis/aug-cc-pvtz.gbs 
    atoms 2, 9, 11-12, 14, 21, 23-24  entry H          line    40 file /opt/anaconda/envs/psi4v1.5/share/psi4/basis/aug-cc-pvtz.gbs 
    atoms 3, 6, 8, 10, 15, 18, 20, 22 entry C          line   239 file /opt/anaconda/envs/psi4v1.5/share/psi4/basis/aug-cc-pvtz.gbs 
    atoms 4, 7, 16, 19                entry O          line   331 file /opt/anaconda/envs/psi4v1.5/share/psi4/basis/aug-cc-pvtz.gbs 


  //>>>>>>>>>>>>>>>>>>>>>>>>>>>>>>>>>>>//
  //              Dimer HF             //
  //<<<<<<<<<<<<<<<<<<<<<<<<<<<<<<<<<<<//


*** tstart() called on node111.bme.utexas.edu
*** at Sun Jan 14 20:30:47 2024

   => Loading Basis Set <=

    Name: AUG-CC-PVTZ
    Role: ORBITAL
    Keyword: BASIS
    atoms 1, 5, 13, 17                entry N          line   285 file /opt/anaconda/envs/psi4v1.5/share/psi4/basis/aug-cc-pvtz.gbs 
    atoms 2, 9, 11-12, 14, 21, 23-24  entry H          line    40 file /opt/anaconda/envs/psi4v1.5/share/psi4/basis/aug-cc-pvtz.gbs 
    atoms 3, 6, 8, 10, 15, 18, 20, 22 entry C          line   239 file /opt/anaconda/envs/psi4v1.5/share/psi4/basis/aug-cc-pvtz.gbs 
    atoms 4, 7, 16, 19                entry O          line   331 file /opt/anaconda/envs/psi4v1.5/share/psi4/basis/aug-cc-pvtz.gbs 


         ---------------------------------------------------------
                                   SCF
               by Justin Turney, Rob Parrish, Andy Simmonett
                          and Daniel G. A. Smith
                              RHF Reference
                        8 Threads,  76293 MiB Core
         ---------------------------------------------------------

  ==> Geometry <==

    Molecular point group: c1
    Full point group: C1

    Geometry (in Angstrom), charge = 0, multiplicity = 1:

       Center              X                  Y                   Z               Mass       
    ------------   -----------------  -----------------  -----------------  -----------------
         N           -2.125373962680    -0.467916599727     1.104786020146    14.003074004430
         H           -2.445343962680    -1.011606599727     1.897636020146     1.007825032230
         C           -1.495073962680    -1.199766599727     0.109626020146    12.000000000000
         O           -1.329643962680    -2.415456599727     0.178946020146    15.994914619570
         N           -1.086423962680    -0.415946599727    -0.952283979854    14.003074004430
         C           -1.066133962680     0.992203400273    -1.036643979854    12.000000000000
         O           -0.538463962680     1.548543400273    -1.995983979854    15.994914619570
         C           -1.708973962680     1.649133400273     0.091426020146    12.000000000000
         H           -1.749283962680     2.730373400273     0.103236020146     1.007825032230
         C           -2.200283962680     0.908073400273     1.110066020146    12.000000000000
         H           -2.682383962680     1.345773400273     1.978226020146     1.007825032230
         H           -0.587563962680    -0.905586599727    -1.697213979854     1.007825032230
         N            1.292332203986    -1.589832849727     0.288952936813    14.003074004430
         H            0.956602203986    -2.527092849727     0.088012936813     1.007825032230
         C            1.442712203986    -0.788462849727    -0.833857063187    12.000000000000
         O            1.370842203986    -1.229002849727    -1.978067063187    15.994914619570
         N            1.675492203986     0.539567150273    -0.528457063187    14.003074004430
         C            1.545852203986     1.172257150273     0.724142936813    12.000000000000
         O            1.626642203986     2.393387150273     0.820732936813    15.994914619570
         C            1.316512203986     0.239067150273     1.819632936813    12.000000000000
         H            1.234072203986     0.635897150273     2.823162936813     1.007825032230
         C            1.163572203986    -1.079792849727     1.561492936813    12.000000000000
         H            0.964942203986    -1.814882849727     2.335072936813     1.007825032230
         H            1.703252203986     1.163307150273    -1.334107063187     1.007825032230

  Running in c1 symmetry.

  Rotational constants: A =      0.02309  B =      0.02083  C =      0.01830 [cm^-1]
  Rotational constants: A =    692.12324  B =    624.48868  C =    548.60513 [MHz]
  Nuclear repulsion = 1189.452821529453104

  Charge       = 0
  Multiplicity = 1
  Electrons    = 116
  Nalpha       = 58
  Nbeta        = 58

  ==> Algorithm <==

  SCF Algorithm Type is DF.
  DIIS enabled.
  MOM disabled.
  Fractional occupation disabled.
  Guess Type is SAD.
  Energy threshold   = 1.00e-08
  Density threshold  = 1.00e-08
  Integral threshold = 1.00e-12

  ==> Primary Basis <==

  Basis Set: AUG-CC-PVTZ
    Blend: AUG-CC-PVTZ
    Number of shells: 296
    Number of basis functions: 920
    Number of Cartesian functions: 1080
    Spherical Harmonics?: true
    Max angular momentum: 3

   => Loading Basis Set <=

    Name: (AUG-CC-PVTZ AUX)
    Role: JKFIT
    Keyword: DF_BASIS_SCF
    atoms 1, 5, 13, 17                entry N          line   224 file /opt/anaconda/envs/psi4v1.5/share/psi4/basis/aug-cc-pvtz-jkfit.gbs 
    atoms 2, 9, 11-12, 14, 21, 23-24  entry H          line    70 file /opt/anaconda/envs/psi4v1.5/share/psi4/basis/aug-cc-pvtz-jkfit.gbs 
    atoms 3, 6, 8, 10, 15, 18, 20, 22 entry C          line   162 file /opt/anaconda/envs/psi4v1.5/share/psi4/basis/aug-cc-pvtz-jkfit.gbs 
    atoms 4, 7, 16, 19                entry O          line   286 file /opt/anaconda/envs/psi4v1.5/share/psi4/basis/aug-cc-pvtz-jkfit.gbs 

  ==> Integral Setup <==

  ==> DiskDFJK: Density-Fitted J/K Matrices <==

    J tasked:                  Yes
    K tasked:                  Yes
    wK tasked:                  No
    OpenMP threads:              8
    Integrals threads:           8
    Memory [MiB]:            57220
    Algorithm:                Core
    Integral Cache:           SAVE
    Schwarz Cutoff:          1E-12
    Fitting Condition:       1E-10

   => Auxiliary Basis Set <=

  Basis Set: (AUG-CC-PVTZ AUX)
    Blend: AUG-CC-PVTZ-JKFIT
    Number of shells: 592
    Number of basis functions: 2032
    Number of Cartesian functions: 2536
    Spherical Harmonics?: true
    Max angular momentum: 4

  Minimum eigenvalue in the overlap matrix is 1.7375971271E-06.
  Reciprocal condition number of the overlap matrix is 7.3566610974E-08.
    Using symmetric orthogonalization.

  ==> Pre-Iterations <==

  SCF Guess: Superposition of Atomic Densities via on-the-fly atomic UHF (no occupation information).

   -------------------------
    Irrep   Nso     Nmo    
   -------------------------
     A        920     920 
   -------------------------
    Total     920     920
   -------------------------

  ==> Iterations <==

                           Total Energy        Delta E     RMS |[F,P]|

   @DF-RHF iter SAD:  -824.34878948966150   -8.24349e+02   0.00000e+00 
   @DF-RHF iter   1:  -824.74415571337295   -3.95366e-01   1.12273e-03 DIIS
   @DF-RHF iter   2:  -825.05458337790787   -3.10428e-01   7.43801e-04 DIIS
   @DF-RHF iter   3:  -825.20621596941805   -1.51633e-01   1.47651e-04 DIIS
   @DF-RHF iter   4:  -825.21545297599539   -9.23701e-03   5.93724e-05 DIIS
   @DF-RHF iter   5:  -825.21736344876331   -1.91047e-03   1.21390e-05 DIIS
   @DF-RHF iter   6:  -825.21758146408342   -2.18015e-04   6.09547e-06 DIIS
   @DF-RHF iter   7:  -825.21762600768409   -4.45436e-05   2.58664e-06 DIIS
   @DF-RHF iter   8:  -825.21763379507843   -7.78739e-06   8.60916e-07 DIIS
   @DF-RHF iter   9:  -825.21763446863224   -6.73554e-07   3.49866e-07 DIIS
   @DF-RHF iter  10:  -825.21763460697662   -1.38344e-07   1.23235e-07 DIIS
   @DF-RHF iter  11:  -825.21763462459683   -1.76202e-08   4.75343e-08 DIIS
   @DF-RHF iter  12:  -825.21763462672720   -2.13038e-09   1.67536e-08 DIIS
   @DF-RHF iter  13:  -825.21763462696788   -2.40675e-10   5.01348e-09 DIIS
  Energy and wave function converged.


  ==> Post-Iterations <==

    Orbital Energies [Eh]
    ---------------------

    Doubly Occupied:                                                      

       1A    -20.560691     2A    -20.547986     3A    -20.546984  
       4A    -20.542965     5A    -15.655121     6A    -15.637451  
       7A    -15.631982     8A    -15.623982     9A    -11.433943  
      10A    -11.421546    11A    -11.390233    12A    -11.383772  
      13A    -11.347342    14A    -11.342184    15A    -11.263169  
      16A    -11.260656    17A     -1.446384    18A     -1.430484  
      19A     -1.401059    20A     -1.393279    21A     -1.319628  
      22A     -1.308333    23A     -1.251479    24A     -1.241059  
      25A     -1.093629    26A     -1.087645    27A     -0.939285  
      28A     -0.929316    29A     -0.908277    30A     -0.897226  
      31A     -0.811783    32A     -0.799508    33A     -0.770295  
      34A     -0.760443    35A     -0.724659    36A     -0.710196  
      37A     -0.703998    38A     -0.685388    39A     -0.675335  
      40A     -0.661865    41A     -0.651986    42A     -0.639651  
      43A     -0.620339    44A     -0.612852    45A     -0.605374  
      46A     -0.600226    47A     -0.587027    48A     -0.566362  
      49A     -0.529123    50A     -0.515062    51A     -0.495966  
      52A     -0.484048    53A     -0.456683    54A     -0.450366  
      55A     -0.446946    56A     -0.436628    57A     -0.376781  
      58A     -0.369971  

    Virtual:                                                              

      59A      0.008928    60A      0.023808    61A      0.032265  
      62A      0.037937    63A      0.046680    64A      0.049700  
      65A      0.056268    66A      0.058401    67A      0.064492  
      68A      0.069359    69A      0.076705    70A      0.082382  
      71A      0.084707    72A      0.088064    73A      0.088796  
      74A      0.095928    75A      0.099662    76A      0.101647  
      77A      0.102917    78A      0.108864    79A      0.117100  
      80A      0.121401    81A      0.124751    82A      0.128703  
      83A      0.130683    84A      0.132752    85A      0.136719  
      86A      0.138427    87A      0.141321    88A      0.142251  
      89A      0.147103    90A      0.148529    91A      0.151748  
      92A      0.154462    93A      0.159380    94A      0.160641  
      95A      0.165352    96A      0.174903    97A      0.179321  
      98A      0.185942    99A      0.199893   100A      0.202763  
     101A      0.205448   102A      0.205797   103A      0.215008  
     104A      0.220697   105A      0.222674   106A      0.224620  
     107A      0.228565   108A      0.231889   109A      0.241682  
     110A      0.244467   111A      0.249544   112A      0.252691  
     113A      0.254337   114A      0.262884   115A      0.262894  
     116A      0.268208   117A      0.273966   118A      0.275464  
     119A      0.279537   120A      0.281421   121A      0.285422  
     122A      0.287382   123A      0.291657   124A      0.295470  
     125A      0.301005   126A      0.306189   127A      0.307012  
     128A      0.309506   129A      0.316342   130A      0.317693  
     131A      0.321205   132A      0.326742   133A      0.333886  
     134A      0.335344   135A      0.338145   136A      0.342711  
     137A      0.346379   138A      0.347843   139A      0.350666  
     140A      0.356824   141A      0.360945   142A      0.362857  
     143A      0.370192   144A      0.372144   145A      0.372647  
     146A      0.377518   147A      0.387237   148A      0.391548  
     149A      0.397183   150A      0.401561   151A      0.405250  
     152A      0.407960   153A      0.413201   154A      0.415624  
     155A      0.420303   156A      0.425077   157A      0.426984  
     158A      0.430383   159A      0.437748   160A      0.442577  
     161A      0.443936   162A      0.448108   163A      0.453738  
     164A      0.457416   165A      0.463109   166A      0.465485  
     167A      0.474787   168A      0.478016   169A      0.480406  
     170A      0.481252   171A      0.487824   172A      0.494122  
     173A      0.497439   174A      0.499647   175A      0.504303  
     176A      0.504666   177A      0.509462   178A      0.514451  
     179A      0.517033   180A      0.523270   181A      0.525897  
     182A      0.527290   183A      0.531226   184A      0.537119  
     185A      0.540546   186A      0.542543   187A      0.545304  
     188A      0.549099   189A      0.550094   190A      0.560021  
     191A      0.561722   192A      0.567387   193A      0.574430  
     194A      0.587917   195A      0.593757   196A      0.594090  
     197A      0.596980   198A      0.600902   199A      0.606602  
     200A      0.612775   201A      0.615316   202A      0.619215  
     203A      0.626564   204A      0.629817   205A      0.637875  
     206A      0.640791   207A      0.642344   208A      0.649155  
     209A      0.654075   210A      0.656866   211A      0.660634  
     212A      0.676366   213A      0.678156   214A      0.684297  
     215A      0.689072   216A      0.691558   217A      0.697169  
     218A      0.706240   219A      0.721279   220A      0.724782  
     221A      0.728463   222A      0.733721   223A      0.735546  
     224A      0.738596   225A      0.743110   226A      0.746407  
     227A      0.748597   228A      0.754036   229A      0.761285  
     230A      0.764938   231A      0.768816   232A      0.773194  
     233A      0.787649   234A      0.793143   235A      0.795244  
     236A      0.802313   237A      0.805833   238A      0.807602  
     239A      0.812187   240A      0.816665   241A      0.825033  
     242A      0.828986   243A      0.832840   244A      0.834727  
     245A      0.841259   246A      0.848046   247A      0.860331  
     248A      0.864040   249A      0.867128   250A      0.872199  
     251A      0.876004   252A      0.882623   253A      0.890809  
     254A      0.895607   255A      0.897729   256A      0.901407  
     257A      0.911079   258A      0.915529   259A      0.924623  
     260A      0.925448   261A      0.929009   262A      0.936067  
     263A      0.945632   264A      0.950191   265A      0.953055  
     266A      0.957341   267A      0.960179   268A      0.966659  
     269A      0.969422   270A      0.972793   271A      0.977425  
     272A      0.983058   273A      0.988838   274A      0.992990  
     275A      0.994194   276A      1.001795   277A      1.002369  
     278A      1.013546   279A      1.019423   280A      1.026376  
     281A      1.030259   282A      1.034959   283A      1.042897  
     284A      1.046616   285A      1.051356   286A      1.061313  
     287A      1.063979   288A      1.068942   289A      1.072748  
     290A      1.091954   291A      1.095220   292A      1.102029  
     293A      1.104660   294A      1.108810   295A      1.111729  
     296A      1.118705   297A      1.125167   298A      1.130569  
     299A      1.135800   300A      1.139787   301A      1.146469  
     302A      1.147350   303A      1.157771   304A      1.159289  
     305A      1.165361   306A      1.166591   307A      1.170404  
     308A      1.176547   309A      1.181546   310A      1.181806  
     311A      1.189065   312A      1.191643   313A      1.197801  
     314A      1.200721   315A      1.204551   316A      1.212995  
     317A      1.216575   318A      1.223025   319A      1.228102  
     320A      1.231969   321A      1.240506   322A      1.241940  
     323A      1.247381   324A      1.249924   325A      1.267172  
     326A      1.270723   327A      1.274259   328A      1.277246  
     329A      1.287389   330A      1.294162   331A      1.298843  
     332A      1.304417   333A      1.311651   334A      1.316659  
     335A      1.321084   336A      1.321787   337A      1.332563  
     338A      1.339970   339A      1.341217   340A      1.347001  
     341A      1.351617   342A      1.366408   343A      1.369103  
     344A      1.372079   345A      1.375067   346A      1.379003  
     347A      1.388058   348A      1.389523   349A      1.396529  
     350A      1.404773   351A      1.411170   352A      1.415923  
     353A      1.420457   354A      1.423143   355A      1.427914  
     356A      1.438924   357A      1.445061   358A      1.451545  
     359A      1.458899   360A      1.463571   361A      1.470570  
     362A      1.472770   363A      1.481690   364A      1.487908  
     365A      1.492034   366A      1.494069   367A      1.501244  
     368A      1.506866   369A      1.520814   370A      1.523419  
     371A      1.531875   372A      1.536622   373A      1.541877  
     374A      1.545497   375A      1.555570   376A      1.559839  
     377A      1.570643   378A      1.573115   379A      1.579387  
     380A      1.585116   381A      1.597460   382A      1.600631  
     383A      1.603423   384A      1.611204   385A      1.619724  
     386A      1.623414   387A      1.630032   388A      1.638256  
     389A      1.642314   390A      1.643587   391A      1.652935  
     392A      1.656079   393A      1.668390   394A      1.675882  
     395A      1.684085   396A      1.691597   397A      1.696858  
     398A      1.704573   399A      1.712694   400A      1.716178  
     401A      1.725318   402A      1.732792   403A      1.734822  
     404A      1.744721   405A      1.756971   406A      1.763297  
     407A      1.767221   408A      1.775171   409A      1.779248  
     410A      1.792005   411A      1.798503   412A      1.807132  
     413A      1.816847   414A      1.825550   415A      1.830398  
     416A      1.836377   417A      1.839508   418A      1.847584  
     419A      1.855307   420A      1.861848   421A      1.878211  
     422A      1.882090   423A      1.884916   424A      1.891521  
     425A      1.898165   426A      1.910608   427A      1.911868  
     428A      1.922637   429A      1.930865   430A      1.933587  
     431A      1.936665   432A      1.944904   433A      1.956638  
     434A      1.957755   435A      1.972323   436A      1.975944  
     437A      1.987283   438A      1.988887   439A      1.999908  
     440A      2.014364   441A      2.026049   442A      2.032814  
     443A      2.046698   444A      2.049745   445A      2.055308  
     446A      2.063669   447A      2.073183   448A      2.078569  
     449A      2.091931   450A      2.095386   451A      2.106471  
     452A      2.107386   453A      2.114239   454A      2.120173  
     455A      2.125214   456A      2.132731   457A      2.146494  
     458A      2.155980   459A      2.163054   460A      2.169470  
     461A      2.171339   462A      2.183892   463A      2.188863  
     464A      2.195684   465A      2.199561   466A      2.219392  
     467A      2.225944   468A      2.241935   469A      2.245536  
     470A      2.248721   471A      2.258632   472A      2.265125  
     473A      2.268705   474A      2.284576   475A      2.287340  
     476A      2.296865   477A      2.306183   478A      2.313449  
     479A      2.318400   480A      2.341913   481A      2.344222  
     482A      2.352254   483A      2.362235   484A      2.369635  
     485A      2.377847   486A      2.390907   487A      2.396065  
     488A      2.408639   489A      2.422338   490A      2.434895  
     491A      2.444573   492A      2.449364   493A      2.457523  
     494A      2.472006   495A      2.475835   496A      2.478992  
     497A      2.487685   498A      2.503415   499A      2.514354  
     500A      2.519244   501A      2.523486   502A      2.534037  
     503A      2.539873   504A      2.543075   505A      2.548676  
     506A      2.555695   507A      2.582199   508A      2.584018  
     509A      2.595470   510A      2.598834   511A      2.607020  
     512A      2.611981   513A      2.621632   514A      2.626020  
     515A      2.636448   516A      2.642913   517A      2.649192  
     518A      2.653172   519A      2.672334   520A      2.683753  
     521A      2.685684   522A      2.693706   523A      2.703229  
     524A      2.704877   525A      2.714354   526A      2.724269  
     527A      2.732057   528A      2.743044   529A      2.745639  
     530A      2.755341   531A      2.765306   532A      2.772147  
     533A      2.772704   534A      2.784470   535A      2.797052  
     536A      2.808263   537A      2.823026   538A      2.830886  
     539A      2.844718   540A      2.853535   541A      2.866453  
     542A      2.878170   543A      2.880111   544A      2.885407  
     545A      2.897200   546A      2.899547   547A      2.907637  
     548A      2.930057   549A      2.933101   550A      2.950144  
     551A      2.958881   552A      2.970228   553A      2.982831  
     554A      2.993749   555A      3.010037   556A      3.016275  
     557A      3.030279   558A      3.030914   559A      3.039150  
     560A      3.051752   561A      3.056901   562A      3.073860  
     563A      3.079966   564A      3.086366   565A      3.098791  
     566A      3.108520   567A      3.126817   568A      3.128370  
     569A      3.137099   570A      3.162803   571A      3.167238  
     572A      3.184594   573A      3.196963   574A      3.213998  
     575A      3.224764   576A      3.238172   577A      3.263997  
     578A      3.268030   579A      3.288450   580A      3.296209  
     581A      3.315152   582A      3.315737   583A      3.323621  
     584A      3.341672   585A      3.354610   586A      3.371729  
     587A      3.375788   588A      3.382691   589A      3.406651  
     590A      3.412431   591A      3.428043   592A      3.433612  
     593A      3.452025   594A      3.455530   595A      3.466311  
     596A      3.473637   597A      3.494374   598A      3.503056  
     599A      3.519387   600A      3.543132   601A      3.546547  
     602A      3.559812   603A      3.569665   604A      3.579942  
     605A      3.589188   606A      3.602430   607A      3.611474  
     608A      3.623025   609A      3.630181   610A      3.638285  
     611A      3.665602   612A      3.678516   613A      3.692167  
     614A      3.698641   615A      3.711448   616A      3.720155  
     617A      3.726169   618A      3.738482   619A      3.751499  
     620A      3.764615   621A      3.767621   622A      3.785908  
     623A      3.792167   624A      3.794139   625A      3.808120  
     626A      3.815780   627A      3.830281   628A      3.847520  
     629A      3.855701   630A      3.863177   631A      3.872385  
     632A      3.881521   633A      3.888173   634A      3.896620  
     635A      3.902152   636A      3.904912   637A      3.910865  
     638A      3.928361   639A      3.937230   640A      3.945420  
     641A      3.963256   642A      3.969105   643A      3.974271  
     644A      3.982127   645A      3.989735   646A      4.005227  
     647A      4.012424   648A      4.013719   649A      4.033257  
     650A      4.042680   651A      4.053416   652A      4.062943  
     653A      4.077720   654A      4.083082   655A      4.087910  
     656A      4.098402   657A      4.109649   658A      4.131416  
     659A      4.137665   660A      4.146017   661A      4.153545  
     662A      4.173983   663A      4.177209   664A      4.186495  
     665A      4.193558   666A      4.204127   667A      4.213450  
     668A      4.228797   669A      4.238074   670A      4.240659  
     671A      4.252589   672A      4.256719   673A      4.277033  
     674A      4.291023   675A      4.291330   676A      4.301914  
     677A      4.313012   678A      4.323192   679A      4.336493  
     680A      4.341064   681A      4.364832   682A      4.366103  
     683A      4.373947   684A      4.381618   685A      4.391050  
     686A      4.407052   687A      4.413723   688A      4.419088  
     689A      4.426453   690A      4.431663   691A      4.443406  
     692A      4.455869   693A      4.461063   694A      4.473746  
     695A      4.481891   696A      4.489376   697A      4.511700  
     698A      4.515186   699A      4.531909   700A      4.540341  
     701A      4.560113   702A      4.585031   703A      4.592202  
     704A      4.600159   705A      4.608291   706A      4.626322  
     707A      4.651873   708A      4.658153   709A      4.679404  
     710A      4.688968   711A      4.696233   712A      4.704198  
     713A      4.709585   714A      4.719516   715A      4.727352  
     716A      4.744561   717A      4.763460   718A      4.771118  
     719A      4.783559   720A      4.789732   721A      4.801918  
     722A      4.812020   723A      4.821494   724A      4.832925  
     725A      4.853997   726A      4.856509   727A      4.874020  
     728A      4.879221   729A      4.889679   730A      4.905230  
     731A      4.913491   732A      4.919036   733A      4.933353  
     734A      4.953774   735A      4.962227   736A      4.969521  
     737A      4.988699   738A      4.995751   739A      5.004965  
     740A      5.037065   741A      5.045561   742A      5.059147  
     743A      5.074984   744A      5.095010   745A      5.103528  
     746A      5.106758   747A      5.112098   748A      5.138298  
     749A      5.149526   750A      5.161863   751A      5.169635  
     752A      5.181646   753A      5.187344   754A      5.196619  
     755A      5.205610   756A      5.224740   757A      5.231537  
     758A      5.252485   759A      5.265742   760A      5.271680  
     761A      5.286416   762A      5.312112   763A      5.322679  
     764A      5.336899   765A      5.361606   766A      5.373069  
     767A      5.399852   768A      5.416360   769A      5.418546  
     770A      5.431347   771A      5.456939   772A      5.468337  
     773A      5.482817   774A      5.510209   775A      5.515913  
     776A      5.529358   777A      5.542889   778A      5.557310  
     779A      5.568566   780A      5.572171   781A      5.597706  
     782A      5.614565   783A      5.622990   784A      5.634126  
     785A      5.644617   786A      5.662056   787A      5.675173  
     788A      5.676158   789A      5.689341   790A      5.731330  
     791A      5.750225   792A      5.768052   793A      5.775812  
     794A      5.782421   795A      5.792517   796A      5.801870  
     797A      5.814427   798A      5.840491   799A      5.848852  
     800A      5.857066   801A      5.888860   802A      5.899637  
     803A      5.923337   804A      5.927938   805A      5.954739  
     806A      5.974457   807A      5.990673   808A      5.996121  
     809A      6.025048   810A      6.045252   811A      6.049695  
     812A      6.057720   813A      6.097356   814A      6.124932  
     815A      6.139905   816A      6.157071   817A      6.166872  
     818A      6.177846   819A      6.204128   820A      6.211720  
     821A      6.227748   822A      6.259769   823A      6.277749  
     824A      6.283980   825A      6.305599   826A      6.352566  
     827A      6.394754   828A      6.406877   829A      6.547129  
     830A      6.559654   831A      6.572089   832A      6.594406  
     833A      6.625147   834A      6.635306   835A      6.647362  
     836A      6.672284   837A      6.720138   838A      6.757173  
     839A      6.783120   840A      6.789354   841A      6.794313  
     842A      6.806295   843A      6.811775   844A      6.824153  
     845A      6.841102   846A      6.847149   847A      6.860049  
     848A      6.865318   849A      6.889877   850A      6.904499  
     851A      6.925965   852A      6.927397   853A      6.950515  
     854A      6.970865   855A      6.992009   856A      7.002908  
     857A      7.009362   858A      7.028937   859A      7.062245  
     860A      7.076687   861A      7.089507   862A      7.101334  
     863A      7.112218   864A      7.130447   865A      7.203076  
     866A      7.229953   867A      7.255130   868A      7.260365  
     869A      7.315130   870A      7.348589   871A      7.368215  
     872A      7.399090   873A      7.459427   874A      7.470999  
     875A      7.476904   876A      7.496058   877A      7.504684  
     878A      7.514750   879A      7.531806   880A      7.564220  
     881A      7.569893   882A      7.626787   883A      7.664067  
     884A      7.680581   885A      7.746604   886A      7.763774  
     887A      7.818381   888A      7.838967   889A      7.842494  
     890A      7.853138   891A      7.877062   892A      7.902213  
     893A      7.915978   894A      7.926810   895A      7.980939  
     896A      7.998088   897A      8.004207   898A      8.012037  
     899A      8.044092   900A      8.052363   901A      8.078337  
     902A      8.079201   903A      8.105016   904A      8.135138  
     905A     16.170627   906A     16.237425   907A     16.504055  
     908A     16.686200   909A     16.723971   910A     17.073565  
     911A     17.207092   912A     17.241594   913A     18.350299  
     914A     18.574285   915A     19.896035   916A     19.984795  
     917A     20.300216   918A     20.738211   919A     21.130674  
     920A     21.185396  

    Final Occupation by Irrep:
              A 
    DOCC [    58 ]

  @DF-RHF Final Energy:  -825.21763462696788

   => Energetics <=

    Nuclear Repulsion Energy =           1189.4528215294531037
    One-Electron Energy =               -3491.3690055863089583
    Two-Electron Energy =                1476.6985494298880894
    Total Energy =                       -825.2176346269677651

Computation Completed


Properties will be evaluated at   0.000000,   0.000000,   0.000000 [a0]

Properties computed using the SCF density matrix

  Nuclear Dipole Moment: [e a0]
     X:    -2.4366      Y:    -0.3528      Z:     5.7927

  Electronic Dipole Moment: [e a0]
     X:     1.0768      Y:    -0.4961      Z:    -3.1087

  Dipole Moment: [e a0]
     X:    -1.3598      Y:    -0.8489      Z:     2.6839     Total:     3.1262

  Dipole Moment: [D]
     X:    -3.4563      Y:    -2.1576      Z:     6.8219     Total:     7.9461


*** tstop() called on node111.bme.utexas.edu at Sun Jan 14 20:32:21 2024
Module time:
	user time   =     662.02 seconds =      11.03 minutes
	system time =       5.69 seconds =       0.09 minutes
	total time  =         94 seconds =       1.57 minutes
Total time:
	user time   =     662.02 seconds =      11.03 minutes
	system time =       5.69 seconds =       0.09 minutes
	total time  =         94 seconds =       1.57 minutes

*** tstart() called on node111.bme.utexas.edu
*** at Sun Jan 14 20:32:21 2024


  //>>>>>>>>>>>>>>>>>>>>>>>>>>>>>>>>>>>//
  //               DFMP2               //
  //<<<<<<<<<<<<<<<<<<<<<<<<<<<<<<<<<<<//

   => Loading Basis Set <=

    Name: (AUG-CC-PVTZ AUX)
    Role: RIFIT
    Keyword: DF_BASIS_MP2
    atoms 1, 5, 13, 17                entry N          line   206 file /opt/anaconda/envs/psi4v1.5/share/psi4/basis/aug-cc-pvtz-ri.gbs 
    atoms 2, 9, 11-12, 14, 21, 23-24  entry H          line    30 file /opt/anaconda/envs/psi4v1.5/share/psi4/basis/aug-cc-pvtz-ri.gbs 
    atoms 3, 6, 8, 10, 15, 18, 20, 22 entry C          line   148 file /opt/anaconda/envs/psi4v1.5/share/psi4/basis/aug-cc-pvtz-ri.gbs 
    atoms 4, 7, 16, 19                entry O          line   264 file /opt/anaconda/envs/psi4v1.5/share/psi4/basis/aug-cc-pvtz-ri.gbs 

	 --------------------------------------------------------
	                          DF-MP2                         
	      2nd-Order Density-Fitted Moller-Plesset Theory     
	              RMP2 Wavefunction,   8 Threads             
	                                                         
	        Rob Parrish, Justin Turney, Andy Simmonett,      
	           Ed Hohenstein, and C. David Sherrill          
	 --------------------------------------------------------

   => Auxiliary Basis Set <=

  Basis Set: (AUG-CC-PVTZ AUX)
    Blend: AUG-CC-PVTZ-RI
    Number of shells: 560
    Number of basis functions: 2064
    Number of Cartesian functions: 2616
    Spherical Harmonics?: true
    Max angular momentum: 4

	 --------------------------------------------------------
	                 NBF =   920, NAUX =  2064
	 --------------------------------------------------------
	   CLASS    FOCC     OCC    AOCC    AVIR     VIR    FVIR
	   PAIRS      16      58      42     862     862       0
	 --------------------------------------------------------

	 Will save fitting metric to file 97.

	-----------------------------------------------------------
	 ==================> DF-MP2 Energies <==================== 
	-----------------------------------------------------------
	 Reference Energy          =    -825.2176346269678788 [Eh]
	 Singles Energy            =      -0.0000000000000000 [Eh]
	 Same-Spin Energy          =      -0.8013246721797621 [Eh]
	 Opposite-Spin Energy      =      -2.2423614548713804 [Eh]
	 Correlation Energy        =      -3.0436861270511426 [Eh]
	 Total Energy              =    -828.2613207540190388 [Eh]
	-----------------------------------------------------------
	 ================> DF-SCS-MP2 Energies <================== 
	-----------------------------------------------------------
	 SCS Same-Spin Scale       =       0.3333333333333333 [-]
	 SCS Opposite-Spin Scale   =       1.2000000000000000 [-]
	 SCS Same-Spin Energy      =      -0.2671082240599207 [Eh]
	 SCS Opposite-Spin Energy  =      -2.6908337458456564 [Eh]
	 SCS Correlation Energy    =      -2.9579419699055771 [Eh]
	 SCS Total Energy          =    -828.1755765968734977 [Eh]
	-----------------------------------------------------------


*** tstop() called on node111.bme.utexas.edu at Sun Jan 14 20:32:46 2024
Module time:
	user time   =     146.58 seconds =       2.44 minutes
	system time =       3.69 seconds =       0.06 minutes
	total time  =         25 seconds =       0.42 minutes
Total time:
	user time   =     808.60 seconds =      13.48 minutes
	system time =       9.38 seconds =       0.16 minutes
	total time  =        119 seconds =       1.98 minutes

  //>>>>>>>>>>>>>>>>>>>>>>>>>>>>>>>>>>>//
  //            Monomer A HF           //
  //<<<<<<<<<<<<<<<<<<<<<<<<<<<<<<<<<<<//


*** tstart() called on node111.bme.utexas.edu
*** at Sun Jan 14 20:32:46 2024

   => Loading Basis Set <=

    Name: AUG-CC-PVTZ
    Role: ORBITAL
    Keyword: BASIS
    atoms 1, 5, 13, 17                entry N          line   285 file /opt/anaconda/envs/psi4v1.5/share/psi4/basis/aug-cc-pvtz.gbs 
    atoms 2, 9, 11-12, 14, 21, 23-24  entry H          line    40 file /opt/anaconda/envs/psi4v1.5/share/psi4/basis/aug-cc-pvtz.gbs 
    atoms 3, 6, 8, 10, 15, 18, 20, 22 entry C          line   239 file /opt/anaconda/envs/psi4v1.5/share/psi4/basis/aug-cc-pvtz.gbs 
    atoms 4, 7, 16, 19                entry O          line   331 file /opt/anaconda/envs/psi4v1.5/share/psi4/basis/aug-cc-pvtz.gbs 


         ---------------------------------------------------------
                                   SCF
               by Justin Turney, Rob Parrish, Andy Simmonett
                          and Daniel G. A. Smith
                              RHF Reference
                        8 Threads,  76293 MiB Core
         ---------------------------------------------------------

  ==> Geometry <==

    Molecular point group: c1
    Full point group: C1

    Geometry (in Angstrom), charge = 0, multiplicity = 1:

       Center              X                  Y                   Z               Mass       
    ------------   -----------------  -----------------  -----------------  -----------------
         N           -2.125373962680    -0.467916599727     1.104786020146    14.003074004430
         H           -2.445343962680    -1.011606599727     1.897636020146     1.007825032230
         C           -1.495073962680    -1.199766599727     0.109626020146    12.000000000000
         O           -1.329643962680    -2.415456599727     0.178946020146    15.994914619570
         N           -1.086423962680    -0.415946599727    -0.952283979854    14.003074004430
         C           -1.066133962680     0.992203400273    -1.036643979854    12.000000000000
         O           -0.538463962680     1.548543400273    -1.995983979854    15.994914619570
         C           -1.708973962680     1.649133400273     0.091426020146    12.000000000000
         H           -1.749283962680     2.730373400273     0.103236020146     1.007825032230
         C           -2.200283962680     0.908073400273     1.110066020146    12.000000000000
         H           -2.682383962680     1.345773400273     1.978226020146     1.007825032230
         H           -0.587563962680    -0.905586599727    -1.697213979854     1.007825032230
      Gh(N)           1.292332203986    -1.589832849727     0.288952936813    14.003074004430
      Gh(H)           0.956602203986    -2.527092849727     0.088012936813     1.007825032230
      Gh(C)           1.442712203986    -0.788462849727    -0.833857063187    12.000000000000
      Gh(O)           1.370842203986    -1.229002849727    -1.978067063187    15.994914619570
      Gh(N)           1.675492203986     0.539567150273    -0.528457063187    14.003074004430
      Gh(C)           1.545852203986     1.172257150273     0.724142936813    12.000000000000
      Gh(O)           1.626642203986     2.393387150273     0.820732936813    15.994914619570
      Gh(C)           1.316512203986     0.239067150273     1.819632936813    12.000000000000
      Gh(H)           1.234072203986     0.635897150273     2.823162936813     1.007825032230
      Gh(C)           1.163572203986    -1.079792849727     1.561492936813    12.000000000000
      Gh(H)           0.964942203986    -1.814882849727     2.335072936813     1.007825032230
      Gh(H)           1.703252203986     1.163307150273    -1.334107063187     1.007825032230

  Running in c1 symmetry.

  Rotational constants: A =      0.02309  B =      0.02083  C =      0.01830 [cm^-1]
  Rotational constants: A =    692.12324  B =    624.48868  C =    548.60513 [MHz]
  Nuclear repulsion =  355.429207553247466

  Charge       = 0
  Multiplicity = 1
  Electrons    = 58
  Nalpha       = 29
  Nbeta        = 29

  ==> Algorithm <==

  SCF Algorithm Type is DF.
  DIIS enabled.
  MOM disabled.
  Fractional occupation disabled.
  Guess Type is SAD.
  Energy threshold   = 1.00e-08
  Density threshold  = 1.00e-08
  Integral threshold = 1.00e-12

  ==> Primary Basis <==

  Basis Set: AUG-CC-PVTZ
    Blend: AUG-CC-PVTZ
    Number of shells: 296
    Number of basis functions: 920
    Number of Cartesian functions: 1080
    Spherical Harmonics?: true
    Max angular momentum: 3

   => Loading Basis Set <=

    Name: (AUG-CC-PVTZ AUX)
    Role: JKFIT
    Keyword: DF_BASIS_SCF
    atoms 1, 5, 13, 17                entry N          line   224 file /opt/anaconda/envs/psi4v1.5/share/psi4/basis/aug-cc-pvtz-jkfit.gbs 
    atoms 2, 9, 11-12, 14, 21, 23-24  entry H          line    70 file /opt/anaconda/envs/psi4v1.5/share/psi4/basis/aug-cc-pvtz-jkfit.gbs 
    atoms 3, 6, 8, 10, 15, 18, 20, 22 entry C          line   162 file /opt/anaconda/envs/psi4v1.5/share/psi4/basis/aug-cc-pvtz-jkfit.gbs 
    atoms 4, 7, 16, 19                entry O          line   286 file /opt/anaconda/envs/psi4v1.5/share/psi4/basis/aug-cc-pvtz-jkfit.gbs 

  ==> Integral Setup <==

  ==> DiskDFJK: Density-Fitted J/K Matrices <==

    J tasked:                  Yes
    K tasked:                  Yes
    wK tasked:                  No
    OpenMP threads:              8
    Integrals threads:           8
    Memory [MiB]:            57220
    Algorithm:                Core
    Integral Cache:           LOAD
    Schwarz Cutoff:          1E-12
    Fitting Condition:       1E-10

   => Auxiliary Basis Set <=

  Basis Set: (AUG-CC-PVTZ AUX)
    Blend: AUG-CC-PVTZ-JKFIT
    Number of shells: 592
    Number of basis functions: 2032
    Number of Cartesian functions: 2536
    Spherical Harmonics?: true
    Max angular momentum: 4

  Minimum eigenvalue in the overlap matrix is 1.7375971271E-06.
  Reciprocal condition number of the overlap matrix is 7.3566610974E-08.
    Using symmetric orthogonalization.

  ==> Pre-Iterations <==

  SCF Guess: Superposition of Atomic Densities via on-the-fly atomic UHF (no occupation information).

   -------------------------
    Irrep   Nso     Nmo    
   -------------------------
     A        920     920 
   -------------------------
    Total     920     920
   -------------------------

  ==> Iterations <==

                           Total Energy        Delta E     RMS |[F,P]|

   @DF-RHF iter SAD:  -411.85206563203747   -4.11852e+02   0.00000e+00 
   @DF-RHF iter   1:  -412.37324361629061   -5.21178e-01   8.10283e-04 DIIS
   @DF-RHF iter   2:  -412.53373387899592   -1.60490e-01   5.44928e-04 DIIS
   @DF-RHF iter   3:  -412.61503518513007   -8.13013e-02   9.79999e-05 DIIS
   @DF-RHF iter   4:  -412.61938099858452   -4.34581e-03   4.03351e-05 DIIS
   @DF-RHF iter   5:  -412.62029715478093   -9.16156e-04   8.32669e-06 DIIS
   @DF-RHF iter   6:  -412.62040743890964   -1.10284e-04   4.21104e-06 DIIS
   @DF-RHF iter   7:  -412.62042749348865   -2.00546e-05   1.70646e-06 DIIS
   @DF-RHF iter   8:  -412.62043103879904   -3.54531e-06   5.88726e-07 DIIS
   @DF-RHF iter   9:  -412.62043131877141   -2.79972e-07   2.48691e-07 DIIS
   @DF-RHF iter  10:  -412.62043138860986   -6.98384e-08   8.32011e-08 DIIS
   @DF-RHF iter  11:  -412.62043139736505   -8.75519e-09   2.75264e-08 DIIS
   @DF-RHF iter  12:  -412.62043139806894   -7.03892e-10   8.84916e-09 DIIS
  Energy and wave function converged.


  ==> Post-Iterations <==

    Orbital Energies [Eh]
    ---------------------

    Doubly Occupied:                                                      

       1A    -20.548140     2A    -20.544716     3A    -15.647457  
       4A    -15.631510     5A    -11.422586     6A    -11.385733  
       7A    -11.345300     8A    -11.260294     9A     -1.429899  
      10A     -1.393524    11A     -1.309972    12A     -1.243847  
      13A     -1.089121    14A     -0.932642    15A     -0.900715  
      16A     -0.804584    17A     -0.763484    18A     -0.713385  
      19A     -0.676944    20A     -0.666738    21A     -0.650859  
      22A     -0.614717    23A     -0.600877    24A     -0.568445  
      25A     -0.524279    26A     -0.483496    27A     -0.450989  
      28A     -0.437262    29A     -0.371001  

    Virtual:                                                              

      30A      0.012213    31A      0.026995    32A      0.031177  
      33A      0.035857    34A      0.046211    35A      0.048531  
      36A      0.051889    37A      0.062570    38A      0.062901  
      39A      0.071812    40A      0.075718    41A      0.077917  
      42A      0.085618    43A      0.086126    44A      0.093143  
      45A      0.094496    46A      0.099118    47A      0.100610  
      48A      0.103528    49A      0.109711    50A      0.113318  
      51A      0.115743    52A      0.123788    53A      0.127301  
      54A      0.128941    55A      0.130851    56A      0.138240  
      57A      0.139729    58A      0.142812    59A      0.145421  
      60A      0.145843    61A      0.146664    62A      0.157024  
      63A      0.158071    64A      0.161588    65A      0.167595  
      66A      0.172670    67A      0.178482    68A      0.183547  
      69A      0.187749    70A      0.198012    71A      0.198628  
      72A      0.202144    73A      0.207226    74A      0.211173  
      75A      0.216670    76A      0.220816    77A      0.224294  
      78A      0.230372    79A      0.236011    80A      0.237472  
      81A      0.240934    82A      0.245965    83A      0.250236  
      84A      0.252903    85A      0.253816    86A      0.260244  
      87A      0.263941    88A      0.271531    89A      0.274599  
      90A      0.279836    91A      0.283015    92A      0.285512  
      93A      0.290318    94A      0.294414    95A      0.295576  
      96A      0.302175    97A      0.304339    98A      0.305381  
      99A      0.310955   100A      0.316036   101A      0.320505  
     102A      0.325952   103A      0.326238   104A      0.336131  
     105A      0.338743   106A      0.344289   107A      0.345530  
     108A      0.346930   109A      0.353093   110A      0.358855  
     111A      0.361374   112A      0.362711   113A      0.367176  
     114A      0.374542   115A      0.375384   116A      0.383266  
     117A      0.391003   118A      0.396332   119A      0.401617  
     120A      0.402766   121A      0.408274   122A      0.413086  
     123A      0.416473   124A      0.420657   125A      0.426669  
     126A      0.432362   127A      0.438130   128A      0.439105  
     129A      0.443974   130A      0.449820   131A      0.450857  
     132A      0.457730   133A      0.460162   134A      0.464278  
     135A      0.468913   136A      0.472676   137A      0.475069  
     138A      0.480760   139A      0.484563   140A      0.491237  
     141A      0.495098   142A      0.500639   143A      0.503504  
     144A      0.507433   145A      0.514742   146A      0.516315  
     147A      0.522245   148A      0.523644   149A      0.526817  
     150A      0.529985   151A      0.534715   152A      0.537193  
     153A      0.542116   154A      0.549603   155A      0.551876  
     156A      0.555752   157A      0.558075   158A      0.562050  
     159A      0.566460   160A      0.574582   161A      0.576645  
     162A      0.587965   163A      0.592133   164A      0.601588  
     165A      0.605289   166A      0.609928   167A      0.613906  
     168A      0.617800   169A      0.621281   170A      0.625706  
     171A      0.629424   172A      0.632743   173A      0.639036  
     174A      0.646020   175A      0.649300   176A      0.652333  
     177A      0.653862   178A      0.657088   179A      0.663165  
     180A      0.670311   181A      0.684838   182A      0.686743  
     183A      0.693441   184A      0.695630   185A      0.699403  
     186A      0.714942   187A      0.715981   188A      0.721659  
     189A      0.726381   190A      0.730942   191A      0.734990  
     192A      0.738767   193A      0.740282   194A      0.753612  
     195A      0.756676   196A      0.761520   197A      0.774793  
     198A      0.776571   199A      0.779804   200A      0.790379  
     201A      0.792536   202A      0.794390   203A      0.800798  
     204A      0.809461   205A      0.814693   206A      0.818213  
     207A      0.825747   208A      0.829177   209A      0.832813  
     210A      0.850024   211A      0.852058   212A      0.860704  
     213A      0.863418   214A      0.866742   215A      0.875410  
     216A      0.878362   217A      0.882248   218A      0.893387  
     219A      0.897687   220A      0.903184   221A      0.904260  
     222A      0.912150   223A      0.919280   224A      0.922761  
     225A      0.930917   226A      0.933107   227A      0.935997  
     228A      0.942925   229A      0.945999   230A      0.950059  
     231A      0.952657   232A      0.962277   233A      0.970094  
     234A      0.973878   235A      0.976137   236A      0.982686  
     237A      0.983528   238A      0.992092   239A      0.995293  
     240A      1.001386   241A      1.012426   242A      1.017464  
     243A      1.024307   244A      1.025582   245A      1.030463  
     246A      1.036180   247A      1.046834   248A      1.047932  
     249A      1.056949   250A      1.060868   251A      1.067987  
     252A      1.071665   253A      1.077600   254A      1.089151  
     255A      1.093130   256A      1.099306   257A      1.106507  
     258A      1.106991   259A      1.108624   260A      1.112078  
     261A      1.120404   262A      1.125005   263A      1.129452  
     264A      1.131988   265A      1.139442   266A      1.142204  
     267A      1.148821   268A      1.158014   269A      1.159581  
     270A      1.164675   271A      1.166125   272A      1.175729  
     273A      1.184785   274A      1.186390   275A      1.188721  
     276A      1.192860   277A      1.195673   278A      1.199723  
     279A      1.206191   280A      1.211115   281A      1.218530  
     282A      1.221213   283A      1.228305   284A      1.233777  
     285A      1.240657   286A      1.246485   287A      1.248151  
     288A      1.258670   289A      1.259512   290A      1.263555  
     291A      1.269534   292A      1.276454   293A      1.287866  
     294A      1.294929   295A      1.300360   296A      1.301522  
     297A      1.309329   298A      1.315023   299A      1.318993  
     300A      1.323109   301A      1.326562   302A      1.330465  
     303A      1.334850   304A      1.341667   305A      1.345219  
     306A      1.360703   307A      1.368540   308A      1.373589  
     309A      1.377100   310A      1.384906   311A      1.391211  
     312A      1.394677   313A      1.396297   314A      1.400802  
     315A      1.410105   316A      1.414974   317A      1.422184  
     318A      1.430913   319A      1.436142   320A      1.441407  
     321A      1.448833   322A      1.454354   323A      1.460735  
     324A      1.470550   325A      1.473248   326A      1.479758  
     327A      1.485890   328A      1.492818   329A      1.497281  
     330A      1.500682   331A      1.507612   332A      1.520047  
     333A      1.528701   334A      1.535176   335A      1.541834  
     336A      1.548936   337A      1.554503   338A      1.563306  
     339A      1.573824   340A      1.574490   341A      1.577184  
     342A      1.588003   343A      1.592074   344A      1.599058  
     345A      1.603844   346A      1.610699   347A      1.622285  
     348A      1.625042   349A      1.626581   350A      1.638657  
     351A      1.648250   352A      1.650864   353A      1.653813  
     354A      1.665020   355A      1.675439   356A      1.678100  
     357A      1.686622   358A      1.695295   359A      1.699801  
     360A      1.708740   361A      1.717994   362A      1.720704  
     363A      1.723699   364A      1.741197   365A      1.743758  
     366A      1.750461   367A      1.754598   368A      1.766771  
     369A      1.774573   370A      1.779881   371A      1.783895  
     372A      1.793727   373A      1.799351   374A      1.804386  
     375A      1.815656   376A      1.818495   377A      1.820438  
     378A      1.831208   379A      1.842236   380A      1.847524  
     381A      1.852957   382A      1.861622   383A      1.865026  
     384A      1.872033   385A      1.878706   386A      1.883821  
     387A      1.900547   388A      1.910568   389A      1.920861  
     390A      1.923855   391A      1.929582   392A      1.939479  
     393A      1.952449   394A      1.956529   395A      1.962351  
     396A      1.975690   397A      1.977325   398A      1.984697  
     399A      1.992986   400A      2.002640   401A      2.012363  
     402A      2.017904   403A      2.025649   404A      2.031041  
     405A      2.036653   406A      2.046416   407A      2.050821  
     408A      2.062151   409A      2.063258   410A      2.072208  
     411A      2.088357   412A      2.094805   413A      2.105447  
     414A      2.110815   415A      2.118853   416A      2.122617  
     417A      2.137056   418A      2.139858   419A      2.148872  
     420A      2.149939   421A      2.158843   422A      2.166036  
     423A      2.176636   424A      2.183807   425A      2.194995  
     426A      2.200594   427A      2.206427   428A      2.214983  
     429A      2.226392   430A      2.232345   431A      2.241443  
     432A      2.252426   433A      2.255498   434A      2.264841  
     435A      2.273038   436A      2.277362   437A      2.292890  
     438A      2.295033   439A      2.315300   440A      2.316846  
     441A      2.323868   442A      2.340671   443A      2.348764  
     444A      2.357190   445A      2.358936   446A      2.361177  
     447A      2.373119   448A      2.379811   449A      2.393618  
     450A      2.397803   451A      2.403872   452A      2.410330  
     453A      2.419068   454A      2.422985   455A      2.444339  
     456A      2.452754   457A      2.461807   458A      2.476884  
     459A      2.491018   460A      2.491952   461A      2.499385  
     462A      2.507819   463A      2.518526   464A      2.526426  
     465A      2.532092   466A      2.549663   467A      2.557656  
     468A      2.565475   469A      2.571457   470A      2.578678  
     471A      2.588123   472A      2.591998   473A      2.608301  
     474A      2.612752   475A      2.620508   476A      2.623553  
     477A      2.636475   478A      2.639675   479A      2.653780  
     480A      2.659967   481A      2.669350   482A      2.680121  
     483A      2.684420   484A      2.699243   485A      2.700759  
     486A      2.712119   487A      2.714931   488A      2.720949  
     489A      2.734224   490A      2.742546   491A      2.758599  
     492A      2.762115   493A      2.766188   494A      2.769552  
     495A      2.780888   496A      2.787665   497A      2.802244  
     498A      2.812159   499A      2.813774   500A      2.826692  
     501A      2.831371   502A      2.842167   503A      2.851524  
     504A      2.856006   505A      2.859527   506A      2.869493  
     507A      2.877791   508A      2.884550   509A      2.888440  
     510A      2.901853   511A      2.918038   512A      2.921403  
     513A      2.925709   514A      2.939566   515A      2.947942  
     516A      2.972698   517A      2.978829   518A      2.980946  
     519A      2.989375   520A      3.002871   521A      3.013913  
     522A      3.029837   523A      3.039449   524A      3.046524  
     525A      3.055474   526A      3.069559   527A      3.077553  
     528A      3.089963   529A      3.100104   530A      3.102953  
     531A      3.113642   532A      3.117034   533A      3.122911  
     534A      3.150601   535A      3.156574   536A      3.165974  
     537A      3.168889   538A      3.185825   539A      3.193782  
     540A      3.202404   541A      3.225764   542A      3.236260  
     543A      3.247033   544A      3.252147   545A      3.257153  
     546A      3.268579   547A      3.291616   548A      3.301697  
     549A      3.317741   550A      3.320197   551A      3.335027  
     552A      3.353722   553A      3.356497   554A      3.364910  
     555A      3.394245   556A      3.404953   557A      3.416151  
     558A      3.425824   559A      3.442943   560A      3.446167  
     561A      3.455173   562A      3.472564   563A      3.495606  
     564A      3.505234   565A      3.523661   566A      3.538042  
     567A      3.550953   568A      3.567015   569A      3.575612  
     570A      3.588887   571A      3.598369   572A      3.620965  
     573A      3.630572   574A      3.644531   575A      3.655153  
     576A      3.660231   577A      3.669857   578A      3.703281  
     579A      3.722514   580A      3.735073   581A      3.743439  
     582A      3.754772   583A      3.775100   584A      3.786372  
     585A      3.796334   586A      3.799537   587A      3.806245  
     588A      3.810951   589A      3.830229   590A      3.841754  
     591A      3.844820   592A      3.853336   593A      3.866432  
     594A      3.882188   595A      3.886582   596A      3.901645  
     597A      3.915612   598A      3.917730   599A      3.929947  
     600A      3.934925   601A      3.954332   602A      3.959573  
     603A      3.997212   604A      4.001268   605A      4.007658  
     606A      4.014663   607A      4.026005   608A      4.040095  
     609A      4.066516   610A      4.069049   611A      4.089785  
     612A      4.095327   613A      4.114563   614A      4.126950  
     615A      4.140716   616A      4.156204   617A      4.166425  
     618A      4.182373   619A      4.194199   620A      4.199926  
     621A      4.219170   622A      4.232119   623A      4.244318  
     624A      4.252520   625A      4.270877   626A      4.271576  
     627A      4.287234   628A      4.301422   629A      4.321616  
     630A      4.325282   631A      4.336822   632A      4.350312  
     633A      4.372697   634A      4.386677   635A      4.398031  
     636A      4.402917   637A      4.403675   638A      4.422457  
     639A      4.430860   640A      4.437603   641A      4.444834  
     642A      4.456754   643A      4.467127   644A      4.475716  
     645A      4.490041   646A      4.503675   647A      4.517916  
     648A      4.534743   649A      4.545729   650A      4.546420  
     651A      4.573803   652A      4.582522   653A      4.598403  
     654A      4.622517   655A      4.631292   656A      4.641923  
     657A      4.666593   658A      4.680117   659A      4.687619  
     660A      4.692659   661A      4.726333   662A      4.741031  
     663A      4.742636   664A      4.762145   665A      4.771832  
     666A      4.773009   667A      4.784671   668A      4.790086  
     669A      4.809863   670A      4.821580   671A      4.831405  
     672A      4.841863   673A      4.859721   674A      4.868882  
     675A      4.889240   676A      4.896289   677A      4.911164  
     678A      4.918496   679A      4.930158   680A      4.952624  
     681A      4.964673   682A      4.974617   683A      4.983361  
     684A      4.989773   685A      5.000130   686A      5.005947  
     687A      5.014898   688A      5.047403   689A      5.054021  
     690A      5.061837   691A      5.073738   692A      5.087709  
     693A      5.107150   694A      5.114834   695A      5.124319  
     696A      5.132595   697A      5.138703   698A      5.154255  
     699A      5.161002   700A      5.177049   701A      5.180207  
     702A      5.198798   703A      5.210047   704A      5.215440  
     705A      5.242286   706A      5.253149   707A      5.265365  
     708A      5.280917   709A      5.288635   710A      5.308164  
     711A      5.312571   712A      5.337021   713A      5.346622  
     714A      5.364987   715A      5.375790   716A      5.385539  
     717A      5.390552   718A      5.410855   719A      5.419422  
     720A      5.427407   721A      5.454546   722A      5.472286  
     723A      5.480105   724A      5.491262   725A      5.518633  
     726A      5.542500   727A      5.546985   728A      5.556188  
     729A      5.566313   730A      5.569818   731A      5.582303  
     732A      5.598862   733A      5.622808   734A      5.634583  
     735A      5.641199   736A      5.651095   737A      5.664645  
     738A      5.673452   739A      5.682656   740A      5.699988  
     741A      5.718288   742A      5.754551   743A      5.767967  
     744A      5.783674   745A      5.800921   746A      5.809637  
     747A      5.813954   748A      5.827905   749A      5.834934  
     750A      5.862983   751A      5.875966   752A      5.906022  
     753A      5.926183   754A      5.934228   755A      5.946862  
     756A      5.964083   757A      5.971767   758A      5.977783  
     759A      6.007374   760A      6.031917   761A      6.040613  
     762A      6.065839   763A      6.098164   764A      6.115981  
     765A      6.132317   766A      6.157605   767A      6.164515  
     768A      6.173903   769A      6.200220   770A      6.218356  
     771A      6.225405   772A      6.258552   773A      6.265874  
     774A      6.286582   775A      6.306672   776A      6.353194  
     777A      6.373790   778A      6.450682   779A      6.485383  
     780A      6.513909   781A      6.550867   782A      6.580541  
     783A      6.592826   784A      6.638413   785A      6.646550  
     786A      6.657249   787A      6.682737   788A      6.724738  
     789A      6.729396   790A      6.775866   791A      6.783583  
     792A      6.799465   793A      6.816758   794A      6.820265  
     795A      6.836105   796A      6.846636   797A      6.861222  
     798A      6.872606   799A      6.889683   800A      6.902470  
     801A      6.921592   802A      6.925270   803A      6.947982  
     804A      6.955299   805A      6.978062   806A      6.998525  
     807A      7.031768   808A      7.060679   809A      7.091895  
     810A      7.096370   811A      7.106281   812A      7.183733  
     813A      7.219739   814A      7.256760   815A      7.265491  
     816A      7.307830   817A      7.326418   818A      7.341424  
     819A      7.377099   820A      7.416118   821A      7.460803  
     822A      7.474647   823A      7.499578   824A      7.513576  
     825A      7.529673   826A      7.557125   827A      7.559295  
     828A      7.600724   829A      7.624411   830A      7.645019  
     831A      7.663049   832A      7.701828   833A      7.716699  
     834A      7.734756   835A      7.746893   836A      7.771235  
     837A      7.800624   838A      7.816166   839A      7.839846  
     840A      7.858739   841A      7.863081   842A      7.900371  
     843A      7.906901   844A      7.919851   845A      7.937177  
     846A      7.943674   847A      7.976619   848A      7.987211  
     849A      8.007330   850A      8.012166   851A      8.026311  
     852A      8.054360   853A      8.057999   854A      8.075642  
     855A      8.090086   856A      8.107257   857A      8.131287  
     858A      8.146644   859A      8.249519   860A      8.288529  
     861A      8.306024   862A      8.351085   863A      8.400590  
     864A      8.443789   865A      8.598157   866A      8.701486  
     867A      8.731366   868A      8.761186   869A      8.898667  
     870A      9.032939   871A      9.103175   872A      9.183832  
     873A      9.293385   874A      9.642546   875A      9.742256  
     876A      9.773411   877A      9.939821   878A     10.034182  
     879A     10.085009   880A     10.106061   881A     10.171542  
     882A     10.318508   883A     10.339335   884A     10.395398  
     885A     10.457354   886A     10.493604   887A     10.552185  
     888A     10.587665   889A     10.977313   890A     11.272912  
     891A     11.385414   892A     11.577426   893A     12.058471  
     894A     12.097952   895A     12.124824   896A     12.340722  
     897A     12.364376   898A     12.539756   899A     12.721695  
     900A     12.872626   901A     13.409454   902A     13.681579  
     903A     14.203828   904A     14.234627   905A     16.283376  
     906A     16.613679   907A     17.089541   908A     17.162844  
     909A     18.364513   910A     19.979881   911A     20.702887  
     912A     21.114924   913A     52.289086   914A     52.366305  
     915A     55.468538   916A     55.989915   917A     61.312015  
     918A     62.278709   919A     69.682295   920A     70.590773  

    Final Occupation by Irrep:
              A 
    DOCC [    29 ]

  @DF-RHF Final Energy:  -412.62043139806894

   => Energetics <=

    Nuclear Repulsion Energy =            355.4292075532474655
    One-Electron Energy =               -1267.2742357251515841
    Two-Electron Energy =                 499.2245967738351737
    Total Energy =                       -412.6204313980689449

Computation Completed


Properties will be evaluated at   0.000000,   0.000000,   0.000000 [a0]

Properties computed using the SCF density matrix

  Nuclear Dipole Moment: [e a0]
     X:  -158.1981      Y:     5.9233      Z:   -18.0281

  Electronic Dipole Moment: [e a0]
     X:   157.2249      Y:    -5.3886      Z:    19.6878

  Dipole Moment: [e a0]
     X:    -0.9732      Y:     0.5347      Z:     1.6597     Total:     1.9969

  Dipole Moment: [D]
     X:    -2.4736      Y:     1.3591      Z:     4.2184     Total:     5.0755


*** tstop() called on node111.bme.utexas.edu at Sun Jan 14 20:33:48 2024
Module time:
	user time   =     430.62 seconds =       7.18 minutes
	system time =       2.92 seconds =       0.05 minutes
	total time  =         62 seconds =       1.03 minutes
Total time:
	user time   =    1239.24 seconds =      20.65 minutes
	system time =      12.30 seconds =       0.21 minutes
	total time  =        181 seconds =       3.02 minutes

*** tstart() called on node111.bme.utexas.edu
*** at Sun Jan 14 20:33:48 2024


  //>>>>>>>>>>>>>>>>>>>>>>>>>>>>>>>>>>>//
  //               DFMP2               //
  //<<<<<<<<<<<<<<<<<<<<<<<<<<<<<<<<<<<//

   => Loading Basis Set <=

    Name: (AUG-CC-PVTZ AUX)
    Role: RIFIT
    Keyword: DF_BASIS_MP2
    atoms 1, 5, 13, 17                entry N          line   206 file /opt/anaconda/envs/psi4v1.5/share/psi4/basis/aug-cc-pvtz-ri.gbs 
    atoms 2, 9, 11-12, 14, 21, 23-24  entry H          line    30 file /opt/anaconda/envs/psi4v1.5/share/psi4/basis/aug-cc-pvtz-ri.gbs 
    atoms 3, 6, 8, 10, 15, 18, 20, 22 entry C          line   148 file /opt/anaconda/envs/psi4v1.5/share/psi4/basis/aug-cc-pvtz-ri.gbs 
    atoms 4, 7, 16, 19                entry O          line   264 file /opt/anaconda/envs/psi4v1.5/share/psi4/basis/aug-cc-pvtz-ri.gbs 

	 --------------------------------------------------------
	                          DF-MP2                         
	      2nd-Order Density-Fitted Moller-Plesset Theory     
	              RMP2 Wavefunction,   8 Threads             
	                                                         
	        Rob Parrish, Justin Turney, Andy Simmonett,      
	           Ed Hohenstein, and C. David Sherrill          
	 --------------------------------------------------------

   => Auxiliary Basis Set <=

  Basis Set: (AUG-CC-PVTZ AUX)
    Blend: AUG-CC-PVTZ-RI
    Number of shells: 560
    Number of basis functions: 2064
    Number of Cartesian functions: 2616
    Spherical Harmonics?: true
    Max angular momentum: 4

	 --------------------------------------------------------
	                 NBF =   920, NAUX =  2064
	 --------------------------------------------------------
	   CLASS    FOCC     OCC    AOCC    AVIR     VIR    FVIR
	   PAIRS       8      29      21     891     891       0
	 --------------------------------------------------------

	 Will attempt to load fitting metric from file 97.

	-----------------------------------------------------------
	 ==================> DF-MP2 Energies <==================== 
	-----------------------------------------------------------
	 Reference Energy          =    -412.6204313980689449 [Eh]
	 Singles Energy            =      -0.0000000000000000 [Eh]
	 Same-Spin Energy          =      -0.3927176221184689 [Eh]
	 Opposite-Spin Energy      =      -1.1138529137036077 [Eh]
	 Correlation Energy        =      -1.5065705358220767 [Eh]
	 Total Energy              =    -414.1270019338909947 [Eh]
	-----------------------------------------------------------
	 ================> DF-SCS-MP2 Energies <================== 
	-----------------------------------------------------------
	 SCS Same-Spin Scale       =       0.3333333333333333 [-]
	 SCS Opposite-Spin Scale   =       1.2000000000000000 [-]
	 SCS Same-Spin Energy      =      -0.1309058740394896 [Eh]
	 SCS Opposite-Spin Energy  =      -1.3366234964443293 [Eh]
	 SCS Correlation Energy    =      -1.4675293704838190 [Eh]
	 SCS Total Energy          =    -414.0879607685527617 [Eh]
	-----------------------------------------------------------


*** tstop() called on node111.bme.utexas.edu at Sun Jan 14 20:34:05 2024
Module time:
	user time   =      90.09 seconds =       1.50 minutes
	system time =       3.11 seconds =       0.05 minutes
	total time  =         17 seconds =       0.28 minutes
Total time:
	user time   =    1329.33 seconds =      22.16 minutes
	system time =      15.41 seconds =       0.26 minutes
	total time  =        198 seconds =       3.30 minutes

  //>>>>>>>>>>>>>>>>>>>>>>>>>>>>>>>>>>>//
  //            Monomer B HF           //
  //<<<<<<<<<<<<<<<<<<<<<<<<<<<<<<<<<<<//


*** tstart() called on node111.bme.utexas.edu
*** at Sun Jan 14 20:34:05 2024

   => Loading Basis Set <=

    Name: AUG-CC-PVTZ
    Role: ORBITAL
    Keyword: BASIS
    atoms 1, 5, 13, 17                entry N          line   285 file /opt/anaconda/envs/psi4v1.5/share/psi4/basis/aug-cc-pvtz.gbs 
    atoms 2, 9, 11-12, 14, 21, 23-24  entry H          line    40 file /opt/anaconda/envs/psi4v1.5/share/psi4/basis/aug-cc-pvtz.gbs 
    atoms 3, 6, 8, 10, 15, 18, 20, 22 entry C          line   239 file /opt/anaconda/envs/psi4v1.5/share/psi4/basis/aug-cc-pvtz.gbs 
    atoms 4, 7, 16, 19                entry O          line   331 file /opt/anaconda/envs/psi4v1.5/share/psi4/basis/aug-cc-pvtz.gbs 


         ---------------------------------------------------------
                                   SCF
               by Justin Turney, Rob Parrish, Andy Simmonett
                          and Daniel G. A. Smith
                              RHF Reference
                        8 Threads,  76293 MiB Core
         ---------------------------------------------------------

  ==> Geometry <==

    Molecular point group: c1
    Full point group: C1

    Geometry (in Angstrom), charge = 0, multiplicity = 1:

       Center              X                  Y                   Z               Mass       
    ------------   -----------------  -----------------  -----------------  -----------------
      Gh(N)          -2.125373962680    -0.467916599727     1.104786020146    14.003074004430
      Gh(H)          -2.445343962680    -1.011606599727     1.897636020146     1.007825032230
      Gh(C)          -1.495073962680    -1.199766599727     0.109626020146    12.000000000000
      Gh(O)          -1.329643962680    -2.415456599727     0.178946020146    15.994914619570
      Gh(N)          -1.086423962680    -0.415946599727    -0.952283979854    14.003074004430
      Gh(C)          -1.066133962680     0.992203400273    -1.036643979854    12.000000000000
      Gh(O)          -0.538463962680     1.548543400273    -1.995983979854    15.994914619570
      Gh(C)          -1.708973962680     1.649133400273     0.091426020146    12.000000000000
      Gh(H)          -1.749283962680     2.730373400273     0.103236020146     1.007825032230
      Gh(C)          -2.200283962680     0.908073400273     1.110066020146    12.000000000000
      Gh(H)          -2.682383962680     1.345773400273     1.978226020146     1.007825032230
      Gh(H)          -0.587563962680    -0.905586599727    -1.697213979854     1.007825032230
         N            1.292332203986    -1.589832849727     0.288952936813    14.003074004430
         H            0.956602203986    -2.527092849727     0.088012936813     1.007825032230
         C            1.442712203986    -0.788462849727    -0.833857063187    12.000000000000
         O            1.370842203986    -1.229002849727    -1.978067063187    15.994914619570
         N            1.675492203986     0.539567150273    -0.528457063187    14.003074004430
         C            1.545852203986     1.172257150273     0.724142936813    12.000000000000
         O            1.626642203986     2.393387150273     0.820732936813    15.994914619570
         C            1.316512203986     0.239067150273     1.819632936813    12.000000000000
         H            1.234072203986     0.635897150273     2.823162936813     1.007825032230
         C            1.163572203986    -1.079792849727     1.561492936813    12.000000000000
         H            0.964942203986    -1.814882849727     2.335072936813     1.007825032230
         H            1.703252203986     1.163307150273    -1.334107063187     1.007825032230

  Running in c1 symmetry.

  Rotational constants: A =      0.02309  B =      0.02083  C =      0.01830 [cm^-1]
  Rotational constants: A =    692.12324  B =    624.48868  C =    548.60513 [MHz]
  Nuclear repulsion =  355.554909913449080

  Charge       = 0
  Multiplicity = 1
  Electrons    = 58
  Nalpha       = 29
  Nbeta        = 29

  ==> Algorithm <==

  SCF Algorithm Type is DF.
  DIIS enabled.
  MOM disabled.
  Fractional occupation disabled.
  Guess Type is SAD.
  Energy threshold   = 1.00e-08
  Density threshold  = 1.00e-08
  Integral threshold = 1.00e-12

  ==> Primary Basis <==

  Basis Set: AUG-CC-PVTZ
    Blend: AUG-CC-PVTZ
    Number of shells: 296
    Number of basis functions: 920
    Number of Cartesian functions: 1080
    Spherical Harmonics?: true
    Max angular momentum: 3

   => Loading Basis Set <=

    Name: (AUG-CC-PVTZ AUX)
    Role: JKFIT
    Keyword: DF_BASIS_SCF
    atoms 1, 5, 13, 17                entry N          line   224 file /opt/anaconda/envs/psi4v1.5/share/psi4/basis/aug-cc-pvtz-jkfit.gbs 
    atoms 2, 9, 11-12, 14, 21, 23-24  entry H          line    70 file /opt/anaconda/envs/psi4v1.5/share/psi4/basis/aug-cc-pvtz-jkfit.gbs 
    atoms 3, 6, 8, 10, 15, 18, 20, 22 entry C          line   162 file /opt/anaconda/envs/psi4v1.5/share/psi4/basis/aug-cc-pvtz-jkfit.gbs 
    atoms 4, 7, 16, 19                entry O          line   286 file /opt/anaconda/envs/psi4v1.5/share/psi4/basis/aug-cc-pvtz-jkfit.gbs 

  ==> Integral Setup <==

  ==> DiskDFJK: Density-Fitted J/K Matrices <==

    J tasked:                  Yes
    K tasked:                  Yes
    wK tasked:                  No
    OpenMP threads:              8
    Integrals threads:           8
    Memory [MiB]:            57220
    Algorithm:                Core
    Integral Cache:           LOAD
    Schwarz Cutoff:          1E-12
    Fitting Condition:       1E-10

   => Auxiliary Basis Set <=

  Basis Set: (AUG-CC-PVTZ AUX)
    Blend: AUG-CC-PVTZ-JKFIT
    Number of shells: 592
    Number of basis functions: 2032
    Number of Cartesian functions: 2536
    Spherical Harmonics?: true
    Max angular momentum: 4

  Minimum eigenvalue in the overlap matrix is 1.7375971271E-06.
  Reciprocal condition number of the overlap matrix is 7.3566610974E-08.
    Using symmetric orthogonalization.

  ==> Pre-Iterations <==

  SCF Guess: Superposition of Atomic Densities via on-the-fly atomic UHF (no occupation information).

   -------------------------
    Irrep   Nso     Nmo    
   -------------------------
     A        920     920 
   -------------------------
    Total     920     920
   -------------------------

  ==> Iterations <==

                           Total Energy        Delta E     RMS |[F,P]|

   @DF-RHF iter SAD:  -411.85934362679751   -4.11859e+02   0.00000e+00 
   @DF-RHF iter   1:  -412.37218753810265   -5.12844e-01   8.10139e-04 DIIS
   @DF-RHF iter   2:  -412.53300066742361   -1.60813e-01   5.44688e-04 DIIS
   @DF-RHF iter   3:  -412.61423255040870   -8.12319e-02   9.80227e-05 DIIS
   @DF-RHF iter   4:  -412.61861221058098   -4.37966e-03   4.04666e-05 DIIS
   @DF-RHF iter   5:  -412.61954113362231   -9.28923e-04   8.41823e-06 DIIS
   @DF-RHF iter   6:  -412.61965381854162   -1.12685e-04   4.23722e-06 DIIS
   @DF-RHF iter   7:  -412.61967399165320   -2.01731e-05   1.71323e-06 DIIS
   @DF-RHF iter   8:  -412.61967752221284   -3.53056e-06   5.94080e-07 DIIS
   @DF-RHF iter   9:  -412.61967780781617   -2.85603e-07   2.51174e-07 DIIS
   @DF-RHF iter  10:  -412.61967787920446   -7.13883e-08   8.32763e-08 DIIS
   @DF-RHF iter  11:  -412.61967788792947   -8.72501e-09   2.73048e-08 DIIS
   @DF-RHF iter  12:  -412.61967788862512   -6.95650e-10   8.85154e-09 DIIS
  Energy and wave function converged.


  ==> Post-Iterations <==

    Orbital Energies [Eh]
    ---------------------

    Doubly Occupied:                                                      

       1A    -20.549049     2A    -20.545752     3A    -15.647208  
       4A    -15.631831     5A    -11.422637     6A    -11.386240  
       7A    -11.344307     8A    -11.260796     9A     -1.431195  
      10A     -1.394548    11A     -1.310647    12A     -1.245591  
      13A     -1.088134    14A     -0.932473    15A     -0.900506  
      16A     -0.803472    17A     -0.763274    18A     -0.713242  
      19A     -0.677192    20A     -0.669164    21A     -0.649522  
      22A     -0.614588    23A     -0.600923    24A     -0.569495  
      25A     -0.524898    26A     -0.484141    27A     -0.451718  
      28A     -0.438149    29A     -0.372017  

    Virtual:                                                              

      30A      0.011755    31A      0.026595    32A      0.030788  
      33A      0.035637    34A      0.046335    35A      0.047168  
      36A      0.051402    37A      0.057156    38A      0.065724  
      39A      0.071547    40A      0.073531    41A      0.077790  
      42A      0.081147    43A      0.087487    44A      0.089368  
      45A      0.094321    46A      0.096692    47A      0.100850  
      48A      0.102413    49A      0.108163    50A      0.112506  
      51A      0.120896    52A      0.121665    53A      0.125158  
      54A      0.129933    55A      0.132198    56A      0.137235  
      57A      0.140760    58A      0.143318    59A      0.145849  
      60A      0.147782    61A      0.152308    62A      0.153246  
      63A      0.155159    64A      0.161945    65A      0.168418  
      66A      0.170287    67A      0.179060    68A      0.183725  
      69A      0.188362    70A      0.189073    71A      0.193322  
      72A      0.199312    73A      0.205974    74A      0.209701  
      75A      0.215205    76A      0.220568    77A      0.221207  
      78A      0.225512    79A      0.229665    80A      0.233543  
      81A      0.239449    82A      0.244462    83A      0.245962  
      84A      0.251445    85A      0.253950    86A      0.259856  
      87A      0.260470    88A      0.267503    89A      0.270102  
      90A      0.275180    91A      0.279842    92A      0.282785  
      93A      0.287985    94A      0.291910    95A      0.297679  
      96A      0.298842    97A      0.306381    98A      0.307338  
      99A      0.309753   100A      0.312178   101A      0.320033  
     102A      0.324013   103A      0.331201   104A      0.332746  
     105A      0.336631   106A      0.343104   107A      0.348191  
     108A      0.355199   109A      0.357782   110A      0.361553  
     111A      0.362799   112A      0.368083   113A      0.372063  
     114A      0.375010   115A      0.380016   116A      0.385515  
     117A      0.388961   118A      0.392490   119A      0.398600  
     120A      0.404625   121A      0.405959   122A      0.410281  
     123A      0.413888   124A      0.417504   125A      0.422506  
     126A      0.425979   127A      0.431777   128A      0.432303  
     129A      0.440622   130A      0.442857   131A      0.446147  
     132A      0.452975   133A      0.456811   134A      0.462731  
     135A      0.468247   136A      0.472163   137A      0.474875  
     138A      0.480360   139A      0.482424   140A      0.483240  
     141A      0.489279   142A      0.492544   143A      0.496963  
     144A      0.501319   145A      0.505799   146A      0.509753  
     147A      0.513024   148A      0.517320   149A      0.522923  
     150A      0.530274   151A      0.533799   152A      0.539546  
     153A      0.540580   154A      0.549303   155A      0.552085  
     156A      0.555913   157A      0.557848   158A      0.559823  
     159A      0.571457   160A      0.572820   161A      0.579191  
     162A      0.582813   163A      0.590883   164A      0.598473  
     165A      0.601549   166A      0.604663   167A      0.614573  
     168A      0.615257   169A      0.619450   170A      0.621922  
     171A      0.631086   172A      0.631689   173A      0.633527  
     174A      0.641601   175A      0.646346   176A      0.651529  
     177A      0.656925   178A      0.667612   179A      0.670840  
     180A      0.675023   181A      0.677416   182A      0.687215  
     183A      0.691491   184A      0.696769   185A      0.703400  
     186A      0.707437   187A      0.715265   188A      0.721675  
     189A      0.727123   190A      0.728723   191A      0.734802  
     192A      0.738797   193A      0.748671   194A      0.751846  
     195A      0.752741   196A      0.760903   197A      0.765658  
     198A      0.774204   199A      0.783857   200A      0.786586  
     201A      0.791150   202A      0.792317   203A      0.796859  
     204A      0.804730   205A      0.807590   206A      0.814810  
     207A      0.821174   208A      0.822112   209A      0.842808  
     210A      0.844081   211A      0.847672   212A      0.850705  
     213A      0.851455   214A      0.861579   215A      0.871684  
     216A      0.875792   217A      0.881360   218A      0.884050  
     219A      0.892173   220A      0.896927   221A      0.904436  
     222A      0.914748   223A      0.915751   224A      0.921950  
     225A      0.927898   226A      0.935414   227A      0.940502  
     228A      0.944693   229A      0.946164   230A      0.947211  
     231A      0.951461   232A      0.959611   233A      0.961811  
     234A      0.971266   235A      0.974774   236A      0.976757  
     237A      0.978849   238A      0.981597   239A      0.988451  
     240A      0.994338   241A      1.002805   242A      1.009923  
     243A      1.012253   244A      1.017771   245A      1.027569  
     246A      1.033899   247A      1.042456   248A      1.046727  
     249A      1.049285   250A      1.055366   251A      1.061984  
     252A      1.069851   253A      1.078592   254A      1.082909  
     255A      1.089305   256A      1.094824   257A      1.099368  
     258A      1.105361   259A      1.108519   260A      1.113745  
     261A      1.119605   262A      1.129010   263A      1.131916  
     264A      1.136394   265A      1.138981   266A      1.145779  
     267A      1.148030   268A      1.151113   269A      1.157670  
     270A      1.161405   271A      1.164123   272A      1.169799  
     273A      1.175140   274A      1.180509   275A      1.184482  
     276A      1.194627   277A      1.200383   278A      1.203194  
     279A      1.210234   280A      1.213654   281A      1.216608  
     282A      1.219612   283A      1.225417   284A      1.233169  
     285A      1.238309   286A      1.241805   287A      1.247813  
     288A      1.251403   289A      1.256008   290A      1.269423  
     291A      1.276451   292A      1.281216   293A      1.284804  
     294A      1.289863   295A      1.293772   296A      1.294706  
     297A      1.303716   298A      1.306088   299A      1.315122  
     300A      1.330075   301A      1.332867   302A      1.336081  
     303A      1.338371   304A      1.342170   305A      1.349053  
     306A      1.354881   307A      1.358223   308A      1.369429  
     309A      1.371280   310A      1.383295   311A      1.385196  
     312A      1.390550   313A      1.396405   314A      1.401941  
     315A      1.404506   316A      1.413354   317A      1.418664  
     318A      1.425535   319A      1.427651   320A      1.434162  
     321A      1.441489   322A      1.447058   323A      1.448782  
     324A      1.464761   325A      1.475288   326A      1.480780  
     327A      1.489380   328A      1.497369   329A      1.504923  
     330A      1.508325   331A      1.513022   332A      1.525120  
     333A      1.530614   334A      1.532776   335A      1.538287  
     336A      1.548670   337A      1.551186   338A      1.559364  
     339A      1.563038   340A      1.574336   341A      1.575288  
     342A      1.584522   343A      1.588416   344A      1.594788  
     345A      1.598686   346A      1.611315   347A      1.617135  
     348A      1.623047   349A      1.632209   350A      1.634833  
     351A      1.643138   352A      1.646437   353A      1.650636  
     354A      1.656233   355A      1.662189   356A      1.666398  
     357A      1.679831   358A      1.688079   359A      1.694814  
     360A      1.697945   361A      1.703808   362A      1.715521  
     363A      1.719795   364A      1.733187   365A      1.736989  
     366A      1.747647   367A      1.753384   368A      1.758567  
     369A      1.761681   370A      1.770040   371A      1.773763  
     372A      1.789543   373A      1.794106   374A      1.803029  
     375A      1.808309   376A      1.820284   377A      1.823122  
     378A      1.835621   379A      1.840784   380A      1.846690  
     381A      1.848577   382A      1.857600   383A      1.861201  
     384A      1.872720   385A      1.873045   386A      1.883841  
     387A      1.884493   388A      1.892634   389A      1.903491  
     390A      1.911447   391A      1.925455   392A      1.931761  
     393A      1.945511   394A      1.950146   395A      1.958236  
     396A      1.958693   397A      1.968035   398A      1.978736  
     399A      1.985903   400A      1.997693   401A      2.000547  
     402A      2.012513   403A      2.025396   404A      2.027290  
     405A      2.039825   406A      2.043702   407A      2.050723  
     408A      2.057211   409A      2.073861   410A      2.076505  
     411A      2.089393   412A      2.095591   413A      2.099134  
     414A      2.109734   415A      2.117660   416A      2.124040  
     417A      2.131370   418A      2.135009   419A      2.144591  
     420A      2.149166   421A      2.153368   422A      2.164164  
     423A      2.169165   424A      2.178565   425A      2.189302  
     426A      2.196625   427A      2.199924   428A      2.210877  
     429A      2.212070   430A      2.220211   431A      2.232021  
     432A      2.234779   433A      2.241335   434A      2.249443  
     435A      2.260820   436A      2.266824   437A      2.278779  
     438A      2.290012   439A      2.293101   440A      2.306882  
     441A      2.314930   442A      2.320389   443A      2.322508  
     444A      2.331492   445A      2.346498   446A      2.353897  
     447A      2.365735   448A      2.371431   449A      2.380342  
     450A      2.385705   451A      2.390027   452A      2.401628  
     453A      2.413966   454A      2.420701   455A      2.440837  
     456A      2.447550   457A      2.451742   458A      2.472902  
     459A      2.476719   460A      2.488841   461A      2.500654  
     462A      2.502944   463A      2.514234   464A      2.524215  
     465A      2.533815   466A      2.538732   467A      2.551017  
     468A      2.562778   469A      2.569991   470A      2.581883  
     471A      2.583917   472A      2.590684   473A      2.602578  
     474A      2.614514   475A      2.623334   476A      2.632806  
     477A      2.637681   478A      2.645893   479A      2.648592  
     480A      2.661057   481A      2.667348   482A      2.671681  
     483A      2.677235   484A      2.684682   485A      2.695887  
     486A      2.707365   487A      2.715600   488A      2.717295  
     489A      2.722689   490A      2.739235   491A      2.751580  
     492A      2.756913   493A      2.758220   494A      2.763830  
     495A      2.767141   496A      2.787222   497A      2.793191  
     498A      2.800418   499A      2.807679   500A      2.815933  
     501A      2.821567   502A      2.833564   503A      2.849801  
     504A      2.852534   505A      2.858618   506A      2.873324  
     507A      2.876052   508A      2.884530   509A      2.893737  
     510A      2.903313   511A      2.906984   512A      2.921983  
     513A      2.934447   514A      2.945249   515A      2.956033  
     516A      2.966333   517A      2.971653   518A      2.978094  
     519A      2.983991   520A      2.997588   521A      3.013320  
     522A      3.025478   523A      3.030619   524A      3.048300  
     525A      3.053897   526A      3.061316   527A      3.067387  
     528A      3.074823   529A      3.087487   530A      3.101845  
     531A      3.104430   532A      3.112425   533A      3.123726  
     534A      3.133352   535A      3.146284   536A      3.168682  
     537A      3.178128   538A      3.183543   539A      3.195106  
     540A      3.201918   541A      3.208562   542A      3.220929  
     543A      3.244848   544A      3.254768   545A      3.258780  
     546A      3.268754   547A      3.284177   548A      3.297750  
     549A      3.305385   550A      3.322862   551A      3.335587  
     552A      3.353427   553A      3.363996   554A      3.369616  
     555A      3.378937   556A      3.392080   557A      3.402837  
     558A      3.408679   559A      3.425031   560A      3.445452  
     561A      3.450233   562A      3.468690   563A      3.480903  
     564A      3.494965   565A      3.511997   566A      3.533821  
     567A      3.557094   568A      3.558800   569A      3.574920  
     570A      3.587944   571A      3.613743   572A      3.615941  
     573A      3.631858   574A      3.634282   575A      3.652515  
     576A      3.675249   577A      3.692104   578A      3.705652  
     579A      3.719077   580A      3.746275   581A      3.752975  
     582A      3.767854   583A      3.782226   584A      3.792995  
     585A      3.794870   586A      3.800504   587A      3.811902  
     588A      3.816296   589A      3.832237   590A      3.838130  
     591A      3.853297   592A      3.873640   593A      3.881641  
     594A      3.891834   595A      3.900497   596A      3.906799  
     597A      3.915771   598A      3.929689   599A      3.947211  
     600A      3.965371   601A      3.980199   602A      3.995861  
     603A      4.000959   604A      4.007204   605A      4.026529  
     606A      4.042508   607A      4.044967   608A      4.067028  
     609A      4.073058   610A      4.092901   611A      4.094800  
     612A      4.117586   613A      4.124562   614A      4.137947  
     615A      4.150318   616A      4.155968   617A      4.159665  
     618A      4.180909   619A      4.199114   620A      4.204363  
     621A      4.214508   622A      4.220861   623A      4.234156  
     624A      4.242605   625A      4.254029   626A      4.262752  
     627A      4.275332   628A      4.288819   629A      4.304965  
     630A      4.331492   631A      4.338856   632A      4.359366  
     633A      4.362181   634A      4.368097   635A      4.385870  
     636A      4.397017   637A      4.402214   638A      4.413588  
     639A      4.422722   640A      4.428251   641A      4.449248  
     642A      4.452453   643A      4.472779   644A      4.484048  
     645A      4.488646   646A      4.497813   647A      4.516801  
     648A      4.520027   649A      4.536471   650A      4.547614  
     651A      4.555424   652A      4.579127   653A      4.589478  
     654A      4.617665   655A      4.630480   656A      4.641399  
     657A      4.656844   658A      4.667437   659A      4.680045  
     660A      4.697222   661A      4.710100   662A      4.730170  
     663A      4.736122   664A      4.754899   665A      4.757165  
     666A      4.777515   667A      4.784545   668A      4.795287  
     669A      4.799689   670A      4.816737   671A      4.823202  
     672A      4.831115   673A      4.850843   674A      4.861001  
     675A      4.876236   676A      4.887179   677A      4.901247  
     678A      4.911635   679A      4.923158   680A      4.934850  
     681A      4.941438   682A      4.956862   683A      4.966431  
     684A      4.985116   685A      4.986699   686A      5.001397  
     687A      5.025308   688A      5.037262   689A      5.042524  
     690A      5.052398   691A      5.073422   692A      5.081249  
     693A      5.090970   694A      5.107957   695A      5.113959  
     696A      5.128302   697A      5.135272   698A      5.144300  
     699A      5.149809   700A      5.175209   701A      5.182325  
     702A      5.195327   703A      5.205759   704A      5.220746  
     705A      5.228288   706A      5.237572   707A      5.247679  
     708A      5.255210   709A      5.281349   710A      5.283528  
     711A      5.308777   712A      5.317058   713A      5.329827  
     714A      5.344972   715A      5.350629   716A      5.357922  
     717A      5.387361   718A      5.403717   719A      5.406409  
     720A      5.419798   721A      5.432901   722A      5.449866  
     723A      5.457277   724A      5.485186   725A      5.493664  
     726A      5.506700   727A      5.520901   728A      5.535914  
     729A      5.557595   730A      5.570477   731A      5.591111  
     732A      5.597749   733A      5.617644   734A      5.626644  
     735A      5.637869   736A      5.645628   737A      5.660174  
     738A      5.668322   739A      5.682517   740A      5.700948  
     741A      5.724310   742A      5.742667   743A      5.757642  
     744A      5.764986   745A      5.769770   746A      5.799585  
     747A      5.804284   748A      5.835113   749A      5.846215  
     750A      5.860033   751A      5.884320   752A      5.893754  
     753A      5.908379   754A      5.924031   755A      5.941176  
     756A      5.960612   757A      5.966853   758A      5.983079  
     759A      5.998258   760A      6.021787   761A      6.024715  
     762A      6.046689   763A      6.095876   764A      6.097850  
     765A      6.149789   766A      6.168817   767A      6.189258  
     768A      6.195673   769A      6.202121   770A      6.215422  
     771A      6.236927   772A      6.257656   773A      6.272742  
     774A      6.307180   775A      6.340620   776A      6.395894  
     777A      6.422118   778A      6.472774   779A      6.487902  
     780A      6.510265   781A      6.555869   782A      6.569609  
     783A      6.580266   784A      6.612878   785A      6.625620  
     786A      6.637616   787A      6.665747   788A      6.689651  
     789A      6.714803   790A      6.741761   791A      6.756726  
     792A      6.767383   793A      6.778286   794A      6.800030  
     795A      6.815266   796A      6.823115   797A      6.846395  
     798A      6.858276   799A      6.888937   800A      6.893208  
     801A      6.909531   802A      6.928103   803A      6.936136  
     804A      6.967003   805A      6.980669   806A      6.993229  
     807A      7.001399   808A      7.029548   809A      7.059171  
     810A      7.088303   811A      7.117977   812A      7.161672  
     813A      7.209576   814A      7.247676   815A      7.266148  
     816A      7.294581   817A      7.313111   818A      7.348883  
     819A      7.360365   820A      7.414844   821A      7.464642  
     822A      7.468328   823A      7.480545   824A      7.493994  
     825A      7.514067   826A      7.528453   827A      7.555998  
     828A      7.617608   829A      7.656694   830A      7.664520  
     831A      7.673167   832A      7.689055   833A      7.706048  
     834A      7.725107   835A      7.755097   836A      7.771362  
     837A      7.796080   838A      7.810544   839A      7.818701  
     840A      7.833610   841A      7.841956   842A      7.872944  
     843A      7.882068   844A      7.915467   845A      7.923753  
     846A      7.941815   847A      7.951910   848A      7.964110  
     849A      7.974410   850A      7.994659   851A      8.006645  
     852A      8.024342   853A      8.043760   854A      8.064866  
     855A      8.074394   856A      8.094079   857A      8.111680  
     858A      8.131186   859A      8.233571   860A      8.290305  
     861A      8.333121   862A      8.357951   863A      8.393746  
     864A      8.428746   865A      8.593947   866A      8.703732  
     867A      8.735309   868A      8.765056   869A      8.870626  
     870A      9.026533   871A      9.105273   872A      9.195262  
     873A      9.298114   874A      9.582714   875A      9.637502  
     876A      9.802460   877A      9.974829   878A     10.017282  
     879A     10.045046   880A     10.119990   881A     10.205451  
     882A     10.336680   883A     10.352299   884A     10.379395  
     885A     10.438231   886A     10.504208   887A     10.557425  
     888A     10.572713   889A     10.985325   890A     11.262909  
     891A     11.374817   892A     11.524080   893A     12.050652  
     894A     12.085413   895A     12.176434   896A     12.218416  
     897A     12.484668   898A     12.577270   899A     12.755915  
     900A     12.874063   901A     13.472449   902A     13.665884  
     903A     14.196036   904A     14.261889   905A     16.246273  
     906A     16.658118   907A     16.744259   908A     17.254097  
     909A     18.561137   910A     19.969636   911A     20.353426  
     912A     21.082625   913A     52.170663   914A     52.438747  
     915A     55.154050   916A     56.305007   917A     61.366657  
     918A     62.591307   919A     69.923052   920A     70.682914  

    Final Occupation by Irrep:
              A 
    DOCC [    29 ]

  @DF-RHF Final Energy:  -412.61967788862512

   => Energetics <=

    Nuclear Repulsion Energy =            355.5549099134490802
    One-Electron Energy =               -1267.5037388107937204
    Two-Electron Energy =                 499.3291510087194638
    Total Energy =                       -412.6196778886251195

Computation Completed


Properties will be evaluated at   0.000000,   0.000000,   0.000000 [a0]

Properties computed using the SCF density matrix

  Nuclear Dipole Moment: [e a0]
     X:   155.7614      Y:    -6.2761      Z:    23.8208

  Electronic Dipole Moment: [e a0]
     X:  -156.1475      Y:     4.7617      Z:   -22.6198

  Dipole Moment: [e a0]
     X:    -0.3861      Y:    -1.5143      Z:     1.2010     Total:     1.9709

  Dipole Moment: [D]
     X:    -0.9813      Y:    -3.8490      Z:     3.0527     Total:     5.0096


*** tstop() called on node111.bme.utexas.edu at Sun Jan 14 20:35:06 2024
Module time:
	user time   =     421.29 seconds =       7.02 minutes
	system time =       2.95 seconds =       0.05 minutes
	total time  =         61 seconds =       1.02 minutes
Total time:
	user time   =    1750.64 seconds =      29.18 minutes
	system time =      18.36 seconds =       0.31 minutes
	total time  =        259 seconds =       4.32 minutes

*** tstart() called on node111.bme.utexas.edu
*** at Sun Jan 14 20:35:06 2024


  //>>>>>>>>>>>>>>>>>>>>>>>>>>>>>>>>>>>//
  //               DFMP2               //
  //<<<<<<<<<<<<<<<<<<<<<<<<<<<<<<<<<<<//

   => Loading Basis Set <=

    Name: (AUG-CC-PVTZ AUX)
    Role: RIFIT
    Keyword: DF_BASIS_MP2
    atoms 1, 5, 13, 17                entry N          line   206 file /opt/anaconda/envs/psi4v1.5/share/psi4/basis/aug-cc-pvtz-ri.gbs 
    atoms 2, 9, 11-12, 14, 21, 23-24  entry H          line    30 file /opt/anaconda/envs/psi4v1.5/share/psi4/basis/aug-cc-pvtz-ri.gbs 
    atoms 3, 6, 8, 10, 15, 18, 20, 22 entry C          line   148 file /opt/anaconda/envs/psi4v1.5/share/psi4/basis/aug-cc-pvtz-ri.gbs 
    atoms 4, 7, 16, 19                entry O          line   264 file /opt/anaconda/envs/psi4v1.5/share/psi4/basis/aug-cc-pvtz-ri.gbs 

	 --------------------------------------------------------
	                          DF-MP2                         
	      2nd-Order Density-Fitted Moller-Plesset Theory     
	              RMP2 Wavefunction,   8 Threads             
	                                                         
	        Rob Parrish, Justin Turney, Andy Simmonett,      
	           Ed Hohenstein, and C. David Sherrill          
	 --------------------------------------------------------

   => Auxiliary Basis Set <=

  Basis Set: (AUG-CC-PVTZ AUX)
    Blend: AUG-CC-PVTZ-RI
    Number of shells: 560
    Number of basis functions: 2064
    Number of Cartesian functions: 2616
    Spherical Harmonics?: true
    Max angular momentum: 4

	 --------------------------------------------------------
	                 NBF =   920, NAUX =  2064
	 --------------------------------------------------------
	   CLASS    FOCC     OCC    AOCC    AVIR     VIR    FVIR
	   PAIRS       8      29      21     891     891       0
	 --------------------------------------------------------

	 Will attempt to load fitting metric from file 97.

	-----------------------------------------------------------
	 ==================> DF-MP2 Energies <==================== 
	-----------------------------------------------------------
	 Reference Energy          =    -412.6196778886251195 [Eh]
	 Singles Energy            =      -0.0000000000000000 [Eh]
	 Same-Spin Energy          =      -0.3925983352079874 [Eh]
	 Opposite-Spin Energy      =      -1.1138700985759500 [Eh]
	 Correlation Energy        =      -1.5064684337839374 [Eh]
	 Total Energy              =    -414.1261463224090562 [Eh]
	-----------------------------------------------------------
	 ================> DF-SCS-MP2 Energies <================== 
	-----------------------------------------------------------
	 SCS Same-Spin Scale       =       0.3333333333333333 [-]
	 SCS Opposite-Spin Scale   =       1.2000000000000000 [-]
	 SCS Same-Spin Energy      =      -0.1308661117359958 [Eh]
	 SCS Opposite-Spin Energy  =      -1.3366441182911399 [Eh]
	 SCS Correlation Energy    =      -1.4675102300271357 [Eh]
	 SCS Total Energy          =    -414.0871881186522501 [Eh]
	-----------------------------------------------------------


*** tstop() called on node111.bme.utexas.edu at Sun Jan 14 20:35:24 2024
Module time:
	user time   =      88.41 seconds =       1.47 minutes
	system time =       3.08 seconds =       0.05 minutes
	total time  =         18 seconds =       0.30 minutes
Total time:
	user time   =    1839.05 seconds =      30.65 minutes
	system time =      21.44 seconds =       0.36 minutes
	total time  =        277 seconds =       4.62 minutes
  Constructing Basis Sets for SAPT...

   => Loading Basis Set <=

    Name: (AUG-CC-PVTZ AUX)
    Role: RIFIT
    Keyword: DF_BASIS_SAPT
    atoms 1, 5, 13, 17                entry N          line   206 file /opt/anaconda/envs/psi4v1.5/share/psi4/basis/aug-cc-pvtz-ri.gbs 
    atoms 2, 9, 11-12, 14, 21, 23-24  entry H          line    30 file /opt/anaconda/envs/psi4v1.5/share/psi4/basis/aug-cc-pvtz-ri.gbs 
    atoms 3, 6, 8, 10, 15, 18, 20, 22 entry C          line   148 file /opt/anaconda/envs/psi4v1.5/share/psi4/basis/aug-cc-pvtz-ri.gbs 
    atoms 4, 7, 16, 19                entry O          line   264 file /opt/anaconda/envs/psi4v1.5/share/psi4/basis/aug-cc-pvtz-ri.gbs 


  //>>>>>>>>>>>>>>>>>>>>>>>>>>>>>>>>>>>//
  //           SAPT2+(3)DMP2           //
  //<<<<<<<<<<<<<<<<<<<<<<<<<<<<<<<<<<<//


*** tstart() called on node111.bme.utexas.edu
*** at Sun Jan 14 20:35:24 2024

      SAPT2+(3)  
    Ed Hohenstein
     6 June 2009

      Orbital Information
  --------------------------
    NSO        =       920
    NMO        =       920
    NRI        =      2064
    NOCC A     =        29
    NOCC B     =        29
    FOCC A     =         8
    FOCC B     =         8
    NVIR A     =       891
    NVIR B     =       891

    Estimated memory usage: 29132.3 MB

    Natural Orbital Cutoff:   1.000E-06
    Disp(T3) Truncation:            Yes
    CCD (vv|vv) Truncation:         Yes
    MBPT T2 Truncation:             Yes

    Monomer A: 481 virtual orbitals dropped
    Monomer B: 481 virtual orbitals dropped

    Elst10,r            =    -0.037017094495 [Eh]
    Exch10 (S^2)        =     0.069071424446 [Eh]
    Exch10              =     0.069720044825 [Eh]
    Ind20,r (A<-B)      =    -0.017464510871 [Eh]
    Ind20,r (B<-A)      =    -0.015913469315 [Eh]
    Ind20,r             =    -0.033377980186 [Eh]
    Exch-Ind20,r (A<-B) =     0.014547225080 [Eh]
    Exch-Ind20,r (B<-A) =     0.012879376245 [Eh]
    Exch-Ind20,r        =     0.027426601325 [Eh]
    Disp20              =    -0.042996231712 [Eh]
    Disp20 (NO)         =    -0.039572024417 [Eh]
    Exch-Disp20         =     0.006803327897 [Eh]
    Elst12,r            =    -0.001897559770 [Eh]
    Exch11              =     0.000806362019 [Eh]
    Exch12              =     0.004484320527 [Eh]
    Ind22               =    -0.003025728443 [Eh]
    Disp21              =     0.010182092590 [Eh]
    Disp22 (SDQ)        =    -0.001539243111 [Eh]

    (i =   1 of  21)        777 seconds
    (i =   2 of  21)       1531 seconds
    (i =   3 of  21)       2284 seconds
    (i =   4 of  21)       3033 seconds
    (i =   5 of  21)       3791 seconds
    (i =   6 of  21)       4539 seconds
    (i =   7 of  21)       5269 seconds
    (i =   8 of  21)       6021 seconds
    (i =   9 of  21)       6777 seconds
    (i =  10 of  21)       7529 seconds
    (i =  11 of  21)       8268 seconds
    (i =  12 of  21)       8752 seconds
    (i =  13 of  21)       9215 seconds
    (i =  14 of  21)       9677 seconds
    (i =  15 of  21)      10142 seconds
    (i =  16 of  21)      10608 seconds
    (i =  17 of  21)      11073 seconds
    (i =  18 of  21)      11538 seconds
    (i =  19 of  21)      12004 seconds
    (i =  20 of  21)      12421 seconds
    (i =  21 of  21)      12792 seconds

    Disp220 (T)         =    -0.004301038834 [Eh]

    (i =   1 of  21)        364 seconds
    (i =   2 of  21)        728 seconds
    (i =   3 of  21)       1092 seconds
    (i =   4 of  21)       1458 seconds
    (i =   5 of  21)       1823 seconds
    (i =   6 of  21)       2188 seconds
    (i =   7 of  21)       2552 seconds
    (i =   8 of  21)       2917 seconds
    (i =   9 of  21)       3287 seconds
    (i =  10 of  21)       3702 seconds
    (i =  11 of  21)       4093 seconds
    (i =  12 of  21)       4479 seconds
    (i =  13 of  21)       4859 seconds
    (i =  14 of  21)       5242 seconds
    (i =  15 of  21)       5628 seconds
    (i =  16 of  21)       6014 seconds
    (i =  17 of  21)       6401 seconds
    (i =  18 of  21)       6787 seconds
    (i =  19 of  21)       7180 seconds
    (i =  20 of  21)       7566 seconds
    (i =  21 of  21)       7949 seconds

    Disp202 (T)         =    -0.004235502473 [Eh]

    Disp22 (T)          =    -0.008536541306 [Eh]

    Est. Disp220 (T)    =    -0.004673212074 [Eh]
    Est. Disp202 (T)    =    -0.004602004785 [Eh]

    Est. Disp22 (T)     =    -0.009275216859 [Eh]
    Elst13,r            =     0.001393694193 [Eh]
    Disp30              =     0.001254536698 [Eh]

    SAPT Results 
  --------------------------------------------------------------------------------------------------------
    Electrostatics                -37.52096007 [mEh]     -23.54475791 [kcal/mol]     -98.51126710 [kJ/mol]
      Elst10,r                    -37.01709450 [mEh]     -23.22857749 [kcal/mol]     -97.18836821 [kJ/mol]
      Elst12,r                     -1.89755977 [mEh]      -1.19073673 [kcal/mol]      -4.98204249 [kJ/mol]
      Elst13,r                      1.39369419 [mEh]       0.87455631 [kcal/mol]       3.65914360 [kJ/mol]

    Exchange                       75.01072737 [mEh]      47.06994206 [kcal/mol]     196.94063758 [kJ/mol]
      Exch10                       69.72004483 [mEh]      43.74998864 [kcal/mol]     183.04995247 [kJ/mol]
      Exch10(S^2)                  69.07142445 [mEh]      43.34297321 [kcal/mol]     181.34699990 [kJ/mol]
      Exch11(S^2)                   0.80636202 [mEh]       0.50599981 [kcal/mol]       2.11710319 [kJ/mol]
      Exch12(S^2)                   4.48432053 [mEh]       2.81395361 [kcal/mol]      11.77358192 [kJ/mol]

    Induction                      -8.07569058 [mEh]      -5.06757234 [kcal/mol]     -21.20272268 [kJ/mol]
      Ind20,r                     -33.37798019 [mEh]     -20.94499878 [kcal/mol]     -87.63387490 [kJ/mol]
      Ind22                        -3.02572844 [mEh]      -1.89867326 [kcal/mol]      -7.94404893 [kJ/mol]
      Exch-Ind20,r                 27.42660132 [mEh]      17.21045216 [kcal/mol]      72.00853186 [kJ/mol]
      Exch-Ind22                    2.48623336 [mEh]       1.56013499 [kcal/mol]       6.52760478 [kJ/mol]
      delta HF,r (2)               -4.27693513 [mEh]      -2.68381732 [kcal/mol]     -11.22909165 [kJ/mol]
      delta MP2,r (2)               2.69211851 [mEh]       1.68932987 [kcal/mol]       7.06815617 [kJ/mol]

    Dispersion                    -35.57073450 [mEh]     -22.32097289 [kcal/mol]     -93.39095056 [kJ/mol]
      Disp20                      -42.99623171 [mEh]     -26.98054274 [kcal/mol]    -112.88659081 [kJ/mol]
      Disp30                        1.25453670 [mEh]       0.78723366 [kcal/mol]       3.29378565 [kJ/mol]
      Disp21                       10.18209259 [mEh]       6.38935956 [kcal/mol]      26.73308041 [kJ/mol]
      Disp22 (SDQ)                 -1.53924311 [mEh]      -0.96588963 [kcal/mol]      -4.04128223 [kJ/mol]
      Disp22 (T)                   -8.53654131 [mEh]      -5.35676054 [kcal/mol]     -22.41268611 [kJ/mol]
      Est. Disp22 (T)              -9.27521686 [mEh]      -5.82028645 [kcal/mol]     -24.35207851 [kJ/mol]
      Exch-Disp20                   6.80332790 [mEh]       4.26915271 [kcal/mol]      17.86213493 [kJ/mol]

  Total HF                         22.47463633 [mEh]      14.10304722 [kcal/mol]      59.00714957 [kJ/mol]
  Total SAPT0                     -13.71826748 [mEh]      -8.60834281 [kcal/mol]     -36.01730631 [kJ/mol]
  Total SAPT2                     -10.86463979 [mEh]      -6.81766440 [kcal/mol]     -28.52510784 [kJ/mol]
  Total SAPT2+                    -11.49700717 [mEh]      -7.21448092 [kcal/mol]     -30.18538817 [kJ/mol]
  Total SAPT2+(3)                  -8.84877628 [mEh]      -5.55269095 [kcal/mol]     -23.23245892 [kJ/mol]
  Total SAPT2+dMP2                 -8.80488866 [mEh]      -5.52515105 [kcal/mol]     -23.11723200 [kJ/mol]
  Total SAPT2+(3)dMP2              -6.15665777 [mEh]      -3.86336108 [kcal/mol]     -16.16430275 [kJ/mol]

  Special recipe for scaled SAPT0 (see Manual):
    Electrostatics sSAPT0         -37.01709450 [mEh]     -23.22857749 [kcal/mol]     -97.18836821 [kJ/mol]
    Exchange sSAPT0                69.72004483 [mEh]      43.74998864 [kcal/mol]     183.04995247 [kJ/mol]
    Induction sSAPT0               -9.44838096 [mEh]      -5.92894856 [kcal/mol]     -24.80672079 [kJ/mol]
    Dispersion sSAPT0             -35.99943689 [mEh]     -22.58998770 [kcal/mol]     -94.51650853 [kJ/mol]
  Total sSAPT0                    -12.74486752 [mEh]      -7.99752511 [kcal/mol]     -33.46164506 [kJ/mol]
  --------------------------------------------------------------------------------------------------------

*** tstop() called on node165.bme.utexas.edu at Mon Jan 15 03:47:02 2024
Module time:
	user time   =  156883.86 seconds =    2614.73 minutes
	system time =    2086.67 seconds =      34.78 minutes
	total time  =      25925 seconds =     432.08 minutes
Total time:
	user time   =  158411.38 seconds =    2640.19 minutes
	system time =    2168.34 seconds =      36.14 minutes
	total time  =      26175 seconds =     436.25 minutes

    Psi4 stopped on: Monday, 15 January 2024 03:47AM
    Psi4 wall time for execution: 7:16:14.94

*** Psi4 exiting successfully. Buy a developer a beer!
