30
  aatt base step (frag1-frag1) at avg ndb geometry
 N       -0.645270     0.537199     0.000379
 C       -1.914342     0.992571     0.000336
 N       -2.327871     2.260455     0.000198
 C       -1.289976     3.113552     0.000134
 C        0.071467     2.788444     0.000208
 C        0.388103     1.409805     0.000331
 N        0.862141     3.925582     0.000120
 C        0.000000     4.915748     0.000000
 N       -1.315514     4.490519     0.000000
 H       -2.678219     0.213216     0.000396
 N        1.647269     0.939941     0.000399
 H        2.408453     1.601685     0.000397
 H        1.826741    -0.069006     0.000581
 H        0.255544     5.970689    -0.000094
 H       -2.145977     5.066056    -0.000090
 N       -0.805055    -0.097338     3.299950
 C       -2.105416    -0.452135     3.332915
 N       -3.171143     0.349322     3.353621
 C       -2.810457     1.643405     3.337605
 C       -1.509156     2.157888     3.303740
 C       -0.459260     1.210133     3.284228
 N       -1.513804     3.542866     3.295891
 C       -2.787627     3.859539     3.324330
 N       -3.621021     2.756738     3.350461
 H       -2.284003    -1.528658     3.343350
 N        0.841301     1.547377     3.251383
 H        1.085130     2.526011     3.240006
 H        1.566872     0.823801     3.238385
 H       -3.183346     4.870280     3.327922
 H       -4.631126     2.751925     3.374472
