31
  acgt base step (frag2-frag2) at avg ndb geometry
 N       -1.249408    -4.334618     0.000108
 C       -1.453779    -2.957386     0.000369
 N       -0.287164    -2.222242     0.000471
 C        1.008028    -2.722490     0.000365
 C        1.139737    -4.181361     0.000064
 C        0.000000    -4.915748     0.000000
 H       -2.087419    -4.899193     0.000228
 O       -2.573085    -2.462566     0.000505
 H       -0.408805    -1.172186     0.000678
 O        1.977244    -1.953535     0.000498
 C        2.515972    -4.780254    -0.000534
 H        2.463540    -5.877599     0.006109
 H        3.080111    -4.452913    -0.886592
 H        3.085127    -4.442101     0.878140
 H        0.011158    -6.004875    -0.000037
 N       -0.202642    -1.399569     3.250717
 C       -1.034346    -2.494965     3.281911
 N       -0.592816    -3.747360     3.286855
 C        0.754293    -3.819439     3.257982
 C        1.694400    -2.779552     3.225047
 C        1.202119    -1.436173     3.220151
 N        2.987142    -3.282300     3.202425
 C        2.838460    -4.582272     3.220948
 N        1.504626    -4.969498     3.254917
 H       -0.621424    -0.450609     3.248827
 N       -2.362733    -2.245381     3.308286
 H       -2.750571    -1.296644     3.305715
 H       -2.976517    -3.043637     3.331190
 O        1.845786    -0.373056     3.193476
 H        3.641974    -5.311778     3.211781
 H        1.136271    -5.910013     3.274075
