60
  atat base step at ndb average parameters
 N       -0.645270     0.537199     0.000379
 C       -1.914342     0.992571     0.000336
 N       -2.327871     2.260455     0.000198
 C       -1.289976     3.113552     0.000134
 C        0.071467     2.788444     0.000208
 C        0.388103     1.409805     0.000331
 N        0.862141     3.925582     0.000120
 C        0.000000     4.915748     0.000000
 N       -1.315514     4.490519     0.000000
 H       -2.678219     0.213216     0.000396
 N        1.647269     0.939941     0.000399
 H        2.408453     1.601685     0.000397
 H        1.826741    -0.069006     0.000581
 H        0.255544     5.970689    -0.000094
 H       -2.145977     5.066056    -0.000090
 N       -1.249408    -4.334618     0.000108
 C       -1.453779    -2.957386     0.000369
 N       -0.287164    -2.222242     0.000471
 C        1.008028    -2.722490     0.000365
 C        1.139737    -4.181361     0.000064
 C        0.000000    -4.915748     0.000000
 H       -2.087419    -4.899193     0.000228
 O       -2.573085    -2.462566     0.000505
 H       -0.408805    -1.172186     0.000678
 O        1.977244    -1.953535     0.000498
 C        2.515972    -4.780254    -0.000534
 H        2.463540    -5.877599     0.006109
 H        3.080111    -4.452913    -0.886592
 H        3.085127    -4.442101     0.878140
 H        0.011158    -6.004875    -0.000037
 N       -3.068594     2.541611     3.270964
 C       -2.534408     1.255856     3.267052
 N       -1.156035     1.226431     3.292530
 C       -0.303748     2.322152     3.320310
 C       -0.942250     3.640470     3.322649
 C       -2.297199     3.683087     3.297713
 H       -4.077512     2.594038     3.252448
 O       -3.238763     0.255356     3.243035
 H       -0.719460     0.263721     3.290277
 O        0.922876     2.162100     3.341518
 C       -0.071326     4.862472     3.352615
 H       -0.681302     5.776156     3.344238
 H        0.564071     4.862944     4.250822
 H        0.607083     4.875039     2.486615
 H       -2.848574     4.622399     3.297390
 N       -0.041718    -1.323278     3.286416
 C       -0.894737    -2.367084     3.259324
 N       -0.596118    -3.666814     3.251237
 C        0.732694    -3.863627     3.274169
 C        1.731962    -2.883915     3.303296
 C        1.293266    -1.539142     3.309246
 N        2.995204    -3.451501     3.321073
 C        2.766345    -4.744179     3.303134
 N        1.419989    -5.057074     3.274511
 H       -1.950745    -2.092382     3.242350
 N        2.130332    -0.488014     3.336090
 H        3.123460    -0.663290     3.352884
 H        1.764496     0.469241     3.339226
 H        3.528665    -5.516859     3.309325
 H        1.004731    -5.978033     3.256997
