30
  atat base step (frag1-frag2) at avg ndb geometry
 N       -0.645270     0.537199     0.000379
 C       -1.914342     0.992571     0.000336
 N       -2.327871     2.260455     0.000198
 C       -1.289976     3.113552     0.000134
 C        0.071467     2.788444     0.000208
 C        0.388103     1.409805     0.000331
 N        0.862141     3.925582     0.000120
 C        0.000000     4.915748     0.000000
 N       -1.315514     4.490519     0.000000
 H       -2.678219     0.213216     0.000396
 N        1.647269     0.939941     0.000399
 H        2.408453     1.601685     0.000397
 H        1.826741    -0.069006     0.000581
 H        0.255544     5.970689    -0.000094
 H       -2.145977     5.066056    -0.000090
 N       -0.041718    -1.323278     3.286416
 C       -0.894737    -2.367084     3.259324
 N       -0.596118    -3.666814     3.251237
 C        0.732694    -3.863627     3.274169
 C        1.731962    -2.883915     3.303296
 C        1.293266    -1.539142     3.309246
 N        2.995204    -3.451501     3.321073
 C        2.766345    -4.744179     3.303134
 N        1.419989    -5.057074     3.274511
 H       -1.950745    -2.092382     3.242350
 N        2.130332    -0.488014     3.336090
 H        3.123460    -0.663290     3.352884
 H        1.764496     0.469241     3.339226
 H        3.528665    -5.516859     3.309325
 H        1.004731    -5.978033     3.256997
