28
  catg base step (frag1-frag2) at avg ndb geometry
 N       -1.252617     4.415339    -0.000001
 C       -1.481220     3.025044     0.000053
 N       -0.395947     2.209109     0.000100
 C        0.847406     2.714237     0.000100
 C        1.088893     4.139708     0.000047
 C        0.000000     4.951862     0.000000
 H       -2.078756     4.999035    -0.000041
 O       -2.652372     2.623116     0.000060
 N        1.866869     1.849375     0.000149
 H        1.692519     0.821507     0.000207
 H        2.814580     2.192942     0.000155
 H        2.096261     4.547306     0.000043
 H        0.068633     6.038934    -0.000044
 N        1.337211    -2.272343     3.325316
 C        0.248610    -1.404426     3.311024
 N        0.600283    -0.071213     3.328215
 C        1.888413     0.446137     3.357186
 C        2.979558    -0.531039     3.370649
 C        2.647021    -1.845370     3.354014
 H        1.109482    -3.256724     3.313441
 O       -0.907218    -1.805805     3.285552
 H       -0.204719     0.613829     3.317993
 O        2.072698     1.669468     3.370302
 C        4.394223    -0.030567     3.401465
 H        5.104062    -0.868952     3.415506
 H        4.600744     0.600344     2.524080
 H        4.562652     0.598128     4.288440
 H        3.397881    -2.634330     3.362554
