
    -----------------------------------------------------------------------
          Psi4: An Open-Source Ab Initio Electronic Structure Package
                               Psi4 1.5 release

                         Git: Rev {HEAD} e9f4d6d 


    D. G. A. Smith, L. A. Burns, A. C. Simmonett, R. M. Parrish,
    M. C. Schieber, R. Galvelis, P. Kraus, H. Kruse, R. Di Remigio,
    A. Alenaizan, A. M. James, S. Lehtola, J. P. Misiewicz, M. Scheurer,
    R. A. Shaw, J. B. Schriber, Y. Xie, Z. L. Glick, D. A. Sirianni,
    J. S. O'Brien, J. M. Waldrop, A. Kumar, E. G. Hohenstein,
    B. P. Pritchard, B. R. Brooks, H. F. Schaefer III, A. Yu. Sokolov,
    K. Patkowski, A. E. DePrince III, U. Bozkaya, R. A. King,
    F. A. Evangelista, J. M. Turney, T. D. Crawford, C. D. Sherrill,
    J. Chem. Phys. 152(18) 184108 (2020). https://doi.org/10.1063/5.0006002

                            Additional Code Authors
    E. T. Seidl, C. L. Janssen, E. F. Valeev, M. L. Leininger,
    J. F. Gonthier, R. M. Richard, H. R. McAlexander, M. Saitow, X. Wang,
    P. Verma, M. H. Lechner, and A. Jiang

             Previous Authors, Complete List of Code Contributors,
                       and Citations for Specific Modules
    https://github.com/psi4/psi4/blob/master/codemeta.json
    https://github.com/psi4/psi4/graphs/contributors
    http://psicode.org/psi4manual/master/introduction.html#citing-psifour

    -----------------------------------------------------------------------


    Psi4 started on: Sunday, 12 May 2024 11:10PM

    Process ID: 2738576
    Host:       node150.bme.utexas.edu
    PSIDATADIR: /opt/anaconda/envs/psi4v1.5/share/psi4
    Memory:     500.0 MiB
    Threads:    8
    
  ==> Input File <==

--------------------------------------------------------------------------

memory 50 GB

molecule  {
  0 1

  O 0.6514174102564103 2.5366607435897435 0.24525419230769233
  H 0.8197074102564103 1.9445007435897437 -0.5087258076923077
  H 0.32710741025641027 1.8602007435897436 0.8841841923076923
  --
  -1 1

  H         -2.66070        0.83749        0.49122
  H         -1.49449        1.60742       -0.59689
  H          2.49036        0.32377        0.43271
  H          2.50605       -1.28485       -0.34537
  C          2.27766       -0.22479       -0.49170
  C         -2.18579        0.76805       -0.49188
  H         -2.94991        0.82041       -1.27313
  H          2.89740        0.17735       -1.29853
  O          0.10532       -2.18987        0.36660
  O         -0.18730        0.21892        1.43995
  O          0.91421       -0.05672       -0.88090
  O         -1.52933       -0.49028       -0.65382
  P         -0.16240       -0.72112        0.24978

units angstrom
no_reorient
symmetry c1}

set {
scf_type DF
basis jun-cc-pvdz
freeze_core True
guess SAD
}
energy('sapt2+(3)dmp2')
--------------------------------------------------------------------------

  Memory set to  46.566 GiB by Python driver.

Scratch directory: /tmp/
   => Loading Basis Set <=

    Name: JUN-CC-PVDZ
    Role: ORBITAL
    Keyword: BASIS
    atoms 1, 12-15   entry O          line   232 file /opt/anaconda/envs/psi4v1.5/share/psi4/basis/jun-cc-pvdz.gbs 
    atoms 2-7, 10-11 entry H          line    36 file /opt/anaconda/envs/psi4v1.5/share/psi4/basis/jun-cc-pvdz.gbs 
    atoms 8-9        entry C          line   164 file /opt/anaconda/envs/psi4v1.5/share/psi4/basis/jun-cc-pvdz.gbs 
    atoms 16         entry P          line   600 file /opt/anaconda/envs/psi4v1.5/share/psi4/basis/jun-cc-pvdz.gbs 

   => Loading Basis Set <=

    Name: JUN-CC-PVDZ
    Role: ORBITAL
    Keyword: BASIS
    atoms 1, 12-15   entry O          line   232 file /opt/anaconda/envs/psi4v1.5/share/psi4/basis/jun-cc-pvdz.gbs 
    atoms 2-7, 10-11 entry H          line    36 file /opt/anaconda/envs/psi4v1.5/share/psi4/basis/jun-cc-pvdz.gbs 
    atoms 8-9        entry C          line   164 file /opt/anaconda/envs/psi4v1.5/share/psi4/basis/jun-cc-pvdz.gbs 
    atoms 16         entry P          line   600 file /opt/anaconda/envs/psi4v1.5/share/psi4/basis/jun-cc-pvdz.gbs 


  //>>>>>>>>>>>>>>>>>>>>>>>>>>>>>>>>>>>//
  //              Dimer HF             //
  //<<<<<<<<<<<<<<<<<<<<<<<<<<<<<<<<<<<//


*** tstart() called on node150.bme.utexas.edu
*** at Sun May 12 23:10:40 2024

   => Loading Basis Set <=

    Name: JUN-CC-PVDZ
    Role: ORBITAL
    Keyword: BASIS
    atoms 1, 12-15   entry O          line   232 file /opt/anaconda/envs/psi4v1.5/share/psi4/basis/jun-cc-pvdz.gbs 
    atoms 2-7, 10-11 entry H          line    36 file /opt/anaconda/envs/psi4v1.5/share/psi4/basis/jun-cc-pvdz.gbs 
    atoms 8-9        entry C          line   164 file /opt/anaconda/envs/psi4v1.5/share/psi4/basis/jun-cc-pvdz.gbs 
    atoms 16         entry P          line   600 file /opt/anaconda/envs/psi4v1.5/share/psi4/basis/jun-cc-pvdz.gbs 


         ---------------------------------------------------------
                                   SCF
               by Justin Turney, Rob Parrish, Andy Simmonett
                          and Daniel G. A. Smith
                              RHF Reference
                        8 Threads,  47683 MiB Core
         ---------------------------------------------------------

  ==> Geometry <==

    Molecular point group: c1
    Full point group: C1

    Geometry (in Angstrom), charge = -1, multiplicity = 1:

       Center              X                  Y                   Z               Mass       
    ------------   -----------------  -----------------  -----------------  -----------------
         O            0.670351051238     2.600865068684     0.231461377251    15.994914619570
         H            0.838641051238     2.008705068684    -0.522518622749     1.007825032230
         H            0.346041051238     1.924405068684     0.870391377251     1.007825032230
         H           -2.641766359018     0.901694325094     0.477427184943     1.007825032230
         H           -1.475556359018     1.671624325094    -0.610682815057     1.007825032230
         H            2.509293640982     0.387974325094     0.418917184943     1.007825032230
         H            2.524983640982    -1.220645674906    -0.359162815057     1.007825032230
         C            2.296593640982    -0.160585674906    -0.505492815057    12.000000000000
         C           -2.166856359018     0.832254325094    -0.505672815057    12.000000000000
         H           -2.930976359018     0.884614325094    -1.286922815057     1.007825032230
         H            2.916333640982     0.241554325094    -1.312322815057     1.007825032230
         O            0.124253640982    -2.125665674906     0.352807184943    15.994914619570
         O           -0.168366359018     0.283124325094     1.426157184943    15.994914619570
         O            0.933143640982     0.007484325094    -0.894692815057    15.994914619570
         O           -1.510396359018    -0.426075674906    -0.667612815057    15.994914619570
         P           -0.143466359018    -0.656915674906     0.235987184943    30.973761998420

  Running in c1 symmetry.

  Rotational constants: A =      0.05928  B =      0.05776  C =      0.03838 [cm^-1]
  Rotational constants: A =   1777.07085  B =   1731.49623  C =   1150.61756 [MHz]
  Nuclear repulsion =  549.273742107409362

  Charge       = -1
  Multiplicity = 1
  Electrons    = 76
  Nalpha       = 38
  Nbeta        = 38

  ==> Algorithm <==

  SCF Algorithm Type is DF.
  DIIS enabled.
  MOM disabled.
  Fractional occupation disabled.
  Guess Type is SAD.
  Energy threshold   = 1.00e-08
  Density threshold  = 1.00e-08
  Integral threshold = 1.00e-12

  ==> Primary Basis <==

  Basis Set: JUN-CC-PVDZ
    Blend: JUN-CC-PVDZ
    Number of shells: 90
    Number of basis functions: 188
    Number of Cartesian functions: 196
    Spherical Harmonics?: true
    Max angular momentum: 2

   => Loading Basis Set <=

    Name: (JUN-CC-PVDZ AUX)
    Role: JKFIT
    Keyword: DF_BASIS_SCF
    atoms 1, 12-15   entry O          line   258 file /opt/anaconda/envs/psi4v1.5/share/psi4/basis/jun-cc-pvdz-jkfit.gbs 
    atoms 2-7, 10-11 entry H          line    70 file /opt/anaconda/envs/psi4v1.5/share/psi4/basis/jun-cc-pvdz-jkfit.gbs 
    atoms 8-9        entry C          line   146 file /opt/anaconda/envs/psi4v1.5/share/psi4/basis/jun-cc-pvdz-jkfit.gbs 
    atoms 16         entry P          line   586 file /opt/anaconda/envs/psi4v1.5/share/psi4/basis/jun-cc-pvdz-jkfit.gbs 

  ==> Integral Setup <==

  ==> DiskDFJK: Density-Fitted J/K Matrices <==

    J tasked:                  Yes
    K tasked:                  Yes
    wK tasked:                  No
    OpenMP threads:              8
    Integrals threads:           8
    Memory [MiB]:            35762
    Algorithm:                Core
    Integral Cache:           SAVE
    Schwarz Cutoff:          1E-12
    Fitting Condition:       1E-10

   => Auxiliary Basis Set <=

  Basis Set: (JUN-CC-PVDZ AUX)
    Blend: JUN-CC-PVDZ-JKFIT
    Number of shells: 300
    Number of basis functions: 858
    Number of Cartesian functions: 977
    Spherical Harmonics?: true
    Max angular momentum: 3

  Minimum eigenvalue in the overlap matrix is 3.7542052963E-04.
  Reciprocal condition number of the overlap matrix is 3.5673312629E-05.
    Using symmetric orthogonalization.

  ==> Pre-Iterations <==

  SCF Guess: Superposition of Atomic Densities via on-the-fly atomic UHF (no occupation information).

   -------------------------
    Irrep   Nso     Nmo    
   -------------------------
     A        188     188 
   -------------------------
    Total     188     188
   -------------------------

  ==> Iterations <==

                           Total Energy        Delta E     RMS |[F,P]|

   @DF-RHF iter SAD:  -794.06727827704856   -7.94067e+02   0.00000e+00 
   @DF-RHF iter   1:  -795.27041061901764   -1.20313e+00   4.73987e-03 DIIS
   @DF-RHF iter   2:  -795.49591543602105   -2.25505e-01   2.97833e-03 DIIS
   @DF-RHF iter   3:  -795.60794469736084   -1.12029e-01   3.35189e-04 DIIS
   @DF-RHF iter   4:  -795.61031630029015   -2.37160e-03   1.49465e-04 DIIS
   @DF-RHF iter   5:  -795.61069307378000   -3.76773e-04   3.27029e-05 DIIS
   @DF-RHF iter   6:  -795.61071679673296   -2.37230e-05   8.63798e-06 DIIS
   @DF-RHF iter   7:  -795.61071920991299   -2.41318e-06   2.54816e-06 DIIS
   @DF-RHF iter   8:  -795.61071946216930   -2.52256e-07   8.51846e-07 DIIS
   @DF-RHF iter   9:  -795.61071948568861   -2.35193e-08   3.96571e-07 DIIS
   @DF-RHF iter  10:  -795.61071948974654   -4.05794e-09   8.68648e-08 DIIS
   @DF-RHF iter  11:  -795.61071949000996   -2.63412e-10   2.65901e-08 DIIS
   @DF-RHF iter  12:  -795.61071949003394   -2.39879e-11   1.02812e-08 DIIS
   @DF-RHF iter  13:  -795.61071949003690   -2.95586e-12   3.48939e-09 DIIS
  Energy and wave function converged.


  ==> Post-Iterations <==

    Orbital Energies [Eh]
    ---------------------

    Doubly Occupied:                                                      

       1A    -79.938149     2A    -20.428184     3A    -20.425533  
       4A    -20.396479     5A    -20.350363     6A    -20.340215  
       7A    -11.153685     8A    -11.149907     9A     -7.455894  
      10A     -5.353821    11A     -5.353470    12A     -5.353235  
      13A     -1.259836    14A     -1.208752    15A     -1.174247  
      16A     -1.137238    17A     -1.100745    18A     -0.810407  
      19A     -0.788196    20A     -0.609552    21A     -0.544946  
      22A     -0.530290    23A     -0.510509    24A     -0.501201  
      25A     -0.481440    26A     -0.459891    27A     -0.457276  
      28A     -0.422398    29A     -0.395917    30A     -0.377452  
      31A     -0.364166    32A     -0.339281    33A     -0.322766  
      34A     -0.315625    35A     -0.305981    36A     -0.291991  
      37A     -0.279135    38A     -0.263182  

    Virtual:                                                              

      39A      0.165491    40A      0.165897    41A      0.198186  
      42A      0.202946    43A      0.212218    44A      0.217993  
      45A      0.225629    46A      0.238716    47A      0.251846  
      48A      0.253257    49A      0.305922    50A      0.315391  
      51A      0.320340    52A      0.342448    53A      0.377015  
      54A      0.387013    55A      0.398212    56A      0.402434  
      57A      0.412704    58A      0.418242    59A      0.431299  
      60A      0.434039    61A      0.446635    62A      0.453493  
      63A      0.459841    64A      0.469528    65A      0.484335  
      66A      0.488264    67A      0.488723    68A      0.496609  
      69A      0.503059    70A      0.512844    71A      0.531243  
      72A      0.537117    73A      0.545210    74A      0.556766  
      75A      0.564192    76A      0.577193    77A      0.595335  
      78A      0.617367    79A      0.634084    80A      0.641115  
      81A      0.655446    82A      0.672953    83A      0.702768  
      84A      0.745970    85A      0.879189    86A      0.881032  
      87A      0.909904    88A      0.928965    89A      0.946960  
      90A      0.961585    91A      1.021489    92A      1.032184  
      93A      1.040868    94A      1.049767    95A      1.054093  
      96A      1.069828    97A      1.083338    98A      1.100563  
      99A      1.108417   100A      1.112732   101A      1.203559  
     102A      1.212025   103A      1.237643   104A      1.278348  
     105A      1.328689   106A      1.334323   107A      1.359807  
     108A      1.394761   109A      1.406730   110A      1.430652  
     111A      1.452054   112A      1.529381   113A      1.564945  
     114A      1.584986   115A      1.609764   116A      1.632871  
     117A      1.653258   118A      1.683189   119A      1.695262  
     120A      1.723803   121A      1.733769   122A      1.740560  
     123A      1.761750   124A      1.799083   125A      1.805896  
     126A      1.821964   127A      1.837246   128A      1.843187  
     129A      1.870635   130A      1.885934   131A      1.898623  
     132A      1.954478   133A      2.003547   134A      2.034822  
     135A      2.046756   136A      2.084678   137A      2.097886  
     138A      2.127285   139A      2.131927   140A      2.141211  
     141A      2.154668   142A      2.179386   143A      2.188415  
     144A      2.240405   145A      2.312150   146A      2.329199  
     147A      2.379174   148A      2.455226   149A      2.504050  
     150A      2.512191   151A      2.520772   152A      2.539128  
     153A      2.570585   154A      2.628104   155A      2.695984  
     156A      2.743402   157A      2.850188   158A      2.896755  
     159A      2.910910   160A      2.929738   161A      2.959406  
     162A      2.979018   163A      3.028793   164A      3.150953  
     165A      3.167387   166A      3.187064   167A      3.201933  
     168A      3.240449   169A      3.259384   170A      3.304256  
     171A      3.339937   172A      3.389796   173A      3.439072  
     174A      3.461285   175A      3.467576   176A      3.480121  
     177A      3.509966   178A      3.550919   179A      3.571394  
     180A      3.623037   181A      3.697464   182A      3.749358  
     183A      3.751115   184A      3.801402   185A      3.960664  
     186A      4.008571   187A      4.097034   188A      4.406283  

    Final Occupation by Irrep:
              A 
    DOCC [    38 ]

  @DF-RHF Final Energy:  -795.61071949003690

   => Energetics <=

    Nuclear Repulsion Energy =            549.2737421074093618
    One-Electron Energy =               -2203.8662209759886537
    Two-Electron Energy =                 858.9817593785423924
    Total Energy =                       -795.6107194900368995

Computation Completed


Properties will be evaluated at   0.000000,   0.000000,   0.000000 [a0]

Properties computed using the SCF density matrix

  Nuclear Dipole Moment: [e a0]
     X:     2.0887      Y:     6.9808      Z:    -2.3945

  Electronic Dipole Moment: [e a0]
     X:    -1.9803      Y:    -6.3496      Z:     1.4015

  Dipole Moment: [e a0]
     X:     0.1084      Y:     0.6312      Z:    -0.9930     Total:     1.1816

  Dipole Moment: [D]
     X:     0.2755      Y:     1.6043      Z:    -2.5239     Total:     3.0033


*** tstop() called on node150.bme.utexas.edu at Sun May 12 23:10:42 2024
Module time:
	user time   =      10.45 seconds =       0.17 minutes
	system time =       0.33 seconds =       0.01 minutes
	total time  =          2 seconds =       0.03 minutes
Total time:
	user time   =      10.45 seconds =       0.17 minutes
	system time =       0.33 seconds =       0.01 minutes
	total time  =          2 seconds =       0.03 minutes

*** tstart() called on node150.bme.utexas.edu
*** at Sun May 12 23:10:42 2024


  //>>>>>>>>>>>>>>>>>>>>>>>>>>>>>>>>>>>//
  //               DFMP2               //
  //<<<<<<<<<<<<<<<<<<<<<<<<<<<<<<<<<<<//

   => Loading Basis Set <=

    Name: (JUN-CC-PVDZ AUX)
    Role: RIFIT
    Keyword: DF_BASIS_MP2
    atoms 1, 12-15   entry O          line   188 file /opt/anaconda/envs/psi4v1.5/share/psi4/basis/jun-cc-pvdz-ri.gbs 
    atoms 2-7, 10-11 entry H          line    30 file /opt/anaconda/envs/psi4v1.5/share/psi4/basis/jun-cc-pvdz-ri.gbs 
    atoms 8-9        entry C          line   100 file /opt/anaconda/envs/psi4v1.5/share/psi4/basis/jun-cc-pvdz-ri.gbs 
    atoms 16         entry P          line   432 file /opt/anaconda/envs/psi4v1.5/share/psi4/basis/jun-cc-pvdz-ri.gbs 

	 --------------------------------------------------------
	                          DF-MP2                         
	      2nd-Order Density-Fitted Moller-Plesset Theory     
	              RMP2 Wavefunction,   8 Threads             
	                                                         
	        Rob Parrish, Justin Turney, Andy Simmonett,      
	           Ed Hohenstein, and C. David Sherrill          
	 --------------------------------------------------------

   => Auxiliary Basis Set <=

  Basis Set: (JUN-CC-PVDZ AUX)
    Blend: JUN-CC-PVDZ-RI
    Number of shells: 222
    Number of basis functions: 652
    Number of Cartesian functions: 752
    Spherical Harmonics?: true
    Max angular momentum: 3

	 --------------------------------------------------------
	                 NBF =   188, NAUX =   652
	 --------------------------------------------------------
	   CLASS    FOCC     OCC    AOCC    AVIR     VIR    FVIR
	   PAIRS      12      38      26     150     150       0
	 --------------------------------------------------------

	 Will save fitting metric to file 97.

	-----------------------------------------------------------
	 ==================> DF-MP2 Energies <==================== 
	-----------------------------------------------------------
	 Reference Energy          =    -795.6107194900368995 [Eh]
	 Singles Energy            =      -0.0000000000000000 [Eh]
	 Same-Spin Energy          =      -0.3659230196692735 [Eh]
	 Opposite-Spin Energy      =      -1.0220705236636531 [Eh]
	 Correlation Energy        =      -1.3879935433329267 [Eh]
	 Total Energy              =    -796.9987130333698815 [Eh]
	-----------------------------------------------------------
	 ================> DF-SCS-MP2 Energies <================== 
	-----------------------------------------------------------
	 SCS Same-Spin Scale       =       0.3333333333333333 [-]
	 SCS Opposite-Spin Scale   =       1.2000000000000000 [-]
	 SCS Same-Spin Energy      =      -0.1219743398897578 [Eh]
	 SCS Opposite-Spin Energy  =      -1.2264846283963837 [Eh]
	 SCS Correlation Energy    =      -1.3484589682861416 [Eh]
	 SCS Total Energy          =    -796.9591784583230947 [Eh]
	-----------------------------------------------------------


*** tstop() called on node150.bme.utexas.edu at Sun May 12 23:10:42 2024
Module time:
	user time   =       4.65 seconds =       0.08 minutes
	system time =       0.09 seconds =       0.00 minutes
	total time  =          0 seconds =       0.00 minutes
Total time:
	user time   =      15.10 seconds =       0.25 minutes
	system time =       0.42 seconds =       0.01 minutes
	total time  =          2 seconds =       0.03 minutes

  //>>>>>>>>>>>>>>>>>>>>>>>>>>>>>>>>>>>//
  //            Monomer A HF           //
  //<<<<<<<<<<<<<<<<<<<<<<<<<<<<<<<<<<<//


*** tstart() called on node150.bme.utexas.edu
*** at Sun May 12 23:10:42 2024

   => Loading Basis Set <=

    Name: JUN-CC-PVDZ
    Role: ORBITAL
    Keyword: BASIS
    atoms 1, 12-15   entry O          line   232 file /opt/anaconda/envs/psi4v1.5/share/psi4/basis/jun-cc-pvdz.gbs 
    atoms 2-7, 10-11 entry H          line    36 file /opt/anaconda/envs/psi4v1.5/share/psi4/basis/jun-cc-pvdz.gbs 
    atoms 8-9        entry C          line   164 file /opt/anaconda/envs/psi4v1.5/share/psi4/basis/jun-cc-pvdz.gbs 
    atoms 16         entry P          line   600 file /opt/anaconda/envs/psi4v1.5/share/psi4/basis/jun-cc-pvdz.gbs 


         ---------------------------------------------------------
                                   SCF
               by Justin Turney, Rob Parrish, Andy Simmonett
                          and Daniel G. A. Smith
                              RHF Reference
                        8 Threads,  47683 MiB Core
         ---------------------------------------------------------

  ==> Geometry <==

    Molecular point group: c1
    Full point group: C1

    Geometry (in Angstrom), charge = 0, multiplicity = 1:

       Center              X                  Y                   Z               Mass       
    ------------   -----------------  -----------------  -----------------  -----------------
         O            0.670351051238     2.600865068684     0.231461377251    15.994914619570
         H            0.838641051238     2.008705068684    -0.522518622749     1.007825032230
         H            0.346041051238     1.924405068684     0.870391377251     1.007825032230
      Gh(H)          -2.641766359018     0.901694325094     0.477427184943     1.007825032230
      Gh(H)          -1.475556359018     1.671624325094    -0.610682815057     1.007825032230
      Gh(H)           2.509293640982     0.387974325094     0.418917184943     1.007825032230
      Gh(H)           2.524983640982    -1.220645674906    -0.359162815057     1.007825032230
      Gh(C)           2.296593640982    -0.160585674906    -0.505492815057    12.000000000000
      Gh(C)          -2.166856359018     0.832254325094    -0.505672815057    12.000000000000
      Gh(H)          -2.930976359018     0.884614325094    -1.286922815057     1.007825032230
      Gh(H)           2.916333640982     0.241554325094    -1.312322815057     1.007825032230
      Gh(O)           0.124253640982    -2.125665674906     0.352807184943    15.994914619570
      Gh(O)          -0.168366359018     0.283124325094     1.426157184943    15.994914619570
      Gh(O)           0.933143640982     0.007484325094    -0.894692815057    15.994914619570
      Gh(O)          -1.510396359018    -0.426075674906    -0.667612815057    15.994914619570
      Gh(P)          -0.143466359018    -0.656915674906     0.235987184943    30.973761998420

  Running in c1 symmetry.

  Rotational constants: A =      0.05928  B =      0.05776  C =      0.03838 [cm^-1]
  Rotational constants: A =   1777.07085  B =   1731.49623  C =   1150.61756 [MHz]
  Nuclear repulsion =    9.002954968703099

  Charge       = 0
  Multiplicity = 1
  Electrons    = 10
  Nalpha       = 5
  Nbeta        = 5

  ==> Algorithm <==

  SCF Algorithm Type is DF.
  DIIS enabled.
  MOM disabled.
  Fractional occupation disabled.
  Guess Type is SAD.
  Energy threshold   = 1.00e-08
  Density threshold  = 1.00e-08
  Integral threshold = 1.00e-12

  ==> Primary Basis <==

  Basis Set: JUN-CC-PVDZ
    Blend: JUN-CC-PVDZ
    Number of shells: 90
    Number of basis functions: 188
    Number of Cartesian functions: 196
    Spherical Harmonics?: true
    Max angular momentum: 2

   => Loading Basis Set <=

    Name: (JUN-CC-PVDZ AUX)
    Role: JKFIT
    Keyword: DF_BASIS_SCF
    atoms 1, 12-15   entry O          line   258 file /opt/anaconda/envs/psi4v1.5/share/psi4/basis/jun-cc-pvdz-jkfit.gbs 
    atoms 2-7, 10-11 entry H          line    70 file /opt/anaconda/envs/psi4v1.5/share/psi4/basis/jun-cc-pvdz-jkfit.gbs 
    atoms 8-9        entry C          line   146 file /opt/anaconda/envs/psi4v1.5/share/psi4/basis/jun-cc-pvdz-jkfit.gbs 
    atoms 16         entry P          line   586 file /opt/anaconda/envs/psi4v1.5/share/psi4/basis/jun-cc-pvdz-jkfit.gbs 

  ==> Integral Setup <==

  ==> DiskDFJK: Density-Fitted J/K Matrices <==

    J tasked:                  Yes
    K tasked:                  Yes
    wK tasked:                  No
    OpenMP threads:              8
    Integrals threads:           8
    Memory [MiB]:            35762
    Algorithm:                Core
    Integral Cache:           LOAD
    Schwarz Cutoff:          1E-12
    Fitting Condition:       1E-10

   => Auxiliary Basis Set <=

  Basis Set: (JUN-CC-PVDZ AUX)
    Blend: JUN-CC-PVDZ-JKFIT
    Number of shells: 300
    Number of basis functions: 858
    Number of Cartesian functions: 977
    Spherical Harmonics?: true
    Max angular momentum: 3

  Minimum eigenvalue in the overlap matrix is 3.7542052963E-04.
  Reciprocal condition number of the overlap matrix is 3.5673312629E-05.
    Using symmetric orthogonalization.

  ==> Pre-Iterations <==

  SCF Guess: Superposition of Atomic Densities via on-the-fly atomic UHF (no occupation information).

   -------------------------
    Irrep   Nso     Nmo    
   -------------------------
     A        188     188 
   -------------------------
    Total     188     188
   -------------------------

  ==> Iterations <==

                           Total Energy        Delta E     RMS |[F,P]|

   @DF-RHF iter SAD:   -75.49322512910460   -7.54932e+01   0.00000e+00 
   @DF-RHF iter   1:   -75.95640695430897   -4.63182e-01   2.30371e-03 DIIS
   @DF-RHF iter   2:   -76.00693235993994   -5.05254e-02   1.50987e-03 DIIS
   @DF-RHF iter   3:   -76.03524339751516   -2.83110e-02   1.18010e-04 DIIS
   @DF-RHF iter   4:   -76.03562310092690   -3.79703e-04   2.77634e-05 DIIS
   @DF-RHF iter   5:   -76.03564697798237   -2.38771e-05   5.75230e-06 DIIS
   @DF-RHF iter   6:   -76.03564859295021   -1.61497e-06   1.19512e-06 DIIS
   @DF-RHF iter   7:   -76.03564866851532   -7.55651e-08   1.42302e-07 DIIS
   @DF-RHF iter   8:   -76.03564866943975   -9.24430e-10   2.35021e-08 DIIS
   @DF-RHF iter   9:   -76.03564866946314   -2.33911e-11   6.25196e-09 DIIS
  Energy and wave function converged.


  ==> Post-Iterations <==

    Orbital Energies [Eh]
    ---------------------

    Doubly Occupied:                                                      

       1A    -20.583937     2A     -1.350260     3A     -0.695129  
       4A     -0.593257     5A     -0.509407  

    Virtual:                                                              

       6A      0.025177     7A      0.048168     8A      0.053153  
       9A      0.059096    10A      0.082853    11A      0.093687  
      12A      0.101305    13A      0.106574    14A      0.116598  
      15A      0.131292    16A      0.138656    17A      0.144467  
      18A      0.160259    19A      0.182757    20A      0.193330  
      21A      0.199137    22A      0.209107    23A      0.215332  
      24A      0.224963    25A      0.232843    26A      0.244400  
      27A      0.252787    28A      0.272553    29A      0.273069  
      30A      0.286050    31A      0.299424    32A      0.305033  
      33A      0.309546    34A      0.325294    35A      0.333703  
      36A      0.344493    37A      0.352468    38A      0.374868  
      39A      0.385516    40A      0.403505    41A      0.408717  
      42A      0.420060    43A      0.429634    44A      0.465129  
      45A      0.483608    46A      0.497418    47A      0.517546  
      48A      0.551838    49A      0.565948    50A      0.589283  
      51A      0.611517    52A      0.625546    53A      0.640458  
      54A      0.655270    55A      0.668180    56A      0.676402  
      57A      0.691699    58A      0.800289    59A      0.826071  
      60A      0.835258    61A      0.876035    62A      0.892483  
      63A      0.895985    64A      0.902712    65A      0.955497  
      66A      0.986963    67A      1.002394    68A      1.022672  
      69A      1.080339    70A      1.104858    71A      1.138073  
      72A      1.157295    73A      1.190599    74A      1.206647  
      75A      1.340360    76A      1.378418    77A      1.400552  
      78A      1.446816    79A      1.455401    80A      1.503150  
      81A      1.511211    82A      1.549981    83A      1.562896  
      84A      1.572462    85A      1.578383    86A      1.613989  
      87A      1.627353    88A      1.644627    89A      1.665218  
      90A      1.670851    91A      1.707100    92A      1.799568  
      93A      1.804353    94A      1.815696    95A      1.844422  
      96A      1.867894    97A      1.898204    98A      1.953779  
      99A      2.022115   100A      2.033841   101A      2.039425  
     102A      2.049407   103A      2.073313   104A      2.090900  
     105A      2.116181   106A      2.126728   107A      2.136281  
     108A      2.170105   109A      2.211327   110A      2.236697  
     111A      2.290414   112A      2.298648   113A      2.317248  
     114A      2.329166   115A      2.419570   116A      2.449985  
     117A      2.475795   118A      2.504538   119A      2.634390  
     120A      2.651082   121A      2.653249   122A      2.670840  
     123A      2.681254   124A      2.712694   125A      2.768308  
     126A      2.774048   127A      2.869798   128A      2.872583  
     129A      2.905358   130A      2.922904   131A      3.278521  
     132A      3.302411   133A      3.344707   134A      3.405697  
     135A      3.489210   136A      3.544457   137A      3.659456  
     138A      3.906202   139A      3.922420   140A      3.950074  
     141A      4.136526   142A      4.150918   143A      4.157193  
     144A      4.168527   145A      4.180340   146A      4.243500  
     147A      4.258303   148A      4.272458   149A      4.328709  
     150A      4.363413   151A      4.458028   152A      4.503259  
     153A      4.521579   154A      4.546864   155A      4.599069  
     156A      4.662784   157A      4.826649   158A      4.944102  
     159A      5.019903   160A      5.033761   161A      5.041276  
     162A      5.061663   163A      5.062778   164A      5.280764  
     165A      5.296101   166A      5.554644   167A      5.586408  
     168A      5.669643   169A      5.692155   170A      5.751366  
     171A      5.785993   172A      5.816773   173A      5.848098  
     174A      5.868453   175A      5.971657   176A      6.037353  
     177A      6.163091   178A      6.203236   179A     17.495723  
     180A     17.632140   181A     17.879873   182A     18.427854  
     183A     18.434463   184A     33.430143   185A     33.442422  
     186A     33.455620   187A     33.470179   188A    120.215255  

    Final Occupation by Irrep:
              A 
    DOCC [     5 ]

  @DF-RHF Final Energy:   -76.03564866946314

   => Energetics <=

    Nuclear Repulsion Energy =              9.0029549687030990
    One-Electron Energy =                -122.6132271565242746
    Two-Electron Energy =                  37.5746235183580382
    Total Energy =                        -76.0356486694631428

Computation Completed


Properties will be evaluated at   0.000000,   0.000000,   0.000000 [a0]

Properties computed using the SCF density matrix

  Nuclear Dipole Moment: [e a0]
     X:    12.3730      Y:    46.7519      Z:     4.1566

  Electronic Dipole Moment: [e a0]
     X:   -12.4767      Y:   -47.6061      Z:    -4.2341

  Dipole Moment: [e a0]
     X:    -0.1038      Y:    -0.8542      Z:    -0.0775     Total:     0.8640

  Dipole Moment: [D]
     X:    -0.2638      Y:    -2.1713      Z:    -0.1970     Total:     2.1961


*** tstop() called on node150.bme.utexas.edu at Sun May 12 23:10:43 2024
Module time:
	user time   =       5.13 seconds =       0.09 minutes
	system time =       0.08 seconds =       0.00 minutes
	total time  =          1 seconds =       0.02 minutes
Total time:
	user time   =      20.24 seconds =       0.34 minutes
	system time =       0.50 seconds =       0.01 minutes
	total time  =          3 seconds =       0.05 minutes

*** tstart() called on node150.bme.utexas.edu
*** at Sun May 12 23:10:43 2024


  //>>>>>>>>>>>>>>>>>>>>>>>>>>>>>>>>>>>//
  //               DFMP2               //
  //<<<<<<<<<<<<<<<<<<<<<<<<<<<<<<<<<<<//

   => Loading Basis Set <=

    Name: (JUN-CC-PVDZ AUX)
    Role: RIFIT
    Keyword: DF_BASIS_MP2
    atoms 1, 12-15   entry O          line   188 file /opt/anaconda/envs/psi4v1.5/share/psi4/basis/jun-cc-pvdz-ri.gbs 
    atoms 2-7, 10-11 entry H          line    30 file /opt/anaconda/envs/psi4v1.5/share/psi4/basis/jun-cc-pvdz-ri.gbs 
    atoms 8-9        entry C          line   100 file /opt/anaconda/envs/psi4v1.5/share/psi4/basis/jun-cc-pvdz-ri.gbs 
    atoms 16         entry P          line   432 file /opt/anaconda/envs/psi4v1.5/share/psi4/basis/jun-cc-pvdz-ri.gbs 

	 --------------------------------------------------------
	                          DF-MP2                         
	      2nd-Order Density-Fitted Moller-Plesset Theory     
	              RMP2 Wavefunction,   8 Threads             
	                                                         
	        Rob Parrish, Justin Turney, Andy Simmonett,      
	           Ed Hohenstein, and C. David Sherrill          
	 --------------------------------------------------------

   => Auxiliary Basis Set <=

  Basis Set: (JUN-CC-PVDZ AUX)
    Blend: JUN-CC-PVDZ-RI
    Number of shells: 222
    Number of basis functions: 652
    Number of Cartesian functions: 752
    Spherical Harmonics?: true
    Max angular momentum: 3

	 --------------------------------------------------------
	                 NBF =   188, NAUX =   652
	 --------------------------------------------------------
	   CLASS    FOCC     OCC    AOCC    AVIR     VIR    FVIR
	   PAIRS       1       5       4     183     183       0
	 --------------------------------------------------------

	 Will attempt to load fitting metric from file 97.

	-----------------------------------------------------------
	 ==================> DF-MP2 Energies <==================== 
	-----------------------------------------------------------
	 Reference Energy          =     -76.0356486694631428 [Eh]
	 Singles Energy            =      -0.0000000000000000 [Eh]
	 Same-Spin Energy          =      -0.0539663929549828 [Eh]
	 Opposite-Spin Energy      =      -0.1582918417429726 [Eh]
	 Correlation Energy        =      -0.2122582346979554 [Eh]
	 Total Energy              =     -76.2479069041610984 [Eh]
	-----------------------------------------------------------
	 ================> DF-SCS-MP2 Energies <================== 
	-----------------------------------------------------------
	 SCS Same-Spin Scale       =       0.3333333333333333 [-]
	 SCS Opposite-Spin Scale   =       1.2000000000000000 [-]
	 SCS Same-Spin Energy      =      -0.0179887976516609 [Eh]
	 SCS Opposite-Spin Energy  =      -0.1899502100915671 [Eh]
	 SCS Correlation Energy    =      -0.2079390077432280 [Eh]
	 SCS Total Energy          =     -76.2435876772063779 [Eh]
	-----------------------------------------------------------


*** tstop() called on node150.bme.utexas.edu at Sun May 12 23:10:44 2024
Module time:
	user time   =       3.55 seconds =       0.06 minutes
	system time =       0.05 seconds =       0.00 minutes
	total time  =          1 seconds =       0.02 minutes
Total time:
	user time   =      23.79 seconds =       0.40 minutes
	system time =       0.55 seconds =       0.01 minutes
	total time  =          4 seconds =       0.07 minutes

  //>>>>>>>>>>>>>>>>>>>>>>>>>>>>>>>>>>>//
  //            Monomer B HF           //
  //<<<<<<<<<<<<<<<<<<<<<<<<<<<<<<<<<<<//


*** tstart() called on node150.bme.utexas.edu
*** at Sun May 12 23:10:44 2024

   => Loading Basis Set <=

    Name: JUN-CC-PVDZ
    Role: ORBITAL
    Keyword: BASIS
    atoms 1, 12-15   entry O          line   232 file /opt/anaconda/envs/psi4v1.5/share/psi4/basis/jun-cc-pvdz.gbs 
    atoms 2-7, 10-11 entry H          line    36 file /opt/anaconda/envs/psi4v1.5/share/psi4/basis/jun-cc-pvdz.gbs 
    atoms 8-9        entry C          line   164 file /opt/anaconda/envs/psi4v1.5/share/psi4/basis/jun-cc-pvdz.gbs 
    atoms 16         entry P          line   600 file /opt/anaconda/envs/psi4v1.5/share/psi4/basis/jun-cc-pvdz.gbs 


         ---------------------------------------------------------
                                   SCF
               by Justin Turney, Rob Parrish, Andy Simmonett
                          and Daniel G. A. Smith
                              RHF Reference
                        8 Threads,  47683 MiB Core
         ---------------------------------------------------------

  ==> Geometry <==

    Molecular point group: c1
    Full point group: C1

    Geometry (in Angstrom), charge = -1, multiplicity = 1:

       Center              X                  Y                   Z               Mass       
    ------------   -----------------  -----------------  -----------------  -----------------
      Gh(O)           0.670351051238     2.600865068684     0.231461377251    15.994914619570
      Gh(H)           0.838641051238     2.008705068684    -0.522518622749     1.007825032230
      Gh(H)           0.346041051238     1.924405068684     0.870391377251     1.007825032230
         H           -2.641766359018     0.901694325094     0.477427184943     1.007825032230
         H           -1.475556359018     1.671624325094    -0.610682815057     1.007825032230
         H            2.509293640982     0.387974325094     0.418917184943     1.007825032230
         H            2.524983640982    -1.220645674906    -0.359162815057     1.007825032230
         C            2.296593640982    -0.160585674906    -0.505492815057    12.000000000000
         C           -2.166856359018     0.832254325094    -0.505672815057    12.000000000000
         H           -2.930976359018     0.884614325094    -1.286922815057     1.007825032230
         H            2.916333640982     0.241554325094    -1.312322815057     1.007825032230
         O            0.124253640982    -2.125665674906     0.352807184943    15.994914619570
         O           -0.168366359018     0.283124325094     1.426157184943    15.994914619570
         O            0.933143640982     0.007484325094    -0.894692815057    15.994914619570
         O           -1.510396359018    -0.426075674906    -0.667612815057    15.994914619570
         P           -0.143466359018    -0.656915674906     0.235987184943    30.973761998420

  Running in c1 symmetry.

  Rotational constants: A =      0.05928  B =      0.05776  C =      0.03838 [cm^-1]
  Rotational constants: A =   1777.07085  B =   1731.49623  C =   1150.61756 [MHz]
  Nuclear repulsion =  434.570341646123211

  Charge       = -1
  Multiplicity = 1
  Electrons    = 66
  Nalpha       = 33
  Nbeta        = 33

  ==> Algorithm <==

  SCF Algorithm Type is DF.
  DIIS enabled.
  MOM disabled.
  Fractional occupation disabled.
  Guess Type is SAD.
  Energy threshold   = 1.00e-08
  Density threshold  = 1.00e-08
  Integral threshold = 1.00e-12

  ==> Primary Basis <==

  Basis Set: JUN-CC-PVDZ
    Blend: JUN-CC-PVDZ
    Number of shells: 90
    Number of basis functions: 188
    Number of Cartesian functions: 196
    Spherical Harmonics?: true
    Max angular momentum: 2

   => Loading Basis Set <=

    Name: (JUN-CC-PVDZ AUX)
    Role: JKFIT
    Keyword: DF_BASIS_SCF
    atoms 1, 12-15   entry O          line   258 file /opt/anaconda/envs/psi4v1.5/share/psi4/basis/jun-cc-pvdz-jkfit.gbs 
    atoms 2-7, 10-11 entry H          line    70 file /opt/anaconda/envs/psi4v1.5/share/psi4/basis/jun-cc-pvdz-jkfit.gbs 
    atoms 8-9        entry C          line   146 file /opt/anaconda/envs/psi4v1.5/share/psi4/basis/jun-cc-pvdz-jkfit.gbs 
    atoms 16         entry P          line   586 file /opt/anaconda/envs/psi4v1.5/share/psi4/basis/jun-cc-pvdz-jkfit.gbs 

  ==> Integral Setup <==

  ==> DiskDFJK: Density-Fitted J/K Matrices <==

    J tasked:                  Yes
    K tasked:                  Yes
    wK tasked:                  No
    OpenMP threads:              8
    Integrals threads:           8
    Memory [MiB]:            35762
    Algorithm:                Core
    Integral Cache:           LOAD
    Schwarz Cutoff:          1E-12
    Fitting Condition:       1E-10

   => Auxiliary Basis Set <=

  Basis Set: (JUN-CC-PVDZ AUX)
    Blend: JUN-CC-PVDZ-JKFIT
    Number of shells: 300
    Number of basis functions: 858
    Number of Cartesian functions: 977
    Spherical Harmonics?: true
    Max angular momentum: 3

  Minimum eigenvalue in the overlap matrix is 3.7542052963E-04.
  Reciprocal condition number of the overlap matrix is 3.5673312629E-05.
    Using symmetric orthogonalization.

  ==> Pre-Iterations <==

  SCF Guess: Superposition of Atomic Densities via on-the-fly atomic UHF (no occupation information).

   -------------------------
    Irrep   Nso     Nmo    
   -------------------------
     A        188     188 
   -------------------------
    Total     188     188
   -------------------------

  ==> Iterations <==

                           Total Energy        Delta E     RMS |[F,P]|

   @DF-RHF iter SAD:  -718.29640669714081   -7.18296e+02   0.00000e+00 
   @DF-RHF iter   1:  -719.26880832120651   -9.72402e-01   4.32591e-03 DIIS
   @DF-RHF iter   2:  -719.45689651931366   -1.88088e-01   2.79527e-03 DIIS
   @DF-RHF iter   3:  -719.55615216703291   -9.92556e-02   3.04270e-04 DIIS
   @DF-RHF iter   4:  -719.55815180168804   -1.99963e-03   1.31642e-04 DIIS
   @DF-RHF iter   5:  -719.55845426680253   -3.02465e-04   3.04921e-05 DIIS
   @DF-RHF iter   6:  -719.55847346036774   -1.91936e-05   7.89092e-06 DIIS
   @DF-RHF iter   7:  -719.55847532089331   -1.86053e-06   2.18112e-06 DIIS
   @DF-RHF iter   8:  -719.55847551542001   -1.94527e-07   6.51324e-07 DIIS
   @DF-RHF iter   9:  -719.55847553268745   -1.72674e-08   3.03627e-07 DIIS
   @DF-RHF iter  10:  -719.55847553517231   -2.48485e-09   8.47974e-08 DIIS
   @DF-RHF iter  11:  -719.55847553538604   -2.13731e-10   2.43564e-08 DIIS
   @DF-RHF iter  12:  -719.55847553540559   -1.95541e-11   8.78227e-09 DIIS
  Energy and wave function converged.


  ==> Post-Iterations <==

    Orbital Energies [Eh]
    ---------------------

    Doubly Occupied:                                                      

       1A    -79.914281     2A    -20.410993     3A    -20.402597  
       4A    -20.321413     5A    -20.320763     6A    -11.143667  
       7A    -11.138188     8A     -7.431963     9A     -5.330029  
      10A     -5.329468    11A     -5.329223    12A     -1.237921  
      13A     -1.186469    14A     -1.111904    15A     -1.073843  
      16A     -0.796806    17A     -0.773735    18A     -0.589597  
      19A     -0.523682    20A     -0.489754    21A     -0.482705  
      22A     -0.468085    23A     -0.440017    24A     -0.436541  
      25A     -0.376540    26A     -0.356730    27A     -0.345597  
      28A     -0.312442    29A     -0.298545    30A     -0.283751  
      31A     -0.269014    32A     -0.254192    33A     -0.236665  

    Virtual:                                                              

      34A      0.163744    35A      0.168193    36A      0.192196  
      37A      0.205898    38A      0.212962    39A      0.220172  
      40A      0.229505    41A      0.240909    42A      0.248245  
      43A      0.256643    44A      0.283317    45A      0.292363  
      46A      0.313696    47A      0.332729    48A      0.351588  
      49A      0.356930    50A      0.392969    51A      0.404596  
      52A      0.417093    53A      0.427738    54A      0.437873  
      55A      0.442052    56A      0.449766    57A      0.460549  
      58A      0.467830    59A      0.480727    60A      0.494053  
      61A      0.497222    62A      0.501460    63A      0.503472  
      64A      0.511979    65A      0.529143    66A      0.543896  
      67A      0.553965    68A      0.560103    69A      0.562799  
      70A      0.571622    71A      0.589539    72A      0.597782  
      73A      0.628697    74A      0.642460    75A      0.654835  
      76A      0.673186    77A      0.683437    78A      0.708190  
      79A      0.748378    80A      0.875525    81A      0.890239  
      82A      0.922946    83A      0.938589    84A      0.957682  
      85A      0.976050    86A      0.979902    87A      1.021443  
      88A      1.043814    89A      1.054772    90A      1.059733  
      91A      1.067730    92A      1.081438    93A      1.088604  
      94A      1.097434    95A      1.116253    96A      1.121613  
      97A      1.160246    98A      1.196984    99A      1.237040  
     100A      1.246861   101A      1.285062   102A      1.306596  
     103A      1.348052   104A      1.385204   105A      1.411844  
     106A      1.446571   107A      1.448501   108A      1.484774  
     109A      1.600352   110A      1.633024   111A      1.670296  
     112A      1.693244   113A      1.707921   114A      1.725494  
     115A      1.770389   116A      1.773975   117A      1.792646  
     118A      1.812608   119A      1.830878   120A      1.859075  
     121A      1.876015   122A      1.880220   123A      1.969723  
     124A      1.984635   125A      2.031239   126A      2.039745  
     127A      2.059760   128A      2.087159   129A      2.101763  
     130A      2.126427   131A      2.145909   132A      2.153070  
     133A      2.156109   134A      2.181805   135A      2.195975  
     136A      2.219835   137A      2.225032   138A      2.320783  
     139A      2.328659   140A      2.358071   141A      2.384478  
     142A      2.488622   143A      2.513836   144A      2.525587  
     145A      2.540256   146A      2.554894   147A      2.621655  
     148A      2.653025   149A      2.735145   150A      2.813067  
     151A      2.874331   152A      2.912571   153A      2.927018  
     154A      2.933189   155A      2.963678   156A      2.994397  
     157A      3.008404   158A      3.060592   159A      3.177859  
     160A      3.191408   161A      3.210862   162A      3.225834  
     163A      3.254580   164A      3.272917   165A      3.287144  
     166A      3.366650   167A      3.410865   168A      3.458557  
     169A      3.488762   170A      3.529892   171A      3.536005  
     172A      3.578011   173A      3.597961   174A      3.649511  
     175A      3.724258   176A      3.764542   177A      3.825960  
     178A      3.986833   179A      4.033581   180A      4.622604  
     181A      4.638540   182A      4.904162   183A      5.068843  
     184A      5.283895   185A      5.683479   186A      6.722638  
     187A      7.047194   188A     33.673718  

    Final Occupation by Irrep:
              A 
    DOCC [    33 ]

  @DF-RHF Final Energy:  -719.55847553540559

   => Energetics <=

    Nuclear Repulsion Energy =            434.5703416461232109
    One-Electron Energy =               -1869.4233848904109436
    Two-Electron Energy =                 715.2945677088820275
    Total Energy =                       -719.5584755354055915

Computation Completed


Properties will be evaluated at   0.000000,   0.000000,   0.000000 [a0]

Properties computed using the SCF density matrix

  Nuclear Dipole Moment: [e a0]
     X:   -10.2842      Y:   -39.7711      Z:    -6.5510

  Electronic Dipole Moment: [e a0]
     X:    10.5678      Y:    41.6896      Z:     5.5913

  Dipole Moment: [e a0]
     X:     0.2836      Y:     1.9185      Z:    -0.9598     Total:     2.1638

  Dipole Moment: [D]
     X:     0.7207      Y:     4.8763      Z:    -2.4395     Total:     5.4999


*** tstop() called on node150.bme.utexas.edu at Sun May 12 23:10:45 2024
Module time:
	user time   =       8.29 seconds =       0.14 minutes
	system time =       0.21 seconds =       0.00 minutes
	total time  =          1 seconds =       0.02 minutes
Total time:
	user time   =      32.10 seconds =       0.53 minutes
	system time =       0.77 seconds =       0.01 minutes
	total time  =          5 seconds =       0.08 minutes

*** tstart() called on node150.bme.utexas.edu
*** at Sun May 12 23:10:45 2024


  //>>>>>>>>>>>>>>>>>>>>>>>>>>>>>>>>>>>//
  //               DFMP2               //
  //<<<<<<<<<<<<<<<<<<<<<<<<<<<<<<<<<<<//

   => Loading Basis Set <=

    Name: (JUN-CC-PVDZ AUX)
    Role: RIFIT
    Keyword: DF_BASIS_MP2
    atoms 1, 12-15   entry O          line   188 file /opt/anaconda/envs/psi4v1.5/share/psi4/basis/jun-cc-pvdz-ri.gbs 
    atoms 2-7, 10-11 entry H          line    30 file /opt/anaconda/envs/psi4v1.5/share/psi4/basis/jun-cc-pvdz-ri.gbs 
    atoms 8-9        entry C          line   100 file /opt/anaconda/envs/psi4v1.5/share/psi4/basis/jun-cc-pvdz-ri.gbs 
    atoms 16         entry P          line   432 file /opt/anaconda/envs/psi4v1.5/share/psi4/basis/jun-cc-pvdz-ri.gbs 

	 --------------------------------------------------------
	                          DF-MP2                         
	      2nd-Order Density-Fitted Moller-Plesset Theory     
	              RMP2 Wavefunction,   8 Threads             
	                                                         
	        Rob Parrish, Justin Turney, Andy Simmonett,      
	           Ed Hohenstein, and C. David Sherrill          
	 --------------------------------------------------------

   => Auxiliary Basis Set <=

  Basis Set: (JUN-CC-PVDZ AUX)
    Blend: JUN-CC-PVDZ-RI
    Number of shells: 222
    Number of basis functions: 652
    Number of Cartesian functions: 752
    Spherical Harmonics?: true
    Max angular momentum: 3

	 --------------------------------------------------------
	                 NBF =   188, NAUX =   652
	 --------------------------------------------------------
	   CLASS    FOCC     OCC    AOCC    AVIR     VIR    FVIR
	   PAIRS      11      33      22     155     155       0
	 --------------------------------------------------------

	 Will attempt to load fitting metric from file 97.

	-----------------------------------------------------------
	 ==================> DF-MP2 Energies <==================== 
	-----------------------------------------------------------
	 Reference Energy          =    -719.5584755354055915 [Eh]
	 Singles Energy            =      -0.0000000000000000 [Eh]
	 Same-Spin Energy          =      -0.3091872745745185 [Eh]
	 Opposite-Spin Energy      =      -0.8639814675499136 [Eh]
	 Correlation Energy        =      -1.1731687421244321 [Eh]
	 Total Energy              =    -720.7316442775299947 [Eh]
	-----------------------------------------------------------
	 ================> DF-SCS-MP2 Energies <================== 
	-----------------------------------------------------------
	 SCS Same-Spin Scale       =       0.3333333333333333 [-]
	 SCS Opposite-Spin Scale   =       1.2000000000000000 [-]
	 SCS Same-Spin Energy      =      -0.1030624248581728 [Eh]
	 SCS Opposite-Spin Energy  =      -1.0367777610598963 [Eh]
	 SCS Correlation Energy    =      -1.1398401859180691 [Eh]
	 SCS Total Energy          =    -720.6983157213236382 [Eh]
	-----------------------------------------------------------


*** tstop() called on node150.bme.utexas.edu at Sun May 12 23:10:46 2024
Module time:
	user time   =       4.02 seconds =       0.07 minutes
	system time =       0.06 seconds =       0.00 minutes
	total time  =          1 seconds =       0.02 minutes
Total time:
	user time   =      36.13 seconds =       0.60 minutes
	system time =       0.83 seconds =       0.01 minutes
	total time  =          6 seconds =       0.10 minutes
  Constructing Basis Sets for SAPT...

   => Loading Basis Set <=

    Name: (JUN-CC-PVDZ AUX)
    Role: RIFIT
    Keyword: DF_BASIS_SAPT
    atoms 1, 12-15   entry O          line   188 file /opt/anaconda/envs/psi4v1.5/share/psi4/basis/jun-cc-pvdz-ri.gbs 
    atoms 2-7, 10-11 entry H          line    30 file /opt/anaconda/envs/psi4v1.5/share/psi4/basis/jun-cc-pvdz-ri.gbs 
    atoms 8-9        entry C          line   100 file /opt/anaconda/envs/psi4v1.5/share/psi4/basis/jun-cc-pvdz-ri.gbs 
    atoms 16         entry P          line   432 file /opt/anaconda/envs/psi4v1.5/share/psi4/basis/jun-cc-pvdz-ri.gbs 


  //>>>>>>>>>>>>>>>>>>>>>>>>>>>>>>>>>>>//
  //           SAPT2+(3)DMP2           //
  //<<<<<<<<<<<<<<<<<<<<<<<<<<<<<<<<<<<//


*** tstart() called on node150.bme.utexas.edu
*** at Sun May 12 23:10:46 2024

      SAPT2+(3)  
    Ed Hohenstein
     6 June 2009

      Orbital Information
  --------------------------
    NSO        =       188
    NMO        =       188
    NRI        =       652
    NOCC A     =         5
    NOCC B     =        33
    FOCC A     =         1
    FOCC B     =        11
    NVIR A     =       183
    NVIR B     =       155

    Estimated memory usage: 1049.9 MB

    Natural Orbital Cutoff:   1.000E-06
    Disp(T3) Truncation:            Yes
    CCD (vv|vv) Truncation:         Yes
    MBPT T2 Truncation:             Yes

    Monomer A: 150 virtual orbitals dropped
    Monomer B: 15 virtual orbitals dropped

    Elst10,r            =    -0.045914303435 [Eh]
    Exch10 (S^2)        =     0.040812088721 [Eh]
    Exch10              =     0.041183633493 [Eh]
    Ind20,r (A<-B)      =    -0.007848822126 [Eh]
    Ind20,r (B<-A)      =    -0.011238642057 [Eh]
    Ind20,r             =    -0.019087464183 [Eh]
    Exch-Ind20,r (A<-B) =     0.004733690133 [Eh]
    Exch-Ind20,r (B<-A) =     0.006865783619 [Eh]
    Exch-Ind20,r        =     0.011599473752 [Eh]
    Disp20              =    -0.011572075191 [Eh]
    Disp20 (NO)         =    -0.010534869454 [Eh]
    Exch-Disp20         =     0.002713790893 [Eh]
    Elst12,r            =    -0.001565532427 [Eh]
    Exch11              =    -0.000218663678 [Eh]
    Exch12              =     0.008961941761 [Eh]
    Ind22               =    -0.004590074438 [Eh]
    Disp21              =     0.000942486948 [Eh]
    Disp22 (SDQ)        =    -0.000991217891 [Eh]

    (i =   1 of  22)          0 seconds
    (i =   2 of  22)          0 seconds
    (i =   3 of  22)          0 seconds
    (i =   4 of  22)          0 seconds
    (i =   5 of  22)          0 seconds
    (i =   6 of  22)          0 seconds
    (i =   7 of  22)          0 seconds
    (i =   8 of  22)          0 seconds
    (i =   9 of  22)          0 seconds
    (i =  10 of  22)          0 seconds
    (i =  11 of  22)          0 seconds
    (i =  12 of  22)          0 seconds
    (i =  13 of  22)          0 seconds
    (i =  14 of  22)          0 seconds
    (i =  15 of  22)          0 seconds
    (i =  16 of  22)          0 seconds
    (i =  17 of  22)          0 seconds
    (i =  18 of  22)          1 seconds
    (i =  19 of  22)          1 seconds
    (i =  20 of  22)          1 seconds
    (i =  21 of  22)          1 seconds
    (i =  22 of  22)          1 seconds

    Disp220 (T)         =    -0.000797219470 [Eh]

    (i =   1 of   4)          3 seconds
    (i =   2 of   4)          5 seconds
    (i =   3 of   4)          8 seconds
    (i =   4 of   4)         11 seconds

    Disp202 (T)         =    -0.000923258772 [Eh]

    Disp22 (T)          =    -0.001720478242 [Eh]

    Est. Disp220 (T)    =    -0.000875709347 [Eh]
    Est. Disp202 (T)    =    -0.001014157790 [Eh]

    Est. Disp22 (T)     =    -0.001889867137 [Eh]
    Elst13,r            =     0.001479601681 [Eh]
    Disp30              =     0.000118436818 [Eh]

    SAPT Results 
  --------------------------------------------------------------------------------------------------------
    Electrostatics                -46.00023418 [mEh]     -28.86558274 [kcal/mol]    -120.77359820 [kJ/mol]
      Elst10,r                    -45.91430343 [mEh]     -28.81166039 [kcal/mol]    -120.54798706 [kJ/mol]
      Elst12,r                     -1.56553243 [mEh]      -0.98238643 [kcal/mol]      -4.11030482 [kJ/mol]
      Elst13,r                      1.47960168 [mEh]       0.92846407 [kcal/mol]       3.88469368 [kJ/mol]

    Exchange                       49.92691157 [mEh]      31.32961001 [kcal/mol]     131.08308828 [kJ/mol]
      Exch10                       41.18363349 [mEh]      25.84312018 [kcal/mol]     108.12761484 [kJ/mol]
      Exch10(S^2)                  40.81208872 [mEh]      25.60997232 [kcal/mol]     107.15212417 [kJ/mol]
      Exch11(S^2)                  -0.21866368 [mEh]      -0.13721353 [kcal/mol]      -0.57410141 [kJ/mol]
      Exch12(S^2)                   8.96194176 [mEh]       5.62370336 [kcal/mol]      23.52957485 [kJ/mol]

    Induction                     -12.75064309 [mEh]      -8.00114934 [kcal/mol]     -33.47680883 [kJ/mol]
      Ind20,r                     -19.08746418 [mEh]     -11.97756461 [kcal/mol]     -50.11413031 [kJ/mol]
      Ind22                        -4.59007444 [mEh]      -2.88031520 [kcal/mol]     -12.05123878 [kJ/mol]
      Exch-Ind20,r                 11.59947375 [mEh]       7.27877967 [kcal/mol]      30.45441414 [kJ/mol]
      Exch-Ind22                    2.78939347 [mEh]       1.75037083 [kcal/mol]       7.32355155 [kJ/mol]
      delta HF,r (2)               -4.37662480 [mEh]      -2.74637352 [kcal/mol]     -11.49082682 [kJ/mol]
      delta MP2,r (2)               0.91465310 [mEh]       0.57395349 [kcal/mol]       2.40142138 [kJ/mol]

    Dispersion                    -10.67844556 [mEh]      -6.70082575 [kcal/mol]     -28.03625496 [kJ/mol]
      Disp20                      -11.57207519 [mEh]      -7.26158681 [kcal/mol]     -30.38247923 [kJ/mol]
      Disp30                        0.11843682 [mEh]       0.07432023 [kcal/mol]       0.31095582 [kJ/mol]
      Disp21                        0.94248695 [mEh]       0.59141949 [kcal/mol]       2.47449914 [kJ/mol]
      Disp22 (SDQ)                 -0.99121789 [mEh]      -0.62199862 [kcal/mol]      -2.60244221 [kJ/mol]
      Disp22 (T)                   -1.72047824 [mEh]      -1.07961640 [kcal/mol]      -4.51711500 [kJ/mol]
      Est. Disp22 (T)              -1.88986714 [mEh]      -1.18590953 [kcal/mol]      -4.96184549 [kJ/mol]
      Exch-Disp20                   2.71379089 [mEh]       1.70292950 [kcal/mol]       7.12505701 [kJ/mol]

  Total HF                        -16.59528517 [mEh]     -10.41369866 [kcal/mol]     -43.57091521 [kJ/mol]
  Total SAPT0                     -25.45356947 [mEh]     -15.97235598 [kcal/mol]     -66.82833743 [kJ/mol]
  Total SAPT2                     -20.07650478 [mEh]     -12.59819695 [kcal/mol]     -52.71085603 [kJ/mol]
  Total SAPT2+                    -22.01510286 [mEh]     -13.81468561 [kcal/mol]     -57.80064459 [kJ/mol]
  Total SAPT2+(3)                 -20.41706436 [mEh]     -12.81190131 [kcal/mol]     -53.60499509 [kJ/mol]
  Total SAPT2+dMP2                -21.10044976 [mEh]     -13.24073212 [kcal/mol]     -55.39922321 [kJ/mol]
  Total SAPT2+(3)dMP2             -19.50241126 [mEh]     -12.23794783 [kcal/mol]     -51.20357371 [kJ/mol]

  Special recipe for scaled SAPT0 (see Manual):
    Electrostatics sSAPT0         -45.91430343 [mEh]     -28.81166039 [kcal/mol]    -120.54798706 [kJ/mol]
    Exchange sSAPT0                41.18363349 [mEh]      25.84312018 [kcal/mol]     108.12761484 [kJ/mol]
    Induction sSAPT0              -11.54492482 [mEh]      -7.24454970 [kcal/mol]     -30.31119594 [kJ/mol]
    Dispersion sSAPT0              -8.78349014 [mEh]      -5.51172327 [kcal/mol]     -23.06105018 [kJ/mol]
  Total sSAPT0                    -25.05908490 [mEh]     -15.72481318 [kcal/mol]     -65.79261834 [kJ/mol]
  --------------------------------------------------------------------------------------------------------

*** tstop() called on node150.bme.utexas.edu at Sun May 12 23:11:19 2024
Module time:
	user time   =     253.70 seconds =       4.23 minutes
	system time =       4.97 seconds =       0.08 minutes
	total time  =         33 seconds =       0.55 minutes
Total time:
	user time   =     290.20 seconds =       4.84 minutes
	system time =       5.80 seconds =       0.10 minutes
	total time  =         39 seconds =       0.65 minutes

    Psi4 stopped on: Sunday, 12 May 2024 11:11PM
    Psi4 wall time for execution: 0:00:39.29

*** Psi4 exiting successfully. Buy a developer a beer!
