
    -----------------------------------------------------------------------
          Psi4: An Open-Source Ab Initio Electronic Structure Package
                               Psi4 1.5 release

                         Git: Rev {HEAD} e9f4d6d 


    D. G. A. Smith, L. A. Burns, A. C. Simmonett, R. M. Parrish,
    M. C. Schieber, R. Galvelis, P. Kraus, H. Kruse, R. Di Remigio,
    A. Alenaizan, A. M. James, S. Lehtola, J. P. Misiewicz, M. Scheurer,
    R. A. Shaw, J. B. Schriber, Y. Xie, Z. L. Glick, D. A. Sirianni,
    J. S. O'Brien, J. M. Waldrop, A. Kumar, E. G. Hohenstein,
    B. P. Pritchard, B. R. Brooks, H. F. Schaefer III, A. Yu. Sokolov,
    K. Patkowski, A. E. DePrince III, U. Bozkaya, R. A. King,
    F. A. Evangelista, J. M. Turney, T. D. Crawford, C. D. Sherrill,
    J. Chem. Phys. 152(18) 184108 (2020). https://doi.org/10.1063/5.0006002

                            Additional Code Authors
    E. T. Seidl, C. L. Janssen, E. F. Valeev, M. L. Leininger,
    J. F. Gonthier, R. M. Richard, H. R. McAlexander, M. Saitow, X. Wang,
    P. Verma, M. H. Lechner, and A. Jiang

             Previous Authors, Complete List of Code Contributors,
                       and Citations for Specific Modules
    https://github.com/psi4/psi4/blob/master/codemeta.json
    https://github.com/psi4/psi4/graphs/contributors
    http://psicode.org/psi4manual/master/introduction.html#citing-psifour

    -----------------------------------------------------------------------


    Psi4 started on: Saturday, 06 January 2024 08:14PM

    Process ID: 826538
    Host:       node150.bme.utexas.edu
    PSIDATADIR: /opt/anaconda/envs/psi4v1.5/share/psi4
    Memory:     500.0 MiB
    Threads:    8
    
  ==> Input File <==

--------------------------------------------------------------------------

memory 50 GB

molecule  {
  0 1
  
  O 2.596289076923077 -0.8961185641025642 -0.328655282051282
  H 2.161439076923077 -0.7000585641025641 0.525264717948718
  H 1.7897390769230768 -1.075128564102564 -0.8555552820512821
  --
  -1 1

  H          1.39787        2.23823        0.78561
  H          1.82227        1.35025       -0.69216
  H         -2.44596       -1.04512       -1.20918
  H         -3.69999       -0.51252       -0.04560
  C         -2.71019       -0.29580       -0.45830
  C          1.07601        2.00780       -0.23518
  H          1.00241        2.93277       -0.81515
  H         -2.72594        0.69264       -0.93120
  O          0.63607       -0.34475        1.46511
  O          0.07347       -1.04343       -1.01376
  O         -1.79214       -0.32276        0.63087
  O         -0.22257        1.41233       -0.23011
  P         -0.19440       -0.20125        0.21592

units angstrom
no_reorient
symmetry c1}

set {
scf_type DF
basis aug-cc-pvtz
freeze_core True
guess SAD
}
energy('sapt2+(3)dmp2')
--------------------------------------------------------------------------

  Memory set to  46.566 GiB by Python driver.

Scratch directory: /tmp/
   => Loading Basis Set <=

    Name: AUG-CC-PVTZ
    Role: ORBITAL
    Keyword: BASIS
    atoms 1, 12-15   entry O          line   331 file /opt/anaconda/envs/psi4v1.5/share/psi4/basis/aug-cc-pvtz.gbs 
    atoms 2-7, 10-11 entry H          line    40 file /opt/anaconda/envs/psi4v1.5/share/psi4/basis/aug-cc-pvtz.gbs 
    atoms 8-9        entry C          line   239 file /opt/anaconda/envs/psi4v1.5/share/psi4/basis/aug-cc-pvtz.gbs 
    atoms 16         entry P          line   824 file /opt/anaconda/envs/psi4v1.5/share/psi4/basis/aug-cc-pvtz.gbs 

   => Loading Basis Set <=

    Name: AUG-CC-PVTZ
    Role: ORBITAL
    Keyword: BASIS
    atoms 1, 12-15   entry O          line   331 file /opt/anaconda/envs/psi4v1.5/share/psi4/basis/aug-cc-pvtz.gbs 
    atoms 2-7, 10-11 entry H          line    40 file /opt/anaconda/envs/psi4v1.5/share/psi4/basis/aug-cc-pvtz.gbs 
    atoms 8-9        entry C          line   239 file /opt/anaconda/envs/psi4v1.5/share/psi4/basis/aug-cc-pvtz.gbs 
    atoms 16         entry P          line   824 file /opt/anaconda/envs/psi4v1.5/share/psi4/basis/aug-cc-pvtz.gbs 


  //>>>>>>>>>>>>>>>>>>>>>>>>>>>>>>>>>>>//
  //              Dimer HF             //
  //<<<<<<<<<<<<<<<<<<<<<<<<<<<<<<<<<<<//


*** tstart() called on node150.bme.utexas.edu
*** at Sat Jan  6 20:14:22 2024

   => Loading Basis Set <=

    Name: AUG-CC-PVTZ
    Role: ORBITAL
    Keyword: BASIS
    atoms 1, 12-15   entry O          line   331 file /opt/anaconda/envs/psi4v1.5/share/psi4/basis/aug-cc-pvtz.gbs 
    atoms 2-7, 10-11 entry H          line    40 file /opt/anaconda/envs/psi4v1.5/share/psi4/basis/aug-cc-pvtz.gbs 
    atoms 8-9        entry C          line   239 file /opt/anaconda/envs/psi4v1.5/share/psi4/basis/aug-cc-pvtz.gbs 
    atoms 16         entry P          line   824 file /opt/anaconda/envs/psi4v1.5/share/psi4/basis/aug-cc-pvtz.gbs 


         ---------------------------------------------------------
                                   SCF
               by Justin Turney, Rob Parrish, Andy Simmonett
                          and Daniel G. A. Smith
                              RHF Reference
                        8 Threads,  47683 MiB Core
         ---------------------------------------------------------

  ==> Geometry <==

    Molecular point group: c1
    Full point group: C1

    Geometry (in Angstrom), charge = -1, multiplicity = 1:

       Center              X                  Y                   Z               Mass       
    ------------   -----------------  -----------------  -----------------  -----------------
         O            2.636032505665    -0.889911915202    -0.352956923144    15.994914619570
         H            2.201182505665    -0.693851915202     0.500963076856     1.007825032230
         H            1.829482505665    -1.068921915202    -0.879856923144     1.007825032230
         H            1.437613428742     2.244436648901     0.761308358907     1.007825032230
         H            1.862013428742     1.356456648901    -0.716461641093     1.007825032230
         H           -2.406216571258    -1.038913351099    -1.233481641093     1.007825032230
         H           -3.660246571258    -0.506313351099    -0.069901641093     1.007825032230
         C           -2.670446571258    -0.289593351099    -0.482601641093    12.000000000000
         C            1.115753428742     2.014006648901    -0.259481641093    12.000000000000
         H            1.042153428742     2.938976648901    -0.839451641093     1.007825032230
         H           -2.686196571258     0.698846648901    -0.955501641093     1.007825032230
         O            0.675813428742    -0.338543351099     1.440808358907    15.994914619570
         O            0.113213428742    -1.037223351099    -1.038061641093    15.994914619570
         O           -1.752396571258    -0.316553351099     0.606568358907    15.994914619570
         O           -0.182826571258     1.418536648901    -0.254411641093    15.994914619570
         P           -0.154656571258    -0.195043351099     0.191618358907    30.973761998420

  Running in c1 symmetry.

  Rotational constants: A =      0.08240  B =      0.04428  C =      0.03775 [cm^-1]
  Rotational constants: A =   2470.23512  B =   1327.33431  C =   1131.63528 [MHz]
  Nuclear repulsion =  551.671671198020931

  Charge       = -1
  Multiplicity = 1
  Electrons    = 76
  Nalpha       = 38
  Nbeta        = 38

  ==> Algorithm <==

  SCF Algorithm Type is DF.
  DIIS enabled.
  MOM disabled.
  Fractional occupation disabled.
  Guess Type is SAD.
  Energy threshold   = 1.00e-08
  Density threshold  = 1.00e-08
  Integral threshold = 1.00e-12

  ==> Primary Basis <==

  Basis Set: AUG-CC-PVTZ
    Blend: AUG-CC-PVTZ
    Number of shells: 186
    Number of basis functions: 556
    Number of Cartesian functions: 644
    Spherical Harmonics?: true
    Max angular momentum: 3

   => Loading Basis Set <=

    Name: (AUG-CC-PVTZ AUX)
    Role: JKFIT
    Keyword: DF_BASIS_SCF
    atoms 1, 12-15   entry O          line   286 file /opt/anaconda/envs/psi4v1.5/share/psi4/basis/aug-cc-pvtz-jkfit.gbs 
    atoms 2-7, 10-11 entry H          line    70 file /opt/anaconda/envs/psi4v1.5/share/psi4/basis/aug-cc-pvtz-jkfit.gbs 
    atoms 8-9        entry C          line   162 file /opt/anaconda/envs/psi4v1.5/share/psi4/basis/aug-cc-pvtz-jkfit.gbs 
    atoms 16         entry P          line   644 file /opt/anaconda/envs/psi4v1.5/share/psi4/basis/aug-cc-pvtz-jkfit.gbs 

  ==> Integral Setup <==

  ==> DiskDFJK: Density-Fitted J/K Matrices <==

    J tasked:                  Yes
    K tasked:                  Yes
    wK tasked:                  No
    OpenMP threads:              8
    Integrals threads:           8
    Memory [MiB]:            35762
    Algorithm:                Core
    Integral Cache:           SAVE
    Schwarz Cutoff:          1E-12
    Fitting Condition:       1E-10

   => Auxiliary Basis Set <=

  Basis Set: (AUG-CC-PVTZ AUX)
    Blend: AUG-CC-PVTZ-JKFIT
    Number of shells: 364
    Number of basis functions: 1242
    Number of Cartesian functions: 1537
    Spherical Harmonics?: true
    Max angular momentum: 4

  Minimum eigenvalue in the overlap matrix is 1.4822622796E-05.
  Reciprocal condition number of the overlap matrix is 9.0605330201E-07.
    Using symmetric orthogonalization.

  ==> Pre-Iterations <==

  SCF Guess: Superposition of Atomic Densities via on-the-fly atomic UHF (no occupation information).

   -------------------------
    Irrep   Nso     Nmo    
   -------------------------
     A        556     556 
   -------------------------
    Total     556     556
   -------------------------

  ==> Iterations <==

                           Total Energy        Delta E     RMS |[F,P]|

   @DF-RHF iter SAD:  -794.26286311597130   -7.94263e+02   0.00000e+00 
   @DF-RHF iter   1:  -795.46378419751852   -1.20092e+00   1.64477e-03 DIIS
   @DF-RHF iter   2:  -795.69592864662786   -2.32144e-01   1.02603e-03 DIIS
   @DF-RHF iter   3:  -795.79737188432284   -1.01443e-01   1.11670e-04 DIIS
   @DF-RHF iter   4:  -795.79991011995367   -2.53824e-03   4.10332e-05 DIIS
   @DF-RHF iter   5:  -795.80018547192935   -2.75352e-04   1.30951e-05 DIIS
   @DF-RHF iter   6:  -795.80021339822270   -2.79263e-05   3.70902e-06 DIIS
   @DF-RHF iter   7:  -795.80021670811277   -3.30989e-06   9.79901e-07 DIIS
   @DF-RHF iter   8:  -795.80021704146202   -3.33349e-07   2.58574e-07 DIIS
   @DF-RHF iter   9:  -795.80021706921161   -2.77496e-08   7.72414e-08 DIIS
   @DF-RHF iter  10:  -795.80021707135063   -2.13902e-09   2.55191e-08 DIIS
   @DF-RHF iter  11:  -795.80021707151514   -1.64505e-10   8.06515e-09 DIIS
  Energy and wave function converged.


  ==> Post-Iterations <==

    Orbital Energies [Eh]
    ---------------------

    Doubly Occupied:                                                      

       1A    -79.909040     2A    -20.422265     3A    -20.414111  
       4A    -20.350050     5A    -20.336397     6A    -20.335119  
       7A    -11.147130     8A    -11.135435     9A     -7.424741  
      10A     -5.323633    11A     -5.322596    12A     -5.321378  
      13A     -1.252526    14A     -1.201068    15A     -1.154475  
      16A     -1.120805    17A     -1.096917    18A     -0.805001  
      19A     -0.785047    20A     -0.604993    21A     -0.539539  
      22A     -0.510437    23A     -0.505375    24A     -0.491391  
      25A     -0.481426    26A     -0.454956    27A     -0.453011  
      28A     -0.420408    29A     -0.393627    30A     -0.371660  
      31A     -0.360704    32A     -0.329624    33A     -0.317945  
      34A     -0.313580    35A     -0.296877    36A     -0.286546  
      37A     -0.279116    38A     -0.266837  

    Virtual:                                                              

      39A      0.112753    40A      0.117495    41A      0.132168  
      42A      0.137906    43A      0.140746    44A      0.154847  
      45A      0.161472    46A      0.167802    47A      0.183149  
      48A      0.206664    49A      0.208024    50A      0.214808  
      51A      0.218152    52A      0.225605    53A      0.230827  
      54A      0.239873    55A      0.247948    56A      0.266900  
      57A      0.284643    58A      0.287218    59A      0.294551  
      60A      0.305372    61A      0.312404    62A      0.320980  
      63A      0.330274    64A      0.336220    65A      0.343708  
      66A      0.353159    67A      0.354422    68A      0.359037  
      69A      0.372948    70A      0.375650    71A      0.380200  
      72A      0.384114    73A      0.393502    74A      0.395571  
      75A      0.403083    76A      0.416997    77A      0.424152  
      78A      0.429103    79A      0.432030    80A      0.436368  
      81A      0.452041    82A      0.459763    83A      0.460356  
      84A      0.465741    85A      0.475934    86A      0.479057  
      87A      0.486733    88A      0.496091    89A      0.498725  
      90A      0.499832    91A      0.508387    92A      0.514187  
      93A      0.521845    94A      0.527675    95A      0.531270  
      96A      0.542789    97A      0.548893    98A      0.549754  
      99A      0.563356   100A      0.570420   101A      0.572402  
     102A      0.583027   103A      0.588284   104A      0.592975  
     105A      0.596911   106A      0.599711   107A      0.603332  
     108A      0.608227   109A      0.611896   110A      0.622265  
     111A      0.630497   112A      0.633811   113A      0.639005  
     114A      0.646352   115A      0.656187   116A      0.660177  
     117A      0.661083   118A      0.675277   119A      0.681737  
     120A      0.685955   121A      0.687479   122A      0.700133  
     123A      0.707348   124A      0.711408   125A      0.717142  
     126A      0.733803   127A      0.742531   128A      0.756909  
     129A      0.761886   130A      0.776630   131A      0.797515  
     132A      0.813884   133A      0.825256   134A      0.839821  
     135A      0.856207   136A      0.865729   137A      0.875210  
     138A      0.883855   139A      0.894160   140A      0.897216  
     141A      0.911612   142A      0.919792   143A      0.924410  
     144A      0.934191   145A      0.937679   146A      0.950287  
     147A      0.962907   148A      0.967616   149A      0.973581  
     150A      0.981014   151A      0.995715   152A      1.001418  
     153A      1.009243   154A      1.023347   155A      1.033031  
     156A      1.037409   157A      1.048687   158A      1.052366  
     159A      1.060318   160A      1.064859   161A      1.074279  
     162A      1.079462   163A      1.091333   164A      1.099594  
     165A      1.101619   166A      1.104625   167A      1.116095  
     168A      1.125264   169A      1.127502   170A      1.137885  
     171A      1.144440   172A      1.156378   173A      1.162592  
     174A      1.166313   175A      1.179389   176A      1.180801  
     177A      1.187030   178A      1.200858   179A      1.204229  
     180A      1.208410   181A      1.217024   182A      1.228597  
     183A      1.231874   184A      1.235929   185A      1.251940  
     186A      1.257544   187A      1.258216   188A      1.271791  
     189A      1.274670   190A      1.282705   191A      1.288050  
     192A      1.293415   193A      1.297451   194A      1.314366  
     195A      1.323932   196A      1.324669   197A      1.333004  
     198A      1.342624   199A      1.347427   200A      1.367944  
     201A      1.371086   202A      1.380650   203A      1.389223  
     204A      1.396684   205A      1.402702   206A      1.416562  
     207A      1.421928   208A      1.434018   209A      1.435994  
     210A      1.441356   211A      1.456876   212A      1.477393  
     213A      1.490301   214A      1.497162   215A      1.508551  
     216A      1.514269   217A      1.536592   218A      1.565342  
     219A      1.568254   220A      1.572786   221A      1.584216  
     222A      1.588166   223A      1.597990   224A      1.603582  
     225A      1.622687   226A      1.627922   227A      1.635010  
     228A      1.644763   229A      1.656015   230A      1.670327  
     231A      1.679471   232A      1.695496   233A      1.721604  
     234A      1.737143   235A      1.744936   236A      1.754011  
     237A      1.758575   238A      1.765322   239A      1.780734  
     240A      1.782878   241A      1.792197   242A      1.799778  
     243A      1.808879   244A      1.817499   245A      1.827748  
     246A      1.839917   247A      1.845049   248A      1.855652  
     249A      1.863103   250A      1.880110   251A      1.887370  
     252A      1.900454   253A      1.914673   254A      1.927642  
     255A      1.934959   256A      1.937990   257A      1.951081  
     258A      1.966746   259A      1.968505   260A      1.989166  
     261A      2.001085   262A      2.015724   263A      2.026324  
     264A      2.045218   265A      2.060858   266A      2.065846  
     267A      2.076040   268A      2.088306   269A      2.096510  
     270A      2.109485   271A      2.121368   272A      2.148157  
     273A      2.157150   274A      2.179918   275A      2.189949  
     276A      2.204099   277A      2.210825   278A      2.220132  
     279A      2.239796   280A      2.241733   281A      2.261094  
     282A      2.265985   283A      2.276016   284A      2.287707  
     285A      2.295003   286A      2.315898   287A      2.327218  
     288A      2.330982   289A      2.343667   290A      2.353126  
     291A      2.365075   292A      2.392905   293A      2.394324  
     294A      2.407541   295A      2.426465   296A      2.443349  
     297A      2.475016   298A      2.499173   299A      2.514663  
     300A      2.544225   301A      2.572491   302A      2.591295  
     303A      2.607374   304A      2.617031   305A      2.622663  
     306A      2.646746   307A      2.674179   308A      2.682823  
     309A      2.688446   310A      2.695210   311A      2.717781  
     312A      2.721540   313A      2.727851   314A      2.742516  
     315A      2.759527   316A      2.785831   317A      2.798157  
     318A      2.803258   319A      2.813729   320A      2.821963  
     321A      2.847400   322A      2.852232   323A      2.871154  
     324A      2.873682   325A      2.883894   326A      2.890710  
     327A      2.908653   328A      2.924131   329A      2.936541  
     330A      2.963027   331A      2.980336   332A      2.988417  
     333A      3.019177   334A      3.029160   335A      3.041642  
     336A      3.059439   337A      3.064100   338A      3.091596  
     339A      3.100512   340A      3.112917   341A      3.136908  
     342A      3.151424   343A      3.158274   344A      3.170981  
     345A      3.212156   346A      3.229505   347A      3.242793  
     348A      3.262388   349A      3.276198   350A      3.282712  
     351A      3.313708   352A      3.326073   353A      3.354304  
     354A      3.386059   355A      3.411886   356A      3.417797  
     357A      3.447388   358A      3.468600   359A      3.487752  
     360A      3.492034   361A      3.539466   362A      3.556271  
     363A      3.589390   364A      3.606163   365A      3.629654  
     366A      3.639916   367A      3.653012   368A      3.665324  
     369A      3.685205   370A      3.714743   371A      3.728684  
     372A      3.755316   373A      3.765867   374A      3.812383  
     375A      3.825111   376A      3.835697   377A      3.851323  
     378A      3.867666   379A      3.890423   380A      3.907639  
     381A      3.924238   382A      3.947840   383A      3.959258  
     384A      3.979933   385A      3.992173   386A      4.008984  
     387A      4.022070   388A      4.048547   389A      4.076173  
     390A      4.098241   391A      4.102622   392A      4.146836  
     393A      4.171489   394A      4.195213   395A      4.203242  
     396A      4.239017   397A      4.268407   398A      4.280472  
     399A      4.297386   400A      4.326346   401A      4.339926  
     402A      4.348730   403A      4.378312   404A      4.403839  
     405A      4.407240   406A      4.437030   407A      4.441107  
     408A      4.454550   409A      4.467410   410A      4.475111  
     411A      4.482518   412A      4.490669   413A      4.518559  
     414A      4.547571   415A      4.588095   416A      4.612927  
     417A      4.624808   418A      4.669599   419A      4.699059  
     420A      4.718531   421A      4.736711   422A      4.745953  
     423A      4.760662   424A      4.789042   425A      4.795708  
     426A      4.826761   427A      4.852476   428A      4.882514  
     429A      4.920730   430A      4.931177   431A      4.961411  
     432A      4.974188   433A      4.976520   434A      5.021593  
     435A      5.047447   436A      5.067976   437A      5.098059  
     438A      5.111046   439A      5.129545   440A      5.153303  
     441A      5.168012   442A      5.173113   443A      5.207341  
     444A      5.235437   445A      5.250520   446A      5.268739  
     447A      5.284977   448A      5.301740   449A      5.355698  
     450A      5.374587   451A      5.380296   452A      5.407440  
     453A      5.451065   454A      5.462943   455A      5.480067  
     456A      5.532352   457A      5.542023   458A      5.549184  
     459A      5.618684   460A      5.639825   461A      5.659291  
     462A      5.678145   463A      5.735184   464A      5.761107  
     465A      5.770095   466A      5.777050   467A      5.782027  
     468A      5.802754   469A      5.830143   470A      5.855305  
     471A      5.890328   472A      5.927656   473A      5.974244  
     474A      5.999256   475A      6.133272   476A      6.162366  
     477A      6.212727   478A      6.268922   479A      6.283470  
     480A      6.303687   481A      6.485461   482A      6.502006  
     483A      6.609589   484A      6.773775   485A      6.809544  
     486A      6.823202   487A      6.862145   488A      6.887875  
     489A      6.985459   490A      6.993525   491A      7.035533  
     492A      7.042393   493A      7.055681   494A      7.066406  
     495A      7.082791   496A      7.102777   497A      7.106578  
     498A      7.125655   499A      7.140724   500A      7.167343  
     501A      7.178846   502A      7.187248   503A      7.199258  
     504A      7.226004   505A      7.244392   506A      7.253455  
     507A      7.274772   508A      7.279583   509A      7.285957  
     510A      7.318422   511A      7.335277   512A      7.342229  
     513A      7.364317   514A      7.393774   515A      7.439669  
     516A      7.469120   517A      7.482725   518A      7.506161  
     519A      7.528556   520A      7.544166   521A      7.560194  
     522A      7.588346   523A      7.599195   524A      7.604898  
     525A      7.630889   526A      7.646153   527A      7.672060  
     528A      7.702794   529A      7.727673   530A      7.743713  
     531A      7.776336   532A      7.813953   533A      7.828988  
     534A      7.848517   535A      7.912550   536A      7.950121  
     537A      7.965301   538A      8.002218   539A      8.033739  
     540A      8.136512   541A      8.222325   542A      8.236612  
     543A      8.270653   544A      8.288482   545A      8.338018  
     546A      8.394412   547A      8.406354   548A      9.130534  
     549A     11.517533   550A     13.648849   551A     14.235157  
     552A     14.829961   553A     15.350550   554A     17.217026  
     555A     17.924984   556A     18.189402  

    Final Occupation by Irrep:
              A 
    DOCC [    38 ]

  @DF-RHF Final Energy:  -795.80021707151514

   => Energetics <=

    Nuclear Repulsion Energy =            551.6716711980209311
    One-Electron Energy =               -2209.8721932651706084
    Two-Electron Energy =                 862.4003049956345421
    Total Energy =                       -795.8002170715151351

Computation Completed


Properties will be evaluated at   0.000000,   0.000000,   0.000000 [a0]

Properties computed using the SCF density matrix

  Nuclear Dipole Moment: [e a0]
     X:    -0.2070      Y:     3.8588      Z:    -3.3921

  Electronic Dipole Moment: [e a0]
     X:    -1.4058      Y:    -2.5919      Z:     2.9293

  Dipole Moment: [e a0]
     X:    -1.6128      Y:     1.2669      Z:    -0.4628     Total:     2.1025

  Dipole Moment: [D]
     X:    -4.0994      Y:     3.2202      Z:    -1.1764     Total:     5.3440


*** tstop() called on node150.bme.utexas.edu at Sat Jan  6 20:14:37 2024
Module time:
	user time   =     104.83 seconds =       1.75 minutes
	system time =       3.01 seconds =       0.05 minutes
	total time  =         15 seconds =       0.25 minutes
Total time:
	user time   =     104.83 seconds =       1.75 minutes
	system time =       3.01 seconds =       0.05 minutes
	total time  =         15 seconds =       0.25 minutes

*** tstart() called on node150.bme.utexas.edu
*** at Sat Jan  6 20:14:37 2024


  //>>>>>>>>>>>>>>>>>>>>>>>>>>>>>>>>>>>//
  //               DFMP2               //
  //<<<<<<<<<<<<<<<<<<<<<<<<<<<<<<<<<<<//

   => Loading Basis Set <=

    Name: (AUG-CC-PVTZ AUX)
    Role: RIFIT
    Keyword: DF_BASIS_MP2
    atoms 1, 12-15   entry O          line   264 file /opt/anaconda/envs/psi4v1.5/share/psi4/basis/aug-cc-pvtz-ri.gbs 
    atoms 2-7, 10-11 entry H          line    30 file /opt/anaconda/envs/psi4v1.5/share/psi4/basis/aug-cc-pvtz-ri.gbs 
    atoms 8-9        entry C          line   148 file /opt/anaconda/envs/psi4v1.5/share/psi4/basis/aug-cc-pvtz-ri.gbs 
    atoms 16         entry P          line   590 file /opt/anaconda/envs/psi4v1.5/share/psi4/basis/aug-cc-pvtz-ri.gbs 

	 --------------------------------------------------------
	                          DF-MP2                         
	      2nd-Order Density-Fitted Moller-Plesset Theory     
	              RMP2 Wavefunction,   8 Threads             
	                                                         
	        Rob Parrish, Justin Turney, Andy Simmonett,      
	           Ed Hohenstein, and C. David Sherrill          
	 --------------------------------------------------------

   => Auxiliary Basis Set <=

  Basis Set: (AUG-CC-PVTZ AUX)
    Blend: AUG-CC-PVTZ-RI
    Number of shells: 345
    Number of basis functions: 1257
    Number of Cartesian functions: 1583
    Spherical Harmonics?: true
    Max angular momentum: 4

	 --------------------------------------------------------
	                 NBF =   556, NAUX =  1257
	 --------------------------------------------------------
	   CLASS    FOCC     OCC    AOCC    AVIR     VIR    FVIR
	   PAIRS      12      38      26     518     518       0
	 --------------------------------------------------------

	 Will save fitting metric to file 97.

	-----------------------------------------------------------
	 ==================> DF-MP2 Energies <==================== 
	-----------------------------------------------------------
	 Reference Energy          =    -795.8002170715151351 [Eh]
	 Singles Energy            =      -0.0000000000000000 [Eh]
	 Same-Spin Energy          =      -0.4497998230351588 [Eh]
	 Opposite-Spin Energy      =      -1.3294055971813390 [Eh]
	 Correlation Energy        =      -1.7792054202164977 [Eh]
	 Total Energy              =    -797.5794224917316342 [Eh]
	-----------------------------------------------------------
	 ================> DF-SCS-MP2 Energies <================== 
	-----------------------------------------------------------
	 SCS Same-Spin Scale       =       0.3333333333333333 [-]
	 SCS Opposite-Spin Scale   =       1.2000000000000000 [-]
	 SCS Same-Spin Energy      =      -0.1499332743450529 [Eh]
	 SCS Opposite-Spin Energy  =      -1.5952867166176068 [Eh]
	 SCS Correlation Energy    =      -1.7452199909626598 [Eh]
	 SCS Total Energy          =    -797.5454370624778448 [Eh]
	-----------------------------------------------------------


*** tstop() called on node150.bme.utexas.edu at Sat Jan  6 20:14:43 2024
Module time:
	user time   =      28.99 seconds =       0.48 minutes
	system time =       1.40 seconds =       0.02 minutes
	total time  =          6 seconds =       0.10 minutes
Total time:
	user time   =     133.82 seconds =       2.23 minutes
	system time =       4.41 seconds =       0.07 minutes
	total time  =         21 seconds =       0.35 minutes

  //>>>>>>>>>>>>>>>>>>>>>>>>>>>>>>>>>>>//
  //            Monomer A HF           //
  //<<<<<<<<<<<<<<<<<<<<<<<<<<<<<<<<<<<//


*** tstart() called on node150.bme.utexas.edu
*** at Sat Jan  6 20:14:43 2024

   => Loading Basis Set <=

    Name: AUG-CC-PVTZ
    Role: ORBITAL
    Keyword: BASIS
    atoms 1, 12-15   entry O          line   331 file /opt/anaconda/envs/psi4v1.5/share/psi4/basis/aug-cc-pvtz.gbs 
    atoms 2-7, 10-11 entry H          line    40 file /opt/anaconda/envs/psi4v1.5/share/psi4/basis/aug-cc-pvtz.gbs 
    atoms 8-9        entry C          line   239 file /opt/anaconda/envs/psi4v1.5/share/psi4/basis/aug-cc-pvtz.gbs 
    atoms 16         entry P          line   824 file /opt/anaconda/envs/psi4v1.5/share/psi4/basis/aug-cc-pvtz.gbs 


         ---------------------------------------------------------
                                   SCF
               by Justin Turney, Rob Parrish, Andy Simmonett
                          and Daniel G. A. Smith
                              RHF Reference
                        8 Threads,  47683 MiB Core
         ---------------------------------------------------------

  ==> Geometry <==

    Molecular point group: c1
    Full point group: C1

    Geometry (in Angstrom), charge = 0, multiplicity = 1:

       Center              X                  Y                   Z               Mass       
    ------------   -----------------  -----------------  -----------------  -----------------
         O            2.636032505665    -0.889911915202    -0.352956923144    15.994914619570
         H            2.201182505665    -0.693851915202     0.500963076856     1.007825032230
         H            1.829482505665    -1.068921915202    -0.879856923144     1.007825032230
      Gh(H)           1.437613428742     2.244436648901     0.761308358907     1.007825032230
      Gh(H)           1.862013428742     1.356456648901    -0.716461641093     1.007825032230
      Gh(H)          -2.406216571258    -1.038913351099    -1.233481641093     1.007825032230
      Gh(H)          -3.660246571258    -0.506313351099    -0.069901641093     1.007825032230
      Gh(C)          -2.670446571258    -0.289593351099    -0.482601641093    12.000000000000
      Gh(C)           1.115753428742     2.014006648901    -0.259481641093    12.000000000000
      Gh(H)           1.042153428742     2.938976648901    -0.839451641093     1.007825032230
      Gh(H)          -2.686196571258     0.698846648901    -0.955501641093     1.007825032230
      Gh(O)           0.675813428742    -0.338543351099     1.440808358907    15.994914619570
      Gh(O)           0.113213428742    -1.037223351099    -1.038061641093    15.994914619570
      Gh(O)          -1.752396571258    -0.316553351099     0.606568358907    15.994914619570
      Gh(O)          -0.182826571258     1.418536648901    -0.254411641093    15.994914619570
      Gh(P)          -0.154656571258    -0.195043351099     0.191618358907    30.973761998420

  Running in c1 symmetry.

  Rotational constants: A =      0.08240  B =      0.04428  C =      0.03775 [cm^-1]
  Rotational constants: A =   2470.23512  B =   1327.33431  C =   1131.63528 [MHz]
  Nuclear repulsion =    9.006365371865087

  Charge       = 0
  Multiplicity = 1
  Electrons    = 10
  Nalpha       = 5
  Nbeta        = 5

  ==> Algorithm <==

  SCF Algorithm Type is DF.
  DIIS enabled.
  MOM disabled.
  Fractional occupation disabled.
  Guess Type is SAD.
  Energy threshold   = 1.00e-08
  Density threshold  = 1.00e-08
  Integral threshold = 1.00e-12

  ==> Primary Basis <==

  Basis Set: AUG-CC-PVTZ
    Blend: AUG-CC-PVTZ
    Number of shells: 186
    Number of basis functions: 556
    Number of Cartesian functions: 644
    Spherical Harmonics?: true
    Max angular momentum: 3

   => Loading Basis Set <=

    Name: (AUG-CC-PVTZ AUX)
    Role: JKFIT
    Keyword: DF_BASIS_SCF
    atoms 1, 12-15   entry O          line   286 file /opt/anaconda/envs/psi4v1.5/share/psi4/basis/aug-cc-pvtz-jkfit.gbs 
    atoms 2-7, 10-11 entry H          line    70 file /opt/anaconda/envs/psi4v1.5/share/psi4/basis/aug-cc-pvtz-jkfit.gbs 
    atoms 8-9        entry C          line   162 file /opt/anaconda/envs/psi4v1.5/share/psi4/basis/aug-cc-pvtz-jkfit.gbs 
    atoms 16         entry P          line   644 file /opt/anaconda/envs/psi4v1.5/share/psi4/basis/aug-cc-pvtz-jkfit.gbs 

  ==> Integral Setup <==

  ==> DiskDFJK: Density-Fitted J/K Matrices <==

    J tasked:                  Yes
    K tasked:                  Yes
    wK tasked:                  No
    OpenMP threads:              8
    Integrals threads:           8
    Memory [MiB]:            35762
    Algorithm:                Core
    Integral Cache:           LOAD
    Schwarz Cutoff:          1E-12
    Fitting Condition:       1E-10

   => Auxiliary Basis Set <=

  Basis Set: (AUG-CC-PVTZ AUX)
    Blend: AUG-CC-PVTZ-JKFIT
    Number of shells: 364
    Number of basis functions: 1242
    Number of Cartesian functions: 1537
    Spherical Harmonics?: true
    Max angular momentum: 4

  Minimum eigenvalue in the overlap matrix is 1.4822622796E-05.
  Reciprocal condition number of the overlap matrix is 9.0605330201E-07.
    Using symmetric orthogonalization.

  ==> Pre-Iterations <==

  SCF Guess: Superposition of Atomic Densities via on-the-fly atomic UHF (no occupation information).

   -------------------------
    Irrep   Nso     Nmo    
   -------------------------
     A        556     556 
   -------------------------
    Total     556     556
   -------------------------

  ==> Iterations <==

                           Total Energy        Delta E     RMS |[F,P]|

   @DF-RHF iter SAD:   -75.45970137705764   -7.54597e+01   0.00000e+00 
   @DF-RHF iter   1:   -75.97115717935384   -5.11456e-01   8.40562e-04 DIIS
   @DF-RHF iter   2:   -76.02316960253779   -5.20124e-02   5.89882e-04 DIIS
   @DF-RHF iter   3:   -76.05673171974244   -3.35621e-02   4.00119e-05 DIIS
   @DF-RHF iter   4:   -76.05714150657774   -4.09787e-04   1.00609e-05 DIIS
   @DF-RHF iter   5:   -76.05717078036372   -2.92738e-05   2.37607e-06 DIIS
   @DF-RHF iter   6:   -76.05717330528053   -2.52492e-06   5.10618e-07 DIIS
   @DF-RHF iter   7:   -76.05717342971180   -1.24431e-07   8.37105e-08 DIIS
   @DF-RHF iter   8:   -76.05717343255816   -2.84636e-09   1.40095e-08 DIIS
   @DF-RHF iter   9:   -76.05717343261841   -6.02540e-11   3.21989e-09 DIIS
  Energy and wave function converged.


  ==> Post-Iterations <==

    Orbital Energies [Eh]
    ---------------------

    Doubly Occupied:                                                      

       1A    -20.573615     2A     -1.347094     3A     -0.693400  
       4A     -0.593272     5A     -0.510474  

    Virtual:                                                              

       6A      0.013303     7A      0.031151     8A      0.034742  
       9A      0.037082    10A      0.053996    11A      0.056537  
      12A      0.062852    13A      0.064624    14A      0.068118  
      15A      0.082060    16A      0.089192    17A      0.091087  
      18A      0.102484    19A      0.106040    20A      0.113060  
      21A      0.120264    22A      0.128620    23A      0.132466  
      24A      0.147931    25A      0.149743    26A      0.156045  
      27A      0.163236    28A      0.176846    29A      0.182030  
      30A      0.189328    31A      0.193950    32A      0.197340  
      33A      0.208963    34A      0.213922    35A      0.218355  
      36A      0.224681    37A      0.228565    38A      0.237569  
      39A      0.240584    40A      0.247720    41A      0.254658  
      42A      0.256430    43A      0.263585    44A      0.272973  
      45A      0.277153    46A      0.289055    47A      0.296343  
      48A      0.300425    49A      0.305557    50A      0.311714  
      51A      0.320581    52A      0.327600    53A      0.333595  
      54A      0.340924    55A      0.344611    56A      0.353887  
      57A      0.362250    58A      0.364822    59A      0.374423  
      60A      0.379428    61A      0.382397    62A      0.396564  
      63A      0.400467    64A      0.413498    65A      0.419630  
      66A      0.423313    67A      0.428892    68A      0.434390  
      69A      0.445014    70A      0.451440    71A      0.456590  
      72A      0.461210    73A      0.469098    74A      0.472070  
      75A      0.477775    76A      0.479598    77A      0.483339  
      78A      0.491657    79A      0.498540    80A      0.508405  
      81A      0.520267    82A      0.521042    83A      0.526866  
      84A      0.534914    85A      0.538469    86A      0.545570  
      87A      0.550909    88A      0.555930    89A      0.573505  
      90A      0.578650    91A      0.588778    92A      0.598814  
      93A      0.605892    94A      0.618243    95A      0.619465  
      96A      0.632479    97A      0.643724    98A      0.646820  
      99A      0.671813   100A      0.674368   101A      0.690596  
     102A      0.693696   103A      0.697057   104A      0.708981  
     105A      0.714728   106A      0.738482   107A      0.749414  
     108A      0.758729   109A      0.767435   110A      0.772659  
     111A      0.793344   112A      0.807994   113A      0.811209  
     114A      0.823509   115A      0.843858   116A      0.846609  
     117A      0.851461   118A      0.866063   119A      0.868975  
     120A      0.883587   121A      0.892686   122A      0.905841  
     123A      0.911853   124A      0.922932   125A      0.932545  
     126A      0.938106   127A      0.943106   128A      0.948955  
     129A      0.955627   130A      0.962851   131A      0.968587  
     132A      0.973496   133A      0.991786   134A      1.000662  
     135A      1.007177   136A      1.011432   137A      1.014129  
     138A      1.022047   139A      1.029039   140A      1.042651  
     141A      1.050084   142A      1.061702   143A      1.064078  
     144A      1.071691   145A      1.077376   146A      1.087711  
     147A      1.092703   148A      1.100196   149A      1.109833  
     150A      1.114961   151A      1.119906   152A      1.125168  
     153A      1.132260   154A      1.141479   155A      1.148081  
     156A      1.153645   157A      1.155602   158A      1.167908  
     159A      1.179102   160A      1.184727   161A      1.191791  
     162A      1.197311   163A      1.209623   164A      1.217899  
     165A      1.223988   166A      1.234790   167A      1.236845  
     168A      1.239023   169A      1.249605   170A      1.258606  
     171A      1.264822   172A      1.284653   173A      1.288965  
     174A      1.297825   175A      1.310491   176A      1.316017  
     177A      1.321180   178A      1.343912   179A      1.351202  
     180A      1.358275   181A      1.360227   182A      1.366522  
     183A      1.379525   184A      1.383938   185A      1.392208  
     186A      1.393298   187A      1.413847   188A      1.420115  
     189A      1.428877   190A      1.442776   191A      1.452610  
     192A      1.463175   193A      1.468870   194A      1.482467  
     195A      1.492404   196A      1.503686   197A      1.516942  
     198A      1.522854   199A      1.533146   200A      1.539781  
     201A      1.551403   202A      1.565301   203A      1.583328  
     204A      1.588340   205A      1.595981   206A      1.604932  
     207A      1.619951   208A      1.630881   209A      1.655308  
     210A      1.668718   211A      1.684540   212A      1.694217  
     213A      1.703655   214A      1.716512   215A      1.721553  
     216A      1.750767   217A      1.768757   218A      1.778189  
     219A      1.788118   220A      1.799283   221A      1.806750  
     222A      1.820716   223A      1.870147   224A      1.871375  
     225A      1.876223   226A      1.895378   227A      1.909852  
     228A      1.916642   229A      1.929872   230A      1.933080  
     231A      1.943697   232A      1.962634   233A      1.970767  
     234A      1.980402   235A      1.995155   236A      2.002034  
     237A      2.019202   238A      2.023692   239A      2.046344  
     240A      2.065352   241A      2.066576   242A      2.091101  
     243A      2.097808   244A      2.110280   245A      2.124129  
     246A      2.157490   247A      2.199314   248A      2.230466  
     249A      2.243330   250A      2.253193   251A      2.281453  
     252A      2.292975   253A      2.303247   254A      2.327414  
     255A      2.350535   256A      2.377024   257A      2.383226  
     258A      2.410091   259A      2.422087   260A      2.439871  
     261A      2.444043   262A      2.457606   263A      2.464471  
     264A      2.468234   265A      2.488166   266A      2.495772  
     267A      2.516639   268A      2.523349   269A      2.543684  
     270A      2.562410   271A      2.579122   272A      2.590014  
     273A      2.608529   274A      2.614154   275A      2.629232  
     276A      2.631116   277A      2.645143   278A      2.651675  
     279A      2.658509   280A      2.683119   281A      2.691965  
     282A      2.711058   283A      2.721361   284A      2.734297  
     285A      2.747430   286A      2.759943   287A      2.774499  
     288A      2.786813   289A      2.793865   290A      2.810977  
     291A      2.827362   292A      2.841650   293A      2.847944  
     294A      2.857815   295A      2.862254   296A      2.868175  
     297A      2.889220   298A      2.902172   299A      2.910805  
     300A      2.923446   301A      2.924812   302A      2.949205  
     303A      2.970793   304A      2.973427   305A      2.987127  
     306A      2.987743   307A      3.009881   308A      3.027475  
     309A      3.029927   310A      3.048680   311A      3.079005  
     312A      3.087400   313A      3.106667   314A      3.120919  
     315A      3.144125   316A      3.164499   317A      3.176436  
     318A      3.192490   319A      3.206356   320A      3.228746  
     321A      3.249463   322A      3.266546   323A      3.272194  
     324A      3.289821   325A      3.300237   326A      3.328706  
     327A      3.364728   328A      3.379854   329A      3.407312  
     330A      3.427432   331A      3.444123   332A      3.468581  
     333A      3.482721   334A      3.517288   335A      3.528928  
     336A      3.559429   337A      3.567379   338A      3.585694  
     339A      3.630063   340A      3.645596   341A      3.668893  
     342A      3.695510   343A      3.731058   344A      3.841050  
     345A      3.868403   346A      3.958643   347A      3.983083  
     348A      3.995405   349A      4.007187   350A      4.041525  
     351A      4.054406   352A      4.078701   353A      4.120143  
     354A      4.144122   355A      4.153250   356A      4.167462  
     357A      4.195584   358A      4.206033   359A      4.229414  
     360A      4.245062   361A      4.261458   362A      4.267759  
     363A      4.269201   364A      4.286925   365A      4.291366  
     366A      4.301558   367A      4.335092   368A      4.350555  
     369A      4.365883   370A      4.400718   371A      4.410333  
     372A      4.421782   373A      4.431459   374A      4.480552  
     375A      4.499474   376A      4.510522   377A      4.522190  
     378A      4.542878   379A      4.547846   380A      4.566007  
     381A      4.571634   382A      4.583302   383A      4.600787  
     384A      4.612947   385A      4.643526   386A      4.651273  
     387A      4.664068   388A      4.707904   389A      4.738227  
     390A      4.758712   391A      4.789695   392A      4.816679  
     393A      4.828076   394A      4.836389   395A      4.873351  
     396A      4.909744   397A      4.928932   398A      4.960727  
     399A      4.973288   400A      5.000428   401A      5.027225  
     402A      5.029613   403A      5.036566   404A      5.047633  
     405A      5.068552   406A      5.078142   407A      5.093093  
     408A      5.156148   409A      5.180709   410A      5.191562  
     411A      5.208080   412A      5.261039   413A      5.270125  
     414A      5.325419   415A      5.346432   416A      5.352250  
     417A      5.359032   418A      5.371248   419A      5.381599  
     420A      5.411262   421A      5.422828   422A      5.428511  
     423A      5.445158   424A      5.468174   425A      5.489610  
     426A      5.509481   427A      5.524186   428A      5.537972  
     429A      5.568062   430A      5.603342   431A      5.633624  
     432A      5.697798   433A      5.786277   434A      5.811640  
     435A      5.833741   436A      5.845608   437A      5.867642  
     438A      5.908999   439A      5.922288   440A      6.185459  
     441A      6.212360   442A      6.235172   443A      6.237118  
     444A      6.247152   445A      6.268731   446A      6.275735  
     447A      6.420342   448A      6.556036   449A      6.586695  
     450A      6.608654   451A      6.797319   452A      6.830156  
     453A      6.853466   454A      6.874237   455A      6.936130  
     456A      7.091211   457A      7.137767   458A      7.169678  
     459A      7.288692   460A      7.358148   461A      7.394788  
     462A      7.413029   463A      7.479418   464A      7.513787  
     465A      7.664542   466A      7.682875   467A      7.695666  
     468A      7.706554   469A      7.739640   470A      7.744771  
     471A      7.754294   472A      7.770694   473A      7.776268  
     474A      7.795209   475A      7.807028   476A      7.828087  
     477A      7.837276   478A      7.850402   479A      7.876170  
     480A      7.893177   481A      7.901481   482A      7.912787  
     483A      7.929093   484A      7.969563   485A      7.976292  
     486A      7.997866   487A      8.010122   488A      8.032081  
     489A      8.042599   490A      8.071349   491A      8.090030  
     492A      8.092618   493A      8.120143   494A      8.146850  
     495A      8.167463   496A      8.187323   497A      8.220059  
     498A      8.242903   499A      8.262171   500A      8.266265  
     501A      8.292609   502A      8.444927   503A      8.520114  
     504A      8.553958   505A      8.671595   506A      8.875808  
     507A      9.612009   508A      9.725723   509A      9.831563  
     510A      9.861833   511A      9.896313   512A      9.925126  
     513A      9.974770   514A     10.036872   515A     10.080839  
     516A     10.129371   517A     10.166826   518A     10.225472  
     519A     10.281500   520A     10.295686   521A     10.322428  
     522A     10.353008   523A     10.419863   524A     10.436598  
     525A     10.495100   526A     10.520632   527A     10.702870  
     528A     10.764751   529A     10.987098   530A     11.111394  
     531A     11.514312   532A     11.672077   533A     11.697937  
     534A     11.814141   535A     11.904401   536A     11.919984  
     537A     11.969139   538A     12.119536   539A     12.263707  
     540A     12.560103   541A     12.817598   542A     12.910817  
     543A     13.473281   544A     13.583166   545A     17.013089  
     546A     18.896081   547A     23.243731   548A     23.589843  
     549A     23.982990   550A     52.872789   551A     53.311259  
     552A     61.507820   553A     62.668094   554A     63.898776  
     555A     65.103899   556A    123.921155  

    Final Occupation by Irrep:
              A 
    DOCC [     5 ]

  @DF-RHF Final Energy:   -76.05717343261841

   => Energetics <=

    Nuclear Repulsion Energy =              9.0063653718650869
    One-Electron Energy =                -122.6913644422534730
    Two-Electron Energy =                  37.6278256377699591
    Total Energy =                        -76.0571734326184270

Computation Completed


Properties will be evaluated at   0.000000,   0.000000,   0.000000 [a0]

Properties computed using the SCF density matrix

  Nuclear Dipole Moment: [e a0]
     X:    47.4679      Y:   -16.7847      Z:    -6.0519

  Electronic Dipole Moment: [e a0]
     X:   -48.2680      Y:    16.7957      Z:     6.2631

  Dipole Moment: [e a0]
     X:    -0.8001      Y:     0.0110      Z:     0.2112     Total:     0.8275

  Dipole Moment: [D]
     X:    -2.0336      Y:     0.0280      Z:     0.5368     Total:     2.1034


*** tstop() called on node150.bme.utexas.edu at Sat Jan  6 20:14:52 2024
Module time:
	user time   =      59.06 seconds =       0.98 minutes
	system time =       1.04 seconds =       0.02 minutes
	total time  =          9 seconds =       0.15 minutes
Total time:
	user time   =     192.90 seconds =       3.22 minutes
	system time =       5.45 seconds =       0.09 minutes
	total time  =         30 seconds =       0.50 minutes

*** tstart() called on node150.bme.utexas.edu
*** at Sat Jan  6 20:14:52 2024


  //>>>>>>>>>>>>>>>>>>>>>>>>>>>>>>>>>>>//
  //               DFMP2               //
  //<<<<<<<<<<<<<<<<<<<<<<<<<<<<<<<<<<<//

   => Loading Basis Set <=

    Name: (AUG-CC-PVTZ AUX)
    Role: RIFIT
    Keyword: DF_BASIS_MP2
    atoms 1, 12-15   entry O          line   264 file /opt/anaconda/envs/psi4v1.5/share/psi4/basis/aug-cc-pvtz-ri.gbs 
    atoms 2-7, 10-11 entry H          line    30 file /opt/anaconda/envs/psi4v1.5/share/psi4/basis/aug-cc-pvtz-ri.gbs 
    atoms 8-9        entry C          line   148 file /opt/anaconda/envs/psi4v1.5/share/psi4/basis/aug-cc-pvtz-ri.gbs 
    atoms 16         entry P          line   590 file /opt/anaconda/envs/psi4v1.5/share/psi4/basis/aug-cc-pvtz-ri.gbs 

	 --------------------------------------------------------
	                          DF-MP2                         
	      2nd-Order Density-Fitted Moller-Plesset Theory     
	              RMP2 Wavefunction,   8 Threads             
	                                                         
	        Rob Parrish, Justin Turney, Andy Simmonett,      
	           Ed Hohenstein, and C. David Sherrill          
	 --------------------------------------------------------

   => Auxiliary Basis Set <=

  Basis Set: (AUG-CC-PVTZ AUX)
    Blend: AUG-CC-PVTZ-RI
    Number of shells: 345
    Number of basis functions: 1257
    Number of Cartesian functions: 1583
    Spherical Harmonics?: true
    Max angular momentum: 4

	 --------------------------------------------------------
	                 NBF =   556, NAUX =  1257
	 --------------------------------------------------------
	   CLASS    FOCC     OCC    AOCC    AVIR     VIR    FVIR
	   PAIRS       1       5       4     551     551       0
	 --------------------------------------------------------

	 Will attempt to load fitting metric from file 97.

	-----------------------------------------------------------
	 ==================> DF-MP2 Energies <==================== 
	-----------------------------------------------------------
	 Reference Energy          =     -76.0571734326184128 [Eh]
	 Singles Energy            =      -0.0000000000000000 [Eh]
	 Same-Spin Energy          =      -0.0658009278548181 [Eh]
	 Opposite-Spin Energy      =      -0.2056550881756872 [Eh]
	 Correlation Energy        =      -0.2714560160305053 [Eh]
	 Total Energy              =     -76.3286294486489112 [Eh]
	-----------------------------------------------------------
	 ================> DF-SCS-MP2 Energies <================== 
	-----------------------------------------------------------
	 SCS Same-Spin Scale       =       0.3333333333333333 [-]
	 SCS Opposite-Spin Scale   =       1.2000000000000000 [-]
	 SCS Same-Spin Energy      =      -0.0219336426182727 [Eh]
	 SCS Opposite-Spin Energy  =      -0.2467861058108246 [Eh]
	 SCS Correlation Energy    =      -0.2687197484290973 [Eh]
	 SCS Total Energy          =     -76.3258931810475048 [Eh]
	-----------------------------------------------------------


*** tstop() called on node150.bme.utexas.edu at Sat Jan  6 20:14:56 2024
Module time:
	user time   =      17.06 seconds =       0.28 minutes
	system time =       0.96 seconds =       0.02 minutes
	total time  =          4 seconds =       0.07 minutes
Total time:
	user time   =     209.97 seconds =       3.50 minutes
	system time =       6.41 seconds =       0.11 minutes
	total time  =         34 seconds =       0.57 minutes

  //>>>>>>>>>>>>>>>>>>>>>>>>>>>>>>>>>>>//
  //            Monomer B HF           //
  //<<<<<<<<<<<<<<<<<<<<<<<<<<<<<<<<<<<//


*** tstart() called on node150.bme.utexas.edu
*** at Sat Jan  6 20:14:56 2024

   => Loading Basis Set <=

    Name: AUG-CC-PVTZ
    Role: ORBITAL
    Keyword: BASIS
    atoms 1, 12-15   entry O          line   331 file /opt/anaconda/envs/psi4v1.5/share/psi4/basis/aug-cc-pvtz.gbs 
    atoms 2-7, 10-11 entry H          line    40 file /opt/anaconda/envs/psi4v1.5/share/psi4/basis/aug-cc-pvtz.gbs 
    atoms 8-9        entry C          line   239 file /opt/anaconda/envs/psi4v1.5/share/psi4/basis/aug-cc-pvtz.gbs 
    atoms 16         entry P          line   824 file /opt/anaconda/envs/psi4v1.5/share/psi4/basis/aug-cc-pvtz.gbs 


         ---------------------------------------------------------
                                   SCF
               by Justin Turney, Rob Parrish, Andy Simmonett
                          and Daniel G. A. Smith
                              RHF Reference
                        8 Threads,  47683 MiB Core
         ---------------------------------------------------------

  ==> Geometry <==

    Molecular point group: c1
    Full point group: C1

    Geometry (in Angstrom), charge = -1, multiplicity = 1:

       Center              X                  Y                   Z               Mass       
    ------------   -----------------  -----------------  -----------------  -----------------
      Gh(O)           2.636032505665    -0.889911915202    -0.352956923144    15.994914619570
      Gh(H)           2.201182505665    -0.693851915202     0.500963076856     1.007825032230
      Gh(H)           1.829482505665    -1.068921915202    -0.879856923144     1.007825032230
         H            1.437613428742     2.244436648901     0.761308358907     1.007825032230
         H            1.862013428742     1.356456648901    -0.716461641093     1.007825032230
         H           -2.406216571258    -1.038913351099    -1.233481641093     1.007825032230
         H           -3.660246571258    -0.506313351099    -0.069901641093     1.007825032230
         C           -2.670446571258    -0.289593351099    -0.482601641093    12.000000000000
         C            1.115753428742     2.014006648901    -0.259481641093    12.000000000000
         H            1.042153428742     2.938976648901    -0.839451641093     1.007825032230
         H           -2.686196571258     0.698846648901    -0.955501641093     1.007825032230
         O            0.675813428742    -0.338543351099     1.440808358907    15.994914619570
         O            0.113213428742    -1.037223351099    -1.038061641093    15.994914619570
         O           -1.752396571258    -0.316553351099     0.606568358907    15.994914619570
         O           -0.182826571258     1.418536648901    -0.254411641093    15.994914619570
         P           -0.154656571258    -0.195043351099     0.191618358907    30.973761998420

  Running in c1 symmetry.

  Rotational constants: A =      0.08240  B =      0.04428  C =      0.03775 [cm^-1]
  Rotational constants: A =   2470.23512  B =   1327.33431  C =   1131.63528 [MHz]
  Nuclear repulsion =  435.805547875026548

  Charge       = -1
  Multiplicity = 1
  Electrons    = 66
  Nalpha       = 33
  Nbeta        = 33

  ==> Algorithm <==

  SCF Algorithm Type is DF.
  DIIS enabled.
  MOM disabled.
  Fractional occupation disabled.
  Guess Type is SAD.
  Energy threshold   = 1.00e-08
  Density threshold  = 1.00e-08
  Integral threshold = 1.00e-12

  ==> Primary Basis <==

  Basis Set: AUG-CC-PVTZ
    Blend: AUG-CC-PVTZ
    Number of shells: 186
    Number of basis functions: 556
    Number of Cartesian functions: 644
    Spherical Harmonics?: true
    Max angular momentum: 3

   => Loading Basis Set <=

    Name: (AUG-CC-PVTZ AUX)
    Role: JKFIT
    Keyword: DF_BASIS_SCF
    atoms 1, 12-15   entry O          line   286 file /opt/anaconda/envs/psi4v1.5/share/psi4/basis/aug-cc-pvtz-jkfit.gbs 
    atoms 2-7, 10-11 entry H          line    70 file /opt/anaconda/envs/psi4v1.5/share/psi4/basis/aug-cc-pvtz-jkfit.gbs 
    atoms 8-9        entry C          line   162 file /opt/anaconda/envs/psi4v1.5/share/psi4/basis/aug-cc-pvtz-jkfit.gbs 
    atoms 16         entry P          line   644 file /opt/anaconda/envs/psi4v1.5/share/psi4/basis/aug-cc-pvtz-jkfit.gbs 

  ==> Integral Setup <==

  ==> DiskDFJK: Density-Fitted J/K Matrices <==

    J tasked:                  Yes
    K tasked:                  Yes
    wK tasked:                  No
    OpenMP threads:              8
    Integrals threads:           8
    Memory [MiB]:            35762
    Algorithm:                Core
    Integral Cache:           LOAD
    Schwarz Cutoff:          1E-12
    Fitting Condition:       1E-10

   => Auxiliary Basis Set <=

  Basis Set: (AUG-CC-PVTZ AUX)
    Blend: AUG-CC-PVTZ-JKFIT
    Number of shells: 364
    Number of basis functions: 1242
    Number of Cartesian functions: 1537
    Spherical Harmonics?: true
    Max angular momentum: 4

  Minimum eigenvalue in the overlap matrix is 1.4822622796E-05.
  Reciprocal condition number of the overlap matrix is 9.0605330201E-07.
    Using symmetric orthogonalization.

  ==> Pre-Iterations <==

  SCF Guess: Superposition of Atomic Densities via on-the-fly atomic UHF (no occupation information).

   -------------------------
    Irrep   Nso     Nmo    
   -------------------------
     A        556     556 
   -------------------------
    Total     556     556
   -------------------------

  ==> Iterations <==

                           Total Energy        Delta E     RMS |[F,P]|

   @DF-RHF iter SAD:  -718.37560218727219   -7.18376e+02   0.00000e+00 
   @DF-RHF iter   1:  -719.43994516981104   -1.06434e+00   1.50865e-03 DIIS
   @DF-RHF iter   2:  -719.63142804015456   -1.91483e-01   9.93158e-04 DIIS
   @DF-RHF iter   3:  -719.72835376348291   -9.69257e-02   1.13249e-04 DIIS
   @DF-RHF iter   4:  -719.73065491309035   -2.30115e-03   4.57748e-05 DIIS
   @DF-RHF iter   5:  -719.73098036524198   -3.25452e-04   1.23388e-05 DIIS
   @DF-RHF iter   6:  -719.73100454353482   -2.41783e-05   3.21138e-06 DIIS
   @DF-RHF iter   7:  -719.73100699352563   -2.44999e-06   8.30605e-07 DIIS
   @DF-RHF iter   8:  -719.73100721174399   -2.18218e-07   2.15828e-07 DIIS
   @DF-RHF iter   9:  -719.73100722968525   -1.79413e-08   8.29082e-08 DIIS
   @DF-RHF iter  10:  -719.73100723172513   -2.03988e-09   3.28266e-08 DIIS
   @DF-RHF iter  11:  -719.73100723199093   -2.65800e-10   1.00133e-08 DIIS
   @DF-RHF iter  12:  -719.73100723201094   -2.00089e-11   3.06656e-09 DIIS
  Energy and wave function converged.


  ==> Post-Iterations <==

    Orbital Energies [Eh]
    ---------------------

    Doubly Occupied:                                                      

       1A    -79.880718     2A    -20.403277     3A    -20.400297  
       4A    -20.305857     5A    -20.305115     6A    -11.134519  
       7A    -11.132697     8A     -7.396140     9A     -5.295174  
      10A     -5.293980    11A     -5.292609    12A     -1.232893  
      13A     -1.185558    14A     -1.098534    15A     -1.058859  
      16A     -0.792263    17A     -0.776363    18A     -0.586249  
      19A     -0.523138    20A     -0.491269    21A     -0.484526  
      22A     -0.468864    23A     -0.443132    24A     -0.426247  
      25A     -0.372127    26A     -0.355785    27A     -0.345444  
      28A     -0.310782    29A     -0.299990    30A     -0.283431  
      31A     -0.269423    32A     -0.249053    33A     -0.233834  

    Virtual:                                                              

      34A      0.116591    35A      0.118928    36A      0.133746  
      37A      0.139159    38A      0.142052    39A      0.146816  
      40A      0.155565    41A      0.164331    42A      0.185446  
      43A      0.209904    44A      0.211341    45A      0.219783  
      46A      0.222208    47A      0.227113    48A      0.232589  
      49A      0.241966    50A      0.250558    51A      0.259704  
      52A      0.275571    53A      0.285096    54A      0.292932  
      55A      0.300803    56A      0.303786    57A      0.311358  
      58A      0.320045    59A      0.330161    60A      0.341350  
      61A      0.349087    62A      0.357228    63A      0.361000  
      64A      0.375218    65A      0.383607    66A      0.384887  
      67A      0.387549    68A      0.391572    69A      0.401130  
      70A      0.408947    71A      0.419356    72A      0.425260  
      73A      0.433282    74A      0.437659    75A      0.439812  
      76A      0.455123    77A      0.459261    78A      0.464339  
      79A      0.469387    80A      0.476229    81A      0.483247  
      82A      0.490517    83A      0.500411    84A      0.506503  
      85A      0.510312    86A      0.512362    87A      0.520769  
      88A      0.525084    89A      0.526676    90A      0.538098  
      91A      0.546285    92A      0.553332    93A      0.558744  
      94A      0.562198    95A      0.570117    96A      0.579718  
      97A      0.583865    98A      0.589817    99A      0.590192  
     100A      0.593577   101A      0.607721   102A      0.609078  
     103A      0.612131   104A      0.615005   105A      0.618468  
     106A      0.631196   107A      0.637300   108A      0.643601  
     109A      0.645195   110A      0.659645   111A      0.665230  
     112A      0.669440   113A      0.673518   114A      0.680641  
     115A      0.687599   116A      0.688354   117A      0.699520  
     118A      0.710232   119A      0.721516   120A      0.726546  
     121A      0.735173   122A      0.744051   123A      0.759414  
     124A      0.773271   125A      0.788164   126A      0.797756  
     127A      0.821762   128A      0.834568   129A      0.855523  
     130A      0.866005   131A      0.874214   132A      0.880341  
     133A      0.899661   134A      0.910370   135A      0.919246  
     136A      0.929040   137A      0.932799   138A      0.935644  
     139A      0.944405   140A      0.951329   141A      0.963122  
     142A      0.977191   143A      0.985286   144A      0.994817  
     145A      0.998692   146A      1.005676   147A      1.015180  
     148A      1.022235   149A      1.027376   150A      1.035909  
     151A      1.048115   152A      1.056400   153A      1.061269  
     154A      1.071711   155A      1.075691   156A      1.082652  
     157A      1.087578   158A      1.095165   159A      1.098315  
     160A      1.108975   161A      1.110946   162A      1.115768  
     163A      1.124480   164A      1.129756   165A      1.141933  
     166A      1.153392   167A      1.159760   168A      1.165654  
     169A      1.176508   170A      1.180617   171A      1.188629  
     172A      1.198755   173A      1.204052   174A      1.207877  
     175A      1.219555   176A      1.228034   177A      1.230361  
     178A      1.235440   179A      1.239901   180A      1.257761  
     181A      1.262615   182A      1.263725   183A      1.269235  
     184A      1.272146   185A      1.287560   186A      1.292502  
     187A      1.294286   188A      1.306955   189A      1.309156  
     190A      1.319102   191A      1.329333   192A      1.343013  
     193A      1.347892   194A      1.356044   195A      1.361676  
     196A      1.373917   197A      1.384068   198A      1.396815  
     199A      1.399323   200A      1.408564   201A      1.420664  
     202A      1.435940   203A      1.440939   204A      1.455937  
     205A      1.467968   206A      1.469314   207A      1.488985  
     208A      1.496147   209A      1.519419   210A      1.527606  
     211A      1.533267   212A      1.550921   213A      1.563912  
     214A      1.579174   215A      1.585441   216A      1.594384  
     217A      1.605706   218A      1.617964   219A      1.625704  
     220A      1.638925   221A      1.648947   222A      1.663902  
     223A      1.668652   224A      1.682808   225A      1.697015  
     226A      1.706983   227A      1.724076   228A      1.741740  
     229A      1.756779   230A      1.759690   231A      1.764797  
     232A      1.784912   233A      1.793095   234A      1.798434  
     235A      1.805936   236A      1.810016   237A      1.823604  
     238A      1.832215   239A      1.840486   240A      1.852314  
     241A      1.854467   242A      1.870595   243A      1.881337  
     244A      1.899750   245A      1.908901   246A      1.920166  
     247A      1.928030   248A      1.935755   249A      1.938687  
     250A      1.948717   251A      1.959083   252A      1.977318  
     253A      1.984446   254A      1.988934   255A      1.995221  
     256A      2.008751   257A      2.034355   258A      2.043678  
     259A      2.059859   260A      2.061416   261A      2.067998  
     262A      2.083097   263A      2.092172   264A      2.117317  
     265A      2.123330   266A      2.133342   267A      2.148916  
     268A      2.160409   269A      2.179596   270A      2.201709  
     271A      2.207791   272A      2.217746   273A      2.232769  
     274A      2.237970   275A      2.253328   276A      2.258815  
     277A      2.263652   278A      2.277584   279A      2.300151  
     280A      2.310823   281A      2.318598   282A      2.333956  
     283A      2.341164   284A      2.349902   285A      2.366287  
     286A      2.369323   287A      2.386794   288A      2.412602  
     289A      2.427554   290A      2.440793   291A      2.453769  
     292A      2.469375   293A      2.474978   294A      2.498324  
     295A      2.539972   296A      2.570062   297A      2.601092  
     298A      2.617136   299A      2.639468   300A      2.663100  
     301A      2.680411   302A      2.703530   303A      2.712749  
     304A      2.717864   305A      2.731005   306A      2.743945  
     307A      2.756247   308A      2.767521   309A      2.774051  
     310A      2.813340   311A      2.821206   312A      2.830467  
     313A      2.840206   314A      2.843613   315A      2.863212  
     316A      2.867464   317A      2.884649   318A      2.904186  
     319A      2.909816   320A      2.932969   321A      2.939090  
     322A      2.959977   323A      2.968387   324A      2.991417  
     325A      3.004606   326A      3.026808   327A      3.035833  
     328A      3.049423   329A      3.073134   330A      3.093991  
     331A      3.099569   332A      3.110495   333A      3.117796  
     334A      3.142679   335A      3.165654   336A      3.168243  
     337A      3.180818   338A      3.201712   339A      3.231388  
     340A      3.253122   341A      3.285158   342A      3.291280  
     343A      3.303948   344A      3.312565   345A      3.343294  
     346A      3.350785   347A      3.385097   348A      3.408357  
     349A      3.424764   350A      3.441775   351A      3.466518  
     352A      3.484500   353A      3.526683   354A      3.532374  
     355A      3.542291   356A      3.574126   357A      3.602128  
     358A      3.614193   359A      3.621784   360A      3.641298  
     361A      3.661452   362A      3.677399   363A      3.702538  
     364A      3.724702   365A      3.743139   366A      3.762249  
     367A      3.766727   368A      3.772677   369A      3.808569  
     370A      3.825163   371A      3.844915   372A      3.852271  
     373A      3.861056   374A      3.869261   375A      3.904186  
     376A      3.910871   377A      3.930979   378A      3.945382  
     379A      3.971211   380A      3.975421   381A      4.002932  
     382A      4.020148   383A      4.027913   384A      4.045605  
     385A      4.058351   386A      4.070175   387A      4.092270  
     388A      4.104958   389A      4.130809   390A      4.158015  
     391A      4.165639   392A      4.207523   393A      4.216482  
     394A      4.223316   395A      4.285553   396A      4.292757  
     397A      4.305488   398A      4.331074   399A      4.366198  
     400A      4.383803   401A      4.405293   402A      4.424070  
     403A      4.453845   404A      4.456720   405A      4.457934  
     406A      4.485423   407A      4.494082   408A      4.503991  
     409A      4.565028   410A      4.619464   411A      4.675601  
     412A      4.681413   413A      4.714730   414A      4.746251  
     415A      4.765994   416A      4.773540   417A      4.783114  
     418A      4.811681   419A      4.832762   420A      4.866248  
     421A      4.882335   422A      4.903546   423A      4.935818  
     424A      4.952498   425A      4.968670   426A      4.983686  
     427A      5.017523   428A      5.052671   429A      5.061121  
     430A      5.091789   431A      5.119218   432A      5.144042  
     433A      5.151325   434A      5.172627   435A      5.188020  
     436A      5.225662   437A      5.245845   438A      5.262171  
     439A      5.286615   440A      5.295743   441A      5.300109  
     442A      5.328436   443A      5.360736   444A      5.392664  
     445A      5.470473   446A      5.476202   447A      5.492937  
     448A      5.545432   449A      5.550792   450A      5.561692  
     451A      5.616064   452A      5.663271   453A      5.689902  
     454A      5.714944   455A      5.748260   456A      5.767422  
     457A      5.773119   458A      5.778355   459A      5.792480  
     460A      5.804618   461A      5.824888   462A      5.845748  
     463A      5.889723   464A      5.898153   465A      5.931999  
     466A      5.960471   467A      6.044069   468A      6.146912  
     469A      6.164165   470A      6.225623   471A      6.234463  
     472A      6.288145   473A      6.301647   474A      6.399256  
     475A      6.502197   476A      6.505817   477A      6.517170  
     478A      6.582116   479A      6.816592   480A      6.839245  
     481A      6.870513   482A      6.875020   483A      6.903359  
     484A      7.010647   485A      7.025332   486A      7.067168  
     487A      7.068407   488A      7.086018   489A      7.098914  
     490A      7.129615   491A      7.139808   492A      7.144460  
     493A      7.171980   494A      7.186985   495A      7.206644  
     496A      7.220975   497A      7.231141   498A      7.256948  
     499A      7.263828   500A      7.280582   501A      7.298712  
     502A      7.307274   503A      7.320984   504A      7.344826  
     505A      7.377313   506A      7.382432   507A      7.401164  
     508A      7.458323   509A      7.472560   510A      7.512268  
     511A      7.534129   512A      7.560218   513A      7.583155  
     514A      7.618199   515A      7.623071   516A      7.642699  
     517A      7.691791   518A      7.735985   519A      7.757582  
     520A      7.817063   521A      7.842034   522A      7.880267  
     523A      7.934786   524A      7.972079   525A      8.001101  
     526A      8.038277   527A      8.066951   528A      8.084727  
     529A      8.137257   530A      8.226415   531A      8.271239  
     532A      8.298728   533A      8.307393   534A      8.391307  
     535A      8.433199   536A      8.523440   537A      8.587589  
     538A      9.142716   539A      9.166966   540A     10.039226  
     541A     10.156622   542A     10.294736   543A     10.671210  
     544A     11.437833   545A     11.550856   546A     12.178527  
     547A     12.448978   548A     13.688425   549A     14.114227  
     550A     14.201808   551A     14.278231   552A     14.851194  
     553A     15.372476   554A     17.937818   555A     18.191143  
     556A     67.502308  

    Final Occupation by Irrep:
              A 
    DOCC [    33 ]

  @DF-RHF Final Energy:  -719.73100723201094

   => Energetics <=

    Nuclear Repulsion Energy =            435.8055478750265479
    One-Electron Energy =               -1872.8168097703592139
    Two-Electron Energy =                 717.2802546633216707
    Total Energy =                       -719.7310072320109384

Computation Completed


Properties will be evaluated at   0.000000,   0.000000,   0.000000 [a0]

Properties computed using the SCF density matrix

  Nuclear Dipole Moment: [e a0]
     X:   -47.6749      Y:    20.6435      Z:     2.6598

  Electronic Dipole Moment: [e a0]
     X:    47.4042      Y:   -19.4913      Z:    -3.3956

  Dipole Moment: [e a0]
     X:    -0.2707      Y:     1.1522      Z:    -0.7358     Total:     1.3936

  Dipole Moment: [D]
     X:    -0.6880      Y:     2.9285      Z:    -1.8703     Total:     3.5422


*** tstop() called on node150.bme.utexas.edu at Sat Jan  6 20:15:08 2024
Module time:
	user time   =      88.12 seconds =       1.47 minutes
	system time =       2.03 seconds =       0.03 minutes
	total time  =         12 seconds =       0.20 minutes
Total time:
	user time   =     298.11 seconds =       4.97 minutes
	system time =       8.44 seconds =       0.14 minutes
	total time  =         46 seconds =       0.77 minutes

*** tstart() called on node150.bme.utexas.edu
*** at Sat Jan  6 20:15:08 2024


  //>>>>>>>>>>>>>>>>>>>>>>>>>>>>>>>>>>>//
  //               DFMP2               //
  //<<<<<<<<<<<<<<<<<<<<<<<<<<<<<<<<<<<//

   => Loading Basis Set <=

    Name: (AUG-CC-PVTZ AUX)
    Role: RIFIT
    Keyword: DF_BASIS_MP2
    atoms 1, 12-15   entry O          line   264 file /opt/anaconda/envs/psi4v1.5/share/psi4/basis/aug-cc-pvtz-ri.gbs 
    atoms 2-7, 10-11 entry H          line    30 file /opt/anaconda/envs/psi4v1.5/share/psi4/basis/aug-cc-pvtz-ri.gbs 
    atoms 8-9        entry C          line   148 file /opt/anaconda/envs/psi4v1.5/share/psi4/basis/aug-cc-pvtz-ri.gbs 
    atoms 16         entry P          line   590 file /opt/anaconda/envs/psi4v1.5/share/psi4/basis/aug-cc-pvtz-ri.gbs 

	 --------------------------------------------------------
	                          DF-MP2                         
	      2nd-Order Density-Fitted Moller-Plesset Theory     
	              RMP2 Wavefunction,   8 Threads             
	                                                         
	        Rob Parrish, Justin Turney, Andy Simmonett,      
	           Ed Hohenstein, and C. David Sherrill          
	 --------------------------------------------------------

   => Auxiliary Basis Set <=

  Basis Set: (AUG-CC-PVTZ AUX)
    Blend: AUG-CC-PVTZ-RI
    Number of shells: 345
    Number of basis functions: 1257
    Number of Cartesian functions: 1583
    Spherical Harmonics?: true
    Max angular momentum: 4

	 --------------------------------------------------------
	                 NBF =   556, NAUX =  1257
	 --------------------------------------------------------
	   CLASS    FOCC     OCC    AOCC    AVIR     VIR    FVIR
	   PAIRS      11      33      22     523     523       0
	 --------------------------------------------------------

	 Will attempt to load fitting metric from file 97.

	-----------------------------------------------------------
	 ==================> DF-MP2 Energies <==================== 
	-----------------------------------------------------------
	 Reference Energy          =    -719.7310072320109384 [Eh]
	 Singles Energy            =      -0.0000000000000000 [Eh]
	 Same-Spin Energy          =      -0.3784149714875364 [Eh]
	 Opposite-Spin Energy      =      -1.1211405976278435 [Eh]
	 Correlation Energy        =      -1.4995555691153799 [Eh]
	 Total Energy              =    -721.2305628011263252 [Eh]
	-----------------------------------------------------------
	 ================> DF-SCS-MP2 Energies <================== 
	-----------------------------------------------------------
	 SCS Same-Spin Scale       =       0.3333333333333333 [-]
	 SCS Opposite-Spin Scale   =       1.2000000000000000 [-]
	 SCS Same-Spin Energy      =      -0.1261383238291788 [Eh]
	 SCS Opposite-Spin Energy  =      -1.3453687171534121 [Eh]
	 SCS Correlation Energy    =      -1.4715070409825910 [Eh]
	 SCS Total Energy          =    -721.2025142729935396 [Eh]
	-----------------------------------------------------------


*** tstop() called on node150.bme.utexas.edu at Sat Jan  6 20:15:13 2024
Module time:
	user time   =      24.42 seconds =       0.41 minutes
	system time =       1.35 seconds =       0.02 minutes
	total time  =          5 seconds =       0.08 minutes
Total time:
	user time   =     322.54 seconds =       5.38 minutes
	system time =       9.79 seconds =       0.16 minutes
	total time  =         51 seconds =       0.85 minutes
  Constructing Basis Sets for SAPT...

   => Loading Basis Set <=

    Name: (AUG-CC-PVTZ AUX)
    Role: RIFIT
    Keyword: DF_BASIS_SAPT
    atoms 1, 12-15   entry O          line   264 file /opt/anaconda/envs/psi4v1.5/share/psi4/basis/aug-cc-pvtz-ri.gbs 
    atoms 2-7, 10-11 entry H          line    30 file /opt/anaconda/envs/psi4v1.5/share/psi4/basis/aug-cc-pvtz-ri.gbs 
    atoms 8-9        entry C          line   148 file /opt/anaconda/envs/psi4v1.5/share/psi4/basis/aug-cc-pvtz-ri.gbs 
    atoms 16         entry P          line   590 file /opt/anaconda/envs/psi4v1.5/share/psi4/basis/aug-cc-pvtz-ri.gbs 


  //>>>>>>>>>>>>>>>>>>>>>>>>>>>>>>>>>>>//
  //           SAPT2+(3)DMP2           //
  //<<<<<<<<<<<<<<<<<<<<<<<<<<<<<<<<<<<//


*** tstart() called on node150.bme.utexas.edu
*** at Sat Jan  6 20:15:13 2024

      SAPT2+(3)  
    Ed Hohenstein
     6 June 2009

      Orbital Information
  --------------------------
    NSO        =       556
    NMO        =       556
    NRI        =      1257
    NOCC A     =         5
    NOCC B     =        33
    FOCC A     =         1
    FOCC B     =        11
    NVIR A     =       551
    NVIR B     =       523

    Estimated memory usage: 10987.9 MB

    Natural Orbital Cutoff:   1.000E-06
    Disp(T3) Truncation:            Yes
    CCD (vv|vv) Truncation:         Yes
    MBPT T2 Truncation:             Yes

    Monomer A: 466 virtual orbitals dropped
    Monomer B: 110 virtual orbitals dropped

    Elst10,r            =    -0.063649588097 [Eh]
    Exch10 (S^2)        =     0.068820194324 [Eh]
    Exch10              =     0.069820716271 [Eh]
    Ind20,r (A<-B)      =    -0.016254662691 [Eh]
    Ind20,r (B<-A)      =    -0.020154745555 [Eh]
    Ind20,r             =    -0.036409408246 [Eh]
    Exch-Ind20,r (A<-B) =     0.011867085882 [Eh]
    Exch-Ind20,r (B<-A) =     0.012827654174 [Eh]
    Exch-Ind20,r        =     0.024694740056 [Eh]
    Disp20              =    -0.022590430745 [Eh]
    Disp20 (NO)         =    -0.019976722160 [Eh]
    Exch-Disp20         =     0.005485735967 [Eh]
    Elst12,r            =    -0.001794149088 [Eh]
    Exch11              =     0.000977669832 [Eh]
    Exch12              =     0.010395628662 [Eh]
    Ind22               =    -0.007818258337 [Eh]
    Disp21              =     0.001748798562 [Eh]
    Disp22 (SDQ)        =    -0.001003831494 [Eh]

    (i =   1 of  22)          5 seconds
    (i =   2 of  22)          9 seconds
    (i =   3 of  22)         13 seconds
    (i =   4 of  22)         17 seconds
    (i =   5 of  22)         22 seconds
    (i =   6 of  22)         26 seconds
    (i =   7 of  22)         30 seconds
    (i =   8 of  22)         34 seconds
    (i =   9 of  22)         38 seconds
    (i =  10 of  22)         43 seconds
    (i =  11 of  22)         47 seconds
    (i =  12 of  22)         51 seconds
    (i =  13 of  22)         55 seconds
    (i =  14 of  22)         59 seconds
    (i =  15 of  22)         64 seconds
    (i =  16 of  22)         68 seconds
    (i =  17 of  22)         72 seconds
    (i =  18 of  22)         76 seconds
    (i =  19 of  22)         80 seconds
    (i =  20 of  22)         84 seconds
    (i =  21 of  22)         89 seconds
    (i =  22 of  22)         93 seconds

    Disp220 (T)         =    -0.001797699384 [Eh]

    (i =   1 of   4)        124 seconds
    (i =   2 of   4)        244 seconds
    (i =   3 of   4)        363 seconds
    (i =   4 of   4)        483 seconds

    Disp202 (T)         =    -0.002019089116 [Eh]

    Disp22 (T)          =    -0.003816788500 [Eh]

    Est. Disp220 (T)    =    -0.002032906255 [Eh]
    Est. Disp202 (T)    =    -0.002283262113 [Eh]

    Est. Disp22 (T)     =    -0.004316168368 [Eh]
    Elst13,r            =     0.001759656500 [Eh]
    Disp30              =     0.000821265383 [Eh]

    SAPT Results 
  --------------------------------------------------------------------------------------------------------
    Electrostatics                -63.68408069 [mEh]     -39.96236396 [kcal/mol]    -167.20253080 [kJ/mol]
      Elst10,r                    -63.64958810 [mEh]     -39.94071953 [kcal/mol]    -167.11197053 [kJ/mol]
      Elst12,r                     -1.79414909 [mEh]      -1.12584555 [kcal/mol]      -4.71053778 [kJ/mol]
      Elst13,r                      1.75965650 [mEh]       1.10420112 [kcal/mol]       4.61997751 [kJ/mol]

    Exchange                       81.19401476 [mEh]      50.95001348 [kcal/mol]     213.17485639 [kJ/mol]
      Exch10                       69.82071627 [mEh]      43.81316093 [kcal/mol]     183.31426531 [kJ/mol]
      Exch10(S^2)                  68.82019432 [mEh]      43.18532393 [kcal/mol]     180.68739530 [kJ/mol]
      Exch11(S^2)                   0.97766983 [mEh]       0.61349708 [kcal/mol]       2.56687179 [kJ/mol]
      Exch12(S^2)                  10.39562866 [mEh]       6.52335547 [kcal/mol]      27.29371929 [kJ/mol]

    Induction                     -18.87582476 [mEh]     -11.84475886 [kcal/mol]     -49.55847107 [kJ/mol]
      Ind20,r                     -36.40940825 [mEh]     -22.84724861 [kcal/mol]     -95.59288818 [kJ/mol]
      Ind22                        -7.81825834 [mEh]      -4.90603117 [kcal/mol]     -20.52683444 [kJ/mol]
      Exch-Ind20,r                 24.69474006 [mEh]      15.49618334 [kcal/mol]      64.83603108 [kJ/mol]
      Exch-Ind22                    5.30274637 [mEh]       3.32752358 [kcal/mol]      13.92235867 [kJ/mol]
      delta HF,r (2)               -6.49286687 [mEh]      -4.07433547 [kcal/mol]     -17.04701962 [kJ/mol]
      delta MP2,r (2)               1.84722227 [mEh]       1.15914948 [kcal/mol]       4.84988141 [kJ/mol]

    Dispersion                    -19.85463070 [mEh]     -12.45896886 [kcal/mol]     -52.12832571 [kJ/mol]
      Disp20                      -22.59043075 [mEh]     -14.17570931 [kcal/mol]     -59.31116775 [kJ/mol]
      Disp30                        0.82126538 [mEh]       0.51535181 [kcal/mol]       2.15623197 [kJ/mol]
      Disp21                        1.74879856 [mEh]       1.09738767 [kcal/mol]       4.59146999 [kJ/mol]
      Disp22 (SDQ)                 -1.00383149 [mEh]      -0.62991377 [kcal/mol]      -2.63555922 [kJ/mol]
      Disp22 (T)                   -3.81678850 [mEh]      -2.39507094 [kcal/mol]     -10.02097683 [kJ/mol]
      Est. Disp22 (T)              -4.31616837 [mEh]      -2.70843654 [kcal/mol]     -11.33209849 [kJ/mol]
      Exch-Disp20                   5.48573597 [mEh]       3.44235129 [kcal/mol]      14.40279780 [kJ/mol]

  Total HF                        -12.03640689 [mEh]      -7.55295935 [kcal/mol]     -31.60158193 [kJ/mol]
  Total SAPT0                     -29.14110166 [mEh]     -18.28631737 [kcal/mol]     -76.50995188 [kJ/mol]
  Total SAPT2                     -22.07746423 [mEh]     -13.85381796 [kcal/mol]     -57.96437435 [kJ/mol]
  Total SAPT2+                    -25.64866553 [mEh]     -16.09478061 [kcal/mol]     -67.34056207 [kJ/mol]
  Total SAPT2+(3)                 -23.06774365 [mEh]     -14.47522768 [kcal/mol]     -60.56435260 [kJ/mol]
  Total SAPT2+dMP2                -23.80144326 [mEh]     -14.93563113 [kcal/mol]     -62.49068066 [kJ/mol]
  Total SAPT2+(3)dMP2             -21.22052137 [mEh]     -13.31607820 [kcal/mol]     -55.71447119 [kJ/mol]

  Special recipe for scaled SAPT0 (see Manual):
    Electrostatics sSAPT0         -63.64958810 [mEh]     -39.94071953 [kcal/mol]    -167.11197053 [kJ/mol]
    Exchange sSAPT0                69.82071627 [mEh]      43.81316093 [kcal/mol]     183.31426531 [kJ/mol]
    Induction sSAPT0              -17.11474936 [mEh]     -10.73966737 [kcal/mol]     -44.93476826 [kJ/mol]
    Dispersion sSAPT0             -16.86194131 [mEh]     -10.58102792 [kcal/mol]     -44.27102081 [kJ/mol]
  Total sSAPT0                    -27.80556250 [mEh]     -17.44825389 [kcal/mol]     -73.00349428 [kJ/mol]
  --------------------------------------------------------------------------------------------------------

*** tstop() called on node150.bme.utexas.edu at Sat Jan  6 20:39:19 2024
Module time:
	user time   =    9901.11 seconds =     165.02 minutes
	system time =     134.95 seconds =       2.25 minutes
	total time  =       1446 seconds =      24.10 minutes
Total time:
	user time   =   10224.10 seconds =     170.40 minutes
	system time =     144.75 seconds =       2.41 minutes
	total time  =       1497 seconds =      24.95 minutes

    Psi4 stopped on: Saturday, 06 January 2024 08:39PM
    Psi4 wall time for execution: 0:24:57.35

*** Psi4 exiting successfully. Buy a developer a beer!
