
    -----------------------------------------------------------------------
          Psi4: An Open-Source Ab Initio Electronic Structure Package
                               Psi4 1.5 release

                         Git: Rev {HEAD} e9f4d6d 


    D. G. A. Smith, L. A. Burns, A. C. Simmonett, R. M. Parrish,
    M. C. Schieber, R. Galvelis, P. Kraus, H. Kruse, R. Di Remigio,
    A. Alenaizan, A. M. James, S. Lehtola, J. P. Misiewicz, M. Scheurer,
    R. A. Shaw, J. B. Schriber, Y. Xie, Z. L. Glick, D. A. Sirianni,
    J. S. O'Brien, J. M. Waldrop, A. Kumar, E. G. Hohenstein,
    B. P. Pritchard, B. R. Brooks, H. F. Schaefer III, A. Yu. Sokolov,
    K. Patkowski, A. E. DePrince III, U. Bozkaya, R. A. King,
    F. A. Evangelista, J. M. Turney, T. D. Crawford, C. D. Sherrill,
    J. Chem. Phys. 152(18) 184108 (2020). https://doi.org/10.1063/5.0006002

                            Additional Code Authors
    E. T. Seidl, C. L. Janssen, E. F. Valeev, M. L. Leininger,
    J. F. Gonthier, R. M. Richard, H. R. McAlexander, M. Saitow, X. Wang,
    P. Verma, M. H. Lechner, and A. Jiang

             Previous Authors, Complete List of Code Contributors,
                       and Citations for Specific Modules
    https://github.com/psi4/psi4/blob/master/codemeta.json
    https://github.com/psi4/psi4/graphs/contributors
    http://psicode.org/psi4manual/master/introduction.html#citing-psifour

    -----------------------------------------------------------------------


    Psi4 started on: Wednesday, 03 January 2024 11:24AM

    Process ID: 3083873
    Host:       node38.bme.utexas.edu
    PSIDATADIR: /opt/anaconda/envs/psi4v1.5/share/psi4
    Memory:     500.0 MiB
    Threads:    8
    
  ==> Input File <==

--------------------------------------------------------------------------

memory 50 GB

molecule  {
  0 1

  O -3.9810313846153846 -1.094425076923077 -0.5035973076923077
  H -3.4761513846153846 -1.373665076923077 0.2871026923076923
  H -3.2288013846153847 -1.010115076923077 -1.1244173076923076
  --
  -1 1

  H          2.66325        0.98686       -0.48269
  C          2.65349       -0.10579       -0.56157
  H         -0.65153        2.23848       -1.03879
  H         -1.77806        1.59760        0.17287
  C         -0.80526        2.07919        0.03334
  H          3.65248       -0.49359       -0.34144
  H          2.36007       -0.38643       -1.57703
  H         -0.79656        3.04109        0.55485
  O         -0.19800       -0.39991       -1.28827
  O         -0.60634       -1.08479        1.22500
  O          1.76851       -0.67484        0.39820
  O          0.25555        1.29858        0.58805
  P          0.16633       -0.32353        0.18077

units angstrom
no_reorient
symmetry c1}

set {
scf_type DF
basis aug-cc-pvtz
freeze_core True
guess SAD
}
energy('sapt2+(3)dmp2')
--------------------------------------------------------------------------

  Memory set to  46.566 GiB by Python driver.

Scratch directory: /tmp/
   => Loading Basis Set <=

    Name: AUG-CC-PVTZ
    Role: ORBITAL
    Keyword: BASIS
    atoms 1, 12-15       entry O          line   331 file /opt/anaconda/envs/psi4v1.5/share/psi4/basis/aug-cc-pvtz.gbs 
    atoms 2-4, 6-7, 9-11 entry H          line    40 file /opt/anaconda/envs/psi4v1.5/share/psi4/basis/aug-cc-pvtz.gbs 
    atoms 5, 8           entry C          line   239 file /opt/anaconda/envs/psi4v1.5/share/psi4/basis/aug-cc-pvtz.gbs 
    atoms 16             entry P          line   824 file /opt/anaconda/envs/psi4v1.5/share/psi4/basis/aug-cc-pvtz.gbs 

   => Loading Basis Set <=

    Name: AUG-CC-PVTZ
    Role: ORBITAL
    Keyword: BASIS
    atoms 1, 12-15       entry O          line   331 file /opt/anaconda/envs/psi4v1.5/share/psi4/basis/aug-cc-pvtz.gbs 
    atoms 2-4, 6-7, 9-11 entry H          line    40 file /opt/anaconda/envs/psi4v1.5/share/psi4/basis/aug-cc-pvtz.gbs 
    atoms 5, 8           entry C          line   239 file /opt/anaconda/envs/psi4v1.5/share/psi4/basis/aug-cc-pvtz.gbs 
    atoms 16             entry P          line   824 file /opt/anaconda/envs/psi4v1.5/share/psi4/basis/aug-cc-pvtz.gbs 


  //>>>>>>>>>>>>>>>>>>>>>>>>>>>>>>>>>>>//
  //              Dimer HF             //
  //<<<<<<<<<<<<<<<<<<<<<<<<<<<<<<<<<<<//


*** tstart() called on node38.bme.utexas.edu
*** at Wed Jan  3 11:24:52 2024

   => Loading Basis Set <=

    Name: AUG-CC-PVTZ
    Role: ORBITAL
    Keyword: BASIS
    atoms 1, 12-15       entry O          line   331 file /opt/anaconda/envs/psi4v1.5/share/psi4/basis/aug-cc-pvtz.gbs 
    atoms 2-4, 6-7, 9-11 entry H          line    40 file /opt/anaconda/envs/psi4v1.5/share/psi4/basis/aug-cc-pvtz.gbs 
    atoms 5, 8           entry C          line   239 file /opt/anaconda/envs/psi4v1.5/share/psi4/basis/aug-cc-pvtz.gbs 
    atoms 16             entry P          line   824 file /opt/anaconda/envs/psi4v1.5/share/psi4/basis/aug-cc-pvtz.gbs 


         ---------------------------------------------------------
                                   SCF
               by Justin Turney, Rob Parrish, Andy Simmonett
                          and Daniel G. A. Smith
                              RHF Reference
                        8 Threads,  47683 MiB Core
         ---------------------------------------------------------

  ==> Geometry <==

    Molecular point group: c1
    Full point group: C1

    Geometry (in Angstrom), charge = -1, multiplicity = 1:

       Center              X                  Y                   Z               Mass       
    ------------   -----------------  -----------------  -----------------  -----------------
         O           -3.854457570446    -1.003661865369    -0.520316570387    15.994914619570
         H           -3.349577570446    -1.282901865369     0.270383429613     1.007825032230
         H           -3.102227570446    -0.919351865369    -1.141136570387     1.007825032230
         H            2.789823814169     1.077623211554    -0.499409262695     1.007825032230
         C            2.780063814169    -0.015026788446    -0.578289262695    12.000000000000
         H           -0.524956185831     2.329243211554    -1.055509262695     1.007825032230
         H           -1.651486185831     1.688363211554     0.156150737305     1.007825032230
         C           -0.678686185831     2.169953211554     0.016620737305    12.000000000000
         H            3.779053814169    -0.402826788446    -0.358159262695     1.007825032230
         H            2.486643814169    -0.295666788446    -1.593749262695     1.007825032230
         H           -0.669986185831     3.131853211554     0.538130737305     1.007825032230
         O           -0.071426185831    -0.309146788446    -1.304989262695    15.994914619570
         O           -0.479766185831    -0.994026788446     1.208280737305    15.994914619570
         O            1.895083814169    -0.584076788446     0.381480737305    15.994914619570
         O            0.382123814169     1.389343211554     0.571330737305    15.994914619570
         P            0.292903814169    -0.232766788446     0.164050737305    30.973761998420

  Running in c1 symmetry.

  Rotational constants: A =      0.07780  B =      0.03158  C =      0.02782 [cm^-1]
  Rotational constants: A =   2332.37567  B =    946.73404  C =    833.90514 [MHz]
  Nuclear repulsion =  521.261798137053006

  Charge       = -1
  Multiplicity = 1
  Electrons    = 76
  Nalpha       = 38
  Nbeta        = 38

  ==> Algorithm <==

  SCF Algorithm Type is DF.
  DIIS enabled.
  MOM disabled.
  Fractional occupation disabled.
  Guess Type is SAD.
  Energy threshold   = 1.00e-08
  Density threshold  = 1.00e-08
  Integral threshold = 1.00e-12

  ==> Primary Basis <==

  Basis Set: AUG-CC-PVTZ
    Blend: AUG-CC-PVTZ
    Number of shells: 186
    Number of basis functions: 556
    Number of Cartesian functions: 644
    Spherical Harmonics?: true
    Max angular momentum: 3

   => Loading Basis Set <=

    Name: (AUG-CC-PVTZ AUX)
    Role: JKFIT
    Keyword: DF_BASIS_SCF
    atoms 1, 12-15       entry O          line   286 file /opt/anaconda/envs/psi4v1.5/share/psi4/basis/aug-cc-pvtz-jkfit.gbs 
    atoms 2-4, 6-7, 9-11 entry H          line    70 file /opt/anaconda/envs/psi4v1.5/share/psi4/basis/aug-cc-pvtz-jkfit.gbs 
    atoms 5, 8           entry C          line   162 file /opt/anaconda/envs/psi4v1.5/share/psi4/basis/aug-cc-pvtz-jkfit.gbs 
    atoms 16             entry P          line   644 file /opt/anaconda/envs/psi4v1.5/share/psi4/basis/aug-cc-pvtz-jkfit.gbs 

  ==> Integral Setup <==

  ==> DiskDFJK: Density-Fitted J/K Matrices <==

    J tasked:                  Yes
    K tasked:                  Yes
    wK tasked:                  No
    OpenMP threads:              8
    Integrals threads:           8
    Memory [MiB]:            35762
    Algorithm:                Core
    Integral Cache:           SAVE
    Schwarz Cutoff:          1E-12
    Fitting Condition:       1E-10

   => Auxiliary Basis Set <=

  Basis Set: (AUG-CC-PVTZ AUX)
    Blend: AUG-CC-PVTZ-JKFIT
    Number of shells: 364
    Number of basis functions: 1242
    Number of Cartesian functions: 1537
    Spherical Harmonics?: true
    Max angular momentum: 4

  Minimum eigenvalue in the overlap matrix is 2.2894970234E-05.
  Reciprocal condition number of the overlap matrix is 1.5148682248E-06.
    Using symmetric orthogonalization.

  ==> Pre-Iterations <==

  SCF Guess: Superposition of Atomic Densities via on-the-fly atomic UHF (no occupation information).

   -------------------------
    Irrep   Nso     Nmo    
   -------------------------
     A        556     556 
   -------------------------
    Total     556     556
   -------------------------

  ==> Iterations <==

                           Total Energy        Delta E     RMS |[F,P]|

   @DF-RHF iter SAD:  -793.86635001996865   -7.93866e+02   0.00000e+00 
   @DF-RHF iter   1:  -795.43901617216613   -1.57267e+00   1.70758e-03 DIIS
   @DF-RHF iter   2:  -795.67672364412192   -2.37707e-01   1.12966e-03 DIIS
   @DF-RHF iter   3:  -795.80120063880190   -1.24477e-01   1.15761e-04 DIIS
   @DF-RHF iter   4:  -795.80377736543846   -2.57673e-03   4.75813e-05 DIIS
   @DF-RHF iter   5:  -795.80412667335031   -3.49308e-04   1.38008e-05 DIIS
   @DF-RHF iter   6:  -795.80415664796044   -2.99746e-05   3.53196e-06 DIIS
   @DF-RHF iter   7:  -795.80415970569879   -3.05774e-06   9.50476e-07 DIIS
   @DF-RHF iter   8:  -795.80415999340596   -2.87707e-07   2.45509e-07 DIIS
   @DF-RHF iter   9:  -795.80416001677543   -2.33695e-08   7.51207e-08 DIIS
   @DF-RHF iter  10:  -795.80416001867468   -1.89925e-09   2.49146e-08 DIIS
   @DF-RHF iter  11:  -795.80416001884396   -1.69280e-10   7.81351e-09 DIIS
  Energy and wave function converged.


  ==> Post-Iterations <==

    Orbital Energies [Eh]
    ---------------------

    Doubly Occupied:                                                      

       1A    -79.893525     2A    -20.433513     3A    -20.413449  
       4A    -20.409877     5A    -20.322062     6A    -20.318158  
       7A    -11.141192     8A    -11.140926     9A     -7.409005  
      10A     -5.307980    11A     -5.306863    12A     -5.305574  
      13A     -1.243282    14A     -1.208318    15A     -1.194686  
      16A     -1.112802    17A     -1.073848    18A     -0.800732  
      19A     -0.783995    20A     -0.596314    21A     -0.555406  
      22A     -0.532708    23A     -0.502625    24A     -0.492008  
      25A     -0.474715    26A     -0.458226    27A     -0.452463  
      28A     -0.441453    29A     -0.382724    30A     -0.373892  
      31A     -0.367179    32A     -0.350875    33A     -0.318831  
      34A     -0.314035    35A     -0.298584    36A     -0.282380  
      37A     -0.263878    38A     -0.248792  

    Virtual:                                                              

      39A      0.113506    40A      0.117936    41A      0.131485  
      42A      0.134792    43A      0.144438    44A      0.147124  
      45A      0.157145    46A      0.158600    47A      0.179606  
      48A      0.200837    49A      0.205348    50A      0.212267  
      51A      0.221744    52A      0.225064    53A      0.230131  
      54A      0.241023    55A      0.244734    56A      0.259838  
      57A      0.276563    58A      0.283250    59A      0.288779  
      60A      0.295007    61A      0.299408    62A      0.306102  
      63A      0.313100    64A      0.326032    65A      0.328354  
      66A      0.337819    67A      0.343291    68A      0.351122  
      69A      0.359996    70A      0.367767    71A      0.374324  
      72A      0.379415    73A      0.383822    74A      0.390991  
      75A      0.396955    76A      0.398719    77A      0.406545  
      78A      0.410327    79A      0.425343    80A      0.430327  
      81A      0.435373    82A      0.445410    83A      0.450151  
      84A      0.453278    85A      0.459232    86A      0.466355  
      87A      0.470261    88A      0.478972    89A      0.483710  
      90A      0.490787    91A      0.496984    92A      0.498772  
      93A      0.504809    94A      0.506458    95A      0.518112  
      96A      0.522124    97A      0.524591    98A      0.535461  
      99A      0.541878   100A      0.545961   101A      0.553784  
     102A      0.560467   103A      0.572842   104A      0.574423  
     105A      0.580313   106A      0.586576   107A      0.593172  
     108A      0.596349   109A      0.601049   110A      0.608905  
     111A      0.611722   112A      0.622871   113A      0.624993  
     114A      0.626792   115A      0.634953   116A      0.642809  
     117A      0.643620   118A      0.654209   119A      0.655408  
     120A      0.668198   121A      0.675725   122A      0.680255  
     123A      0.689653   124A      0.691984   125A      0.697379  
     126A      0.712263   127A      0.715725   128A      0.724087  
     129A      0.738231   130A      0.748083   131A      0.761037  
     132A      0.791733   133A      0.804316   134A      0.819364  
     135A      0.833192   136A      0.842755   137A      0.853166  
     138A      0.872118   139A      0.874273   140A      0.882766  
     141A      0.898573   142A      0.906950   143A      0.911112  
     144A      0.915258   145A      0.918036   146A      0.927306  
     147A      0.936532   148A      0.944305   149A      0.947606  
     150A      0.962465   151A      0.970969   152A      0.980942  
     153A      0.985277   154A      0.988974   155A      1.000865  
     156A      1.011306   157A      1.014215   158A      1.024390  
     159A      1.036216   160A      1.037439   161A      1.049120  
     162A      1.054167   163A      1.060842   164A      1.064649  
     165A      1.069765   166A      1.076430   167A      1.084945  
     168A      1.088807   169A      1.093860   170A      1.101530  
     171A      1.106014   172A      1.115145   173A      1.120523  
     174A      1.123685   175A      1.139770   176A      1.144800  
     177A      1.156201   178A      1.165309   179A      1.171593  
     180A      1.177535   181A      1.182064   182A      1.191491  
     183A      1.196342   184A      1.205717   185A      1.211719  
     186A      1.217405   187A      1.224761   188A      1.226103  
     189A      1.235013   190A      1.243005   191A      1.250245  
     192A      1.256007   193A      1.259847   194A      1.267316  
     195A      1.271013   196A      1.278492   197A      1.283075  
     198A      1.290845   199A      1.296575   200A      1.306317  
     201A      1.317039   202A      1.322635   203A      1.326368  
     204A      1.332355   205A      1.336248   206A      1.341095  
     207A      1.360520   208A      1.364719   209A      1.372254  
     210A      1.389366   211A      1.390357   212A      1.400301  
     213A      1.408134   214A      1.415679   215A      1.421836  
     216A      1.430758   217A      1.441856   218A      1.452565  
     219A      1.472604   220A      1.477091   221A      1.484786  
     222A      1.498024   223A      1.510173   224A      1.526428  
     225A      1.531353   226A      1.560826   227A      1.581344  
     228A      1.582765   229A      1.590381   230A      1.611066  
     231A      1.617338   232A      1.632936   233A      1.656819  
     234A      1.665213   235A      1.667832   236A      1.688767  
     237A      1.704197   238A      1.706274   239A      1.719180  
     240A      1.724209   241A      1.735702   242A      1.742189  
     243A      1.754018   244A      1.761877   245A      1.769769  
     246A      1.785592   247A      1.793296   248A      1.797428  
     249A      1.812314   250A      1.816127   251A      1.832450  
     252A      1.841326   253A      1.854713   254A      1.865028  
     255A      1.876051   256A      1.887874   257A      1.891255  
     258A      1.906074   259A      1.924210   260A      1.932444  
     261A      1.939096   262A      1.960751   263A      1.973821  
     264A      1.983690   265A      1.993424   266A      2.013919  
     267A      2.024284   268A      2.037338   269A      2.050237  
     270A      2.059084   271A      2.077141   272A      2.086100  
     273A      2.105312   274A      2.135804   275A      2.149687  
     276A      2.154789   277A      2.162062   278A      2.187971  
     279A      2.191561   280A      2.200233   281A      2.205681  
     282A      2.217308   283A      2.234032   284A      2.239343  
     285A      2.259723   286A      2.262144   287A      2.263685  
     288A      2.298372   289A      2.304433   290A      2.332824  
     291A      2.338104   292A      2.343733   293A      2.351609  
     294A      2.357158   295A      2.378789   296A      2.388491  
     297A      2.401114   298A      2.417531   299A      2.432876  
     300A      2.435890   301A      2.469965   302A      2.487953  
     303A      2.505955   304A      2.519245   305A      2.525128  
     306A      2.549971   307A      2.577479   308A      2.589525  
     309A      2.601293   310A      2.610624   311A      2.623828  
     312A      2.635624   313A      2.655047   314A      2.658959  
     315A      2.676738   316A      2.692652   317A      2.703878  
     318A      2.723568   319A      2.733276   320A      2.747709  
     321A      2.768243   322A      2.781557   323A      2.784051  
     324A      2.813603   325A      2.828602   326A      2.844207  
     327A      2.849785   328A      2.854399   329A      2.860686  
     330A      2.879255   331A      2.885504   332A      2.898499  
     333A      2.904666   334A      2.927957   335A      2.934016  
     336A      2.939875   337A      2.959127   338A      2.964546  
     339A      2.976818   340A      3.004578   341A      3.029145  
     342A      3.036390   343A      3.048264   344A      3.073694  
     345A      3.113884   346A      3.116093   347A      3.125306  
     348A      3.139389   349A      3.175578   350A      3.197416  
     351A      3.206304   352A      3.232075   353A      3.298172  
     354A      3.326320   355A      3.342987   356A      3.378441  
     357A      3.382238   358A      3.410709   359A      3.442029  
     360A      3.468674   361A      3.495725   362A      3.511541  
     363A      3.542345   364A      3.561994   365A      3.590139  
     366A      3.605271   367A      3.614680   368A      3.634729  
     369A      3.646181   370A      3.690378   371A      3.706908  
     372A      3.725560   373A      3.765710   374A      3.777146  
     375A      3.790318   376A      3.814907   377A      3.823872  
     378A      3.837217   379A      3.851443   380A      3.867320  
     381A      3.880566   382A      3.887233   383A      3.914530  
     384A      3.926519   385A      3.932443   386A      3.951716  
     387A      3.976100   388A      3.994016   389A      4.007410  
     390A      4.047004   391A      4.050240   392A      4.063675  
     393A      4.085831   394A      4.138235   395A      4.153863  
     396A      4.161413   397A      4.192122   398A      4.215149  
     399A      4.228743   400A      4.261194   401A      4.288943  
     402A      4.299168   403A      4.309605   404A      4.313719  
     405A      4.324844   406A      4.332606   407A      4.349976  
     408A      4.354334   409A      4.396882   410A      4.423236  
     411A      4.437372   412A      4.441200   413A      4.453918  
     414A      4.466193   415A      4.473685   416A      4.499988  
     417A      4.532016   418A      4.543998   419A      4.566026  
     420A      4.573979   421A      4.586981   422A      4.607580  
     423A      4.663111   424A      4.717432   425A      4.728407  
     426A      4.737213   427A      4.752722   428A      4.768606  
     429A      4.825685   430A      4.836332   431A      4.897800  
     432A      4.922796   433A      4.936281   434A      4.948058  
     435A      4.953441   436A      4.971335   437A      4.992265  
     438A      5.009358   439A      5.040550   440A      5.079902  
     441A      5.084856   442A      5.115790   443A      5.131593  
     444A      5.149317   445A      5.166178   446A      5.188063  
     447A      5.210275   448A      5.245016   449A      5.267281  
     450A      5.285168   451A      5.297481   452A      5.340775  
     453A      5.355647   454A      5.388292   455A      5.409169  
     456A      5.429961   457A      5.452313   458A      5.474315  
     459A      5.525910   460A      5.545298   461A      5.597931  
     462A      5.646924   463A      5.657609   464A      5.715388  
     465A      5.734703   466A      5.737565   467A      5.752353  
     468A      5.772157   469A      5.780636   470A      5.788515  
     471A      5.803094   472A      5.867096   473A      5.888323  
     474A      5.938214   475A      6.133203   476A      6.139332  
     477A      6.214518   478A      6.232525   479A      6.267428  
     480A      6.286024   481A      6.412522   482A      6.489441  
     483A      6.530095   484A      6.643667   485A      6.812324  
     486A      6.822854   487A      6.836434   488A      6.861660  
     489A      6.889929   490A      6.902216   491A      6.916332  
     492A      6.980495   493A      6.999801   494A      7.020438  
     495A      7.029363   496A      7.054339   497A      7.074751  
     498A      7.091561   499A      7.097251   500A      7.108704  
     501A      7.125472   502A      7.137132   503A      7.152886  
     504A      7.164875   505A      7.185485   506A      7.194815  
     507A      7.219860   508A      7.250358   509A      7.253933  
     510A      7.259349   511A      7.269895   512A      7.279770  
     513A      7.319013   514A      7.338360   515A      7.344910  
     516A      7.368096   517A      7.427795   518A      7.436670  
     519A      7.444054   520A      7.458249   521A      7.506126  
     522A      7.513807   523A      7.520522   524A      7.542297  
     525A      7.564425   526A      7.568309   527A      7.578151  
     528A      7.590209   529A      7.639758   530A      7.666971  
     531A      7.678874   532A      7.697060   533A      7.724239  
     534A      7.739108   535A      7.842860   536A      7.910766  
     537A      7.920332   538A      7.935149   539A      7.947217  
     540A      7.990870   541A      7.995085   542A      8.031576  
     543A      8.103016   544A      8.206891   545A      8.230184  
     546A      8.290715   547A      8.354758   548A      8.919247  
     549A     11.058121   550A     12.710880   551A     13.639187  
     552A     14.790806   553A     15.156928   554A     15.579578  
     555A     17.955951   556A     18.047859  

    Final Occupation by Irrep:
              A 
    DOCC [    38 ]

  @DF-RHF Final Energy:  -795.80416001884396

   => Energetics <=

    Nuclear Repulsion Energy =            521.2617981370530060
    One-Electron Energy =               -2149.0781522148154181
    Two-Electron Energy =                 832.0121940589183396
    Total Energy =                       -795.8041600188439588

Computation Completed


Properties will be evaluated at   0.000000,   0.000000,   0.000000 [a0]

Properties computed using the SCF density matrix

  Nuclear Dipole Moment: [e a0]
     X:    -0.5073      Y:     5.2002      Z:    -3.6023

  Electronic Dipole Moment: [e a0]
     X:     1.6723      Y:    -3.8712      Z:     3.1616

  Dipole Moment: [e a0]
     X:     1.1650      Y:     1.3290      Z:    -0.4408     Total:     1.8215

  Dipole Moment: [D]
     X:     2.9612      Y:     3.3780      Z:    -1.1203     Total:     4.6298


*** tstop() called on node38.bme.utexas.edu at Wed Jan  3 11:25:28 2024
Module time:
	user time   =     240.53 seconds =       4.01 minutes
	system time =       7.12 seconds =       0.12 minutes
	total time  =         36 seconds =       0.60 minutes
Total time:
	user time   =     240.53 seconds =       4.01 minutes
	system time =       7.12 seconds =       0.12 minutes
	total time  =         36 seconds =       0.60 minutes

*** tstart() called on node38.bme.utexas.edu
*** at Wed Jan  3 11:25:28 2024


  //>>>>>>>>>>>>>>>>>>>>>>>>>>>>>>>>>>>//
  //               DFMP2               //
  //<<<<<<<<<<<<<<<<<<<<<<<<<<<<<<<<<<<//

   => Loading Basis Set <=

    Name: (AUG-CC-PVTZ AUX)
    Role: RIFIT
    Keyword: DF_BASIS_MP2
    atoms 1, 12-15       entry O          line   264 file /opt/anaconda/envs/psi4v1.5/share/psi4/basis/aug-cc-pvtz-ri.gbs 
    atoms 2-4, 6-7, 9-11 entry H          line    30 file /opt/anaconda/envs/psi4v1.5/share/psi4/basis/aug-cc-pvtz-ri.gbs 
    atoms 5, 8           entry C          line   148 file /opt/anaconda/envs/psi4v1.5/share/psi4/basis/aug-cc-pvtz-ri.gbs 
    atoms 16             entry P          line   590 file /opt/anaconda/envs/psi4v1.5/share/psi4/basis/aug-cc-pvtz-ri.gbs 

	 --------------------------------------------------------
	                          DF-MP2                         
	      2nd-Order Density-Fitted Moller-Plesset Theory     
	              RMP2 Wavefunction,   8 Threads             
	                                                         
	        Rob Parrish, Justin Turney, Andy Simmonett,      
	           Ed Hohenstein, and C. David Sherrill          
	 --------------------------------------------------------

   => Auxiliary Basis Set <=

  Basis Set: (AUG-CC-PVTZ AUX)
    Blend: AUG-CC-PVTZ-RI
    Number of shells: 345
    Number of basis functions: 1257
    Number of Cartesian functions: 1583
    Spherical Harmonics?: true
    Max angular momentum: 4

	 --------------------------------------------------------
	                 NBF =   556, NAUX =  1257
	 --------------------------------------------------------
	   CLASS    FOCC     OCC    AOCC    AVIR     VIR    FVIR
	   PAIRS      12      38      26     518     518       0
	 --------------------------------------------------------

	 Will save fitting metric to file 97.

	-----------------------------------------------------------
	 ==================> DF-MP2 Energies <==================== 
	-----------------------------------------------------------
	 Reference Energy          =    -795.8041600188439588 [Eh]
	 Singles Energy            =      -0.0000000000000000 [Eh]
	 Same-Spin Energy          =      -0.4447045255715497 [Eh]
	 Opposite-Spin Energy      =      -1.3252969854416961 [Eh]
	 Correlation Energy        =      -1.7700015110132457 [Eh]
	 Total Energy              =    -797.5741615298571787 [Eh]
	-----------------------------------------------------------
	 ================> DF-SCS-MP2 Energies <================== 
	-----------------------------------------------------------
	 SCS Same-Spin Scale       =       0.3333333333333333 [-]
	 SCS Opposite-Spin Scale   =       1.2000000000000000 [-]
	 SCS Same-Spin Energy      =      -0.1482348418571832 [Eh]
	 SCS Opposite-Spin Energy  =      -1.5903563825300353 [Eh]
	 SCS Correlation Energy    =      -1.7385912243872186 [Eh]
	 SCS Total Energy          =    -797.5427512432311232 [Eh]
	-----------------------------------------------------------


*** tstop() called on node38.bme.utexas.edu at Wed Jan  3 11:25:43 2024
Module time:
	user time   =      71.38 seconds =       1.19 minutes
	system time =       2.71 seconds =       0.05 minutes
	total time  =         15 seconds =       0.25 minutes
Total time:
	user time   =     311.93 seconds =       5.20 minutes
	system time =       9.84 seconds =       0.16 minutes
	total time  =         51 seconds =       0.85 minutes

  //>>>>>>>>>>>>>>>>>>>>>>>>>>>>>>>>>>>//
  //            Monomer A HF           //
  //<<<<<<<<<<<<<<<<<<<<<<<<<<<<<<<<<<<//


*** tstart() called on node38.bme.utexas.edu
*** at Wed Jan  3 11:25:43 2024

   => Loading Basis Set <=

    Name: AUG-CC-PVTZ
    Role: ORBITAL
    Keyword: BASIS
    atoms 1, 12-15       entry O          line   331 file /opt/anaconda/envs/psi4v1.5/share/psi4/basis/aug-cc-pvtz.gbs 
    atoms 2-4, 6-7, 9-11 entry H          line    40 file /opt/anaconda/envs/psi4v1.5/share/psi4/basis/aug-cc-pvtz.gbs 
    atoms 5, 8           entry C          line   239 file /opt/anaconda/envs/psi4v1.5/share/psi4/basis/aug-cc-pvtz.gbs 
    atoms 16             entry P          line   824 file /opt/anaconda/envs/psi4v1.5/share/psi4/basis/aug-cc-pvtz.gbs 


         ---------------------------------------------------------
                                   SCF
               by Justin Turney, Rob Parrish, Andy Simmonett
                          and Daniel G. A. Smith
                              RHF Reference
                        8 Threads,  47683 MiB Core
         ---------------------------------------------------------

  ==> Geometry <==

    Molecular point group: c1
    Full point group: C1

    Geometry (in Angstrom), charge = 0, multiplicity = 1:

       Center              X                  Y                   Z               Mass       
    ------------   -----------------  -----------------  -----------------  -----------------
         O           -3.854457570446    -1.003661865369    -0.520316570387    15.994914619570
         H           -3.349577570446    -1.282901865369     0.270383429613     1.007825032230
         H           -3.102227570446    -0.919351865369    -1.141136570387     1.007825032230
      Gh(H)           2.789823814169     1.077623211554    -0.499409262695     1.007825032230
      Gh(C)           2.780063814169    -0.015026788446    -0.578289262695    12.000000000000
      Gh(H)          -0.524956185831     2.329243211554    -1.055509262695     1.007825032230
      Gh(H)          -1.651486185831     1.688363211554     0.156150737305     1.007825032230
      Gh(C)          -0.678686185831     2.169953211554     0.016620737305    12.000000000000
      Gh(H)           3.779053814169    -0.402826788446    -0.358159262695     1.007825032230
      Gh(H)           2.486643814169    -0.295666788446    -1.593749262695     1.007825032230
      Gh(H)          -0.669986185831     3.131853211554     0.538130737305     1.007825032230
      Gh(O)          -0.071426185831    -0.309146788446    -1.304989262695    15.994914619570
      Gh(O)          -0.479766185831    -0.994026788446     1.208280737305    15.994914619570
      Gh(O)           1.895083814169    -0.584076788446     0.381480737305    15.994914619570
      Gh(O)           0.382123814169     1.389343211554     0.571330737305    15.994914619570
      Gh(P)           0.292903814169    -0.232766788446     0.164050737305    30.973761998420

  Running in c1 symmetry.

  Rotational constants: A =      0.07780  B =      0.03158  C =      0.02782 [cm^-1]
  Rotational constants: A =   2332.37567  B =    946.73404  C =    833.90514 [MHz]
  Nuclear repulsion =    9.007336220817923

  Charge       = 0
  Multiplicity = 1
  Electrons    = 10
  Nalpha       = 5
  Nbeta        = 5

  ==> Algorithm <==

  SCF Algorithm Type is DF.
  DIIS enabled.
  MOM disabled.
  Fractional occupation disabled.
  Guess Type is SAD.
  Energy threshold   = 1.00e-08
  Density threshold  = 1.00e-08
  Integral threshold = 1.00e-12

  ==> Primary Basis <==

  Basis Set: AUG-CC-PVTZ
    Blend: AUG-CC-PVTZ
    Number of shells: 186
    Number of basis functions: 556
    Number of Cartesian functions: 644
    Spherical Harmonics?: true
    Max angular momentum: 3

   => Loading Basis Set <=

    Name: (AUG-CC-PVTZ AUX)
    Role: JKFIT
    Keyword: DF_BASIS_SCF
    atoms 1, 12-15       entry O          line   286 file /opt/anaconda/envs/psi4v1.5/share/psi4/basis/aug-cc-pvtz-jkfit.gbs 
    atoms 2-4, 6-7, 9-11 entry H          line    70 file /opt/anaconda/envs/psi4v1.5/share/psi4/basis/aug-cc-pvtz-jkfit.gbs 
    atoms 5, 8           entry C          line   162 file /opt/anaconda/envs/psi4v1.5/share/psi4/basis/aug-cc-pvtz-jkfit.gbs 
    atoms 16             entry P          line   644 file /opt/anaconda/envs/psi4v1.5/share/psi4/basis/aug-cc-pvtz-jkfit.gbs 

  ==> Integral Setup <==

  ==> DiskDFJK: Density-Fitted J/K Matrices <==

    J tasked:                  Yes
    K tasked:                  Yes
    wK tasked:                  No
    OpenMP threads:              8
    Integrals threads:           8
    Memory [MiB]:            35762
    Algorithm:                Core
    Integral Cache:           LOAD
    Schwarz Cutoff:          1E-12
    Fitting Condition:       1E-10

   => Auxiliary Basis Set <=

  Basis Set: (AUG-CC-PVTZ AUX)
    Blend: AUG-CC-PVTZ-JKFIT
    Number of shells: 364
    Number of basis functions: 1242
    Number of Cartesian functions: 1537
    Spherical Harmonics?: true
    Max angular momentum: 4

  Minimum eigenvalue in the overlap matrix is 2.2894970234E-05.
  Reciprocal condition number of the overlap matrix is 1.5148682248E-06.
    Using symmetric orthogonalization.

  ==> Pre-Iterations <==

  SCF Guess: Superposition of Atomic Densities via on-the-fly atomic UHF (no occupation information).

   -------------------------
    Irrep   Nso     Nmo    
   -------------------------
     A        556     556 
   -------------------------
    Total     556     556
   -------------------------

  ==> Iterations <==

                           Total Energy        Delta E     RMS |[F,P]|

   @DF-RHF iter SAD:   -75.45981000820015   -7.54598e+01   0.00000e+00 
   @DF-RHF iter   1:   -75.97106464528198   -5.11255e-01   8.40495e-04 DIIS
   @DF-RHF iter   2:   -76.02306626768075   -5.20016e-02   5.89811e-04 DIIS
   @DF-RHF iter   3:   -76.05663153973711   -3.35653e-02   3.99977e-05 DIIS
   @DF-RHF iter   4:   -76.05704107548760   -4.09536e-04   1.00480e-05 DIIS
   @DF-RHF iter   5:   -76.05707024851584   -2.91730e-05   2.37070e-06 DIIS
   @DF-RHF iter   6:   -76.05707276108353   -2.51257e-06   5.08794e-07 DIIS
   @DF-RHF iter   7:   -76.05707288437124   -1.23288e-07   8.31450e-08 DIIS
   @DF-RHF iter   8:   -76.05707288717230   -2.80106e-09   1.39491e-08 DIIS
   @DF-RHF iter   9:   -76.05707288723195   -5.96572e-11   3.20142e-09 DIIS
  Energy and wave function converged.


  ==> Post-Iterations <==

    Orbital Energies [Eh]
    ---------------------

    Doubly Occupied:                                                      

       1A    -20.573738     2A     -1.347248     3A     -0.693609  
       4A     -0.593342     5A     -0.510514  

    Virtual:                                                              

       6A      0.013191     7A      0.031371     8A      0.033285  
       9A      0.035471    10A      0.053949    11A      0.056268  
      12A      0.059644    13A      0.062134    14A      0.064394  
      15A      0.076873    16A      0.086229    17A      0.088995  
      18A      0.103077    19A      0.108440    20A      0.115911  
      21A      0.118757    22A      0.122673    23A      0.131250  
      24A      0.140353    25A      0.147147    26A      0.150420  
      27A      0.160674    28A      0.162737    29A      0.176445  
      30A      0.182039    31A      0.188654    32A      0.194342  
      33A      0.204074    34A      0.210154    35A      0.212595  
      36A      0.221720    37A      0.223164    38A      0.233737  
      39A      0.237000    40A      0.242550    41A      0.246229  
      42A      0.256228    43A      0.258322    44A      0.262996  
      45A      0.272896    46A      0.275978    47A      0.281182  
      48A      0.292759    49A      0.297202    50A      0.299973  
      51A      0.307721    52A      0.314174    53A      0.314540  
      54A      0.330454    55A      0.335857    56A      0.338762  
      57A      0.346021    58A      0.351231    59A      0.355801  
      60A      0.365268    61A      0.374219    62A      0.377572  
      63A      0.381645    64A      0.387807    65A      0.391186  
      66A      0.400382    67A      0.415783    68A      0.419463  
      69A      0.423381    70A      0.433373    71A      0.439124  
      72A      0.450964    73A      0.453047    74A      0.462304  
      75A      0.465865    76A      0.474514    77A      0.479997  
      78A      0.486686    79A      0.492344    80A      0.499134  
      81A      0.501406    82A      0.508305    83A      0.509923  
      84A      0.515088    85A      0.524653    86A      0.529593  
      87A      0.532812    88A      0.537094    89A      0.552122  
      90A      0.560796    91A      0.564290    92A      0.575425  
      93A      0.586714    94A      0.593954    95A      0.605417  
      96A      0.620045    97A      0.630358    98A      0.638630  
      99A      0.655670   100A      0.660620   101A      0.668108  
     102A      0.673299   103A      0.684259   104A      0.695738  
     105A      0.699438   106A      0.711780   107A      0.733844  
     108A      0.743482   109A      0.754821   110A      0.765432  
     111A      0.769476   112A      0.781878   113A      0.787261  
     114A      0.799605   115A      0.804814   116A      0.818530  
     117A      0.825181   118A      0.837324   119A      0.852001  
     120A      0.859473   121A      0.869186   122A      0.876022  
     123A      0.882599   124A      0.891748   125A      0.901728  
     126A      0.911837   127A      0.921356   128A      0.931453  
     129A      0.939929   130A      0.942094   131A      0.949700  
     132A      0.955615   133A      0.961162   134A      0.967736  
     135A      0.971412   136A      0.974289   137A      0.986006  
     138A      0.990849   139A      0.994015   140A      1.001800  
     141A      1.009417   142A      1.017541   143A      1.021589  
     144A      1.032275   145A      1.037280   146A      1.042990  
     147A      1.055479   148A      1.059835   149A      1.062544  
     150A      1.074244   151A      1.081961   152A      1.090118  
     153A      1.101517   154A      1.106393   155A      1.108332  
     156A      1.117624   157A      1.120193   158A      1.124213  
     159A      1.129072   160A      1.135627   161A      1.149932  
     162A      1.158153   163A      1.162683   164A      1.167349  
     165A      1.167499   166A      1.176949   167A      1.177604  
     168A      1.192216   169A      1.199670   170A      1.206696  
     171A      1.213206   172A      1.217533   173A      1.221517  
     174A      1.233050   175A      1.242989   176A      1.259586  
     177A      1.272498   178A      1.273108   179A      1.279053  
     180A      1.288790   181A      1.292419   182A      1.318281  
     183A      1.319865   184A      1.328580   185A      1.331102  
     186A      1.342632   187A      1.348004   188A      1.376112  
     189A      1.385409   190A      1.387218   191A      1.397771  
     192A      1.402298   193A      1.410729   194A      1.425092  
     195A      1.435145   196A      1.438122   197A      1.445372  
     198A      1.471086   199A      1.475324   200A      1.481099  
     201A      1.494460   202A      1.496719   203A      1.525015  
     204A      1.526558   205A      1.541963   206A      1.543424  
     207A      1.552226   208A      1.568731   209A      1.576967  
     210A      1.581188   211A      1.599119   212A      1.612200  
     213A      1.627929   214A      1.633074   215A      1.652170  
     216A      1.672502   217A      1.687329   218A      1.705883  
     219A      1.732127   220A      1.748504   221A      1.772596  
     222A      1.791123   223A      1.800938   224A      1.815048  
     225A      1.833439   226A      1.848821   227A      1.864722  
     228A      1.876067   229A      1.886945   230A      1.893507  
     231A      1.901002   232A      1.911119   233A      1.916698  
     234A      1.922055   235A      1.938455   236A      1.947584  
     237A      1.957431   238A      1.960220   239A      1.982733  
     240A      2.008693   241A      2.013042   242A      2.019962  
     243A      2.052234   244A      2.070289   245A      2.088286  
     246A      2.104028   247A      2.121606   248A      2.140966  
     249A      2.171535   250A      2.191946   251A      2.221740  
     252A      2.244872   253A      2.254548   254A      2.270672  
     255A      2.287678   256A      2.313284   257A      2.331904  
     258A      2.350651   259A      2.357833   260A      2.359384  
     261A      2.379453   262A      2.387811   263A      2.404282  
     264A      2.424107   265A      2.433255   266A      2.447671  
     267A      2.454221   268A      2.460491   269A      2.482611  
     270A      2.494899   271A      2.503347   272A      2.520497  
     273A      2.527878   274A      2.538581   275A      2.547354  
     276A      2.560395   277A      2.578775   278A      2.592353  
     279A      2.595493   280A      2.625369   281A      2.634187  
     282A      2.652719   283A      2.669571   284A      2.671197  
     285A      2.700414   286A      2.712300   287A      2.720760  
     288A      2.725457   289A      2.733759   290A      2.747348  
     291A      2.754096   292A      2.760706   293A      2.784710  
     294A      2.788774   295A      2.797409   296A      2.812283  
     297A      2.819524   298A      2.821684   299A      2.838764  
     300A      2.851878   301A      2.861717   302A      2.871054  
     303A      2.908374   304A      2.916970   305A      2.921942  
     306A      2.932056   307A      2.947709   308A      2.962418  
     309A      2.978818   310A      2.990127   311A      2.996647  
     312A      3.006971   313A      3.028883   314A      3.033697  
     315A      3.061700   316A      3.077106   317A      3.079678  
     318A      3.103354   319A      3.125771   320A      3.146637  
     321A      3.169000   322A      3.181407   323A      3.210183  
     324A      3.227945   325A      3.253425   326A      3.276568  
     327A      3.292189   328A      3.305543   329A      3.314417  
     330A      3.331259   331A      3.361142   332A      3.392763  
     333A      3.401535   334A      3.438827   335A      3.481897  
     336A      3.504260   337A      3.544813   338A      3.557710  
     339A      3.579232   340A      3.609807   341A      3.662718  
     342A      3.686463   343A      3.698628   344A      3.720939  
     345A      3.767974   346A      3.813982   347A      3.830161  
     348A      3.949451   349A      3.966858   350A      3.991196  
     351A      4.008317   352A      4.013359   353A      4.035550  
     354A      4.085468   355A      4.093640   356A      4.131476  
     357A      4.132988   358A      4.146355   359A      4.159377  
     360A      4.185276   361A      4.198269   362A      4.211887  
     363A      4.229446   364A      4.246017   365A      4.262425  
     366A      4.265325   367A      4.276338   368A      4.292198  
     369A      4.300650   370A      4.328680   371A      4.346574  
     372A      4.364382   373A      4.378688   374A      4.392608  
     375A      4.395227   376A      4.399049   377A      4.426670  
     378A      4.468651   379A      4.478761   380A      4.481578  
     381A      4.523333   382A      4.539821   383A      4.550953  
     384A      4.564473   385A      4.580310   386A      4.596776  
     387A      4.602167   388A      4.611556   389A      4.627521  
     390A      4.645505   391A      4.692126   392A      4.708652  
     393A      4.794389   394A      4.800420   395A      4.811792  
     396A      4.821630   397A      4.833997   398A      4.848841  
     399A      4.907698   400A      4.922533   401A      4.937014  
     402A      4.964273   403A      4.983777   404A      5.001723  
     405A      5.008456   406A      5.021031   407A      5.045933  
     408A      5.051730   409A      5.066561   410A      5.102302  
     411A      5.145440   412A      5.183315   413A      5.213470  
     414A      5.260725   415A      5.267624   416A      5.286347  
     417A      5.328683   418A      5.333673   419A      5.351385  
     420A      5.358790   421A      5.368394   422A      5.378868  
     423A      5.401071   424A      5.414113   425A      5.437183  
     426A      5.487041   427A      5.495463   428A      5.506360  
     429A      5.515135   430A      5.527768   431A      5.535096  
     432A      5.560807   433A      5.599834   434A      5.781191  
     435A      5.808528   436A      5.824989   437A      5.834304  
     438A      5.861946   439A      5.886697   440A      6.107407  
     441A      6.212792   442A      6.218020   443A      6.231187  
     444A      6.239203   445A      6.252265   446A      6.270002  
     447A      6.277313   448A      6.505757   449A      6.541295  
     450A      6.549719   451A      6.785634   452A      6.788758  
     453A      6.807220   454A      6.834519   455A      6.855063  
     456A      6.976444   457A      7.114609   458A      7.134656  
     459A      7.160160   460A      7.216382   461A      7.297105  
     462A      7.304276   463A      7.377639   464A      7.422336  
     465A      7.509644   466A      7.553837   467A      7.561675  
     468A      7.652190   469A      7.656268   470A      7.681404  
     471A      7.692203   472A      7.731796   473A      7.755956  
     474A      7.771048   475A      7.783327   476A      7.812049  
     477A      7.819787   478A      7.827073   479A      7.829929  
     480A      7.840602   481A      7.871913   482A      7.880359  
     483A      7.895400   484A      7.913271   485A      7.916663  
     486A      7.937599   487A      7.949209   488A      7.967340  
     489A      7.989803   490A      7.994573   491A      8.008311  
     492A      8.027485   493A      8.070319   494A      8.078815  
     495A      8.095299   496A      8.142195   497A      8.191766  
     498A      8.212993   499A      8.224958   500A      8.252424  
     501A      8.283061   502A      8.443510   503A      8.529266  
     504A      8.536032   505A      8.587837   506A      8.778663  
     507A      9.283950   508A      9.643806   509A      9.807938  
     510A      9.831231   511A      9.865366   512A      9.895916  
     513A      9.920023   514A      9.969054   515A      9.987822  
     516A     10.014457   517A     10.081009   518A     10.141267  
     519A     10.225734   520A     10.240867   521A     10.295782  
     522A     10.338425   523A     10.379693   524A     10.420543  
     525A     10.479789   526A     10.496848   527A     10.672549  
     528A     10.726502   529A     10.846225   530A     10.919500  
     531A     11.555181   532A     11.619218   533A     11.655289  
     534A     11.721971   535A     11.826881   536A     11.884574  
     537A     11.905669   538A     11.972502   539A     12.235599  
     540A     12.517957   541A     12.789038   542A     12.888641  
     543A     13.451819   544A     13.571573   545A     15.438187  
     546A     18.257947   547A     23.078153   548A     23.354890  
     549A     23.383237   550A     52.909731   551A     53.075840  
     552A     59.644139   553A     61.550405   554A     63.825532  
     555A     64.663457   556A    123.916141  

    Final Occupation by Irrep:
              A 
    DOCC [     5 ]

  @DF-RHF Final Energy:   -76.05707288723195

   => Energetics <=

    Nuclear Repulsion Energy =              9.0073362208179226
    One-Electron Energy =                -122.6919151402377963
    Two-Electron Energy =                  37.6275060321879167
    Total Energy =                        -76.0570728872319535

Computation Completed


Properties will be evaluated at   0.000000,   0.000000,   0.000000 [a0]

Properties computed using the SCF density matrix

  Nuclear Dipole Moment: [e a0]
     X:   -70.4631      Y:   -19.3348      Z:    -9.5115

  Electronic Dipole Moment: [e a0]
     X:    71.2740      Y:    19.2092      Z:     9.6211

  Dipole Moment: [e a0]
     X:     0.8109      Y:    -0.1256      Z:     0.1095     Total:     0.8278

  Dipole Moment: [D]
     X:     2.0610      Y:    -0.3193      Z:     0.2784     Total:     2.1041


*** tstop() called on node38.bme.utexas.edu at Wed Jan  3 11:26:01 2024
Module time:
	user time   =     113.27 seconds =       1.89 minutes
	system time =       2.23 seconds =       0.04 minutes
	total time  =         18 seconds =       0.30 minutes
Total time:
	user time   =     425.25 seconds =       7.09 minutes
	system time =      12.08 seconds =       0.20 minutes
	total time  =         69 seconds =       1.15 minutes

*** tstart() called on node38.bme.utexas.edu
*** at Wed Jan  3 11:26:01 2024


  //>>>>>>>>>>>>>>>>>>>>>>>>>>>>>>>>>>>//
  //               DFMP2               //
  //<<<<<<<<<<<<<<<<<<<<<<<<<<<<<<<<<<<//

   => Loading Basis Set <=

    Name: (AUG-CC-PVTZ AUX)
    Role: RIFIT
    Keyword: DF_BASIS_MP2
    atoms 1, 12-15       entry O          line   264 file /opt/anaconda/envs/psi4v1.5/share/psi4/basis/aug-cc-pvtz-ri.gbs 
    atoms 2-4, 6-7, 9-11 entry H          line    30 file /opt/anaconda/envs/psi4v1.5/share/psi4/basis/aug-cc-pvtz-ri.gbs 
    atoms 5, 8           entry C          line   148 file /opt/anaconda/envs/psi4v1.5/share/psi4/basis/aug-cc-pvtz-ri.gbs 
    atoms 16             entry P          line   590 file /opt/anaconda/envs/psi4v1.5/share/psi4/basis/aug-cc-pvtz-ri.gbs 

	 --------------------------------------------------------
	                          DF-MP2                         
	      2nd-Order Density-Fitted Moller-Plesset Theory     
	              RMP2 Wavefunction,   8 Threads             
	                                                         
	        Rob Parrish, Justin Turney, Andy Simmonett,      
	           Ed Hohenstein, and C. David Sherrill          
	 --------------------------------------------------------

   => Auxiliary Basis Set <=

  Basis Set: (AUG-CC-PVTZ AUX)
    Blend: AUG-CC-PVTZ-RI
    Number of shells: 345
    Number of basis functions: 1257
    Number of Cartesian functions: 1583
    Spherical Harmonics?: true
    Max angular momentum: 4

	 --------------------------------------------------------
	                 NBF =   556, NAUX =  1257
	 --------------------------------------------------------
	   CLASS    FOCC     OCC    AOCC    AVIR     VIR    FVIR
	   PAIRS       1       5       4     551     551       0
	 --------------------------------------------------------

	 Will attempt to load fitting metric from file 97.

	-----------------------------------------------------------
	 ==================> DF-MP2 Energies <==================== 
	-----------------------------------------------------------
	 Reference Energy          =     -76.0570728872319535 [Eh]
	 Singles Energy            =      -0.0000000000000000 [Eh]
	 Same-Spin Energy          =      -0.0657494958870320 [Eh]
	 Opposite-Spin Energy      =      -0.2050841233248439 [Eh]
	 Correlation Energy        =      -0.2708336192118759 [Eh]
	 Total Energy              =     -76.3279065064438242 [Eh]
	-----------------------------------------------------------
	 ================> DF-SCS-MP2 Energies <================== 
	-----------------------------------------------------------
	 SCS Same-Spin Scale       =       0.3333333333333333 [-]
	 SCS Opposite-Spin Scale   =       1.2000000000000000 [-]
	 SCS Same-Spin Energy      =      -0.0219164986290107 [Eh]
	 SCS Opposite-Spin Energy  =      -0.2461009479898126 [Eh]
	 SCS Correlation Energy    =      -0.2680174466188233 [Eh]
	 SCS Total Energy          =     -76.3250903338507811 [Eh]
	-----------------------------------------------------------


*** tstop() called on node38.bme.utexas.edu at Wed Jan  3 11:26:12 2024
Module time:
	user time   =      44.58 seconds =       0.74 minutes
	system time =       2.13 seconds =       0.04 minutes
	total time  =         11 seconds =       0.18 minutes
Total time:
	user time   =     469.85 seconds =       7.83 minutes
	system time =      14.21 seconds =       0.24 minutes
	total time  =         80 seconds =       1.33 minutes

  //>>>>>>>>>>>>>>>>>>>>>>>>>>>>>>>>>>>//
  //            Monomer B HF           //
  //<<<<<<<<<<<<<<<<<<<<<<<<<<<<<<<<<<<//


*** tstart() called on node38.bme.utexas.edu
*** at Wed Jan  3 11:26:12 2024

   => Loading Basis Set <=

    Name: AUG-CC-PVTZ
    Role: ORBITAL
    Keyword: BASIS
    atoms 1, 12-15       entry O          line   331 file /opt/anaconda/envs/psi4v1.5/share/psi4/basis/aug-cc-pvtz.gbs 
    atoms 2-4, 6-7, 9-11 entry H          line    40 file /opt/anaconda/envs/psi4v1.5/share/psi4/basis/aug-cc-pvtz.gbs 
    atoms 5, 8           entry C          line   239 file /opt/anaconda/envs/psi4v1.5/share/psi4/basis/aug-cc-pvtz.gbs 
    atoms 16             entry P          line   824 file /opt/anaconda/envs/psi4v1.5/share/psi4/basis/aug-cc-pvtz.gbs 


         ---------------------------------------------------------
                                   SCF
               by Justin Turney, Rob Parrish, Andy Simmonett
                          and Daniel G. A. Smith
                              RHF Reference
                        8 Threads,  47683 MiB Core
         ---------------------------------------------------------

  ==> Geometry <==

    Molecular point group: c1
    Full point group: C1

    Geometry (in Angstrom), charge = -1, multiplicity = 1:

       Center              X                  Y                   Z               Mass       
    ------------   -----------------  -----------------  -----------------  -----------------
      Gh(O)          -3.854457570446    -1.003661865369    -0.520316570387    15.994914619570
      Gh(H)          -3.349577570446    -1.282901865369     0.270383429613     1.007825032230
      Gh(H)          -3.102227570446    -0.919351865369    -1.141136570387     1.007825032230
         H            2.789823814169     1.077623211554    -0.499409262695     1.007825032230
         C            2.780063814169    -0.015026788446    -0.578289262695    12.000000000000
         H           -0.524956185831     2.329243211554    -1.055509262695     1.007825032230
         H           -1.651486185831     1.688363211554     0.156150737305     1.007825032230
         C           -0.678686185831     2.169953211554     0.016620737305    12.000000000000
         H            3.779053814169    -0.402826788446    -0.358159262695     1.007825032230
         H            2.486643814169    -0.295666788446    -1.593749262695     1.007825032230
         H           -0.669986185831     3.131853211554     0.538130737305     1.007825032230
         O           -0.071426185831    -0.309146788446    -1.304989262695    15.994914619570
         O           -0.479766185831    -0.994026788446     1.208280737305    15.994914619570
         O            1.895083814169    -0.584076788446     0.381480737305    15.994914619570
         O            0.382123814169     1.389343211554     0.571330737305    15.994914619570
         P            0.292903814169    -0.232766788446     0.164050737305    30.973761998420

  Running in c1 symmetry.

  Rotational constants: A =      0.07780  B =      0.03158  C =      0.02782 [cm^-1]
  Rotational constants: A =   2332.37567  B =    946.73404  C =    833.90514 [MHz]
  Nuclear repulsion =  436.552843490106056

  Charge       = -1
  Multiplicity = 1
  Electrons    = 66
  Nalpha       = 33
  Nbeta        = 33

  ==> Algorithm <==

  SCF Algorithm Type is DF.
  DIIS enabled.
  MOM disabled.
  Fractional occupation disabled.
  Guess Type is SAD.
  Energy threshold   = 1.00e-08
  Density threshold  = 1.00e-08
  Integral threshold = 1.00e-12

  ==> Primary Basis <==

  Basis Set: AUG-CC-PVTZ
    Blend: AUG-CC-PVTZ
    Number of shells: 186
    Number of basis functions: 556
    Number of Cartesian functions: 644
    Spherical Harmonics?: true
    Max angular momentum: 3

   => Loading Basis Set <=

    Name: (AUG-CC-PVTZ AUX)
    Role: JKFIT
    Keyword: DF_BASIS_SCF
    atoms 1, 12-15       entry O          line   286 file /opt/anaconda/envs/psi4v1.5/share/psi4/basis/aug-cc-pvtz-jkfit.gbs 
    atoms 2-4, 6-7, 9-11 entry H          line    70 file /opt/anaconda/envs/psi4v1.5/share/psi4/basis/aug-cc-pvtz-jkfit.gbs 
    atoms 5, 8           entry C          line   162 file /opt/anaconda/envs/psi4v1.5/share/psi4/basis/aug-cc-pvtz-jkfit.gbs 
    atoms 16             entry P          line   644 file /opt/anaconda/envs/psi4v1.5/share/psi4/basis/aug-cc-pvtz-jkfit.gbs 

  ==> Integral Setup <==

  ==> DiskDFJK: Density-Fitted J/K Matrices <==

    J tasked:                  Yes
    K tasked:                  Yes
    wK tasked:                  No
    OpenMP threads:              8
    Integrals threads:           8
    Memory [MiB]:            35762
    Algorithm:                Core
    Integral Cache:           LOAD
    Schwarz Cutoff:          1E-12
    Fitting Condition:       1E-10

   => Auxiliary Basis Set <=

  Basis Set: (AUG-CC-PVTZ AUX)
    Blend: AUG-CC-PVTZ-JKFIT
    Number of shells: 364
    Number of basis functions: 1242
    Number of Cartesian functions: 1537
    Spherical Harmonics?: true
    Max angular momentum: 4

  Minimum eigenvalue in the overlap matrix is 2.2894970234E-05.
  Reciprocal condition number of the overlap matrix is 1.5148682248E-06.
    Using symmetric orthogonalization.

  ==> Pre-Iterations <==

  SCF Guess: Superposition of Atomic Densities via on-the-fly atomic UHF (no occupation information).

   -------------------------
    Irrep   Nso     Nmo    
   -------------------------
     A        556     556 
   -------------------------
    Total     556     556
   -------------------------

  ==> Iterations <==

                           Total Energy        Delta E     RMS |[F,P]|

   @DF-RHF iter SAD:  -718.38086122101697   -7.18381e+02   0.00000e+00 
   @DF-RHF iter   1:  -719.43951682651357   -1.05866e+00   1.50874e-03 DIIS
   @DF-RHF iter   2:  -719.63109165812523   -1.91575e-01   9.94062e-04 DIIS
   @DF-RHF iter   3:  -719.72825720478841   -9.71655e-02   1.13466e-04 DIIS
   @DF-RHF iter   4:  -719.73056421890578   -2.30701e-03   4.58974e-05 DIIS
   @DF-RHF iter   5:  -719.73089112900220   -3.26910e-04   1.23029e-05 DIIS
   @DF-RHF iter   6:  -719.73091523168193   -2.41027e-05   3.22883e-06 DIIS
   @DF-RHF iter   7:  -719.73091767749361   -2.44581e-06   8.47274e-07 DIIS
   @DF-RHF iter   8:  -719.73091789864816   -2.21155e-07   2.15876e-07 DIIS
   @DF-RHF iter   9:  -719.73091791694253   -1.82944e-08   7.26266e-08 DIIS
   @DF-RHF iter  10:  -719.73091791884417   -1.90164e-09   2.34756e-08 DIIS
   @DF-RHF iter  11:  -719.73091791900799   -1.63823e-10   7.33847e-09 DIIS
  Energy and wave function converged.


  ==> Post-Iterations <==

    Orbital Energies [Eh]
    ---------------------

    Doubly Occupied:                                                      

       1A    -79.880766     2A    -20.404191     3A    -20.401400  
       4A    -20.307804     5A    -20.303232     6A    -11.135050  
       7A    -11.133821     8A     -7.396277     9A     -5.295292  
      10A     -5.294127    11A     -5.292760    12A     -1.233757  
      13A     -1.186081    14A     -1.098717    15A     -1.059008  
      16A     -0.793275    17A     -0.777016    18A     -0.586984  
      19A     -0.524170    20A     -0.494314    21A     -0.484043  
      22A     -0.466643    23A     -0.445051    24A     -0.429643  
      25A     -0.370405    26A     -0.358470    27A     -0.340705  
      28A     -0.310052    29A     -0.304302    30A     -0.283945  
      31A     -0.269442    32A     -0.249329    33A     -0.234253  

    Virtual:                                                              

      34A      0.115946    35A      0.119438    36A      0.129686  
      37A      0.133630    38A      0.141497    39A      0.147556  
      40A      0.154077    41A      0.156735    42A      0.182406  
      43A      0.204590    44A      0.208982    45A      0.214770  
      46A      0.222149    47A      0.228144    48A      0.232484  
      49A      0.242126    50A      0.244189    51A      0.251384  
      52A      0.263304    53A      0.271291    54A      0.279997  
      55A      0.284563    56A      0.294948    57A      0.295719  
      58A      0.300970    59A      0.328734    60A      0.332674  
      61A      0.340999    62A      0.351828    63A      0.357251  
      64A      0.366577    65A      0.374078    66A      0.380578  
      67A      0.385324    68A      0.390627    69A      0.399276  
      70A      0.402648    71A      0.403483    72A      0.417785  
      73A      0.418846    74A      0.432387    75A      0.434869  
      76A      0.440850    77A      0.450829    78A      0.454297  
      79A      0.459065    80A      0.465411    81A      0.468520  
      82A      0.476118    83A      0.486468    84A      0.488844  
      85A      0.496180    86A      0.498986    87A      0.506203  
      88A      0.509077    89A      0.509926    90A      0.515768  
      91A      0.523645    92A      0.531095    93A      0.538653  
      94A      0.543139    95A      0.545801    96A      0.555898  
      97A      0.567943    98A      0.570744    99A      0.571463  
     100A      0.578057   101A      0.587079   102A      0.592644  
     103A      0.597077   104A      0.602529   105A      0.609860  
     106A      0.615103   107A      0.619352   108A      0.627106  
     109A      0.629884   110A      0.635945   111A      0.645358  
     112A      0.649381   113A      0.654252   114A      0.658415  
     115A      0.663752   116A      0.676810   117A      0.683472  
     118A      0.684611   119A      0.695055   120A      0.700074  
     121A      0.716187   122A      0.731301   123A      0.734406  
     124A      0.751201   125A      0.758713   126A      0.773383  
     127A      0.804089   128A      0.812418   129A      0.832133  
     130A      0.851172   131A      0.855687   132A      0.869768  
     133A      0.886631   134A      0.890201   135A      0.903917  
     136A      0.913697   137A      0.916922   138A      0.924773  
     139A      0.934735   140A      0.936964   141A      0.945770  
     142A      0.947941   143A      0.955002   144A      0.961891  
     145A      0.968562   146A      0.974573   147A      0.985288  
     148A      0.988394   149A      1.000018   150A      1.005220  
     151A      1.010347   152A      1.014757   153A      1.024964  
     154A      1.027157   155A      1.038588   156A      1.040635  
     157A      1.055152   158A      1.063727   159A      1.067386  
     160A      1.069584   161A      1.074174   162A      1.083914  
     163A      1.087261   164A      1.099053   165A      1.105537  
     166A      1.108797   167A      1.116592   168A      1.119875  
     169A      1.138063   170A      1.147144   171A      1.156852  
     172A      1.159051   173A      1.169284   174A      1.174526  
     175A      1.178733   176A      1.189557   177A      1.197688  
     178A      1.199227   179A      1.212166   180A      1.213968  
     181A      1.217749   182A      1.222358   183A      1.235592  
     184A      1.236850   185A      1.244508   186A      1.249397  
     187A      1.258378   188A      1.265671   189A      1.277949  
     190A      1.280150   191A      1.285242   192A      1.292661  
     193A      1.295014   194A      1.303789   195A      1.317181  
     196A      1.323675   197A      1.330521   198A      1.336327  
     199A      1.340442   200A      1.349523   201A      1.356779  
     202A      1.361804   203A      1.374042   204A      1.385499  
     205A      1.401591   206A      1.410876   207A      1.415688  
     208A      1.420342   209A      1.432294   210A      1.435001  
     211A      1.450216   212A      1.454984   213A      1.471149  
     214A      1.486378   215A      1.487801   216A      1.502067  
     217A      1.523142   218A      1.529065   219A      1.540461  
     220A      1.568732   221A      1.578387   222A      1.590463  
     223A      1.602348   224A      1.608458   225A      1.625718  
     226A      1.635821   227A      1.656980   228A      1.666806  
     229A      1.676582   230A      1.683926   231A      1.700693  
     232A      1.716858   233A      1.722648   234A      1.736954  
     235A      1.745903   236A      1.754221   237A      1.764040  
     238A      1.774510   239A      1.780146   240A      1.798870  
     241A      1.802559   242A      1.808050   243A      1.818609  
     244A      1.823164   245A      1.844781   246A      1.845996  
     247A      1.854023   248A      1.868558   249A      1.872277  
     250A      1.888628   251A      1.890985   252A      1.901104  
     253A      1.916011   254A      1.931301   255A      1.934756  
     256A      1.942220   257A      1.958396   258A      1.968750  
     259A      1.981675   260A      1.993414   261A      2.004005  
     262A      2.026536   263A      2.036457   264A      2.046593  
     265A      2.054624   266A      2.064368   267A      2.081703  
     268A      2.097707   269A      2.125795   270A      2.150602  
     271A      2.165800   272A      2.170983   273A      2.193902  
     274A      2.205009   275A      2.207617   276A      2.212300  
     277A      2.229967   278A      2.232267   279A      2.252291  
     280A      2.266432   281A      2.268133   282A      2.275345  
     283A      2.305356   284A      2.307799   285A      2.320844  
     286A      2.345024   287A      2.351092   288A      2.360778  
     289A      2.365452   290A      2.384129   291A      2.401348  
     292A      2.411859   293A      2.423789   294A      2.442644  
     295A      2.461663   296A      2.495448   297A      2.527561  
     298A      2.548460   299A      2.556642   300A      2.574411  
     301A      2.594776   302A      2.606088   303A      2.614933  
     304A      2.625069   305A      2.645495   306A      2.657679  
     307A      2.669731   308A      2.692064   309A      2.698386  
     310A      2.702296   311A      2.716513   312A      2.742520  
     313A      2.744027   314A      2.752323   315A      2.771131  
     316A      2.788449   317A      2.799336   318A      2.807524  
     319A      2.835873   320A      2.842282   321A      2.851548  
     322A      2.866017   323A      2.876883   324A      2.889858  
     325A      2.898985   326A      2.909540   327A      2.920703  
     328A      2.928628   329A      2.944530   330A      2.949605  
     331A      2.975467   332A      2.980789   333A      3.008553  
     334A      3.038962   335A      3.045645   336A      3.075815  
     337A      3.086353   338A      3.091200   339A      3.129031  
     340A      3.135195   341A      3.184674   342A      3.202124  
     343A      3.213016   344A      3.240984   345A      3.297473  
     346A      3.316831   347A      3.335416   348A      3.345221  
     349A      3.355705   350A      3.371819   351A      3.389791  
     352A      3.395942   353A      3.419628   354A      3.445113  
     355A      3.463165   356A      3.497800   357A      3.511259  
     358A      3.522799   359A      3.549295   360A      3.560204  
     361A      3.573378   362A      3.605638   363A      3.615654  
     364A      3.625366   365A      3.648178   366A      3.656465  
     367A      3.702092   368A      3.719895   369A      3.731160  
     370A      3.750137   371A      3.780926   372A      3.790292  
     373A      3.800259   374A      3.829010   375A      3.831301  
     376A      3.851722   377A      3.866189   378A      3.877562  
     379A      3.884999   380A      3.904798   381A      3.929528  
     382A      3.937886   383A      3.957934   384A      3.981111  
     385A      4.003285   386A      4.016824   387A      4.051718  
     388A      4.060743   389A      4.071915   390A      4.096261  
     391A      4.146987   392A      4.162241   393A      4.169137  
     394A      4.202238   395A      4.228515   396A      4.250196  
     397A      4.301997   398A      4.308274   399A      4.329645  
     400A      4.334261   401A      4.342031   402A      4.359993  
     403A      4.430345   404A      4.438023   405A      4.458744  
     406A      4.469586   407A      4.472621   408A      4.506011  
     409A      4.562481   410A      4.568281   411A      4.580358  
     412A      4.594823   413A      4.602727   414A      4.629100  
     415A      4.665690   416A      4.695478   417A      4.725166  
     418A      4.744464   419A      4.758388   420A      4.773523  
     421A      4.829811   422A      4.838690   423A      4.881165  
     424A      4.885714   425A      4.907546   426A      4.932111  
     427A      4.949787   428A      4.961152   429A      4.972165  
     430A      5.002529   431A      5.026480   432A      5.043765  
     433A      5.048860   434A      5.071740   435A      5.088776  
     436A      5.115359   437A      5.131522   438A      5.146988  
     439A      5.167215   440A      5.187002   441A      5.201162  
     442A      5.221904   443A      5.280832   444A      5.295465  
     445A      5.309942   446A      5.362909   447A      5.387308  
     448A      5.412003   449A      5.459422   450A      5.480701  
     451A      5.533294   452A      5.552548   453A      5.606602  
     454A      5.655489   455A      5.708690   456A      5.716889  
     457A      5.724576   458A      5.733507   459A      5.747808  
     460A      5.759405   461A      5.779034   462A      5.787208  
     463A      5.795853   464A      5.808679   465A      5.876241  
     466A      5.899971   467A      5.952260   468A      5.999628  
     469A      6.139534   470A      6.146692   471A      6.221719  
     472A      6.241616   473A      6.271501   474A      6.286149  
     475A      6.292972   476A      6.419614   477A      6.497965  
     478A      6.538248   479A      6.685495   480A      6.820360  
     481A      6.829988   482A      6.845911   483A      6.869215  
     484A      6.905672   485A      6.918953   486A      6.995301  
     487A      7.016319   488A      7.032421   489A      7.040980  
     490A      7.065470   491A      7.087248   492A      7.100403  
     493A      7.109979   494A      7.115698   495A      7.143258  
     496A      7.147211   497A      7.170929   498A      7.183216  
     499A      7.198939   500A      7.213791   501A      7.236336  
     502A      7.263933   503A      7.266142   504A      7.279321  
     505A      7.282857   506A      7.328746   507A      7.348902  
     508A      7.354220   509A      7.442937   510A      7.474911  
     511A      7.516569   512A      7.530784   513A      7.544979  
     514A      7.577756   515A      7.585930   516A      7.598005  
     517A      7.666059   518A      7.672471   519A      7.687630  
     520A      7.727408   521A      7.747090   522A      7.853466  
     523A      7.864788   524A      7.922601   525A      7.933961  
     526A      7.959429   527A      7.963409   528A      7.999537  
     529A      8.035893   530A      8.042601   531A      8.157082  
     532A      8.215278   533A      8.240969   534A      8.256411  
     535A      8.299841   536A      8.363975   537A      8.395478  
     538A      8.751395   539A      8.925813   540A      9.775100  
     541A     10.018889   542A     10.127012   543A     10.422282  
     544A     11.069505   545A     11.303059   546A     11.774148  
     547A     12.019529   548A     12.729927   549A     13.627283  
     550A     13.661874   551A     13.959688   552A     14.801211  
     553A     15.166308   554A     17.963295   555A     18.053399  
     556A     64.145856  

    Final Occupation by Irrep:
              A 
    DOCC [    33 ]

  @DF-RHF Final Energy:  -719.73091791900799

   => Energetics <=

    Nuclear Repulsion Energy =            436.5528434901060564
    One-Electron Energy =               -1874.2788637481437490
    Two-Electron Energy =                 717.9951023390298133
    Total Energy =                       -719.7309179190079931

Computation Completed


Properties will be evaluated at   0.000000,   0.000000,   0.000000 [a0]

Properties computed using the SCF density matrix

  Nuclear Dipole Moment: [e a0]
     X:    69.9558      Y:    24.5350      Z:     5.9092

  Electronic Dipole Moment: [e a0]
     X:   -69.8523      Y:   -23.1538      Z:    -6.5011

  Dipole Moment: [e a0]
     X:     0.1035      Y:     1.3812      Z:    -0.5919     Total:     1.5063

  Dipole Moment: [D]
     X:     0.2631      Y:     3.5107      Z:    -1.5045     Total:     3.8285


*** tstop() called on node38.bme.utexas.edu at Wed Jan  3 11:26:38 2024
Module time:
	user time   =     177.81 seconds =       2.96 minutes
	system time =       4.82 seconds =       0.08 minutes
	total time  =         26 seconds =       0.43 minutes
Total time:
	user time   =     647.71 seconds =      10.80 minutes
	system time =      19.04 seconds =       0.32 minutes
	total time  =        106 seconds =       1.77 minutes

*** tstart() called on node38.bme.utexas.edu
*** at Wed Jan  3 11:26:38 2024


  //>>>>>>>>>>>>>>>>>>>>>>>>>>>>>>>>>>>//
  //               DFMP2               //
  //<<<<<<<<<<<<<<<<<<<<<<<<<<<<<<<<<<<//

   => Loading Basis Set <=

    Name: (AUG-CC-PVTZ AUX)
    Role: RIFIT
    Keyword: DF_BASIS_MP2
    atoms 1, 12-15       entry O          line   264 file /opt/anaconda/envs/psi4v1.5/share/psi4/basis/aug-cc-pvtz-ri.gbs 
    atoms 2-4, 6-7, 9-11 entry H          line    30 file /opt/anaconda/envs/psi4v1.5/share/psi4/basis/aug-cc-pvtz-ri.gbs 
    atoms 5, 8           entry C          line   148 file /opt/anaconda/envs/psi4v1.5/share/psi4/basis/aug-cc-pvtz-ri.gbs 
    atoms 16             entry P          line   590 file /opt/anaconda/envs/psi4v1.5/share/psi4/basis/aug-cc-pvtz-ri.gbs 

	 --------------------------------------------------------
	                          DF-MP2                         
	      2nd-Order Density-Fitted Moller-Plesset Theory     
	              RMP2 Wavefunction,   8 Threads             
	                                                         
	        Rob Parrish, Justin Turney, Andy Simmonett,      
	           Ed Hohenstein, and C. David Sherrill          
	 --------------------------------------------------------

   => Auxiliary Basis Set <=

  Basis Set: (AUG-CC-PVTZ AUX)
    Blend: AUG-CC-PVTZ-RI
    Number of shells: 345
    Number of basis functions: 1257
    Number of Cartesian functions: 1583
    Spherical Harmonics?: true
    Max angular momentum: 4

	 --------------------------------------------------------
	                 NBF =   556, NAUX =  1257
	 --------------------------------------------------------
	   CLASS    FOCC     OCC    AOCC    AVIR     VIR    FVIR
	   PAIRS      11      33      22     523     523       0
	 --------------------------------------------------------

	 Will attempt to load fitting metric from file 97.

	-----------------------------------------------------------
	 ==================> DF-MP2 Energies <==================== 
	-----------------------------------------------------------
	 Reference Energy          =    -719.7309179190079931 [Eh]
	 Singles Energy            =      -0.0000000000000000 [Eh]
	 Same-Spin Energy          =      -0.3784694530011110 [Eh]
	 Opposite-Spin Energy      =      -1.1203865833570961 [Eh]
	 Correlation Energy        =      -1.4988560363582071 [Eh]
	 Total Energy              =    -721.2297739553662268 [Eh]
	-----------------------------------------------------------
	 ================> DF-SCS-MP2 Energies <================== 
	-----------------------------------------------------------
	 SCS Same-Spin Scale       =       0.3333333333333333 [-]
	 SCS Opposite-Spin Scale   =       1.2000000000000000 [-]
	 SCS Same-Spin Energy      =      -0.1261564843337037 [Eh]
	 SCS Opposite-Spin Energy  =      -1.3444639000285152 [Eh]
	 SCS Correlation Energy    =      -1.4706203843622190 [Eh]
	 SCS Total Energy          =    -721.2015383033701710 [Eh]
	-----------------------------------------------------------


*** tstop() called on node38.bme.utexas.edu at Wed Jan  3 11:26:52 2024
Module time:
	user time   =      57.50 seconds =       0.96 minutes
	system time =       2.74 seconds =       0.05 minutes
	total time  =         14 seconds =       0.23 minutes
Total time:
	user time   =     705.23 seconds =      11.75 minutes
	system time =      21.78 seconds =       0.36 minutes
	total time  =        120 seconds =       2.00 minutes
  Constructing Basis Sets for SAPT...

   => Loading Basis Set <=

    Name: (AUG-CC-PVTZ AUX)
    Role: RIFIT
    Keyword: DF_BASIS_SAPT
    atoms 1, 12-15       entry O          line   264 file /opt/anaconda/envs/psi4v1.5/share/psi4/basis/aug-cc-pvtz-ri.gbs 
    atoms 2-4, 6-7, 9-11 entry H          line    30 file /opt/anaconda/envs/psi4v1.5/share/psi4/basis/aug-cc-pvtz-ri.gbs 
    atoms 5, 8           entry C          line   148 file /opt/anaconda/envs/psi4v1.5/share/psi4/basis/aug-cc-pvtz-ri.gbs 
    atoms 16             entry P          line   590 file /opt/anaconda/envs/psi4v1.5/share/psi4/basis/aug-cc-pvtz-ri.gbs 


  //>>>>>>>>>>>>>>>>>>>>>>>>>>>>>>>>>>>//
  //           SAPT2+(3)DMP2           //
  //<<<<<<<<<<<<<<<<<<<<<<<<<<<<<<<<<<<//


*** tstart() called on node38.bme.utexas.edu
*** at Wed Jan  3 11:26:52 2024

      SAPT2+(3)  
    Ed Hohenstein
     6 June 2009

      Orbital Information
  --------------------------
    NSO        =       556
    NMO        =       556
    NRI        =      1257
    NOCC A     =         5
    NOCC B     =        33
    FOCC A     =         1
    FOCC B     =        11
    NVIR A     =       551
    NVIR B     =       523

    Estimated memory usage: 10987.9 MB

    Natural Orbital Cutoff:   1.000E-06
    Disp(T3) Truncation:            Yes
    CCD (vv|vv) Truncation:         Yes
    MBPT T2 Truncation:             Yes

    Monomer A: 473 virtual orbitals dropped
    Monomer B: 123 virtual orbitals dropped

    Elst10,r            =    -0.015364394069 [Eh]
    Exch10 (S^2)        =     0.000956392420 [Eh]
    Exch10              =     0.000956736900 [Eh]
    Ind20,r (A<-B)      =    -0.001355728517 [Eh]
    Ind20,r (B<-A)      =    -0.000523319138 [Eh]
    Ind20,r             =    -0.001879047655 [Eh]
    Exch-Ind20,r (A<-B) =     0.000040756287 [Eh]
    Exch-Ind20,r (B<-A) =     0.000207129302 [Eh]
    Exch-Ind20,r        =     0.000247885589 [Eh]
    Disp20              =    -0.001848558182 [Eh]
    Disp20 (NO)         =    -0.001662460463 [Eh]
    Exch-Disp20         =     0.000132703292 [Eh]
    Elst12,r            =     0.001121621055 [Eh]
    Exch11              =     0.000034888879 [Eh]
    Exch12              =     0.000356995475 [Eh]
    Ind22               =    -0.000277855591 [Eh]
    Disp21              =     0.000093313129 [Eh]
    Disp22 (SDQ)        =    -0.000119280137 [Eh]

    (i =   1 of  22)          8 seconds
    (i =   2 of  22)         12 seconds
    (i =   3 of  22)         17 seconds
    (i =   4 of  22)         21 seconds
    (i =   5 of  22)         25 seconds
    (i =   6 of  22)         30 seconds
    (i =   7 of  22)         34 seconds
    (i =   8 of  22)         40 seconds
    (i =   9 of  22)         46 seconds
    (i =  10 of  22)         52 seconds
    (i =  11 of  22)         58 seconds
    (i =  12 of  22)         64 seconds
    (i =  13 of  22)         70 seconds
    (i =  14 of  22)         75 seconds
    (i =  15 of  22)         80 seconds
    (i =  16 of  22)         85 seconds
    (i =  17 of  22)         90 seconds
    (i =  18 of  22)         95 seconds
    (i =  19 of  22)        100 seconds
    (i =  20 of  22)        105 seconds
    (i =  21 of  22)        111 seconds
    (i =  22 of  22)        117 seconds

    Disp220 (T)         =    -0.000176283549 [Eh]

    (i =   1 of   4)        271 seconds
    (i =   2 of   4)        539 seconds
    (i =   3 of   4)        816 seconds
    (i =   4 of   4)       1093 seconds

    Disp202 (T)         =    -0.000200663623 [Eh]

    Disp22 (T)          =    -0.000376947172 [Eh]

    Est. Disp220 (T)    =    -0.000196016930 [Eh]
    Est. Disp202 (T)    =    -0.000223126138 [Eh]

    Est. Disp22 (T)     =    -0.000419143068 [Eh]
    Elst13,r            =    -0.000180546851 [Eh]
    Disp30              =     0.000044352818 [Eh]

    SAPT Results 
  --------------------------------------------------------------------------------------------------------
    Electrostatics                -14.42331987 [mEh]      -9.05076986 [kcal/mol]     -37.86842109 [kJ/mol]
      Elst10,r                    -15.36439407 [mEh]      -9.64130284 [kcal/mol]     -40.33921107 [kJ/mol]
      Elst12,r                      1.12162106 [mEh]       0.70382784 [kcal/mol]       2.94481568 [kJ/mol]
      Elst13,r                     -0.18054685 [mEh]      -0.11329486 [kcal/mol]      -0.47402569 [kJ/mol]

    Exchange                        1.34862125 [mEh]       0.84627261 [kcal/mol]       3.54080461 [kJ/mol]
      Exch10                        0.95673690 [mEh]       0.60036147 [kcal/mol]       2.51191238 [kJ/mol]
      Exch10(S^2)                   0.95639242 [mEh]       0.60014530 [kcal/mol]       2.51100795 [kJ/mol]
      Exch11(S^2)                   0.03488888 [mEh]       0.02189310 [kcal/mol]       0.09160074 [kJ/mol]
      Exch12(S^2)                   0.35699547 [mEh]       0.22401804 [kcal/mol]       0.93729149 [kJ/mol]

    Induction                      -1.87106145 [mEh]      -1.17410879 [kcal/mol]      -4.91247117 [kJ/mol]
      Ind20,r                      -1.87904766 [mEh]      -1.17912021 [kcal/mol]      -4.93343894 [kJ/mol]
      Ind22                        -0.27785559 [mEh]      -0.17435702 [kcal/mol]      -0.72950975 [kJ/mol]
      Exch-Ind20,r                  0.24788559 [mEh]       0.15555056 [kcal/mol]       0.65082352 [kJ/mol]
      Exch-Ind22                    0.03665495 [mEh]       0.02300133 [kcal/mol]       0.09623756 [kJ/mol]
      delta HF,r (2)               -0.13039342 [mEh]      -0.08182311 [kcal/mol]      -0.34234789 [kJ/mol]
      delta MP2,r (2)               0.13169468 [mEh]       0.08263966 [kcal/mol]       0.34576433 [kJ/mol]

    Dispersion                     -2.11661215 [mEh]      -1.32819417 [kcal/mol]      -5.55716442 [kJ/mol]
      Disp20                       -1.84855818 [mEh]      -1.15998777 [kcal/mol]      -4.85338884 [kJ/mol]
      Disp30                        0.04435282 [mEh]       0.02783181 [kcal/mol]       0.11644831 [kJ/mol]
      Disp21                        0.09331313 [mEh]       0.05855487 [kcal/mol]       0.24499359 [kJ/mol]
      Disp22 (SDQ)                 -0.11928014 [mEh]      -0.07484942 [kcal/mol]      -0.31316996 [kJ/mol]
      Disp22 (T)                   -0.37694717 [mEh]      -0.23653792 [kcal/mol]      -0.98967466 [kJ/mol]
      Est. Disp22 (T)              -0.41914307 [mEh]      -0.26301625 [kcal/mol]      -1.10045997 [kJ/mol]
      Exch-Disp20                   0.13270329 [mEh]       0.08327257 [kcal/mol]       0.34841245 [kJ/mol]

  Total HF                        -16.16921266 [mEh]     -10.14633413 [kcal/mol]     -42.45226199 [kJ/mol]
  Total SAPT0                     -17.88506755 [mEh]     -11.22304933 [kcal/mol]     -46.95723838 [kJ/mol]
  Total SAPT2                     -16.61276278 [mEh]     -10.42466603 [kcal/mol]     -43.61680268 [kJ/mol]
  Total SAPT2+                    -17.05787286 [mEh]     -10.70397682 [kcal/mol]     -44.78543902 [kJ/mol]
  Total SAPT2+(3)                 -17.19406689 [mEh]     -10.78943987 [kcal/mol]     -45.14301640 [kJ/mol]
  Total SAPT2+dMP2                -16.92617818 [mEh]     -10.62133716 [kcal/mol]     -44.43967469 [kJ/mol]
  Total SAPT2+(3)dMP2             -17.06237221 [mEh]     -10.70680021 [kcal/mol]     -44.79725207 [kJ/mol]

  Special recipe for scaled SAPT0 (see Manual):
    Electrostatics sSAPT0         -15.36439407 [mEh]      -9.64130284 [kcal/mol]     -40.33921107 [kJ/mol]
    Exchange sSAPT0                 0.95673690 [mEh]       0.60036147 [kcal/mol]       2.51191238 [kJ/mol]
    Induction sSAPT0               -1.76128754 [mEh]      -1.10522462 [kcal/mol]      -4.62425980 [kJ/mol]
    Dispersion sSAPT0              -1.71571144 [mEh]      -1.07662519 [kcal/mol]      -4.50459978 [kJ/mol]
  Total sSAPT0                    -17.88465615 [mEh]     -11.22279117 [kcal/mol]     -46.95615826 [kJ/mol]
  --------------------------------------------------------------------------------------------------------

*** tstop() called on node38.bme.utexas.edu at Wed Jan  3 12:27:36 2024
Module time:
	user time   =   25096.81 seconds =     418.28 minutes
	system time =     363.81 seconds =       6.06 minutes
	total time  =       3647 seconds =      60.78 minutes
Total time:
	user time   =   25802.60 seconds =     430.04 minutes
	system time =     383.34 seconds =       6.39 minutes
	total time  =       3764 seconds =      62.73 minutes

    Psi4 stopped on: Wednesday, 03 January 2024 12:27PM
    Psi4 wall time for execution: 1:02:44.67

*** Psi4 exiting successfully. Buy a developer a beer!
