
    -----------------------------------------------------------------------
          Psi4: An Open-Source Ab Initio Electronic Structure Package
                               Psi4 1.5 release

                         Git: Rev {HEAD} e9f4d6d 


    D. G. A. Smith, L. A. Burns, A. C. Simmonett, R. M. Parrish,
    M. C. Schieber, R. Galvelis, P. Kraus, H. Kruse, R. Di Remigio,
    A. Alenaizan, A. M. James, S. Lehtola, J. P. Misiewicz, M. Scheurer,
    R. A. Shaw, J. B. Schriber, Y. Xie, Z. L. Glick, D. A. Sirianni,
    J. S. O'Brien, J. M. Waldrop, A. Kumar, E. G. Hohenstein,
    B. P. Pritchard, B. R. Brooks, H. F. Schaefer III, A. Yu. Sokolov,
    K. Patkowski, A. E. DePrince III, U. Bozkaya, R. A. King,
    F. A. Evangelista, J. M. Turney, T. D. Crawford, C. D. Sherrill,
    J. Chem. Phys. 152(18) 184108 (2020). https://doi.org/10.1063/5.0006002

                            Additional Code Authors
    E. T. Seidl, C. L. Janssen, E. F. Valeev, M. L. Leininger,
    J. F. Gonthier, R. M. Richard, H. R. McAlexander, M. Saitow, X. Wang,
    P. Verma, M. H. Lechner, and A. Jiang

             Previous Authors, Complete List of Code Contributors,
                       and Citations for Specific Modules
    https://github.com/psi4/psi4/blob/master/codemeta.json
    https://github.com/psi4/psi4/graphs/contributors
    http://psicode.org/psi4manual/master/introduction.html#citing-psifour

    -----------------------------------------------------------------------


    Psi4 started on: Sunday, 12 May 2024 10:47PM

    Process ID: 2054783
    Host:       node111.bme.utexas.edu
    PSIDATADIR: /opt/anaconda/envs/psi4v1.5/share/psi4
    Memory:     500.0 MiB
    Threads:    8
    
  ==> Input File <==

--------------------------------------------------------------------------

memory 50 GB

molecule  {
  0 1

  O 3.1527805000000004 0.7457922435897436 0.675971576923077
  H 2.2404605 0.8952222435897436 1.018631576923077
  H 2.9413905 0.4415722435897436 -0.22162842307692307
  --
  -1 1

  H          0.12697       -2.37209        0.27759
  C          1.03438       -1.87117       -0.07224
  H         -2.11830       -0.01234        1.83919
  H         -2.99327        0.84300        0.54501
  C         -2.57702       -0.12460        0.85235
  H          1.62886       -2.57131       -0.66684
  H          1.62028       -1.52679        0.78232
  H         -3.38930       -0.85652        0.89919
  O          0.19929        0.72659        1.11008
  O         -0.52781        1.41203       -1.34680
  O          0.70747       -0.77961       -0.93546
  O         -1.63417       -0.60635       -0.09761
  P         -0.29052        0.38309       -0.28507

units angstrom
no_reorient
symmetry c1}

set {
scf_type DF
basis jun-cc-pvdz
freeze_core True
guess SAD
}
energy('sapt2+(3)dmp2')
--------------------------------------------------------------------------

  Memory set to  46.566 GiB by Python driver.

Scratch directory: /tmp/
   => Loading Basis Set <=

    Name: JUN-CC-PVDZ
    Role: ORBITAL
    Keyword: BASIS
    atoms 1, 12-15       entry O          line   232 file /opt/anaconda/envs/psi4v1.5/share/psi4/basis/jun-cc-pvdz.gbs 
    atoms 2-4, 6-7, 9-11 entry H          line    36 file /opt/anaconda/envs/psi4v1.5/share/psi4/basis/jun-cc-pvdz.gbs 
    atoms 5, 8           entry C          line   164 file /opt/anaconda/envs/psi4v1.5/share/psi4/basis/jun-cc-pvdz.gbs 
    atoms 16             entry P          line   600 file /opt/anaconda/envs/psi4v1.5/share/psi4/basis/jun-cc-pvdz.gbs 

   => Loading Basis Set <=

    Name: JUN-CC-PVDZ
    Role: ORBITAL
    Keyword: BASIS
    atoms 1, 12-15       entry O          line   232 file /opt/anaconda/envs/psi4v1.5/share/psi4/basis/jun-cc-pvdz.gbs 
    atoms 2-4, 6-7, 9-11 entry H          line    36 file /opt/anaconda/envs/psi4v1.5/share/psi4/basis/jun-cc-pvdz.gbs 
    atoms 5, 8           entry C          line   164 file /opt/anaconda/envs/psi4v1.5/share/psi4/basis/jun-cc-pvdz.gbs 
    atoms 16             entry P          line   600 file /opt/anaconda/envs/psi4v1.5/share/psi4/basis/jun-cc-pvdz.gbs 


  //>>>>>>>>>>>>>>>>>>>>>>>>>>>>>>>>>>>//
  //              Dimer HF             //
  //<<<<<<<<<<<<<<<<<<<<<<<<<<<<<<<<<<<//


*** tstart() called on node111.bme.utexas.edu
*** at Sun May 12 22:47:28 2024

   => Loading Basis Set <=

    Name: JUN-CC-PVDZ
    Role: ORBITAL
    Keyword: BASIS
    atoms 1, 12-15       entry O          line   232 file /opt/anaconda/envs/psi4v1.5/share/psi4/basis/jun-cc-pvdz.gbs 
    atoms 2-4, 6-7, 9-11 entry H          line    36 file /opt/anaconda/envs/psi4v1.5/share/psi4/basis/jun-cc-pvdz.gbs 
    atoms 5, 8           entry C          line   164 file /opt/anaconda/envs/psi4v1.5/share/psi4/basis/jun-cc-pvdz.gbs 
    atoms 16             entry P          line   600 file /opt/anaconda/envs/psi4v1.5/share/psi4/basis/jun-cc-pvdz.gbs 


         ---------------------------------------------------------
                                   SCF
               by Justin Turney, Rob Parrish, Andy Simmonett
                          and Daniel G. A. Smith
                              RHF Reference
                        8 Threads,  47683 MiB Core
         ---------------------------------------------------------

  ==> Geometry <==

    Molecular point group: c1
    Full point group: C1

    Geometry (in Angstrom), charge = -1, multiplicity = 1:

       Center              X                  Y                   Z               Mass       
    ------------   -----------------  -----------------  -----------------  -----------------
         O            3.132511570362     0.699051151297     0.707143858618    15.994914619570
         H            2.220191570362     0.848481151297     1.049803858618     1.007825032230
         H            2.921121570362     0.394831151297    -0.190456141382     1.007825032230
         H            0.106701070362    -2.418831092292     0.308762281695     1.007825032230
         C            1.014111070362    -1.917911092292    -0.041067718305    12.000000000000
         H           -2.138568929638    -0.059081092292     1.870362281695     1.007825032230
         H           -3.013538929638     0.796258907708     0.576182281695     1.007825032230
         C           -2.597288929638    -0.171341092292     0.883522281695    12.000000000000
         H            1.608591070362    -2.618051092292    -0.635667718305     1.007825032230
         H            1.600011070362    -1.573531092292     0.813492281695     1.007825032230
         H           -3.409568929638    -0.903261092292     0.930362281695     1.007825032230
         O            0.179021070362     0.679848907708     1.141252281695    15.994914619570
         O           -0.548078929638     1.365288907708    -1.315627718305    15.994914619570
         O            0.687201070362    -0.826351092292    -0.904287718305    15.994914619570
         O           -1.654438929638    -0.653091092292    -0.066437718305    15.994914619570
         P           -0.310788929638     0.336348907708    -0.253897718305    30.973761998420

  Running in c1 symmetry.

  Rotational constants: A =      0.07811  B =      0.03809  C =      0.03491 [cm^-1]
  Rotational constants: A =   2341.61273  B =   1141.91068  C =   1046.56601 [MHz]
  Nuclear repulsion =  537.185131360378477

  Charge       = -1
  Multiplicity = 1
  Electrons    = 76
  Nalpha       = 38
  Nbeta        = 38

  ==> Algorithm <==

  SCF Algorithm Type is DF.
  DIIS enabled.
  MOM disabled.
  Fractional occupation disabled.
  Guess Type is SAD.
  Energy threshold   = 1.00e-08
  Density threshold  = 1.00e-08
  Integral threshold = 1.00e-12

  ==> Primary Basis <==

  Basis Set: JUN-CC-PVDZ
    Blend: JUN-CC-PVDZ
    Number of shells: 90
    Number of basis functions: 188
    Number of Cartesian functions: 196
    Spherical Harmonics?: true
    Max angular momentum: 2

   => Loading Basis Set <=

    Name: (JUN-CC-PVDZ AUX)
    Role: JKFIT
    Keyword: DF_BASIS_SCF
    atoms 1, 12-15       entry O          line   258 file /opt/anaconda/envs/psi4v1.5/share/psi4/basis/jun-cc-pvdz-jkfit.gbs 
    atoms 2-4, 6-7, 9-11 entry H          line    70 file /opt/anaconda/envs/psi4v1.5/share/psi4/basis/jun-cc-pvdz-jkfit.gbs 
    atoms 5, 8           entry C          line   146 file /opt/anaconda/envs/psi4v1.5/share/psi4/basis/jun-cc-pvdz-jkfit.gbs 
    atoms 16             entry P          line   586 file /opt/anaconda/envs/psi4v1.5/share/psi4/basis/jun-cc-pvdz-jkfit.gbs 

  ==> Integral Setup <==

  ==> DiskDFJK: Density-Fitted J/K Matrices <==

    J tasked:                  Yes
    K tasked:                  Yes
    wK tasked:                  No
    OpenMP threads:              8
    Integrals threads:           8
    Memory [MiB]:            35762
    Algorithm:                Core
    Integral Cache:           SAVE
    Schwarz Cutoff:          1E-12
    Fitting Condition:       1E-10

   => Auxiliary Basis Set <=

  Basis Set: (JUN-CC-PVDZ AUX)
    Blend: JUN-CC-PVDZ-JKFIT
    Number of shells: 300
    Number of basis functions: 858
    Number of Cartesian functions: 977
    Spherical Harmonics?: true
    Max angular momentum: 3

  Minimum eigenvalue in the overlap matrix is 3.9024032381E-04.
  Reciprocal condition number of the overlap matrix is 3.9244417500E-05.
    Using symmetric orthogonalization.

  ==> Pre-Iterations <==

  SCF Guess: Superposition of Atomic Densities via on-the-fly atomic UHF (no occupation information).

   -------------------------
    Irrep   Nso     Nmo    
   -------------------------
     A        188     188 
   -------------------------
    Total     188     188
   -------------------------

  ==> Iterations <==

                           Total Energy        Delta E     RMS |[F,P]|

   @DF-RHF iter SAD:  -793.92963891295574   -7.93930e+02   0.00000e+00 
   @DF-RHF iter   1:  -795.26475241692526   -1.33511e+00   4.79254e-03 DIIS
   @DF-RHF iter   2:  -795.49352481336973   -2.28772e-01   3.04799e-03 DIIS
   @DF-RHF iter   3:  -795.61087068827987   -1.17346e-01   3.27796e-04 DIIS
   @DF-RHF iter   4:  -795.61318238688762   -2.31170e-03   1.44362e-04 DIIS
   @DF-RHF iter   5:  -795.61353643424661   -3.54047e-04   3.33964e-05 DIIS
   @DF-RHF iter   6:  -795.61355965129235   -2.32170e-05   8.42764e-06 DIIS
   @DF-RHF iter   7:  -795.61356186945875   -2.21817e-06   2.47779e-06 DIIS
   @DF-RHF iter   8:  -795.61356211165378   -2.42195e-07   8.24406e-07 DIIS
   @DF-RHF iter   9:  -795.61356213421800   -2.25642e-08   3.96158e-07 DIIS
   @DF-RHF iter  10:  -795.61356213826639   -4.04839e-09   8.68203e-08 DIIS
   @DF-RHF iter  11:  -795.61356213854526   -2.78874e-10   2.61878e-08 DIIS
   @DF-RHF iter  12:  -795.61356213857198   -2.67164e-11   9.87432e-09 DIIS
  Energy and wave function converged.


  ==> Post-Iterations <==

    Orbital Energies [Eh]
    ---------------------

    Doubly Occupied:                                                      

       1A    -79.933437     2A    -20.425665     3A    -20.423686  
       4A    -20.416438     5A    -20.345492     6A    -20.335884  
       7A    -11.154755     8A    -11.150639     9A     -7.451236  
      10A     -5.349223    11A     -5.348761    12A     -5.348573  
      13A     -1.257659    14A     -1.205531    15A     -1.187676  
      16A     -1.132274    17A     -1.094640    18A     -0.807922  
      19A     -0.791087    20A     -0.607933    21A     -0.543441  
      22A     -0.536569    23A     -0.510502    24A     -0.499977  
      25A     -0.480135    26A     -0.458938    27A     -0.454273  
      28A     -0.433114    29A     -0.393893    30A     -0.374788  
      31A     -0.359378    32A     -0.348338    33A     -0.322199  
      34A     -0.320161    35A     -0.305084    36A     -0.289193  
      37A     -0.273490    38A     -0.257142  

    Virtual:                                                              

      39A      0.160464    40A      0.164288    41A      0.199283  
      42A      0.200595    43A      0.214217    44A      0.216125  
      45A      0.222095    46A      0.234547    47A      0.250337  
      48A      0.254212    49A      0.295888    50A      0.312902  
      51A      0.327697    52A      0.341067    53A      0.369415  
      54A      0.384374    55A      0.387049    56A      0.398549  
      57A      0.412836    58A      0.417940    59A      0.421325  
      60A      0.432347    61A      0.446583    62A      0.457591  
      63A      0.461647    64A      0.466954    65A      0.471998  
      66A      0.481002    67A      0.493006    68A      0.498109  
      69A      0.507523    70A      0.517333    71A      0.520254  
      72A      0.532056    73A      0.541798    74A      0.553805  
      75A      0.566562    76A      0.575002    77A      0.579449  
      78A      0.598337    79A      0.605706    80A      0.625173  
      81A      0.650513    82A      0.683003    83A      0.702863  
      84A      0.710728    85A      0.868406    86A      0.895108  
      87A      0.908839    88A      0.931987    89A      0.948667  
      90A      0.967430    91A      1.011479    92A      1.030331  
      93A      1.040309    94A      1.050780    95A      1.058863  
      96A      1.062826    97A      1.085699    98A      1.095379  
      99A      1.099378   100A      1.109412   101A      1.195076  
     102A      1.208639   103A      1.244841   104A      1.271373  
     105A      1.284911   106A      1.330147   107A      1.367496  
     108A      1.387693   109A      1.421264   110A      1.434306  
     111A      1.470886   112A      1.497178   113A      1.554684  
     114A      1.565087   115A      1.607622   116A      1.619840  
     117A      1.633849   118A      1.666402   119A      1.688144  
     120A      1.697446   121A      1.710135   122A      1.733468  
     123A      1.754191   124A      1.765817   125A      1.795877  
     126A      1.809396   127A      1.822752   128A      1.827537  
     129A      1.849219   130A      1.877905   131A      1.894357  
     132A      1.925251   133A      1.980760   134A      2.008695  
     135A      2.037341   136A      2.059315   137A      2.080546  
     138A      2.120680   139A      2.130717   140A      2.143773  
     141A      2.162499   142A      2.173829   143A      2.182850  
     144A      2.199751   145A      2.283155   146A      2.328278  
     147A      2.348424   148A      2.457944   149A      2.504529  
     150A      2.510546   151A      2.523394   152A      2.530957  
     153A      2.602494   154A      2.626998   155A      2.643494  
     156A      2.706146   157A      2.806131   158A      2.888325  
     159A      2.905591   160A      2.911959   161A      2.955574  
     162A      2.962841   163A      2.981695   164A      3.148245  
     165A      3.170678   166A      3.184860   167A      3.193154  
     168A      3.219741   169A      3.246199   170A      3.283090  
     171A      3.343609   172A      3.394074   173A      3.434940  
     174A      3.446548   175A      3.453667   176A      3.484985  
     177A      3.503796   178A      3.556402   179A      3.569394  
     180A      3.625468   181A      3.677670   182A      3.713210  
     183A      3.764169   184A      3.796450   185A      3.950996  
     186A      4.008944   187A      4.056042   188A      4.359353  

    Final Occupation by Irrep:
              A 
    DOCC [    38 ]

  @DF-RHF Final Energy:  -795.61356213857198

   => Energetics <=

    Nuclear Repulsion Energy =            537.1851313603784774
    One-Electron Energy =               -2179.7391264260859316
    Two-Electron Energy =                 846.9404329271355891
    Total Energy =                       -795.6135621385719787

Computation Completed


Properties will be evaluated at   0.000000,   0.000000,   0.000000 [a0]

Properties computed using the SCF density matrix

  Nuclear Dipole Moment: [e a0]
     X:     0.1961      Y:    -5.4906      Z:     4.6590

  Electronic Dipole Moment: [e a0]
     X:    -1.1461      Y:     3.6716      Z:    -4.0815

  Dipole Moment: [e a0]
     X:    -0.9501      Y:    -1.8190      Z:     0.5776     Total:     2.1319

  Dipole Moment: [D]
     X:    -2.4148      Y:    -4.6235      Z:     1.4680     Total:     5.4188


*** tstop() called on node111.bme.utexas.edu at Sun May 12 22:47:30 2024
Module time:
	user time   =      11.28 seconds =       0.19 minutes
	system time =       0.30 seconds =       0.01 minutes
	total time  =          2 seconds =       0.03 minutes
Total time:
	user time   =      11.28 seconds =       0.19 minutes
	system time =       0.30 seconds =       0.01 minutes
	total time  =          2 seconds =       0.03 minutes

*** tstart() called on node111.bme.utexas.edu
*** at Sun May 12 22:47:30 2024


  //>>>>>>>>>>>>>>>>>>>>>>>>>>>>>>>>>>>//
  //               DFMP2               //
  //<<<<<<<<<<<<<<<<<<<<<<<<<<<<<<<<<<<//

   => Loading Basis Set <=

    Name: (JUN-CC-PVDZ AUX)
    Role: RIFIT
    Keyword: DF_BASIS_MP2
    atoms 1, 12-15       entry O          line   188 file /opt/anaconda/envs/psi4v1.5/share/psi4/basis/jun-cc-pvdz-ri.gbs 
    atoms 2-4, 6-7, 9-11 entry H          line    30 file /opt/anaconda/envs/psi4v1.5/share/psi4/basis/jun-cc-pvdz-ri.gbs 
    atoms 5, 8           entry C          line   100 file /opt/anaconda/envs/psi4v1.5/share/psi4/basis/jun-cc-pvdz-ri.gbs 
    atoms 16             entry P          line   432 file /opt/anaconda/envs/psi4v1.5/share/psi4/basis/jun-cc-pvdz-ri.gbs 

	 --------------------------------------------------------
	                          DF-MP2                         
	      2nd-Order Density-Fitted Moller-Plesset Theory     
	              RMP2 Wavefunction,   8 Threads             
	                                                         
	        Rob Parrish, Justin Turney, Andy Simmonett,      
	           Ed Hohenstein, and C. David Sherrill          
	 --------------------------------------------------------

   => Auxiliary Basis Set <=

  Basis Set: (JUN-CC-PVDZ AUX)
    Blend: JUN-CC-PVDZ-RI
    Number of shells: 222
    Number of basis functions: 652
    Number of Cartesian functions: 752
    Spherical Harmonics?: true
    Max angular momentum: 3

	 --------------------------------------------------------
	                 NBF =   188, NAUX =   652
	 --------------------------------------------------------
	   CLASS    FOCC     OCC    AOCC    AVIR     VIR    FVIR
	   PAIRS      12      38      26     150     150       0
	 --------------------------------------------------------

	 Will save fitting metric to file 97.

	-----------------------------------------------------------
	 ==================> DF-MP2 Energies <==================== 
	-----------------------------------------------------------
	 Reference Energy          =    -795.6135621385719787 [Eh]
	 Singles Energy            =      -0.0000000000000000 [Eh]
	 Same-Spin Energy          =      -0.3641660730246907 [Eh]
	 Opposite-Spin Energy      =      -1.0206418424390891 [Eh]
	 Correlation Energy        =      -1.3848079154637798 [Eh]
	 Total Energy              =    -796.9983700540357177 [Eh]
	-----------------------------------------------------------
	 ================> DF-SCS-MP2 Energies <================== 
	-----------------------------------------------------------
	 SCS Same-Spin Scale       =       0.3333333333333333 [-]
	 SCS Opposite-Spin Scale   =       1.2000000000000000 [-]
	 SCS Same-Spin Energy      =      -0.1213886910082302 [Eh]
	 SCS Opposite-Spin Energy  =      -1.2247702109269067 [Eh]
	 SCS Correlation Energy    =      -1.3461589019351370 [Eh]
	 SCS Total Energy          =    -796.9597210405071337 [Eh]
	-----------------------------------------------------------


*** tstop() called on node111.bme.utexas.edu at Sun May 12 22:47:31 2024
Module time:
	user time   =       4.67 seconds =       0.08 minutes
	system time =       0.08 seconds =       0.00 minutes
	total time  =          1 seconds =       0.02 minutes
Total time:
	user time   =      15.95 seconds =       0.27 minutes
	system time =       0.38 seconds =       0.01 minutes
	total time  =          3 seconds =       0.05 minutes

  //>>>>>>>>>>>>>>>>>>>>>>>>>>>>>>>>>>>//
  //            Monomer A HF           //
  //<<<<<<<<<<<<<<<<<<<<<<<<<<<<<<<<<<<//


*** tstart() called on node111.bme.utexas.edu
*** at Sun May 12 22:47:31 2024

   => Loading Basis Set <=

    Name: JUN-CC-PVDZ
    Role: ORBITAL
    Keyword: BASIS
    atoms 1, 12-15       entry O          line   232 file /opt/anaconda/envs/psi4v1.5/share/psi4/basis/jun-cc-pvdz.gbs 
    atoms 2-4, 6-7, 9-11 entry H          line    36 file /opt/anaconda/envs/psi4v1.5/share/psi4/basis/jun-cc-pvdz.gbs 
    atoms 5, 8           entry C          line   164 file /opt/anaconda/envs/psi4v1.5/share/psi4/basis/jun-cc-pvdz.gbs 
    atoms 16             entry P          line   600 file /opt/anaconda/envs/psi4v1.5/share/psi4/basis/jun-cc-pvdz.gbs 


         ---------------------------------------------------------
                                   SCF
               by Justin Turney, Rob Parrish, Andy Simmonett
                          and Daniel G. A. Smith
                              RHF Reference
                        8 Threads,  47683 MiB Core
         ---------------------------------------------------------

  ==> Geometry <==

    Molecular point group: c1
    Full point group: C1

    Geometry (in Angstrom), charge = 0, multiplicity = 1:

       Center              X                  Y                   Z               Mass       
    ------------   -----------------  -----------------  -----------------  -----------------
         O            3.132511570362     0.699051151297     0.707143858618    15.994914619570
         H            2.220191570362     0.848481151297     1.049803858618     1.007825032230
         H            2.921121570362     0.394831151297    -0.190456141382     1.007825032230
      Gh(H)           0.106701070362    -2.418831092292     0.308762281695     1.007825032230
      Gh(C)           1.014111070362    -1.917911092292    -0.041067718305    12.000000000000
      Gh(H)          -2.138568929638    -0.059081092292     1.870362281695     1.007825032230
      Gh(H)          -3.013538929638     0.796258907708     0.576182281695     1.007825032230
      Gh(C)          -2.597288929638    -0.171341092292     0.883522281695    12.000000000000
      Gh(H)           1.608591070362    -2.618051092292    -0.635667718305     1.007825032230
      Gh(H)           1.600011070362    -1.573531092292     0.813492281695     1.007825032230
      Gh(H)          -3.409568929638    -0.903261092292     0.930362281695     1.007825032230
      Gh(O)           0.179021070362     0.679848907708     1.141252281695    15.994914619570
      Gh(O)          -0.548078929638     1.365288907708    -1.315627718305    15.994914619570
      Gh(O)           0.687201070362    -0.826351092292    -0.904287718305    15.994914619570
      Gh(O)          -1.654438929638    -0.653091092292    -0.066437718305    15.994914619570
      Gh(P)          -0.310788929638     0.336348907708    -0.253897718305    30.973761998420

  Running in c1 symmetry.

  Rotational constants: A =      0.07811  B =      0.03809  C =      0.03491 [cm^-1]
  Rotational constants: A =   2341.61273  B =   1141.91068  C =   1046.56601 [MHz]
  Nuclear repulsion =    9.007405785925693

  Charge       = 0
  Multiplicity = 1
  Electrons    = 10
  Nalpha       = 5
  Nbeta        = 5

  ==> Algorithm <==

  SCF Algorithm Type is DF.
  DIIS enabled.
  MOM disabled.
  Fractional occupation disabled.
  Guess Type is SAD.
  Energy threshold   = 1.00e-08
  Density threshold  = 1.00e-08
  Integral threshold = 1.00e-12

  ==> Primary Basis <==

  Basis Set: JUN-CC-PVDZ
    Blend: JUN-CC-PVDZ
    Number of shells: 90
    Number of basis functions: 188
    Number of Cartesian functions: 196
    Spherical Harmonics?: true
    Max angular momentum: 2

   => Loading Basis Set <=

    Name: (JUN-CC-PVDZ AUX)
    Role: JKFIT
    Keyword: DF_BASIS_SCF
    atoms 1, 12-15       entry O          line   258 file /opt/anaconda/envs/psi4v1.5/share/psi4/basis/jun-cc-pvdz-jkfit.gbs 
    atoms 2-4, 6-7, 9-11 entry H          line    70 file /opt/anaconda/envs/psi4v1.5/share/psi4/basis/jun-cc-pvdz-jkfit.gbs 
    atoms 5, 8           entry C          line   146 file /opt/anaconda/envs/psi4v1.5/share/psi4/basis/jun-cc-pvdz-jkfit.gbs 
    atoms 16             entry P          line   586 file /opt/anaconda/envs/psi4v1.5/share/psi4/basis/jun-cc-pvdz-jkfit.gbs 

  ==> Integral Setup <==

  ==> DiskDFJK: Density-Fitted J/K Matrices <==

    J tasked:                  Yes
    K tasked:                  Yes
    wK tasked:                  No
    OpenMP threads:              8
    Integrals threads:           8
    Memory [MiB]:            35762
    Algorithm:                Core
    Integral Cache:           LOAD
    Schwarz Cutoff:          1E-12
    Fitting Condition:       1E-10

   => Auxiliary Basis Set <=

  Basis Set: (JUN-CC-PVDZ AUX)
    Blend: JUN-CC-PVDZ-JKFIT
    Number of shells: 300
    Number of basis functions: 858
    Number of Cartesian functions: 977
    Spherical Harmonics?: true
    Max angular momentum: 3

  Minimum eigenvalue in the overlap matrix is 3.9024032381E-04.
  Reciprocal condition number of the overlap matrix is 3.9244417500E-05.
    Using symmetric orthogonalization.

  ==> Pre-Iterations <==

  SCF Guess: Superposition of Atomic Densities via on-the-fly atomic UHF (no occupation information).

   -------------------------
    Irrep   Nso     Nmo    
   -------------------------
     A        188     188 
   -------------------------
    Total     188     188
   -------------------------

  ==> Iterations <==

                           Total Energy        Delta E     RMS |[F,P]|

   @DF-RHF iter SAD:   -75.49248205822541   -7.54925e+01   0.00000e+00 
   @DF-RHF iter   1:   -75.95674374998323   -4.64262e-01   2.30222e-03 DIIS
   @DF-RHF iter   2:   -76.00746338445127   -5.07196e-02   1.49893e-03 DIIS
   @DF-RHF iter   3:   -76.03532306654061   -2.78597e-02   1.18597e-04 DIIS
   @DF-RHF iter   4:   -76.03570614260788   -3.83076e-04   2.77354e-05 DIIS
   @DF-RHF iter   5:   -76.03572947696617   -2.33344e-05   5.60615e-06 DIIS
   @DF-RHF iter   6:   -76.03573099183977   -1.51487e-06   1.18674e-06 DIIS
   @DF-RHF iter   7:   -76.03573106713701   -7.52972e-08   1.39517e-07 DIIS
   @DF-RHF iter   8:   -76.03573106802639   -8.89386e-10   2.41874e-08 DIIS
   @DF-RHF iter   9:   -76.03573106805202   -2.56222e-11   6.60190e-09 DIIS
  Energy and wave function converged.


  ==> Post-Iterations <==

    Orbital Energies [Eh]
    ---------------------

    Doubly Occupied:                                                      

       1A    -20.582895     2A     -1.349509     3A     -0.698510  
       4A     -0.590182     5A     -0.508930  

    Virtual:                                                              

       6A      0.025060     7A      0.048230     8A      0.050611  
       9A      0.058326    10A      0.088834    11A      0.090599  
      12A      0.100075    13A      0.105760    14A      0.109134  
      15A      0.135142    16A      0.137571    17A      0.140140  
      18A      0.155328    19A      0.189885    20A      0.195265  
      21A      0.200262    22A      0.208898    23A      0.217303  
      24A      0.224642    25A      0.233300    26A      0.246965  
      27A      0.253981    28A      0.266911    29A      0.271684  
      30A      0.275552    31A      0.290357    32A      0.307064  
      33A      0.315850    34A      0.322196    35A      0.327991  
      36A      0.329025    37A      0.355980    38A      0.372596  
      39A      0.379324    40A      0.388494    41A      0.400069  
      42A      0.414127    43A      0.433326    44A      0.445020  
      45A      0.473212    46A      0.484926    47A      0.528598  
      48A      0.544292    49A      0.552647    50A      0.588253  
      51A      0.598709    52A      0.615585    53A      0.625546  
      54A      0.652867    55A      0.672748    56A      0.677549  
      57A      0.704760    58A      0.808514    59A      0.829651  
      60A      0.845687    61A      0.877219    62A      0.889779  
      63A      0.903347    64A      0.929355    65A      0.942849  
      66A      0.981270    67A      0.993723    68A      1.018383  
      69A      1.049756    70A      1.098674    71A      1.127030  
      72A      1.135003    73A      1.174014    74A      1.227568  
      75A      1.326065    76A      1.338161    77A      1.388878  
      78A      1.413678    79A      1.443104    80A      1.498438  
      81A      1.510015    82A      1.537775    83A      1.560624  
      84A      1.573561    85A      1.578416    86A      1.606172  
      87A      1.614361    88A      1.639894    89A      1.657651  
      90A      1.659454    91A      1.704222    92A      1.777935  
      93A      1.798787    94A      1.824510    95A      1.841606  
      96A      1.861549    97A      1.871397    98A      1.971094  
      99A      1.988574   100A      2.023545   101A      2.032536  
     102A      2.035550   103A      2.058204   104A      2.064478  
     105A      2.091266   106A      2.108425   107A      2.139970  
     108A      2.153396   109A      2.181674   110A      2.234581  
     111A      2.280346   112A      2.302879   113A      2.313597  
     114A      2.320109   115A      2.424356   116A      2.435136  
     117A      2.459513   118A      2.498178   119A      2.639837  
     120A      2.647180   121A      2.657056   122A      2.668909  
     123A      2.687168   124A      2.690850   125A      2.766087  
     126A      2.777644   127A      2.868052   128A      2.879685  
     129A      2.908998   130A      2.915804   131A      3.271952  
     132A      3.291442   133A      3.330572   134A      3.389259  
     135A      3.477889   136A      3.549558   137A      3.627801  
     138A      3.886087   139A      3.928511   140A      3.942854  
     141A      4.135714   142A      4.147735   143A      4.158058  
     144A      4.174692   145A      4.180195   146A      4.200031  
     147A      4.243194   148A      4.261152   149A      4.344645  
     150A      4.356070   151A      4.463710   152A      4.514110  
     153A      4.523707   154A      4.585039   155A      4.591252  
     156A      4.654902   157A      4.842428   158A      4.940224  
     159A      5.018336   160A      5.032609   161A      5.046154  
     162A      5.050982   163A      5.067100   164A      5.272635  
     165A      5.302325   166A      5.584746   167A      5.596883  
     168A      5.621935   169A      5.700698   170A      5.714921  
     171A      5.737119   172A      5.776325   173A      5.807650  
     174A      5.899767   175A      5.935088   176A      6.026390  
     177A      6.126901   178A      6.223331   179A     17.501200  
     180A     17.635039   181A     17.871306   182A     18.428851  
     183A     18.437018   184A     33.432695   185A     33.441860  
     186A     33.461237   187A     33.473365   188A    120.216625  

    Final Occupation by Irrep:
              A 
    DOCC [     5 ]

  @DF-RHF Final Energy:   -76.03573106805202

   => Energetics <=

    Nuclear Repulsion Energy =              9.0074057859256929
    One-Electron Energy =                -122.6262223865105341
    Two-Electron Energy =                  37.5830855325328130
    Total Energy =                        -76.0357310680520300

Computation Completed


Properties will be evaluated at   0.000000,   0.000000,   0.000000 [a0]

Properties computed using the SCF density matrix

  Nuclear Dipole Moment: [e a0]
     X:    57.0724      Y:    12.9176      Z:    12.3144

  Electronic Dipole Moment: [e a0]
     X:   -57.8431      Y:   -13.0223      Z:   -12.6995

  Dipole Moment: [e a0]
     X:    -0.7707      Y:    -0.1046      Z:    -0.3851     Total:     0.8679

  Dipole Moment: [D]
     X:    -1.9590      Y:    -0.2659      Z:    -0.9789     Total:     2.2061


*** tstop() called on node111.bme.utexas.edu at Sun May 12 22:47:32 2024
Module time:
	user time   =       5.67 seconds =       0.09 minutes
	system time =       0.08 seconds =       0.00 minutes
	total time  =          1 seconds =       0.02 minutes
Total time:
	user time   =      21.64 seconds =       0.36 minutes
	system time =       0.46 seconds =       0.01 minutes
	total time  =          4 seconds =       0.07 minutes

*** tstart() called on node111.bme.utexas.edu
*** at Sun May 12 22:47:32 2024


  //>>>>>>>>>>>>>>>>>>>>>>>>>>>>>>>>>>>//
  //               DFMP2               //
  //<<<<<<<<<<<<<<<<<<<<<<<<<<<<<<<<<<<//

   => Loading Basis Set <=

    Name: (JUN-CC-PVDZ AUX)
    Role: RIFIT
    Keyword: DF_BASIS_MP2
    atoms 1, 12-15       entry O          line   188 file /opt/anaconda/envs/psi4v1.5/share/psi4/basis/jun-cc-pvdz-ri.gbs 
    atoms 2-4, 6-7, 9-11 entry H          line    30 file /opt/anaconda/envs/psi4v1.5/share/psi4/basis/jun-cc-pvdz-ri.gbs 
    atoms 5, 8           entry C          line   100 file /opt/anaconda/envs/psi4v1.5/share/psi4/basis/jun-cc-pvdz-ri.gbs 
    atoms 16             entry P          line   432 file /opt/anaconda/envs/psi4v1.5/share/psi4/basis/jun-cc-pvdz-ri.gbs 

	 --------------------------------------------------------
	                          DF-MP2                         
	      2nd-Order Density-Fitted Moller-Plesset Theory     
	              RMP2 Wavefunction,   8 Threads             
	                                                         
	        Rob Parrish, Justin Turney, Andy Simmonett,      
	           Ed Hohenstein, and C. David Sherrill          
	 --------------------------------------------------------

   => Auxiliary Basis Set <=

  Basis Set: (JUN-CC-PVDZ AUX)
    Blend: JUN-CC-PVDZ-RI
    Number of shells: 222
    Number of basis functions: 652
    Number of Cartesian functions: 752
    Spherical Harmonics?: true
    Max angular momentum: 3

	 --------------------------------------------------------
	                 NBF =   188, NAUX =   652
	 --------------------------------------------------------
	   CLASS    FOCC     OCC    AOCC    AVIR     VIR    FVIR
	   PAIRS       1       5       4     183     183       0
	 --------------------------------------------------------

	 Will attempt to load fitting metric from file 97.

	-----------------------------------------------------------
	 ==================> DF-MP2 Energies <==================== 
	-----------------------------------------------------------
	 Reference Energy          =     -76.0357310680520158 [Eh]
	 Singles Energy            =      -0.0000000000000000 [Eh]
	 Same-Spin Energy          =      -0.0536599640801540 [Eh]
	 Opposite-Spin Energy      =      -0.1576043869064935 [Eh]
	 Correlation Energy        =      -0.2112643509866475 [Eh]
	 Total Energy              =     -76.2469954190386687 [Eh]
	-----------------------------------------------------------
	 ================> DF-SCS-MP2 Energies <================== 
	-----------------------------------------------------------
	 SCS Same-Spin Scale       =       0.3333333333333333 [-]
	 SCS Opposite-Spin Scale   =       1.2000000000000000 [-]
	 SCS Same-Spin Energy      =      -0.0178866546933847 [Eh]
	 SCS Opposite-Spin Energy  =      -0.1891252642877922 [Eh]
	 SCS Correlation Energy    =      -0.2070119189811769 [Eh]
	 SCS Total Energy          =     -76.2427429870331963 [Eh]
	-----------------------------------------------------------


*** tstop() called on node111.bme.utexas.edu at Sun May 12 22:47:33 2024
Module time:
	user time   =       3.47 seconds =       0.06 minutes
	system time =       0.05 seconds =       0.00 minutes
	total time  =          1 seconds =       0.02 minutes
Total time:
	user time   =      25.11 seconds =       0.42 minutes
	system time =       0.51 seconds =       0.01 minutes
	total time  =          5 seconds =       0.08 minutes

  //>>>>>>>>>>>>>>>>>>>>>>>>>>>>>>>>>>>//
  //            Monomer B HF           //
  //<<<<<<<<<<<<<<<<<<<<<<<<<<<<<<<<<<<//


*** tstart() called on node111.bme.utexas.edu
*** at Sun May 12 22:47:33 2024

   => Loading Basis Set <=

    Name: JUN-CC-PVDZ
    Role: ORBITAL
    Keyword: BASIS
    atoms 1, 12-15       entry O          line   232 file /opt/anaconda/envs/psi4v1.5/share/psi4/basis/jun-cc-pvdz.gbs 
    atoms 2-4, 6-7, 9-11 entry H          line    36 file /opt/anaconda/envs/psi4v1.5/share/psi4/basis/jun-cc-pvdz.gbs 
    atoms 5, 8           entry C          line   164 file /opt/anaconda/envs/psi4v1.5/share/psi4/basis/jun-cc-pvdz.gbs 
    atoms 16             entry P          line   600 file /opt/anaconda/envs/psi4v1.5/share/psi4/basis/jun-cc-pvdz.gbs 


         ---------------------------------------------------------
                                   SCF
               by Justin Turney, Rob Parrish, Andy Simmonett
                          and Daniel G. A. Smith
                              RHF Reference
                        8 Threads,  47683 MiB Core
         ---------------------------------------------------------

  ==> Geometry <==

    Molecular point group: c1
    Full point group: C1

    Geometry (in Angstrom), charge = -1, multiplicity = 1:

       Center              X                  Y                   Z               Mass       
    ------------   -----------------  -----------------  -----------------  -----------------
      Gh(O)           3.132511570362     0.699051151297     0.707143858618    15.994914619570
      Gh(H)           2.220191570362     0.848481151297     1.049803858618     1.007825032230
      Gh(H)           2.921121570362     0.394831151297    -0.190456141382     1.007825032230
         H            0.106701070362    -2.418831092292     0.308762281695     1.007825032230
         C            1.014111070362    -1.917911092292    -0.041067718305    12.000000000000
         H           -2.138568929638    -0.059081092292     1.870362281695     1.007825032230
         H           -3.013538929638     0.796258907708     0.576182281695     1.007825032230
         C           -2.597288929638    -0.171341092292     0.883522281695    12.000000000000
         H            1.608591070362    -2.618051092292    -0.635667718305     1.007825032230
         H            1.600011070362    -1.573531092292     0.813492281695     1.007825032230
         H           -3.409568929638    -0.903261092292     0.930362281695     1.007825032230
         O            0.179021070362     0.679848907708     1.141252281695    15.994914619570
         O           -0.548078929638     1.365288907708    -1.315627718305    15.994914619570
         O            0.687201070362    -0.826351092292    -0.904287718305    15.994914619570
         O           -1.654438929638    -0.653091092292    -0.066437718305    15.994914619570
         P           -0.310788929638     0.336348907708    -0.253897718305    30.973761998420

  Running in c1 symmetry.

  Rotational constants: A =      0.07811  B =      0.03809  C =      0.03491 [cm^-1]
  Rotational constants: A =   2341.61273  B =   1141.91068  C =   1046.56601 [MHz]
  Nuclear repulsion =  436.148445576263953

  Charge       = -1
  Multiplicity = 1
  Electrons    = 66
  Nalpha       = 33
  Nbeta        = 33

  ==> Algorithm <==

  SCF Algorithm Type is DF.
  DIIS enabled.
  MOM disabled.
  Fractional occupation disabled.
  Guess Type is SAD.
  Energy threshold   = 1.00e-08
  Density threshold  = 1.00e-08
  Integral threshold = 1.00e-12

  ==> Primary Basis <==

  Basis Set: JUN-CC-PVDZ
    Blend: JUN-CC-PVDZ
    Number of shells: 90
    Number of basis functions: 188
    Number of Cartesian functions: 196
    Spherical Harmonics?: true
    Max angular momentum: 2

   => Loading Basis Set <=

    Name: (JUN-CC-PVDZ AUX)
    Role: JKFIT
    Keyword: DF_BASIS_SCF
    atoms 1, 12-15       entry O          line   258 file /opt/anaconda/envs/psi4v1.5/share/psi4/basis/jun-cc-pvdz-jkfit.gbs 
    atoms 2-4, 6-7, 9-11 entry H          line    70 file /opt/anaconda/envs/psi4v1.5/share/psi4/basis/jun-cc-pvdz-jkfit.gbs 
    atoms 5, 8           entry C          line   146 file /opt/anaconda/envs/psi4v1.5/share/psi4/basis/jun-cc-pvdz-jkfit.gbs 
    atoms 16             entry P          line   586 file /opt/anaconda/envs/psi4v1.5/share/psi4/basis/jun-cc-pvdz-jkfit.gbs 

  ==> Integral Setup <==

  ==> DiskDFJK: Density-Fitted J/K Matrices <==

    J tasked:                  Yes
    K tasked:                  Yes
    wK tasked:                  No
    OpenMP threads:              8
    Integrals threads:           8
    Memory [MiB]:            35762
    Algorithm:                Core
    Integral Cache:           LOAD
    Schwarz Cutoff:          1E-12
    Fitting Condition:       1E-10

   => Auxiliary Basis Set <=

  Basis Set: (JUN-CC-PVDZ AUX)
    Blend: JUN-CC-PVDZ-JKFIT
    Number of shells: 300
    Number of basis functions: 858
    Number of Cartesian functions: 977
    Spherical Harmonics?: true
    Max angular momentum: 3

  Minimum eigenvalue in the overlap matrix is 3.9024032381E-04.
  Reciprocal condition number of the overlap matrix is 3.9244417500E-05.
    Using symmetric orthogonalization.

  ==> Pre-Iterations <==

  SCF Guess: Superposition of Atomic Densities via on-the-fly atomic UHF (no occupation information).

   -------------------------
    Irrep   Nso     Nmo    
   -------------------------
     A        188     188 
   -------------------------
    Total     188     188
   -------------------------

  ==> Iterations <==

                           Total Energy        Delta E     RMS |[F,P]|

   @DF-RHF iter SAD:  -718.31943931795104   -7.18319e+02   0.00000e+00 
   @DF-RHF iter   1:  -719.26877314359729   -9.49334e-01   4.32657e-03 DIIS
   @DF-RHF iter   2:  -719.45641963035985   -1.87646e-01   2.80492e-03 DIIS
   @DF-RHF iter   3:  -719.55642746507203   -1.00008e-01   3.07103e-04 DIIS
   @DF-RHF iter   4:  -719.55843991227744   -2.01245e-03   1.33564e-04 DIIS
   @DF-RHF iter   5:  -719.55875080015153   -3.10888e-04   2.99532e-05 DIIS
   @DF-RHF iter   6:  -719.55876975056879   -1.89504e-05   7.89917e-06 DIIS
   @DF-RHF iter   7:  -719.55877162349657   -1.87293e-06   2.17250e-06 DIIS
   @DF-RHF iter   8:  -719.55877182108554   -1.97589e-07   5.94588e-07 DIIS
   @DF-RHF iter   9:  -719.55877183822474   -1.71392e-08   2.13353e-07 DIIS
   @DF-RHF iter  10:  -719.55877183969028   -1.46554e-09   7.80545e-08 DIIS
   @DF-RHF iter  11:  -719.55877183983910   -1.48816e-10   2.53004e-08 DIIS
   @DF-RHF iter  12:  -719.55877183985740   -1.83036e-11   7.57382e-09 DIIS
  Energy and wave function converged.


  ==> Post-Iterations <==

    Orbital Energies [Eh]
    ---------------------

    Doubly Occupied:                                                      

       1A    -79.914099     2A    -20.409834     3A    -20.407743  
       4A    -20.320309     5A    -20.319665     6A    -11.144140  
       7A    -11.140699     8A     -7.431803     9A     -5.329788  
      10A     -5.329411    11A     -5.329054    12A     -1.240795  
      13A     -1.189595    14A     -1.111598    15A     -1.072484  
      16A     -0.795867    17A     -0.779368    18A     -0.591976  
      19A     -0.525278    20A     -0.495850    21A     -0.486517  
      22A     -0.466231    23A     -0.445147    24A     -0.434537  
      25A     -0.377492    26A     -0.360497    27A     -0.341963  
      28A     -0.307924    29A     -0.303943    30A     -0.284952  
      31A     -0.268975    32A     -0.252891    33A     -0.236985  

    Virtual:                                                              

      34A      0.163058    35A      0.167076    36A      0.192535  
      37A      0.205076    38A      0.214196    39A      0.220627  
      40A      0.224980    41A      0.239422    42A      0.250059  
      43A      0.253685    44A      0.285913    45A      0.288668  
      46A      0.309791    47A      0.328164    48A      0.344664  
      49A      0.350568    50A      0.379979    51A      0.397998  
      52A      0.425195    53A      0.429502    54A      0.430991  
      55A      0.439624    56A      0.454704    57A      0.467855  
      58A      0.475619    59A      0.481439    60A      0.482845  
      61A      0.499679    62A      0.501854    63A      0.507666  
      64A      0.515219    65A      0.528720    66A      0.530934  
      67A      0.546505    68A      0.553199    69A      0.562308  
      70A      0.570527    71A      0.583574    72A      0.597783  
      73A      0.614795    74A      0.622359    75A      0.635356  
      76A      0.659861    77A      0.694260    78A      0.704443  
      79A      0.729523    80A      0.871733    81A      0.890861  
      82A      0.916884    83A      0.923978    84A      0.954472  
      85A      0.964753    86A      0.984564    87A      1.014673  
      88A      1.026304    89A      1.036837    90A      1.050999  
      91A      1.063932    92A      1.075586    93A      1.079155  
      94A      1.083785    95A      1.101441    96A      1.111410  
      97A      1.119270    98A      1.182929    99A      1.215231  
     100A      1.236371   101A      1.272152   102A      1.297453  
     103A      1.344458   104A      1.374000   105A      1.409830  
     106A      1.434890   107A      1.453292   108A      1.491053  
     109A      1.616654   110A      1.633382   111A      1.685483  
     112A      1.706610   113A      1.718232   114A      1.725866  
     115A      1.757478   116A      1.779606   117A      1.804049  
     118A      1.823777   119A      1.835274   120A      1.849552  
     121A      1.875947   122A      1.891634   123A      1.923449  
     124A      1.976678   125A      2.013521   126A      2.021494  
     127A      2.033044   128A      2.068566   129A      2.076349  
     130A      2.101033   131A      2.129292   132A      2.140032  
     133A      2.145581   134A      2.158096   135A      2.175418  
     136A      2.190871   137A      2.207527   138A      2.283358  
     139A      2.298013   140A      2.344276   141A      2.357791  
     142A      2.479773   143A      2.515940   144A      2.523253  
     145A      2.536881   146A      2.543850   147A      2.597562  
     148A      2.630960   149A      2.658285   150A      2.804530  
     151A      2.848056   152A      2.897750   153A      2.916193  
     154A      2.919813   155A      2.961258   156A      2.974431  
     157A      2.979747   158A      3.043029   159A      3.165741  
     160A      3.190679   161A      3.205237   162A      3.205722  
     163A      3.241488   164A      3.259543   165A      3.299973  
     166A      3.364107   167A      3.401720   168A      3.410901  
     169A      3.465028   170A      3.501766   171A      3.520581  
     172A      3.575416   173A      3.591221   174A      3.643924  
     175A      3.724761   176A      3.780144   177A      3.809725  
     178A      3.973473   179A      4.028151   180A      4.604171  
     181A      4.631343   182A      4.882866   183A      5.005622  
     184A      5.235717   185A      5.643912   186A      6.670275  
     187A      7.019997   188A     33.657279  

    Final Occupation by Irrep:
              A 
    DOCC [    33 ]

  @DF-RHF Final Energy:  -719.55877183985740

   => Energetics <=

    Nuclear Repulsion Energy =            436.1484455762639527
    One-Electron Energy =               -1872.5196074461034641
    Two-Electron Energy =                 716.8123900299819979
    Total Energy =                       -719.5587718398573998

Computation Completed


Properties will be evaluated at   0.000000,   0.000000,   0.000000 [a0]

Properties computed using the SCF density matrix

  Nuclear Dipole Moment: [e a0]
     X:   -56.8763      Y:   -18.4082      Z:    -7.6554

  Electronic Dipole Moment: [e a0]
     X:    57.0649      Y:    16.7669      Z:     8.6254

  Dipole Moment: [e a0]
     X:     0.1886      Y:    -1.6413      Z:     0.9701     Total:     1.9159

  Dipole Moment: [D]
     X:     0.4793      Y:    -4.1719      Z:     2.4657     Total:     4.8697


*** tstop() called on node111.bme.utexas.edu at Sun May 12 22:47:34 2024
Module time:
	user time   =       9.39 seconds =       0.16 minutes
	system time =       0.22 seconds =       0.00 minutes
	total time  =          1 seconds =       0.02 minutes
Total time:
	user time   =      34.52 seconds =       0.58 minutes
	system time =       0.73 seconds =       0.01 minutes
	total time  =          6 seconds =       0.10 minutes

*** tstart() called on node111.bme.utexas.edu
*** at Sun May 12 22:47:34 2024


  //>>>>>>>>>>>>>>>>>>>>>>>>>>>>>>>>>>>//
  //               DFMP2               //
  //<<<<<<<<<<<<<<<<<<<<<<<<<<<<<<<<<<<//

   => Loading Basis Set <=

    Name: (JUN-CC-PVDZ AUX)
    Role: RIFIT
    Keyword: DF_BASIS_MP2
    atoms 1, 12-15       entry O          line   188 file /opt/anaconda/envs/psi4v1.5/share/psi4/basis/jun-cc-pvdz-ri.gbs 
    atoms 2-4, 6-7, 9-11 entry H          line    30 file /opt/anaconda/envs/psi4v1.5/share/psi4/basis/jun-cc-pvdz-ri.gbs 
    atoms 5, 8           entry C          line   100 file /opt/anaconda/envs/psi4v1.5/share/psi4/basis/jun-cc-pvdz-ri.gbs 
    atoms 16             entry P          line   432 file /opt/anaconda/envs/psi4v1.5/share/psi4/basis/jun-cc-pvdz-ri.gbs 

	 --------------------------------------------------------
	                          DF-MP2                         
	      2nd-Order Density-Fitted Moller-Plesset Theory     
	              RMP2 Wavefunction,   8 Threads             
	                                                         
	        Rob Parrish, Justin Turney, Andy Simmonett,      
	           Ed Hohenstein, and C. David Sherrill          
	 --------------------------------------------------------

   => Auxiliary Basis Set <=

  Basis Set: (JUN-CC-PVDZ AUX)
    Blend: JUN-CC-PVDZ-RI
    Number of shells: 222
    Number of basis functions: 652
    Number of Cartesian functions: 752
    Spherical Harmonics?: true
    Max angular momentum: 3

	 --------------------------------------------------------
	                 NBF =   188, NAUX =   652
	 --------------------------------------------------------
	   CLASS    FOCC     OCC    AOCC    AVIR     VIR    FVIR
	   PAIRS      11      33      22     155     155       0
	 --------------------------------------------------------

	 Will attempt to load fitting metric from file 97.

	-----------------------------------------------------------
	 ==================> DF-MP2 Energies <==================== 
	-----------------------------------------------------------
	 Reference Energy          =    -719.5587718398573998 [Eh]
	 Singles Energy            =      -0.0000000000000000 [Eh]
	 Same-Spin Energy          =      -0.3091693844538365 [Eh]
	 Opposite-Spin Energy      =      -0.8633075790127342 [Eh]
	 Correlation Energy        =      -1.1724769634665706 [Eh]
	 Total Energy              =    -720.7312488033239788 [Eh]
	-----------------------------------------------------------
	 ================> DF-SCS-MP2 Energies <================== 
	-----------------------------------------------------------
	 SCS Same-Spin Scale       =       0.3333333333333333 [-]
	 SCS Opposite-Spin Scale   =       1.2000000000000000 [-]
	 SCS Same-Spin Energy      =      -0.1030564614846121 [Eh]
	 SCS Opposite-Spin Energy  =      -1.0359690948152811 [Eh]
	 SCS Correlation Energy    =      -1.1390255562998932 [Eh]
	 SCS Total Energy          =    -720.6977973961572843 [Eh]
	-----------------------------------------------------------


*** tstop() called on node111.bme.utexas.edu at Sun May 12 22:47:35 2024
Module time:
	user time   =       4.14 seconds =       0.07 minutes
	system time =       0.07 seconds =       0.00 minutes
	total time  =          1 seconds =       0.02 minutes
Total time:
	user time   =      38.66 seconds =       0.64 minutes
	system time =       0.80 seconds =       0.01 minutes
	total time  =          7 seconds =       0.12 minutes
  Constructing Basis Sets for SAPT...

   => Loading Basis Set <=

    Name: (JUN-CC-PVDZ AUX)
    Role: RIFIT
    Keyword: DF_BASIS_SAPT
    atoms 1, 12-15       entry O          line   188 file /opt/anaconda/envs/psi4v1.5/share/psi4/basis/jun-cc-pvdz-ri.gbs 
    atoms 2-4, 6-7, 9-11 entry H          line    30 file /opt/anaconda/envs/psi4v1.5/share/psi4/basis/jun-cc-pvdz-ri.gbs 
    atoms 5, 8           entry C          line   100 file /opt/anaconda/envs/psi4v1.5/share/psi4/basis/jun-cc-pvdz-ri.gbs 
    atoms 16             entry P          line   432 file /opt/anaconda/envs/psi4v1.5/share/psi4/basis/jun-cc-pvdz-ri.gbs 


  //>>>>>>>>>>>>>>>>>>>>>>>>>>>>>>>>>>>//
  //           SAPT2+(3)DMP2           //
  //<<<<<<<<<<<<<<<<<<<<<<<<<<<<<<<<<<<//


*** tstart() called on node111.bme.utexas.edu
*** at Sun May 12 22:47:35 2024

      SAPT2+(3)  
    Ed Hohenstein
     6 June 2009

      Orbital Information
  --------------------------
    NSO        =       188
    NMO        =       188
    NRI        =       652
    NOCC A     =         5
    NOCC B     =        33
    FOCC A     =         1
    FOCC B     =        11
    NVIR A     =       183
    NVIR B     =       155

    Estimated memory usage: 1049.9 MB

    Natural Orbital Cutoff:   1.000E-06
    Disp(T3) Truncation:            Yes
    CCD (vv|vv) Truncation:         Yes
    MBPT T2 Truncation:             Yes

    Monomer A: 153 virtual orbitals dropped
    Monomer B: 21 virtual orbitals dropped

    Elst10,r            =    -0.027483477166 [Eh]
    Exch10 (S^2)        =     0.014051877033 [Eh]
    Exch10              =     0.014129539582 [Eh]
    Ind20,r (A<-B)      =    -0.003343411857 [Eh]
    Ind20,r (B<-A)      =    -0.004318023577 [Eh]
    Ind20,r             =    -0.007661435434 [Eh]
    Exch-Ind20,r (A<-B) =     0.001153863227 [Eh]
    Exch-Ind20,r (B<-A) =     0.002560078041 [Eh]
    Exch-Ind20,r        =     0.003713941268 [Eh]
    Disp20              =    -0.005202747563 [Eh]
    Disp20 (NO)         =    -0.004624103234 [Eh]
    Exch-Disp20         =     0.000982017192 [Eh]
    Elst12,r            =     0.000064300359 [Eh]
    Exch11              =    -0.000034065045 [Eh]
    Exch12              =     0.003585454865 [Eh]
    Ind22               =    -0.001669651020 [Eh]
    Disp21              =     0.000331790985 [Eh]
    Disp22 (SDQ)        =    -0.000455415934 [Eh]

    (i =   1 of  22)          0 seconds
    (i =   2 of  22)          0 seconds
    (i =   3 of  22)          0 seconds
    (i =   4 of  22)          0 seconds
    (i =   5 of  22)          1 seconds
    (i =   6 of  22)          1 seconds
    (i =   7 of  22)          1 seconds
    (i =   8 of  22)          1 seconds
    (i =   9 of  22)          1 seconds
    (i =  10 of  22)          1 seconds
    (i =  11 of  22)          1 seconds
    (i =  12 of  22)          1 seconds
    (i =  13 of  22)          1 seconds
    (i =  14 of  22)          1 seconds
    (i =  15 of  22)          1 seconds
    (i =  16 of  22)          1 seconds
    (i =  17 of  22)          1 seconds
    (i =  18 of  22)          1 seconds
    (i =  19 of  22)          1 seconds
    (i =  20 of  22)          1 seconds
    (i =  21 of  22)          1 seconds
    (i =  22 of  22)          1 seconds

    Disp220 (T)         =    -0.000357141290 [Eh]

    (i =   1 of   4)          5 seconds
    (i =   2 of   4)          9 seconds
    (i =   3 of   4)         13 seconds
    (i =   4 of   4)         17 seconds

    Disp202 (T)         =    -0.000441582687 [Eh]

    Disp22 (T)          =    -0.000798723977 [Eh]

    Est. Disp220 (T)    =    -0.000401832719 [Eh]
    Est. Disp202 (T)    =    -0.000496840822 [Eh]

    Est. Disp22 (T)     =    -0.000898673541 [Eh]
    Elst13,r            =     0.000635501557 [Eh]
    Disp30              =     0.000052444930 [Eh]

    SAPT Results 
  --------------------------------------------------------------------------------------------------------
    Electrostatics                -26.78367525 [mEh]     -16.80700996 [kcal/mol]     -70.32052968 [kJ/mol]
      Elst10,r                    -27.48347717 [mEh]     -17.24614229 [kcal/mol]     -72.15785936 [kJ/mol]
      Elst12,r                      0.06430036 [mEh]       0.04034908 [kcal/mol]       0.16882057 [kJ/mol]
      Elst13,r                      0.63550156 [mEh]       0.39878325 [kcal/mol]       1.66850911 [kJ/mol]

    Exchange                       17.68092940 [mEh]      11.09495071 [kcal/mol]      46.42127375 [kJ/mol]
      Exch10                       14.12953958 [mEh]       8.86641995 [kcal/mol]      37.09710106 [kJ/mol]
      Exch10(S^2)                  14.05187703 [mEh]       8.81768596 [kcal/mol]      36.89319807 [kJ/mol]
      Exch11(S^2)                  -0.03406504 [mEh]      -0.02137614 [kcal/mol]      -0.08943776 [kJ/mol]
      Exch12(S^2)                   3.58545487 [mEh]       2.24990690 [kcal/mol]       9.41361045 [kJ/mol]

    Induction                      -6.16685390 [mEh]      -3.86975924 [kcal/mol]     -16.19107268 [kJ/mol]
      Ind20,r                      -7.66143543 [mEh]      -4.80762332 [kcal/mol]     -20.11509596 [kJ/mol]
      Ind22                        -1.66965102 [mEh]      -1.04772183 [kcal/mol]      -4.38366815 [kJ/mol]
      Exch-Ind20,r                  3.71394127 [mEh]       2.33053333 [kcal/mol]       9.75095146 [kJ/mol]
      Exch-Ind22                    0.80937650 [mEh]       0.50789142 [kcal/mol]       2.12501772 [kJ/mol]
      delta HF,r (2)               -1.75779891 [mEh]      -1.10303547 [kcal/mol]      -4.61510041 [kJ/mol]
      delta MP2,r (2)               0.39871370 [mEh]       0.25019662 [kcal/mol]       1.04682267 [kJ/mol]

    Dispersion                     -5.19058393 [mEh]      -3.25714059 [kcal/mol]     -13.62787623 [kJ/mol]
      Disp20                       -5.20274756 [mEh]      -3.26477339 [kcal/mol]     -13.65981184 [kJ/mol]
      Disp30                        0.05244493 [mEh]       0.03290969 [kcal/mol]       0.13769414 [kJ/mol]
      Disp21                        0.33179099 [mEh]       0.20820199 [kcal/mol]       0.87111711 [kJ/mol]
      Disp22 (SDQ)                 -0.45541593 [mEh]      -0.28577781 [kcal/mol]      -1.19569437 [kJ/mol]
      Disp22 (T)                   -0.79872398 [mEh]      -0.50120686 [kcal/mol]      -2.09704951 [kJ/mol]
      Est. Disp22 (T)              -0.89867354 [mEh]      -0.56392616 [kcal/mol]      -2.35946706 [kJ/mol]
      Exch-Disp20                   0.98201719 [mEh]       0.61622509 [kcal/mol]       2.57828578 [kJ/mol]

  Total HF                        -19.05923066 [mEh]     -11.95984780 [kcal/mol]     -50.04000321 [kJ/mol]
  Total SAPT0                     -23.27996103 [mEh]     -14.60839610 [kcal/mol]     -61.12152927 [kJ/mol]
  Total SAPT2                     -20.52454537 [mEh]     -12.87934666 [kcal/mol]     -53.88718645 [kJ/mol]
  Total SAPT2+                    -21.54684386 [mEh]     -13.52084865 [kcal/mol]     -56.57123076 [kJ/mol]
  Total SAPT2+(3)                 -20.85889737 [mEh]     -13.08915571 [kcal/mol]     -54.76502751 [kJ/mol]
  Total SAPT2+dMP2                -21.14813016 [mEh]     -13.27065203 [kcal/mol]     -55.52440809 [kJ/mol]
  Total SAPT2+(3)dMP2             -20.46018368 [mEh]     -12.83895909 [kcal/mol]     -53.71820484 [kJ/mol]

  Special recipe for scaled SAPT0 (see Manual):
    Electrostatics sSAPT0         -27.48347717 [mEh]     -17.24614229 [kcal/mol]     -72.15785936 [kJ/mol]
    Exchange sSAPT0                14.12953958 [mEh]       8.86641995 [kcal/mol]      37.09710106 [kJ/mol]
    Induction sSAPT0               -5.64337298 [mEh]      -3.54127001 [kcal/mol]     -14.81667371 [kJ/mol]
    Dispersion sSAPT0              -4.20435784 [mEh]      -2.63827438 [kcal/mol]     -11.03854000 [kJ/mol]
  Total sSAPT0                    -23.20166841 [mEh]     -14.55926673 [kcal/mol]     -60.91597201 [kJ/mol]
  --------------------------------------------------------------------------------------------------------

*** tstop() called on node111.bme.utexas.edu at Sun May 12 22:48:19 2024
Module time:
	user time   =     346.30 seconds =       5.77 minutes
	system time =       5.80 seconds =       0.10 minutes
	total time  =         44 seconds =       0.73 minutes
Total time:
	user time   =     385.32 seconds =       6.42 minutes
	system time =       6.60 seconds =       0.11 minutes
	total time  =         51 seconds =       0.85 minutes

    Psi4 stopped on: Sunday, 12 May 2024 10:48PM
    Psi4 wall time for execution: 0:00:51.32

*** Psi4 exiting successfully. Buy a developer a beer!
