
    -----------------------------------------------------------------------
          Psi4: An Open-Source Ab Initio Electronic Structure Package
                               Psi4 1.5 release

                         Git: Rev {HEAD} e9f4d6d 


    D. G. A. Smith, L. A. Burns, A. C. Simmonett, R. M. Parrish,
    M. C. Schieber, R. Galvelis, P. Kraus, H. Kruse, R. Di Remigio,
    A. Alenaizan, A. M. James, S. Lehtola, J. P. Misiewicz, M. Scheurer,
    R. A. Shaw, J. B. Schriber, Y. Xie, Z. L. Glick, D. A. Sirianni,
    J. S. O'Brien, J. M. Waldrop, A. Kumar, E. G. Hohenstein,
    B. P. Pritchard, B. R. Brooks, H. F. Schaefer III, A. Yu. Sokolov,
    K. Patkowski, A. E. DePrince III, U. Bozkaya, R. A. King,
    F. A. Evangelista, J. M. Turney, T. D. Crawford, C. D. Sherrill,
    J. Chem. Phys. 152(18) 184108 (2020). https://doi.org/10.1063/5.0006002

                            Additional Code Authors
    E. T. Seidl, C. L. Janssen, E. F. Valeev, M. L. Leininger,
    J. F. Gonthier, R. M. Richard, H. R. McAlexander, M. Saitow, X. Wang,
    P. Verma, M. H. Lechner, and A. Jiang

             Previous Authors, Complete List of Code Contributors,
                       and Citations for Specific Modules
    https://github.com/psi4/psi4/blob/master/codemeta.json
    https://github.com/psi4/psi4/graphs/contributors
    http://psicode.org/psi4manual/master/introduction.html#citing-psifour

    -----------------------------------------------------------------------


    Psi4 started on: Sunday, 12 May 2024 10:57PM

    Process ID: 2729738
    Host:       node150.bme.utexas.edu
    PSIDATADIR: /opt/anaconda/envs/psi4v1.5/share/psi4
    Memory:     500.0 MiB
    Threads:    8
    
  ==> Input File <==

--------------------------------------------------------------------------

memory 50 GB

molecule  {
  0 1

  O 3.232375679487179 -0.7501219230769232 -0.4037299743589744
  H 2.4366356794871793 -1.147931923076923 0.029280025641025637
  H 3.2316056794871795 -1.073061923076923 -1.3097299743589743
  --
  -1 1

  H         -2.57917        0.90233       -1.41016
  C         -2.71008        0.05717       -0.73043
  H          1.33217        1.74463        1.01191
  H          2.28153        0.92174       -0.23454
  C          1.39850        1.60637       -0.07317
  H         -3.50072       -0.59684       -1.09842
  H         -2.96079        0.43496        0.26354
  H          1.58467        2.54076       -0.60884
  O         -0.93877        0.38088        1.57843
  O          0.66204       -1.28559        0.44337
  O         -1.52396       -0.71103       -0.67705
  O          0.27579        1.01290       -0.58411
  P         -0.39629       -0.24024        0.34141

units angstrom
no_reorient
symmetry c1}

set {
scf_type DF
basis aug-cc-pvdz
freeze_core True
guess SAD
}
energy('sapt2+(3)dmp2')
--------------------------------------------------------------------------

  Memory set to  46.566 GiB by Python driver.

Scratch directory: /tmp/
   => Loading Basis Set <=

    Name: AUG-CC-PVDZ
    Role: ORBITAL
    Keyword: BASIS
    atoms 1, 12-15       entry O          line   254 file /opt/anaconda/envs/psi4v1.5/share/psi4/basis/aug-cc-pvdz.gbs 
    atoms 2-4, 6-7, 9-11 entry H          line    40 file /opt/anaconda/envs/psi4v1.5/share/psi4/basis/aug-cc-pvdz.gbs 
    atoms 5, 8           entry C          line   182 file /opt/anaconda/envs/psi4v1.5/share/psi4/basis/aug-cc-pvdz.gbs 
    atoms 16             entry P          line   636 file /opt/anaconda/envs/psi4v1.5/share/psi4/basis/aug-cc-pvdz.gbs 

   => Loading Basis Set <=

    Name: AUG-CC-PVDZ
    Role: ORBITAL
    Keyword: BASIS
    atoms 1, 12-15       entry O          line   254 file /opt/anaconda/envs/psi4v1.5/share/psi4/basis/aug-cc-pvdz.gbs 
    atoms 2-4, 6-7, 9-11 entry H          line    40 file /opt/anaconda/envs/psi4v1.5/share/psi4/basis/aug-cc-pvdz.gbs 
    atoms 5, 8           entry C          line   182 file /opt/anaconda/envs/psi4v1.5/share/psi4/basis/aug-cc-pvdz.gbs 
    atoms 16             entry P          line   636 file /opt/anaconda/envs/psi4v1.5/share/psi4/basis/aug-cc-pvdz.gbs 


  //>>>>>>>>>>>>>>>>>>>>>>>>>>>>>>>>>>>//
  //              Dimer HF             //
  //<<<<<<<<<<<<<<<<<<<<<<<<<<<<<<<<<<<//


*** tstart() called on node150.bme.utexas.edu
*** at Sun May 12 22:57:13 2024

   => Loading Basis Set <=

    Name: AUG-CC-PVDZ
    Role: ORBITAL
    Keyword: BASIS
    atoms 1, 12-15       entry O          line   254 file /opt/anaconda/envs/psi4v1.5/share/psi4/basis/aug-cc-pvdz.gbs 
    atoms 2-4, 6-7, 9-11 entry H          line    40 file /opt/anaconda/envs/psi4v1.5/share/psi4/basis/aug-cc-pvdz.gbs 
    atoms 5, 8           entry C          line   182 file /opt/anaconda/envs/psi4v1.5/share/psi4/basis/aug-cc-pvdz.gbs 
    atoms 16             entry P          line   636 file /opt/anaconda/envs/psi4v1.5/share/psi4/basis/aug-cc-pvdz.gbs 


         ---------------------------------------------------------
                                   SCF
               by Justin Turney, Rob Parrish, Andy Simmonett
                          and Daniel G. A. Smith
                              RHF Reference
                        8 Threads,  47683 MiB Core
         ---------------------------------------------------------

  ==> Geometry <==

    Molecular point group: c1
    Full point group: C1

    Geometry (in Angstrom), charge = -1, multiplicity = 1:

       Center              X                  Y                   Z               Mass       
    ------------   -----------------  -----------------  -----------------  -----------------
         O            3.224421078715    -0.712618355942    -0.426504940443    15.994914619570
         H            2.428681078715    -1.110428355942     0.006505059557     1.007825032230
         H            3.223651078715    -1.035558355942    -1.332504940443     1.007825032230
         H           -2.587124600772     0.939833567135    -1.432934966084     1.007825032230
         C           -2.718034600772     0.094673567135    -0.753204966084    12.000000000000
         H            1.324215399228     1.782133567135     0.989135033916     1.007825032230
         H            2.273575399228     0.959243567135    -0.257314966084     1.007825032230
         C            1.390545399228     1.643873567135    -0.095944966084    12.000000000000
         H           -3.508674600772    -0.559336432865    -1.121194966084     1.007825032230
         H           -2.968744600772     0.472463567135     0.240765033916     1.007825032230
         H            1.576715399228     2.578263567135    -0.631614966084     1.007825032230
         O           -0.946724600772     0.418383567135     1.555655033916    15.994914619570
         O            0.654085399228    -1.248086432865     0.420595033916    15.994914619570
         O           -1.531914600772    -0.673526432865    -0.699824966084    15.994914619570
         O            0.267835399228     1.050403567135    -0.606884966084    15.994914619570
         P           -0.404244600772    -0.202736432865     0.318635033916    30.973761998420

  Running in c1 symmetry.

  Rotational constants: A =      0.09176  B =      0.03571  C =      0.03330 [cm^-1]
  Rotational constants: A =   2750.76349  B =   1070.52384  C =    998.31886 [MHz]
  Nuclear repulsion =  541.185916297189920

  Charge       = -1
  Multiplicity = 1
  Electrons    = 76
  Nalpha       = 38
  Nbeta        = 38

  ==> Algorithm <==

  SCF Algorithm Type is DF.
  DIIS enabled.
  MOM disabled.
  Fractional occupation disabled.
  Guess Type is SAD.
  Energy threshold   = 1.00e-08
  Density threshold  = 1.00e-08
  Integral threshold = 1.00e-12

  ==> Primary Basis <==

  Basis Set: AUG-CC-PVDZ
    Blend: AUG-CC-PVDZ
    Number of shells: 114
    Number of basis functions: 260
    Number of Cartesian functions: 276
    Spherical Harmonics?: true
    Max angular momentum: 2

   => Loading Basis Set <=

    Name: (AUG-CC-PVDZ AUX)
    Role: JKFIT
    Keyword: DF_BASIS_SCF
    atoms 1, 12-15       entry O          line   270 file /opt/anaconda/envs/psi4v1.5/share/psi4/basis/aug-cc-pvdz-jkfit.gbs 
    atoms 2-4, 6-7, 9-11 entry H          line    70 file /opt/anaconda/envs/psi4v1.5/share/psi4/basis/aug-cc-pvdz-jkfit.gbs 
    atoms 5, 8           entry C          line   154 file /opt/anaconda/envs/psi4v1.5/share/psi4/basis/aug-cc-pvdz-jkfit.gbs 
    atoms 16             entry P          line   608 file /opt/anaconda/envs/psi4v1.5/share/psi4/basis/aug-cc-pvdz-jkfit.gbs 

  ==> Integral Setup <==

  ==> DiskDFJK: Density-Fitted J/K Matrices <==

    J tasked:                  Yes
    K tasked:                  Yes
    wK tasked:                  No
    OpenMP threads:              8
    Integrals threads:           8
    Memory [MiB]:            35762
    Algorithm:                Core
    Integral Cache:           SAVE
    Schwarz Cutoff:          1E-12
    Fitting Condition:       1E-10

   => Auxiliary Basis Set <=

  Basis Set: (AUG-CC-PVDZ AUX)
    Blend: AUG-CC-PVDZ-JKFIT
    Number of shells: 332
    Number of basis functions: 986
    Number of Cartesian functions: 1137
    Spherical Harmonics?: true
    Max angular momentum: 3

  Minimum eigenvalue in the overlap matrix is 1.7665750312E-04.
  Reciprocal condition number of the overlap matrix is 1.3459456941E-05.
    Using symmetric orthogonalization.

  ==> Pre-Iterations <==

  SCF Guess: Superposition of Atomic Densities via on-the-fly atomic UHF (no occupation information).

   -------------------------
    Irrep   Nso     Nmo    
   -------------------------
     A        260     260 
   -------------------------
    Total     260     260
   -------------------------

  ==> Iterations <==

                           Total Energy        Delta E     RMS |[F,P]|

   @DF-RHF iter SAD:  -794.27673363184431   -7.94277e+02   0.00000e+00 
   @DF-RHF iter   1:  -795.27194074246790   -9.95207e-01   3.48796e-03 DIIS
   @DF-RHF iter   2:  -795.51689686215173   -2.44956e-01   2.12567e-03 DIIS
   @DF-RHF iter   3:  -795.62494082298269   -1.08044e-01   2.40304e-04 DIIS
   @DF-RHF iter   4:  -795.62748346879630   -2.54265e-03   9.73061e-05 DIIS
   @DF-RHF iter   5:  -795.62782163031602   -3.38162e-04   2.55241e-05 DIIS
   @DF-RHF iter   6:  -795.62784889534089   -2.72650e-05   7.21075e-06 DIIS
   @DF-RHF iter   7:  -795.62785207533443   -3.17999e-06   1.98570e-06 DIIS
   @DF-RHF iter   8:  -795.62785236208731   -2.86753e-07   6.28330e-07 DIIS
   @DF-RHF iter   9:  -795.62785238696119   -2.48739e-08   2.79395e-07 DIIS
   @DF-RHF iter  10:  -795.62785239116181   -4.20061e-09   6.76831e-08 DIIS
   @DF-RHF iter  11:  -795.62785239148559   -3.23780e-10   2.14231e-08 DIIS
   @DF-RHF iter  12:  -795.62785239151242   -2.68301e-11   7.61325e-09 DIIS
  Energy and wave function converged.


  ==> Post-Iterations <==

    Orbital Energies [Eh]
    ---------------------

    Doubly Occupied:                                                      

       1A    -79.917448     2A    -20.434009     3A    -20.410167  
       4A    -20.391774     5A    -20.328018     6A    -20.323925  
       7A    -11.155332     8A    -11.109123     9A     -7.435152  
      10A     -5.333866    11A     -5.333137    12A     -5.332752  
      13A     -1.268920    14A     -1.203934    15A     -1.186925  
      16A     -1.128614    17A     -1.086692    18A     -0.814384  
      19A     -0.757662    20A     -0.603909    21A     -0.558507  
      22A     -0.537383    23A     -0.508923    24A     -0.501801  
      25A     -0.468414    26A     -0.450798    27A     -0.448469  
      28A     -0.422604    29A     -0.388590    30A     -0.361332  
      31A     -0.353205    32A     -0.344678    33A     -0.325998  
      34A     -0.302486    35A     -0.281604    36A     -0.272419  
      37A     -0.261805    38A     -0.236932  

    Virtual:                                                              

      39A      0.125234    40A      0.134936    41A      0.146596  
      42A      0.151889    43A      0.159403    44A      0.168773  
      45A      0.179334    46A      0.191632    47A      0.201736  
      48A      0.227190    49A      0.234461    50A      0.244975  
      51A      0.250782    52A      0.263161    53A      0.267385  
      54A      0.281646    55A      0.294565    56A      0.306586  
      57A      0.311007    58A      0.328733    59A      0.336290  
      60A      0.344553    61A      0.360670    62A      0.381748  
      63A      0.389569    64A      0.396175    65A      0.403149  
      66A      0.412154    67A      0.418017    68A      0.429912  
      69A      0.440951    70A      0.448109    71A      0.451239  
      72A      0.456573    73A      0.464721    74A      0.472555  
      75A      0.483532    76A      0.488254    77A      0.500325  
      78A      0.508775    79A      0.514843    80A      0.523944  
      81A      0.530813    82A      0.542839    83A      0.544988  
      84A      0.555853    85A      0.564763    86A      0.576404  
      87A      0.578392    88A      0.583277    89A      0.594632  
      90A      0.600925    91A      0.607886    92A      0.623729  
      93A      0.627566    94A      0.640714    95A      0.647495  
      96A      0.654431    97A      0.663768    98A      0.666974  
      99A      0.684977   100A      0.701992   101A      0.705900  
     102A      0.713720   103A      0.723318   104A      0.729607  
     105A      0.738241   106A      0.753825   107A      0.767833  
     108A      0.778459   109A      0.783602   110A      0.795378  
     111A      0.803000   112A      0.812035   113A      0.813484  
     114A      0.830728   115A      0.833275   116A      0.842728  
     117A      0.856341   118A      0.865276   119A      0.872813  
     120A      0.897604   121A      0.899611   122A      0.917259  
     123A      0.920568   124A      0.924566   125A      0.932557  
     126A      0.965422   127A      0.972310   128A      0.979796  
     129A      0.997751   130A      1.007188   131A      1.018801  
     132A      1.058564   133A      1.109818   134A      1.120349  
     135A      1.135188   136A      1.155057   137A      1.176759  
     138A      1.187088   139A      1.192292   140A      1.211590  
     141A      1.227887   142A      1.234718   143A      1.254701  
     144A      1.272618   145A      1.279858   146A      1.322825  
     147A      1.334391   148A      1.352711   149A      1.367961  
     150A      1.375761   151A      1.388292   152A      1.406902  
     153A      1.426057   154A      1.440515   155A      1.457409  
     156A      1.463044   157A      1.470962   158A      1.478254  
     159A      1.521768   160A      1.533404   161A      1.543170  
     162A      1.569022   163A      1.577510   164A      1.604783  
     165A      1.634628   166A      1.654429   167A      1.661081  
     168A      1.690278   169A      1.720089   170A      1.741402  
     171A      1.762401   172A      1.775830   173A      1.784877  
     174A      1.802440   175A      1.804199   176A      1.829434  
     177A      1.850037   178A      1.877645   179A      1.900460  
     180A      1.915343   181A      1.948082   182A      1.964326  
     183A      2.004573   184A      2.029262   185A      2.038963  
     186A      2.044154   187A      2.071188   188A      2.083833  
     189A      2.090241   190A      2.128877   191A      2.141779  
     192A      2.151718   193A      2.170139   194A      2.188997  
     195A      2.221453   196A      2.223891   197A      2.247143  
     198A      2.301280   199A      2.313230   200A      2.318433  
     201A      2.332703   202A      2.360214   203A      2.389044  
     204A      2.409596   205A      2.421788   206A      2.451223  
     207A      2.463163   208A      2.477538   209A      2.488192  
     210A      2.501619   211A      2.543166   212A      2.553742  
     213A      2.605630   214A      2.621249   215A      2.688628  
     216A      2.730733   217A      2.771401   218A      2.837841  
     219A      2.843351   220A      2.872705   221A      2.885619  
     222A      2.909114   223A      2.946793   224A      3.015657  
     225A      3.068657   226A      3.079511   227A      3.118275  
     228A      3.177772   229A      3.193573   230A      3.201102  
     231A      3.303530   232A      3.364651   233A      3.397873  
     234A      3.452821   235A      3.482867   236A      3.868370  
     237A      3.893583   238A      3.903667   239A      3.908380  
     240A      3.924631   241A      3.925671   242A      3.957505  
     243A      3.970893   244A      3.976095   245A      3.980506  
     246A      4.001994   247A      4.031450   248A      4.033786  
     249A      4.040304   250A      4.055047   251A      4.077859  
     252A      4.115521   253A      4.124726   254A      4.198544  
     255A      4.205099   256A      4.225765   257A      4.278954  
     258A      4.351646   259A      4.365814   260A      4.571425  

    Final Occupation by Irrep:
              A 
    DOCC [    38 ]

  @DF-RHF Final Energy:  -795.62785239151242

   => Energetics <=

    Nuclear Repulsion Energy =            541.1859162971899195
    One-Electron Energy =               -2188.4641387588512771
    Two-Electron Energy =                 851.6503700701488242
    Total Energy =                       -795.6278523915124197

Computation Completed


Properties will be evaluated at   0.000000,   0.000000,   0.000000 [a0]

Properties computed using the SCF density matrix

  Nuclear Dipole Moment: [e a0]
     X:     2.0320      Y:     3.9558      Z:    -3.6099

  Electronic Dipole Moment: [e a0]
     X:    -2.8689      Y:    -3.5489      Z:     2.0868

  Dipole Moment: [e a0]
     X:    -0.8369      Y:     0.4069      Z:    -1.5231     Total:     1.7848

  Dipole Moment: [D]
     X:    -2.1271      Y:     1.0342      Z:    -3.8712     Total:     4.5366


*** tstop() called on node150.bme.utexas.edu at Sun May 12 22:57:16 2024
Module time:
	user time   =      18.32 seconds =       0.31 minutes
	system time =       0.49 seconds =       0.01 minutes
	total time  =          3 seconds =       0.05 minutes
Total time:
	user time   =      18.32 seconds =       0.31 minutes
	system time =       0.49 seconds =       0.01 minutes
	total time  =          3 seconds =       0.05 minutes

*** tstart() called on node150.bme.utexas.edu
*** at Sun May 12 22:57:16 2024


  //>>>>>>>>>>>>>>>>>>>>>>>>>>>>>>>>>>>//
  //               DFMP2               //
  //<<<<<<<<<<<<<<<<<<<<<<<<<<<<<<<<<<<//

   => Loading Basis Set <=

    Name: (AUG-CC-PVDZ AUX)
    Role: RIFIT
    Keyword: DF_BASIS_MP2
    atoms 1, 12-15       entry O          line   204 file /opt/anaconda/envs/psi4v1.5/share/psi4/basis/aug-cc-pvdz-ri.gbs 
    atoms 2-4, 6-7, 9-11 entry H          line    30 file /opt/anaconda/envs/psi4v1.5/share/psi4/basis/aug-cc-pvdz-ri.gbs 
    atoms 5, 8           entry C          line   112 file /opt/anaconda/envs/psi4v1.5/share/psi4/basis/aug-cc-pvdz-ri.gbs 
    atoms 16             entry P          line   458 file /opt/anaconda/envs/psi4v1.5/share/psi4/basis/aug-cc-pvdz-ri.gbs 

	 --------------------------------------------------------
	                          DF-MP2                         
	      2nd-Order Density-Fitted Moller-Plesset Theory     
	              RMP2 Wavefunction,   8 Threads             
	                                                         
	        Rob Parrish, Justin Turney, Andy Simmonett,      
	           Ed Hohenstein, and C. David Sherrill          
	 --------------------------------------------------------

   => Auxiliary Basis Set <=

  Basis Set: (AUG-CC-PVDZ AUX)
    Blend: AUG-CC-PVDZ-RI
    Number of shells: 254
    Number of basis functions: 780
    Number of Cartesian functions: 912
    Spherical Harmonics?: true
    Max angular momentum: 3

	 --------------------------------------------------------
	                 NBF =   260, NAUX =   780
	 --------------------------------------------------------
	   CLASS    FOCC     OCC    AOCC    AVIR     VIR    FVIR
	   PAIRS      12      38      26     222     222       0
	 --------------------------------------------------------

	 Will save fitting metric to file 97.

	-----------------------------------------------------------
	 ==================> DF-MP2 Energies <==================== 
	-----------------------------------------------------------
	 Reference Energy          =    -795.6278523915124197 [Eh]
	 Singles Energy            =      -0.0000000000000000 [Eh]
	 Same-Spin Energy          =      -0.3846376790170998 [Eh]
	 Opposite-Spin Energy      =      -1.0695534289235102 [Eh]
	 Correlation Energy        =      -1.4541911079406100 [Eh]
	 Total Energy              =    -797.0820434994529933 [Eh]
	-----------------------------------------------------------
	 ================> DF-SCS-MP2 Energies <================== 
	-----------------------------------------------------------
	 SCS Same-Spin Scale       =       0.3333333333333333 [-]
	 SCS Opposite-Spin Scale   =       1.2000000000000000 [-]
	 SCS Same-Spin Energy      =      -0.1282125596723666 [Eh]
	 SCS Opposite-Spin Energy  =      -1.2834641147082122 [Eh]
	 SCS Correlation Energy    =      -1.4116766743805789 [Eh]
	 SCS Total Energy          =    -797.0395290658930207 [Eh]
	-----------------------------------------------------------


*** tstop() called on node150.bme.utexas.edu at Sun May 12 22:57:17 2024
Module time:
	user time   =       6.79 seconds =       0.11 minutes
	system time =       0.13 seconds =       0.00 minutes
	total time  =          1 seconds =       0.02 minutes
Total time:
	user time   =      25.12 seconds =       0.42 minutes
	system time =       0.62 seconds =       0.01 minutes
	total time  =          4 seconds =       0.07 minutes

  //>>>>>>>>>>>>>>>>>>>>>>>>>>>>>>>>>>>//
  //            Monomer A HF           //
  //<<<<<<<<<<<<<<<<<<<<<<<<<<<<<<<<<<<//


*** tstart() called on node150.bme.utexas.edu
*** at Sun May 12 22:57:17 2024

   => Loading Basis Set <=

    Name: AUG-CC-PVDZ
    Role: ORBITAL
    Keyword: BASIS
    atoms 1, 12-15       entry O          line   254 file /opt/anaconda/envs/psi4v1.5/share/psi4/basis/aug-cc-pvdz.gbs 
    atoms 2-4, 6-7, 9-11 entry H          line    40 file /opt/anaconda/envs/psi4v1.5/share/psi4/basis/aug-cc-pvdz.gbs 
    atoms 5, 8           entry C          line   182 file /opt/anaconda/envs/psi4v1.5/share/psi4/basis/aug-cc-pvdz.gbs 
    atoms 16             entry P          line   636 file /opt/anaconda/envs/psi4v1.5/share/psi4/basis/aug-cc-pvdz.gbs 


         ---------------------------------------------------------
                                   SCF
               by Justin Turney, Rob Parrish, Andy Simmonett
                          and Daniel G. A. Smith
                              RHF Reference
                        8 Threads,  47683 MiB Core
         ---------------------------------------------------------

  ==> Geometry <==

    Molecular point group: c1
    Full point group: C1

    Geometry (in Angstrom), charge = 0, multiplicity = 1:

       Center              X                  Y                   Z               Mass       
    ------------   -----------------  -----------------  -----------------  -----------------
         O            3.224421078715    -0.712618355942    -0.426504940443    15.994914619570
         H            2.428681078715    -1.110428355942     0.006505059557     1.007825032230
         H            3.223651078715    -1.035558355942    -1.332504940443     1.007825032230
      Gh(H)          -2.587124600772     0.939833567135    -1.432934966084     1.007825032230
      Gh(C)          -2.718034600772     0.094673567135    -0.753204966084    12.000000000000
      Gh(H)           1.324215399228     1.782133567135     0.989135033916     1.007825032230
      Gh(H)           2.273575399228     0.959243567135    -0.257314966084     1.007825032230
      Gh(C)           1.390545399228     1.643873567135    -0.095944966084    12.000000000000
      Gh(H)          -3.508674600772    -0.559336432865    -1.121194966084     1.007825032230
      Gh(H)          -2.968744600772     0.472463567135     0.240765033916     1.007825032230
      Gh(H)           1.576715399228     2.578263567135    -0.631614966084     1.007825032230
      Gh(O)          -0.946724600772     0.418383567135     1.555655033916    15.994914619570
      Gh(O)           0.654085399228    -1.248086432865     0.420595033916    15.994914619570
      Gh(O)          -1.531914600772    -0.673526432865    -0.699824966084    15.994914619570
      Gh(O)           0.267835399228     1.050403567135    -0.606884966084    15.994914619570
      Gh(P)          -0.404244600772    -0.202736432865     0.318635033916    30.973761998420

  Running in c1 symmetry.

  Rotational constants: A =      0.09176  B =      0.03571  C =      0.03330 [cm^-1]
  Rotational constants: A =   2750.76349  B =   1070.52384  C =    998.31886 [MHz]
  Nuclear repulsion =    9.019511371215872

  Charge       = 0
  Multiplicity = 1
  Electrons    = 10
  Nalpha       = 5
  Nbeta        = 5

  ==> Algorithm <==

  SCF Algorithm Type is DF.
  DIIS enabled.
  MOM disabled.
  Fractional occupation disabled.
  Guess Type is SAD.
  Energy threshold   = 1.00e-08
  Density threshold  = 1.00e-08
  Integral threshold = 1.00e-12

  ==> Primary Basis <==

  Basis Set: AUG-CC-PVDZ
    Blend: AUG-CC-PVDZ
    Number of shells: 114
    Number of basis functions: 260
    Number of Cartesian functions: 276
    Spherical Harmonics?: true
    Max angular momentum: 2

   => Loading Basis Set <=

    Name: (AUG-CC-PVDZ AUX)
    Role: JKFIT
    Keyword: DF_BASIS_SCF
    atoms 1, 12-15       entry O          line   270 file /opt/anaconda/envs/psi4v1.5/share/psi4/basis/aug-cc-pvdz-jkfit.gbs 
    atoms 2-4, 6-7, 9-11 entry H          line    70 file /opt/anaconda/envs/psi4v1.5/share/psi4/basis/aug-cc-pvdz-jkfit.gbs 
    atoms 5, 8           entry C          line   154 file /opt/anaconda/envs/psi4v1.5/share/psi4/basis/aug-cc-pvdz-jkfit.gbs 
    atoms 16             entry P          line   608 file /opt/anaconda/envs/psi4v1.5/share/psi4/basis/aug-cc-pvdz-jkfit.gbs 

  ==> Integral Setup <==

  ==> DiskDFJK: Density-Fitted J/K Matrices <==

    J tasked:                  Yes
    K tasked:                  Yes
    wK tasked:                  No
    OpenMP threads:              8
    Integrals threads:           8
    Memory [MiB]:            35762
    Algorithm:                Core
    Integral Cache:           LOAD
    Schwarz Cutoff:          1E-12
    Fitting Condition:       1E-10

   => Auxiliary Basis Set <=

  Basis Set: (AUG-CC-PVDZ AUX)
    Blend: AUG-CC-PVDZ-JKFIT
    Number of shells: 332
    Number of basis functions: 986
    Number of Cartesian functions: 1137
    Spherical Harmonics?: true
    Max angular momentum: 3

  Minimum eigenvalue in the overlap matrix is 1.7665750312E-04.
  Reciprocal condition number of the overlap matrix is 1.3459456941E-05.
    Using symmetric orthogonalization.

  ==> Pre-Iterations <==

  SCF Guess: Superposition of Atomic Densities via on-the-fly atomic UHF (no occupation information).

   -------------------------
    Irrep   Nso     Nmo    
   -------------------------
     A        260     260 
   -------------------------
    Total     260     260
   -------------------------

  ==> Iterations <==

                           Total Energy        Delta E     RMS |[F,P]|

   @DF-RHF iter SAD:   -75.44268840419309   -7.54427e+01   0.00000e+00 
   @DF-RHF iter   1:   -75.95503468634914   -5.12346e-01   1.74182e-03 DIIS
   @DF-RHF iter   2:   -76.00772858110585   -5.26939e-02   1.15981e-03 DIIS
   @DF-RHF iter   3:   -76.03948468180310   -3.17561e-02   8.28658e-05 DIIS
   @DF-RHF iter   4:   -76.03988738672446   -4.02705e-04   1.93907e-05 DIIS
   @DF-RHF iter   5:   -76.03991223173745   -2.48450e-05   4.46785e-06 DIIS
   @DF-RHF iter   6:   -76.03991428624134   -2.05450e-06   9.10226e-07 DIIS
   @DF-RHF iter   7:   -76.03991437659799   -9.03567e-08   1.54110e-07 DIIS
   @DF-RHF iter   8:   -76.03991437895097   -2.35298e-09   2.53748e-08 DIIS
   @DF-RHF iter   9:   -76.03991437900761   -5.66445e-11   6.68631e-09 DIIS
  Energy and wave function converged.


  ==> Post-Iterations <==

    Orbital Energies [Eh]
    ---------------------

    Doubly Occupied:                                                      

       1A    -20.579815     2A     -1.346178     3A     -0.711962  
       4A     -0.578658     5A     -0.507303  

    Virtual:                                                              

       6A      0.018984     7A      0.038753     8A      0.042484  
       9A      0.044949    10A      0.061887    11A      0.064443  
      12A      0.071647    13A      0.078574    14A      0.086419  
      15A      0.093196    16A      0.102547    17A      0.114032  
      18A      0.118491    19A      0.127703    20A      0.138400  
      21A      0.145821    22A      0.151291    23A      0.158728  
      24A      0.176217    25A      0.179811    26A      0.186571  
      27A      0.195471    28A      0.203131    29A      0.211557  
      30A      0.229597    31A      0.234383    32A      0.245942  
      33A      0.249283    34A      0.257548    35A      0.261264  
      36A      0.272375    37A      0.279241    38A      0.283181  
      39A      0.288523    40A      0.303821    41A      0.307277  
      42A      0.318630    43A      0.328703    44A      0.339075  
      45A      0.346620    46A      0.362472    47A      0.370161  
      48A      0.377740    49A      0.383051    50A      0.387386  
      51A      0.401608    52A      0.404024    53A      0.426504  
      54A      0.442945    55A      0.453080    56A      0.463270  
      57A      0.472946    58A      0.484752    59A      0.488883  
      60A      0.495735    61A      0.511239    62A      0.520974  
      63A      0.524067    64A      0.537283    65A      0.540327  
      66A      0.560925    67A      0.567027    68A      0.580720  
      69A      0.581595    70A      0.590936    71A      0.598612  
      72A      0.605007    73A      0.617671    74A      0.624984  
      75A      0.639964    76A      0.642301    77A      0.659861  
      78A      0.676210    79A      0.681555    80A      0.697766  
      81A      0.704611    82A      0.718558    83A      0.727204  
      84A      0.747955    85A      0.755368    86A      0.764379  
      87A      0.770086    88A      0.777398    89A      0.796430  
      90A      0.799305    91A      0.817220    92A      0.828080  
      93A      0.832324    94A      0.843118    95A      0.854098  
      96A      0.862027    97A      0.869597    98A      0.884508  
      99A      0.889362   100A      0.909932   101A      0.928036  
     102A      0.944966   103A      0.956154   104A      0.965428  
     105A      0.981482   106A      1.009284   107A      1.030334  
     108A      1.050822   109A      1.069839   110A      1.101642  
     111A      1.139645   112A      1.164917   113A      1.170270  
     114A      1.181927   115A      1.199982   116A      1.222731  
     117A      1.242037   118A      1.255889   119A      1.271260  
     120A      1.279859   121A      1.291047   122A      1.301478  
     123A      1.314872   124A      1.336571   125A      1.345093  
     126A      1.363257   127A      1.386345   128A      1.407153  
     129A      1.420905   130A      1.440842   131A      1.479088  
     132A      1.482595   133A      1.514893   134A      1.530533  
     135A      1.555721   136A      1.563583   137A      1.580353  
     138A      1.591487   139A      1.610568   140A      1.635751  
     141A      1.652389   142A      1.723018   143A      1.731535  
     144A      1.772596   145A      1.792185   146A      1.817649  
     147A      1.850190   148A      1.859761   149A      1.924255  
     150A      1.956441   151A      1.970620   152A      2.005341  
     153A      2.014105   154A      2.048182   155A      2.049520  
     156A      2.081813   157A      2.130859   158A      2.144306  
     159A      2.172577   160A      2.186840   161A      2.226641  
     162A      2.237697   163A      2.267247   164A      2.304744  
     165A      2.320100   166A      2.329932   167A      2.345551  
     168A      2.355098   169A      2.362199   170A      2.383746  
     171A      2.405463   172A      2.429998   173A      2.448733  
     174A      2.470945   175A      2.498583   176A      2.531213  
     177A      2.535483   178A      2.577231   179A      2.591618  
     180A      2.643401   181A      2.667823   182A      2.671613  
     183A      2.683615   184A      2.733805   185A      2.775596  
     186A      2.794053   187A      2.873711   188A      2.886156  
     189A      2.917876   190A      2.943839   191A      2.992965  
     192A      3.073966   193A      3.125624   194A      3.150072  
     195A      3.170863   196A      3.207067   197A      3.285382  
     198A      3.340177   199A      3.405532   200A      3.443954  
     201A      3.456853   202A      3.480311   203A      3.760918  
     204A      3.821544   205A      3.828204   206A      3.980027  
     207A      4.061258   208A      4.119756   209A      4.154978  
     210A      4.185169   211A      4.385623   212A      4.678349  
     213A      4.784556   214A      4.911791   215A      4.921249  
     216A      4.951433   217A      4.952238   218A      4.963888  
     219A      4.976208   220A      4.985883   221A      5.009778  
     222A      5.021233   223A      5.026033   224A      5.044935  
     225A      5.063517   226A      5.071907   227A      5.095972  
     228A      5.142227   229A      5.157837   230A      5.162191  
     231A      5.196506   232A      5.235513   233A      5.306707  
     234A      5.339668   235A      5.363768   236A      5.516999  
     237A      5.646135   238A      5.882542   239A      5.983618  
     240A      6.048219   241A      6.068827   242A      6.085384  
     243A      6.186601   244A      6.206633   245A      6.304060  
     246A      6.342997   247A      6.373272   248A      6.489276  
     249A      7.028284   250A      7.147520   251A     18.213522  
     252A     18.507432   253A     18.539704   254A     18.579597  
     255A     18.779126   256A     33.478274   257A     33.496755  
     258A     33.522010   259A     33.534156   260A    120.582164  

    Final Occupation by Irrep:
              A 
    DOCC [     5 ]

  @DF-RHF Final Energy:   -76.03991437900761

   => Energetics <=

    Nuclear Repulsion Energy =              9.0195113712158719
    One-Electron Energy =                -122.6710177717419157
    Two-Electron Energy =                  37.6115920215184474
    Total Energy =                        -76.0399143790075982

Computation Completed


Properties will be evaluated at   0.000000,   0.000000,   0.000000 [a0]

Properties computed using the SCF density matrix

  Nuclear Dipole Moment: [e a0]
     X:    59.4275      Y:   -14.8286      Z:    -8.9536

  Electronic Dipole Moment: [e a0]
     X:   -59.9542      Y:    14.3514      Z:     8.6366

  Dipole Moment: [e a0]
     X:    -0.5267      Y:    -0.4771      Z:    -0.3170     Total:     0.7781

  Dipole Moment: [D]
     X:    -1.3386      Y:    -1.2128      Z:    -0.8057     Total:     1.9779


*** tstop() called on node150.bme.utexas.edu at Sun May 12 22:57:19 2024
Module time:
	user time   =       9.09 seconds =       0.15 minutes
	system time =       0.13 seconds =       0.00 minutes
	total time  =          2 seconds =       0.03 minutes
Total time:
	user time   =      34.22 seconds =       0.57 minutes
	system time =       0.76 seconds =       0.01 minutes
	total time  =          6 seconds =       0.10 minutes

*** tstart() called on node150.bme.utexas.edu
*** at Sun May 12 22:57:19 2024


  //>>>>>>>>>>>>>>>>>>>>>>>>>>>>>>>>>>>//
  //               DFMP2               //
  //<<<<<<<<<<<<<<<<<<<<<<<<<<<<<<<<<<<//

   => Loading Basis Set <=

    Name: (AUG-CC-PVDZ AUX)
    Role: RIFIT
    Keyword: DF_BASIS_MP2
    atoms 1, 12-15       entry O          line   204 file /opt/anaconda/envs/psi4v1.5/share/psi4/basis/aug-cc-pvdz-ri.gbs 
    atoms 2-4, 6-7, 9-11 entry H          line    30 file /opt/anaconda/envs/psi4v1.5/share/psi4/basis/aug-cc-pvdz-ri.gbs 
    atoms 5, 8           entry C          line   112 file /opt/anaconda/envs/psi4v1.5/share/psi4/basis/aug-cc-pvdz-ri.gbs 
    atoms 16             entry P          line   458 file /opt/anaconda/envs/psi4v1.5/share/psi4/basis/aug-cc-pvdz-ri.gbs 

	 --------------------------------------------------------
	                          DF-MP2                         
	      2nd-Order Density-Fitted Moller-Plesset Theory     
	              RMP2 Wavefunction,   8 Threads             
	                                                         
	        Rob Parrish, Justin Turney, Andy Simmonett,      
	           Ed Hohenstein, and C. David Sherrill          
	 --------------------------------------------------------

   => Auxiliary Basis Set <=

  Basis Set: (AUG-CC-PVDZ AUX)
    Blend: AUG-CC-PVDZ-RI
    Number of shells: 254
    Number of basis functions: 780
    Number of Cartesian functions: 912
    Spherical Harmonics?: true
    Max angular momentum: 3

	 --------------------------------------------------------
	                 NBF =   260, NAUX =   780
	 --------------------------------------------------------
	   CLASS    FOCC     OCC    AOCC    AVIR     VIR    FVIR
	   PAIRS       1       5       4     255     255       0
	 --------------------------------------------------------

	 Will attempt to load fitting metric from file 97.

	-----------------------------------------------------------
	 ==================> DF-MP2 Energies <==================== 
	-----------------------------------------------------------
	 Reference Energy          =     -76.0399143790076124 [Eh]
	 Singles Energy            =      -0.0000000000000000 [Eh]
	 Same-Spin Energy          =      -0.0563876532095299 [Eh]
	 Opposite-Spin Energy      =      -0.1656044838162317 [Eh]
	 Correlation Energy        =      -0.2219921370257616 [Eh]
	 Total Energy              =     -76.2619065160333776 [Eh]
	-----------------------------------------------------------
	 ================> DF-SCS-MP2 Energies <================== 
	-----------------------------------------------------------
	 SCS Same-Spin Scale       =       0.3333333333333333 [-]
	 SCS Opposite-Spin Scale   =       1.2000000000000000 [-]
	 SCS Same-Spin Energy      =      -0.0187958844031766 [Eh]
	 SCS Opposite-Spin Energy  =      -0.1987253805794781 [Eh]
	 SCS Correlation Energy    =      -0.2175212649826547 [Eh]
	 SCS Total Energy          =     -76.2574356439902630 [Eh]
	-----------------------------------------------------------


*** tstop() called on node150.bme.utexas.edu at Sun May 12 22:57:19 2024
Module time:
	user time   =       4.84 seconds =       0.08 minutes
	system time =       0.07 seconds =       0.00 minutes
	total time  =          0 seconds =       0.00 minutes
Total time:
	user time   =      39.06 seconds =       0.65 minutes
	system time =       0.83 seconds =       0.01 minutes
	total time  =          6 seconds =       0.10 minutes

  //>>>>>>>>>>>>>>>>>>>>>>>>>>>>>>>>>>>//
  //            Monomer B HF           //
  //<<<<<<<<<<<<<<<<<<<<<<<<<<<<<<<<<<<//


*** tstart() called on node150.bme.utexas.edu
*** at Sun May 12 22:57:19 2024

   => Loading Basis Set <=

    Name: AUG-CC-PVDZ
    Role: ORBITAL
    Keyword: BASIS
    atoms 1, 12-15       entry O          line   254 file /opt/anaconda/envs/psi4v1.5/share/psi4/basis/aug-cc-pvdz.gbs 
    atoms 2-4, 6-7, 9-11 entry H          line    40 file /opt/anaconda/envs/psi4v1.5/share/psi4/basis/aug-cc-pvdz.gbs 
    atoms 5, 8           entry C          line   182 file /opt/anaconda/envs/psi4v1.5/share/psi4/basis/aug-cc-pvdz.gbs 
    atoms 16             entry P          line   636 file /opt/anaconda/envs/psi4v1.5/share/psi4/basis/aug-cc-pvdz.gbs 


         ---------------------------------------------------------
                                   SCF
               by Justin Turney, Rob Parrish, Andy Simmonett
                          and Daniel G. A. Smith
                              RHF Reference
                        8 Threads,  47683 MiB Core
         ---------------------------------------------------------

  ==> Geometry <==

    Molecular point group: c1
    Full point group: C1

    Geometry (in Angstrom), charge = -1, multiplicity = 1:

       Center              X                  Y                   Z               Mass       
    ------------   -----------------  -----------------  -----------------  -----------------
      Gh(O)           3.224421078715    -0.712618355942    -0.426504940443    15.994914619570
      Gh(H)           2.428681078715    -1.110428355942     0.006505059557     1.007825032230
      Gh(H)           3.223651078715    -1.035558355942    -1.332504940443     1.007825032230
         H           -2.587124600772     0.939833567135    -1.432934966084     1.007825032230
         C           -2.718034600772     0.094673567135    -0.753204966084    12.000000000000
         H            1.324215399228     1.782133567135     0.989135033916     1.007825032230
         H            2.273575399228     0.959243567135    -0.257314966084     1.007825032230
         C            1.390545399228     1.643873567135    -0.095944966084    12.000000000000
         H           -3.508674600772    -0.559336432865    -1.121194966084     1.007825032230
         H           -2.968744600772     0.472463567135     0.240765033916     1.007825032230
         H            1.576715399228     2.578263567135    -0.631614966084     1.007825032230
         O           -0.946724600772     0.418383567135     1.555655033916    15.994914619570
         O            0.654085399228    -1.248086432865     0.420595033916    15.994914619570
         O           -1.531914600772    -0.673526432865    -0.699824966084    15.994914619570
         O            0.267835399228     1.050403567135    -0.606884966084    15.994914619570
         P           -0.404244600772    -0.202736432865     0.318635033916    30.973761998420

  Running in c1 symmetry.

  Rotational constants: A =      0.09176  B =      0.03571  C =      0.03330 [cm^-1]
  Rotational constants: A =   2750.76349  B =   1070.52384  C =    998.31886 [MHz]
  Nuclear repulsion =  440.387918010924579

  Charge       = -1
  Multiplicity = 1
  Electrons    = 66
  Nalpha       = 33
  Nbeta        = 33

  ==> Algorithm <==

  SCF Algorithm Type is DF.
  DIIS enabled.
  MOM disabled.
  Fractional occupation disabled.
  Guess Type is SAD.
  Energy threshold   = 1.00e-08
  Density threshold  = 1.00e-08
  Integral threshold = 1.00e-12

  ==> Primary Basis <==

  Basis Set: AUG-CC-PVDZ
    Blend: AUG-CC-PVDZ
    Number of shells: 114
    Number of basis functions: 260
    Number of Cartesian functions: 276
    Spherical Harmonics?: true
    Max angular momentum: 2

   => Loading Basis Set <=

    Name: (AUG-CC-PVDZ AUX)
    Role: JKFIT
    Keyword: DF_BASIS_SCF
    atoms 1, 12-15       entry O          line   270 file /opt/anaconda/envs/psi4v1.5/share/psi4/basis/aug-cc-pvdz-jkfit.gbs 
    atoms 2-4, 6-7, 9-11 entry H          line    70 file /opt/anaconda/envs/psi4v1.5/share/psi4/basis/aug-cc-pvdz-jkfit.gbs 
    atoms 5, 8           entry C          line   154 file /opt/anaconda/envs/psi4v1.5/share/psi4/basis/aug-cc-pvdz-jkfit.gbs 
    atoms 16             entry P          line   608 file /opt/anaconda/envs/psi4v1.5/share/psi4/basis/aug-cc-pvdz-jkfit.gbs 

  ==> Integral Setup <==

  ==> DiskDFJK: Density-Fitted J/K Matrices <==

    J tasked:                  Yes
    K tasked:                  Yes
    wK tasked:                  No
    OpenMP threads:              8
    Integrals threads:           8
    Memory [MiB]:            35762
    Algorithm:                Core
    Integral Cache:           LOAD
    Schwarz Cutoff:          1E-12
    Fitting Condition:       1E-10

   => Auxiliary Basis Set <=

  Basis Set: (AUG-CC-PVDZ AUX)
    Blend: AUG-CC-PVDZ-JKFIT
    Number of shells: 332
    Number of basis functions: 986
    Number of Cartesian functions: 1137
    Spherical Harmonics?: true
    Max angular momentum: 3

  Minimum eigenvalue in the overlap matrix is 1.7665750312E-04.
  Reciprocal condition number of the overlap matrix is 1.3459456941E-05.
    Using symmetric orthogonalization.

  ==> Pre-Iterations <==

  SCF Guess: Superposition of Atomic Densities via on-the-fly atomic UHF (no occupation information).

   -------------------------
    Irrep   Nso     Nmo    
   -------------------------
     A        260     260 
   -------------------------
    Total     260     260
   -------------------------

  ==> Iterations <==

                           Total Energy        Delta E     RMS |[F,P]|

   @DF-RHF iter SAD:  -718.60179220148029   -7.18602e+02   0.00000e+00 
   @DF-RHF iter   1:  -719.28373142862915   -6.81939e-01   3.14997e-03 DIIS
   @DF-RHF iter   2:  -719.48355981758982   -1.99828e-01   1.97030e-03 DIIS
   @DF-RHF iter   3:  -719.57683041786970   -9.32706e-02   2.28322e-04 DIIS
   @DF-RHF iter   4:  -719.57898866412575   -2.15825e-03   9.41670e-05 DIIS
   @DF-RHF iter   5:  -719.57930114296255   -3.12479e-04   2.18742e-05 DIIS
   @DF-RHF iter   6:  -719.57932061293798   -1.94700e-05   6.02772e-06 DIIS
   @DF-RHF iter   7:  -719.57932269540686   -2.08247e-06   1.55136e-06 DIIS
   @DF-RHF iter   8:  -719.57932287198139   -1.76575e-07   4.37290e-07 DIIS
   @DF-RHF iter   9:  -719.57932288681502   -1.48336e-08   1.88766e-07 DIIS
   @DF-RHF iter  10:  -719.57932288901736   -2.20234e-09   5.87268e-08 DIIS
   @DF-RHF iter  11:  -719.57932288922984   -2.12481e-10   1.67386e-08 DIIS
   @DF-RHF iter  12:  -719.57932288924496   -1.51203e-11   5.56695e-09 DIIS
  Energy and wave function converged.


  ==> Post-Iterations <==

    Orbital Energies [Eh]
    ---------------------

    Doubly Occupied:                                                      

       1A    -79.903209     2A    -20.425029     3A    -20.391836  
       4A    -20.315162     5A    -20.305088     6A    -11.148908  
       7A    -11.128930     8A     -7.421253     9A     -5.319936  
      10A     -5.318985    11A     -5.318922    12A     -1.260469  
      13A     -1.202105    14A     -1.113816    15A     -1.067816  
      16A     -0.807569    17A     -0.765044    18A     -0.597174  
      19A     -0.535808    20A     -0.503009    21A     -0.493653  
      22A     -0.467912    23A     -0.453437    24A     -0.434021  
      25A     -0.372917    26A     -0.351143    27A     -0.347754  
      28A     -0.318188    29A     -0.287213    30A     -0.283501  
      31A     -0.264580    32A     -0.246286    33A     -0.226956  

    Virtual:                                                              

      34A      0.127732    35A      0.132321    36A      0.145847  
      37A      0.152220    38A      0.159975    39A      0.166556  
      40A      0.172621    41A      0.185952    42A      0.204368  
      43A      0.231600    44A      0.236845    45A      0.246964  
      46A      0.251986    47A      0.265832    48A      0.266703  
      49A      0.275299    50A      0.285492    51A      0.294642  
      52A      0.307182    53A      0.315419    54A      0.323706  
      55A      0.338690    56A      0.347953    57A      0.363009  
      58A      0.374308    59A      0.391855    60A      0.404122  
      61A      0.409255    62A      0.420933    63A      0.432209  
      64A      0.450268    65A      0.452230    66A      0.459822  
      67A      0.461264    68A      0.466342    69A      0.477467  
      70A      0.486452    71A      0.494105    72A      0.504039  
      73A      0.514054    74A      0.522760    75A      0.531121  
      76A      0.538806    77A      0.546865    78A      0.551321  
      79A      0.562502    80A      0.567376    81A      0.569992  
      82A      0.582692    83A      0.585699    84A      0.598209  
      85A      0.605982    86A      0.607512    87A      0.616361  
      88A      0.631685    89A      0.640740    90A      0.641687  
      91A      0.649165    92A      0.660824    93A      0.668384  
      94A      0.680959    95A      0.695539    96A      0.705784  
      97A      0.714424    98A      0.724313    99A      0.727862  
     100A      0.737753   101A      0.756661   102A      0.770737  
     103A      0.775763   104A      0.785483   105A      0.799020  
     106A      0.801211   107A      0.812124   108A      0.815572  
     109A      0.826446   110A      0.844233   111A      0.848532  
     112A      0.860047   113A      0.870321   114A      0.875764  
     115A      0.888929   116A      0.903882   117A      0.907897  
     118A      0.924684   119A      0.927740   120A      0.944743  
     121A      0.949113   122A      0.973844   123A      0.988536  
     124A      1.001055   125A      1.004866   126A      1.019567  
     127A      1.067416   128A      1.116124   129A      1.133476  
     130A      1.159789   131A      1.161886   132A      1.188846  
     133A      1.194654   134A      1.197665   135A      1.211039  
     136A      1.215368   137A      1.240518   138A      1.267165  
     139A      1.273174   140A      1.296667   141A      1.320711  
     142A      1.335083   143A      1.371091   144A      1.377512  
     145A      1.388984   146A      1.410421   147A      1.418174  
     148A      1.421532   149A      1.439836   150A      1.464689  
     151A      1.484897   152A      1.500513   153A      1.512327  
     154A      1.528580   155A      1.544418   156A      1.550632  
     157A      1.570074   158A      1.584437   159A      1.605936  
     160A      1.625040   161A      1.631763   162A      1.659134  
     163A      1.669830   164A      1.697870   165A      1.715486  
     166A      1.729689   167A      1.762079   168A      1.769032  
     169A      1.783713   170A      1.792817   171A      1.815451  
     172A      1.831921   173A      1.841380   174A      1.880885  
     175A      1.901458   176A      1.924751   177A      1.941294  
     178A      1.968119   179A      1.986600   180A      2.029992  
     181A      2.048944   182A      2.049165   183A      2.073069  
     184A      2.083655   185A      2.105964   186A      2.137993  
     187A      2.160309   188A      2.174611   189A      2.224516  
     190A      2.234208   191A      2.263605   192A      2.307626  
     193A      2.313669   194A      2.323238   195A      2.339143  
     196A      2.382721   197A      2.412926   198A      2.416655  
     199A      2.418098   200A      2.453409   201A      2.468346  
     202A      2.474287   203A      2.482861   204A      2.506885  
     205A      2.545523   206A      2.585994   207A      2.613588  
     208A      2.640808   209A      2.692160   210A      2.753731  
     211A      2.760538   212A      2.818872   213A      2.840451  
     214A      2.854791   215A      2.883146   216A      2.895257  
     217A      2.967326   218A      3.019538   219A      3.047087  
     220A      3.061097   221A      3.121042   222A      3.169386  
     223A      3.201656   224A      3.223474   225A      3.333781  
     226A      3.405555   227A      3.458039   228A      3.480854  
     229A      3.724451   230A      3.877579   231A      3.904844  
     232A      3.914758   233A      3.936324   234A      3.942897  
     235A      3.979691   236A      3.986469   237A      3.995033  
     238A      4.025753   239A      4.039232   240A      4.045744  
     241A      4.060423   242A      4.068244   243A      4.118053  
     244A      4.128164   245A      4.162575   246A      4.200333  
     247A      4.233048   248A      4.251380   249A      4.309239  
     250A      4.354579   251A      4.401765   252A      5.166064  
     253A      5.199907   254A      5.223427   255A      5.378871  
     256A      5.670556   257A      6.246704   258A      6.784331  
     259A      7.209982   260A     33.726124  

    Final Occupation by Irrep:
              A 
    DOCC [    33 ]

  @DF-RHF Final Energy:  -719.57932288924496

   => Energetics <=

    Nuclear Repulsion Energy =            440.3879180109245794
    One-Electron Energy =               -1881.1392170069134409
    Two-Electron Energy =                 721.1719761067439549
    Total Energy =                       -719.5793228892449633

Computation Completed


Properties will be evaluated at   0.000000,   0.000000,   0.000000 [a0]

Properties computed using the SCF density matrix

  Nuclear Dipole Moment: [e a0]
     X:   -57.3955      Y:    18.7843      Z:     5.3437

  Electronic Dipole Moment: [e a0]
     X:    57.3406      Y:   -17.8824      Z:    -6.6436

  Dipole Moment: [e a0]
     X:    -0.0549      Y:     0.9019      Z:    -1.2998     Total:     1.5830

  Dipole Moment: [D]
     X:    -0.1395      Y:     2.2923      Z:    -3.3038     Total:     4.0236


*** tstop() called on node150.bme.utexas.edu at Sun May 12 22:57:22 2024
Module time:
	user time   =      13.96 seconds =       0.23 minutes
	system time =       0.31 seconds =       0.01 minutes
	total time  =          3 seconds =       0.05 minutes
Total time:
	user time   =      53.04 seconds =       0.88 minutes
	system time =       1.14 seconds =       0.02 minutes
	total time  =          9 seconds =       0.15 minutes

*** tstart() called on node150.bme.utexas.edu
*** at Sun May 12 22:57:22 2024


  //>>>>>>>>>>>>>>>>>>>>>>>>>>>>>>>>>>>//
  //               DFMP2               //
  //<<<<<<<<<<<<<<<<<<<<<<<<<<<<<<<<<<<//

   => Loading Basis Set <=

    Name: (AUG-CC-PVDZ AUX)
    Role: RIFIT
    Keyword: DF_BASIS_MP2
    atoms 1, 12-15       entry O          line   204 file /opt/anaconda/envs/psi4v1.5/share/psi4/basis/aug-cc-pvdz-ri.gbs 
    atoms 2-4, 6-7, 9-11 entry H          line    30 file /opt/anaconda/envs/psi4v1.5/share/psi4/basis/aug-cc-pvdz-ri.gbs 
    atoms 5, 8           entry C          line   112 file /opt/anaconda/envs/psi4v1.5/share/psi4/basis/aug-cc-pvdz-ri.gbs 
    atoms 16             entry P          line   458 file /opt/anaconda/envs/psi4v1.5/share/psi4/basis/aug-cc-pvdz-ri.gbs 

	 --------------------------------------------------------
	                          DF-MP2                         
	      2nd-Order Density-Fitted Moller-Plesset Theory     
	              RMP2 Wavefunction,   8 Threads             
	                                                         
	        Rob Parrish, Justin Turney, Andy Simmonett,      
	           Ed Hohenstein, and C. David Sherrill          
	 --------------------------------------------------------

   => Auxiliary Basis Set <=

  Basis Set: (AUG-CC-PVDZ AUX)
    Blend: AUG-CC-PVDZ-RI
    Number of shells: 254
    Number of basis functions: 780
    Number of Cartesian functions: 912
    Spherical Harmonics?: true
    Max angular momentum: 3

	 --------------------------------------------------------
	                 NBF =   260, NAUX =   780
	 --------------------------------------------------------
	   CLASS    FOCC     OCC    AOCC    AVIR     VIR    FVIR
	   PAIRS      11      33      22     227     227       0
	 --------------------------------------------------------

	 Will attempt to load fitting metric from file 97.

	-----------------------------------------------------------
	 ==================> DF-MP2 Energies <==================== 
	-----------------------------------------------------------
	 Reference Energy          =    -719.5793228892449633 [Eh]
	 Singles Energy            =      -0.0000000000000000 [Eh]
	 Same-Spin Energy          =      -0.3250246253996644 [Eh]
	 Opposite-Spin Energy      =      -0.9031620427771068 [Eh]
	 Correlation Energy        =      -1.2281866681767712 [Eh]
	 Total Energy              =    -720.8075095574217812 [Eh]
	-----------------------------------------------------------
	 ================> DF-SCS-MP2 Energies <================== 
	-----------------------------------------------------------
	 SCS Same-Spin Scale       =       0.3333333333333333 [-]
	 SCS Opposite-Spin Scale   =       1.2000000000000000 [-]
	 SCS Same-Spin Energy      =      -0.1083415417998881 [Eh]
	 SCS Opposite-Spin Energy  =      -1.0837944513325282 [Eh]
	 SCS Correlation Energy    =      -1.1921359931324162 [Eh]
	 SCS Total Energy          =    -720.7714588823773738 [Eh]
	-----------------------------------------------------------


*** tstop() called on node150.bme.utexas.edu at Sun May 12 22:57:23 2024
Module time:
	user time   =       5.75 seconds =       0.10 minutes
	system time =       0.11 seconds =       0.00 minutes
	total time  =          1 seconds =       0.02 minutes
Total time:
	user time   =      58.80 seconds =       0.98 minutes
	system time =       1.25 seconds =       0.02 minutes
	total time  =         10 seconds =       0.17 minutes
  Constructing Basis Sets for SAPT...

   => Loading Basis Set <=

    Name: (AUG-CC-PVDZ AUX)
    Role: RIFIT
    Keyword: DF_BASIS_SAPT
    atoms 1, 12-15       entry O          line   204 file /opt/anaconda/envs/psi4v1.5/share/psi4/basis/aug-cc-pvdz-ri.gbs 
    atoms 2-4, 6-7, 9-11 entry H          line    30 file /opt/anaconda/envs/psi4v1.5/share/psi4/basis/aug-cc-pvdz-ri.gbs 
    atoms 5, 8           entry C          line   112 file /opt/anaconda/envs/psi4v1.5/share/psi4/basis/aug-cc-pvdz-ri.gbs 
    atoms 16             entry P          line   458 file /opt/anaconda/envs/psi4v1.5/share/psi4/basis/aug-cc-pvdz-ri.gbs 


  //>>>>>>>>>>>>>>>>>>>>>>>>>>>>>>>>>>>//
  //           SAPT2+(3)DMP2           //
  //<<<<<<<<<<<<<<<<<<<<<<<<<<<<<<<<<<<//


*** tstart() called on node150.bme.utexas.edu
*** at Sun May 12 22:57:23 2024

      SAPT2+(3)  
    Ed Hohenstein
     6 June 2009

      Orbital Information
  --------------------------
    NSO        =       260
    NMO        =       260
    NRI        =       780
    NOCC A     =         5
    NOCC B     =        33
    FOCC A     =         1
    FOCC B     =        11
    NVIR A     =       255
    NVIR B     =       227

    Estimated memory usage: 2105.2 MB

    Natural Orbital Cutoff:   1.000E-06
    Disp(T3) Truncation:            Yes
    CCD (vv|vv) Truncation:         Yes
    MBPT T2 Truncation:             Yes

    Monomer A: 212 virtual orbitals dropped
    Monomer B: 37 virtual orbitals dropped

    Elst10,r            =    -0.037286330222 [Eh]
    Exch10 (S^2)        =     0.041708507239 [Eh]
    Exch10              =     0.042151402907 [Eh]
    Ind20,r (A<-B)      =    -0.007149377582 [Eh]
    Ind20,r (B<-A)      =    -0.012217882251 [Eh]
    Ind20,r             =    -0.019367259833 [Eh]
    Exch-Ind20,r (A<-B) =     0.002788283371 [Eh]
    Exch-Ind20,r (B<-A) =     0.008488811497 [Eh]
    Exch-Ind20,r        =     0.011277094867 [Eh]
    Disp20              =    -0.012705467058 [Eh]
    Disp20 (NO)         =    -0.011472130745 [Eh]
    Exch-Disp20         =     0.002952325526 [Eh]
    Elst12,r            =    -0.000586026653 [Eh]
    Exch11              =     0.000166843167 [Eh]
    Exch12              =     0.006795771968 [Eh]
    Ind22               =    -0.003356488002 [Eh]
    Disp21              =     0.000841368777 [Eh]
    Disp22 (SDQ)        =    -0.000690593903 [Eh]

    (i =   1 of  22)          0 seconds
    (i =   2 of  22)          1 seconds
    (i =   3 of  22)          1 seconds
    (i =   4 of  22)          1 seconds
    (i =   5 of  22)          1 seconds
    (i =   6 of  22)          1 seconds
    (i =   7 of  22)          1 seconds
    (i =   8 of  22)          1 seconds
    (i =   9 of  22)          1 seconds
    (i =  10 of  22)          2 seconds
    (i =  11 of  22)          2 seconds
    (i =  12 of  22)          2 seconds
    (i =  13 of  22)          2 seconds
    (i =  14 of  22)          2 seconds
    (i =  15 of  22)          2 seconds
    (i =  16 of  22)          2 seconds
    (i =  17 of  22)          3 seconds
    (i =  18 of  22)          3 seconds
    (i =  19 of  22)          3 seconds
    (i =  20 of  22)          3 seconds
    (i =  21 of  22)          3 seconds
    (i =  22 of  22)          3 seconds

    Disp220 (T)         =    -0.000921069451 [Eh]

    (i =   1 of   4)          8 seconds
    (i =   2 of   4)         16 seconds
    (i =   3 of   4)         25 seconds
    (i =   4 of   4)         34 seconds

    Disp202 (T)         =    -0.000920259421 [Eh]

    Disp22 (T)          =    -0.001841328873 [Eh]

    Est. Disp220 (T)    =    -0.001020091022 [Eh]
    Est. Disp202 (T)    =    -0.001019193908 [Eh]

    Est. Disp22 (T)     =    -0.002039284929 [Eh]
    Elst13,r            =     0.000701456735 [Eh]
    Disp30              =     0.000187978846 [Eh]

    SAPT Results 
  --------------------------------------------------------------------------------------------------------
    Electrostatics                -37.17090014 [mEh]     -23.32509199 [kcal/mol]     -97.59218487 [kJ/mol]
      Elst10,r                    -37.28633022 [mEh]     -23.39752546 [kcal/mol]     -97.89524651 [kJ/mol]
      Elst12,r                     -0.58602665 [mEh]      -0.36773728 [kcal/mol]      -1.53861276 [kJ/mol]
      Elst13,r                      0.70145673 [mEh]       0.44017075 [kcal/mol]       1.84167440 [kJ/mol]

    Exchange                       49.11401804 [mEh]      30.81951162 [kcal/mol]     128.94883661 [kJ/mol]
      Exch10                       42.15140291 [mEh]      26.45040466 [kcal/mol]     110.66849309 [kJ/mol]
      Exch10(S^2)                  41.70850724 [mEh]      26.17248343 [kcal/mol]     109.50567067 [kJ/mol]
      Exch11(S^2)                   0.16684317 [mEh]       0.10469567 [kcal/mol]       0.43804668 [kJ/mol]
      Exch12(S^2)                   6.79577197 [mEh]       4.26441129 [kcal/mol]      17.84229684 [kJ/mol]

    Induction                     -14.11594563 [mEh]      -8.85788962 [kcal/mol]     -37.06141016 [kJ/mol]
      Ind20,r                     -19.36725983 [mEh]     -12.15313903 [kcal/mol]     -50.84873369 [kJ/mol]
      Ind22                        -3.35648800 [mEh]      -2.10622802 [kcal/mol]      -8.81245804 [kJ/mol]
      Exch-Ind20,r                 11.27709487 [mEh]       7.07648387 [kcal/mol]      29.60800849 [kJ/mol]
      Exch-Ind22                    1.95440315 [mEh]       1.22640649 [kcal/mol]       5.13128476 [kJ/mol]
      delta HF,r (2)               -5.39003098 [mEh]      -3.38229550 [kcal/mol]     -14.15152439 [kJ/mol]
      delta MP2,r (2)               0.76633516 [mEh]       0.48088257 [kcal/mol]       2.01201269 [kJ/mol]

    Dispersion                    -11.45367274 [mEh]      -7.18728815 [kcal/mol]     -30.07161364 [kJ/mol]
      Disp20                      -12.70546706 [mEh]      -7.97280095 [kcal/mol]     -33.35819916 [kJ/mol]
      Disp30                        0.18797885 [mEh]       0.11795851 [kcal/mol]       0.49353839 [kJ/mol]
      Disp21                        0.84136878 [mEh]       0.52796688 [kcal/mol]       2.20901342 [kJ/mol]
      Disp22 (SDQ)                 -0.69059390 [mEh]      -0.43335422 [kcal/mol]      -1.81315404 [kJ/mol]
      Disp22 (T)                   -1.84132887 [mEh]      -1.15545131 [kcal/mol]      -4.83440829 [kJ/mol]
      Est. Disp22 (T)              -2.03928493 [mEh]      -1.27967061 [kcal/mol]      -5.35414184 [kJ/mol]
      Exch-Disp20                   2.95232553 [mEh]       1.85261224 [kcal/mol]       7.75132960 [kJ/mol]

  Total HF                         -8.61512326 [mEh]      -5.40607146 [kcal/mol]     -22.61900300 [kJ/mol]
  Total SAPT0                     -18.36826479 [mEh]     -11.52626017 [kcal/mol]     -48.22587257 [kJ/mol]
  Total SAPT2                     -13.39376116 [mEh]      -8.40471202 [kcal/mol]     -35.16531508 [kJ/mol]
  Total SAPT2+                    -15.28227122 [mEh]      -9.58976997 [kcal/mol]     -40.12359755 [kJ/mol]
  Total SAPT2+(3)                 -14.39283563 [mEh]      -9.03164072 [kcal/mol]     -37.78838475 [kJ/mol]
  Total SAPT2+dMP2                -14.51593605 [mEh]      -9.10888739 [kcal/mol]     -38.11158486 [kJ/mol]
  Total SAPT2+(3)dMP2             -13.62650047 [mEh]      -8.55075814 [kcal/mol]     -35.77637206 [kJ/mol]

  Special recipe for scaled SAPT0 (see Manual):
    Electrostatics sSAPT0         -37.28633022 [mEh]     -23.39752546 [kcal/mol]     -97.89524651 [kJ/mol]
    Exchange sSAPT0                42.15140291 [mEh]      26.45040466 [kcal/mol]     110.66849309 [kJ/mol]
    Induction sSAPT0              -13.11711888 [mEh]      -8.23111637 [kcal/mol]     -34.43899088 [kJ/mol]
    Dispersion sSAPT0              -9.65808853 [mEh]      -6.06054205 [kcal/mol]     -25.35730795 [kJ/mol]
  Total sSAPT0                    -17.91013473 [mEh]     -11.23877922 [kcal/mol]     -47.02305225 [kJ/mol]
  --------------------------------------------------------------------------------------------------------

*** tstop() called on node150.bme.utexas.edu at Sun May 12 22:58:56 2024
Module time:
	user time   =     722.58 seconds =      12.04 minutes
	system time =      11.47 seconds =       0.19 minutes
	total time  =         93 seconds =       1.55 minutes
Total time:
	user time   =     781.75 seconds =      13.03 minutes
	system time =      12.72 seconds =       0.21 minutes
	total time  =        103 seconds =       1.72 minutes

    Psi4 stopped on: Sunday, 12 May 2024 10:58PM
    Psi4 wall time for execution: 0:01:43.07

*** Psi4 exiting successfully. Buy a developer a beer!
