
    -----------------------------------------------------------------------
          Psi4: An Open-Source Ab Initio Electronic Structure Package
                               Psi4 1.5 release

                         Git: Rev {HEAD} e9f4d6d 


    D. G. A. Smith, L. A. Burns, A. C. Simmonett, R. M. Parrish,
    M. C. Schieber, R. Galvelis, P. Kraus, H. Kruse, R. Di Remigio,
    A. Alenaizan, A. M. James, S. Lehtola, J. P. Misiewicz, M. Scheurer,
    R. A. Shaw, J. B. Schriber, Y. Xie, Z. L. Glick, D. A. Sirianni,
    J. S. O'Brien, J. M. Waldrop, A. Kumar, E. G. Hohenstein,
    B. P. Pritchard, B. R. Brooks, H. F. Schaefer III, A. Yu. Sokolov,
    K. Patkowski, A. E. DePrince III, U. Bozkaya, R. A. King,
    F. A. Evangelista, J. M. Turney, T. D. Crawford, C. D. Sherrill,
    J. Chem. Phys. 152(18) 184108 (2020). https://doi.org/10.1063/5.0006002

                            Additional Code Authors
    E. T. Seidl, C. L. Janssen, E. F. Valeev, M. L. Leininger,
    J. F. Gonthier, R. M. Richard, H. R. McAlexander, M. Saitow, X. Wang,
    P. Verma, M. H. Lechner, and A. Jiang

             Previous Authors, Complete List of Code Contributors,
                       and Citations for Specific Modules
    https://github.com/psi4/psi4/blob/master/codemeta.json
    https://github.com/psi4/psi4/graphs/contributors
    http://psicode.org/psi4manual/master/introduction.html#citing-psifour

    -----------------------------------------------------------------------


    Psi4 started on: Sunday, 12 May 2024 11:10PM

    Process ID: 1937182
    Host:       bme-earth.bme.utexas.edu
    PSIDATADIR: /opt/anaconda/envs/psi4v1.5/share/psi4
    Memory:     500.0 MiB
    Threads:    8
    
  ==> Input File <==

--------------------------------------------------------------------------

memory 50 GB

molecule  {
  0 1

  O          0.68288        2.64878        0.26850
  H          0.85117        2.05662       -0.48548
  H          0.35857        1.97232        0.90743
  --
  -1 1

  H         -2.66070        0.83749        0.49122
  H         -1.49449        1.60742       -0.59689
  H          2.49036        0.32377        0.43271
  H          2.50605       -1.28485       -0.34537
  C          2.27766       -0.22479       -0.49170
  C         -2.18579        0.76805       -0.49188
  H         -2.94991        0.82041       -1.27313
  H          2.89740        0.17735       -1.29853
  O          0.10532       -2.18987        0.36660
  O         -0.18730        0.21892        1.43995
  O          0.91421       -0.05672       -0.88090
  O         -1.52933       -0.49028       -0.65382
  P         -0.16240       -0.72112        0.24978

units angstrom
no_reorient
symmetry c1}

set {
scf_type DF
basis jun-cc-pvdz
freeze_core True
guess SAD
}
energy('sapt2+(3)dmp2')
--------------------------------------------------------------------------

  Memory set to  46.566 GiB by Python driver.

Scratch directory: /tmp/
   => Loading Basis Set <=

    Name: JUN-CC-PVDZ
    Role: ORBITAL
    Keyword: BASIS
    atoms 1, 12-15   entry O          line   232 file /opt/anaconda/envs/psi4v1.5/share/psi4/basis/jun-cc-pvdz.gbs 
    atoms 2-7, 10-11 entry H          line    36 file /opt/anaconda/envs/psi4v1.5/share/psi4/basis/jun-cc-pvdz.gbs 
    atoms 8-9        entry C          line   164 file /opt/anaconda/envs/psi4v1.5/share/psi4/basis/jun-cc-pvdz.gbs 
    atoms 16         entry P          line   600 file /opt/anaconda/envs/psi4v1.5/share/psi4/basis/jun-cc-pvdz.gbs 

   => Loading Basis Set <=

    Name: JUN-CC-PVDZ
    Role: ORBITAL
    Keyword: BASIS
    atoms 1, 12-15   entry O          line   232 file /opt/anaconda/envs/psi4v1.5/share/psi4/basis/jun-cc-pvdz.gbs 
    atoms 2-7, 10-11 entry H          line    36 file /opt/anaconda/envs/psi4v1.5/share/psi4/basis/jun-cc-pvdz.gbs 
    atoms 8-9        entry C          line   164 file /opt/anaconda/envs/psi4v1.5/share/psi4/basis/jun-cc-pvdz.gbs 
    atoms 16         entry P          line   600 file /opt/anaconda/envs/psi4v1.5/share/psi4/basis/jun-cc-pvdz.gbs 


  //>>>>>>>>>>>>>>>>>>>>>>>>>>>>>>>>>>>//
  //              Dimer HF             //
  //<<<<<<<<<<<<<<<<<<<<<<<<<<<<<<<<<<<//


*** tstart() called on bme-earth.bme.utexas.edu
*** at Sun May 12 23:10:40 2024

   => Loading Basis Set <=

    Name: JUN-CC-PVDZ
    Role: ORBITAL
    Keyword: BASIS
    atoms 1, 12-15   entry O          line   232 file /opt/anaconda/envs/psi4v1.5/share/psi4/basis/jun-cc-pvdz.gbs 
    atoms 2-7, 10-11 entry H          line    36 file /opt/anaconda/envs/psi4v1.5/share/psi4/basis/jun-cc-pvdz.gbs 
    atoms 8-9        entry C          line   164 file /opt/anaconda/envs/psi4v1.5/share/psi4/basis/jun-cc-pvdz.gbs 
    atoms 16         entry P          line   600 file /opt/anaconda/envs/psi4v1.5/share/psi4/basis/jun-cc-pvdz.gbs 


         ---------------------------------------------------------
                                   SCF
               by Justin Turney, Rob Parrish, Andy Simmonett
                          and Daniel G. A. Smith
                              RHF Reference
                        8 Threads,  47683 MiB Core
         ---------------------------------------------------------

  ==> Geometry <==

    Molecular point group: c1
    Full point group: C1

    Geometry (in Angstrom), charge = -1, multiplicity = 1:

       Center              X                  Y                   Z               Mass       
    ------------   -----------------  -----------------  -----------------  -----------------
         O            0.697851293583     2.698864208231     0.251779645717    15.994914619570
         H            0.866141293583     2.106704208231    -0.502200354283     1.007825032230
         H            0.373541293583     2.022404208231     0.890709645717     1.007825032230
         H           -2.645728706417     0.887574208231     0.474499645717     1.007825032230
         H           -1.479518706417     1.657504208231    -0.613610354283     1.007825032230
         H            2.505331293583     0.373854208231     0.415989645717     1.007825032230
         H            2.521021293583    -1.234765791769    -0.362090354283     1.007825032230
         C            2.292631293583    -0.174705791769    -0.508420354283    12.000000000000
         C           -2.170818706417     0.818134208231    -0.508600354283    12.000000000000
         H           -2.934938706417     0.870494208231    -1.289850354283     1.007825032230
         H            2.912371293583     0.227434208231    -1.315250354283     1.007825032230
         O            0.120291293583    -2.139785791769     0.349879645717    15.994914619570
         O           -0.172328706417     0.269004208231     1.423229645717    15.994914619570
         O            0.929181293583    -0.006635791769    -0.897620354283    15.994914619570
         O           -1.514358706417    -0.440195791769    -0.670540354283    15.994914619570
         P           -0.147428706417    -0.671035791769     0.233059645717    30.973761998420

  Running in c1 symmetry.

  Rotational constants: A =      0.05910  B =      0.05571  C =      0.03743 [cm^-1]
  Rotational constants: A =   1771.64855  B =   1670.20033  C =   1122.07422 [MHz]
  Nuclear repulsion =  546.003322580367353

  Charge       = -1
  Multiplicity = 1
  Electrons    = 76
  Nalpha       = 38
  Nbeta        = 38

  ==> Algorithm <==

  SCF Algorithm Type is DF.
  DIIS enabled.
  MOM disabled.
  Fractional occupation disabled.
  Guess Type is SAD.
  Energy threshold   = 1.00e-08
  Density threshold  = 1.00e-08
  Integral threshold = 1.00e-12

  ==> Primary Basis <==

  Basis Set: JUN-CC-PVDZ
    Blend: JUN-CC-PVDZ
    Number of shells: 90
    Number of basis functions: 188
    Number of Cartesian functions: 196
    Spherical Harmonics?: true
    Max angular momentum: 2

   => Loading Basis Set <=

    Name: (JUN-CC-PVDZ AUX)
    Role: JKFIT
    Keyword: DF_BASIS_SCF
    atoms 1, 12-15   entry O          line   258 file /opt/anaconda/envs/psi4v1.5/share/psi4/basis/jun-cc-pvdz-jkfit.gbs 
    atoms 2-7, 10-11 entry H          line    70 file /opt/anaconda/envs/psi4v1.5/share/psi4/basis/jun-cc-pvdz-jkfit.gbs 
    atoms 8-9        entry C          line   146 file /opt/anaconda/envs/psi4v1.5/share/psi4/basis/jun-cc-pvdz-jkfit.gbs 
    atoms 16         entry P          line   586 file /opt/anaconda/envs/psi4v1.5/share/psi4/basis/jun-cc-pvdz-jkfit.gbs 

  ==> Integral Setup <==

  ==> DiskDFJK: Density-Fitted J/K Matrices <==

    J tasked:                  Yes
    K tasked:                  Yes
    wK tasked:                  No
    OpenMP threads:              8
    Integrals threads:           8
    Memory [MiB]:            35762
    Algorithm:                Core
    Integral Cache:           SAVE
    Schwarz Cutoff:          1E-12
    Fitting Condition:       1E-10

   => Auxiliary Basis Set <=

  Basis Set: (JUN-CC-PVDZ AUX)
    Blend: JUN-CC-PVDZ-JKFIT
    Number of shells: 300
    Number of basis functions: 858
    Number of Cartesian functions: 977
    Spherical Harmonics?: true
    Max angular momentum: 3

  Minimum eigenvalue in the overlap matrix is 3.7710571625E-04.
  Reciprocal condition number of the overlap matrix is 3.6322644671E-05.
    Using symmetric orthogonalization.

  ==> Pre-Iterations <==

  SCF Guess: Superposition of Atomic Densities via on-the-fly atomic UHF (no occupation information).

   -------------------------
    Irrep   Nso     Nmo    
   -------------------------
     A        188     188 
   -------------------------
    Total     188     188
   -------------------------

  ==> Iterations <==

                           Total Energy        Delta E     RMS |[F,P]|

   @DF-RHF iter SAD:  -794.00638066347392   -7.94006e+02   0.00000e+00 
   @DF-RHF iter   1:  -795.27025544428579   -1.26387e+00   4.75453e-03 DIIS
   @DF-RHF iter   2:  -795.49642946834842   -2.26174e-01   2.99840e-03 DIIS
   @DF-RHF iter   3:  -795.61001094996607   -1.13581e-01   3.32983e-04 DIIS
   @DF-RHF iter   4:  -795.61236522033983   -2.35427e-03   1.47528e-04 DIIS
   @DF-RHF iter   5:  -795.61273325717582   -3.68037e-04   3.29599e-05 DIIS
   @DF-RHF iter   6:  -795.61275677078356   -2.35136e-05   8.52861e-06 DIIS
   @DF-RHF iter   7:  -795.61275910816414   -2.33738e-06   2.49318e-06 DIIS
   @DF-RHF iter   8:  -795.61275935342064   -2.45257e-07   8.01984e-07 DIIS
   @DF-RHF iter   9:  -795.61275937559435   -2.21737e-08   3.82263e-07 DIIS
   @DF-RHF iter  10:  -795.61275937923551   -3.64116e-09   8.75663e-08 DIIS
   @DF-RHF iter  11:  -795.61275937949347   -2.57955e-10   2.60210e-08 DIIS
   @DF-RHF iter  12:  -795.61275937951677   -2.33058e-11   9.87304e-09 DIIS
  Energy and wave function converged.


  ==> Post-Iterations <==

    Orbital Energies [Eh]
    ---------------------

    Doubly Occupied:                                                      

       1A    -79.936483     2A    -20.426674     3A    -20.424912  
       4A    -20.406606     5A    -20.348416     6A    -20.339005  
       7A    -11.153301     8A    -11.150670     9A     -7.454197  
      10A     -5.352143    11A     -5.351759    12A     -5.351535  
      13A     -1.258071    14A     -1.207251    15A     -1.181238  
      16A     -1.135120    17A     -1.098774    18A     -0.810017  
      19A     -0.787903    20A     -0.608292    21A     -0.543779  
      22A     -0.532498    23A     -0.508915    24A     -0.501239  
      25A     -0.481196    26A     -0.459580    27A     -0.456888  
      28A     -0.427545    29A     -0.394775    30A     -0.376732  
      31A     -0.363689    32A     -0.343888    33A     -0.324471  
      34A     -0.316732    35A     -0.304846    36A     -0.290370  
      37A     -0.277648    38A     -0.261536  

    Virtual:                                                              

      39A      0.165553    40A      0.165644    41A      0.198072  
      42A      0.202971    43A      0.211851    44A      0.218036  
      45A      0.225782    46A      0.238709    47A      0.251855  
      48A      0.253415    49A      0.304174    50A      0.315125  
      51A      0.319164    52A      0.340158    53A      0.374899  
      54A      0.385896    55A      0.395735    56A      0.401158  
      57A      0.410858    58A      0.418201    59A      0.430607  
      60A      0.433178    61A      0.445272    62A      0.452870  
      63A      0.458828    64A      0.469546    65A      0.483560  
      66A      0.486642    67A      0.488964    68A      0.495252  
      69A      0.500315    70A      0.514380    71A      0.531051  
      72A      0.536809    73A      0.545215    74A      0.555143  
      75A      0.561535    76A      0.575375    77A      0.592362  
      78A      0.611945    79A      0.629431    80A      0.633591  
      81A      0.656536    82A      0.669547    83A      0.702737  
      84A      0.739787    85A      0.878848    86A      0.881004  
      87A      0.910403    88A      0.929770    89A      0.947620  
      90A      0.962589    91A      1.023504    92A      1.034712  
      93A      1.041418    94A      1.051203    95A      1.055449  
      96A      1.071934    97A      1.084379    98A      1.099246  
      99A      1.107447   100A      1.116873   101A      1.203439  
     102A      1.209171   103A      1.236975   104A      1.278962  
     105A      1.325984   106A      1.335663   107A      1.366511  
     108A      1.390427   109A      1.403769   110A      1.428948  
     111A      1.459912   112A      1.527098   113A      1.560093  
     114A      1.575096   115A      1.603930   116A      1.640026  
     117A      1.643899   118A      1.682198   119A      1.691624  
     120A      1.708821   121A      1.714930   122A      1.740047  
     123A      1.762237   124A      1.793773   125A      1.796591  
     126A      1.817874   127A      1.824186   128A      1.839843  
     129A      1.860308   130A      1.871019   131A      1.885982  
     132A      1.955645   133A      1.998474   134A      2.032082  
     135A      2.046357   136A      2.084641   137A      2.095712  
     138A      2.122715   139A      2.131313   140A      2.139819  
     141A      2.154236   142A      2.178844   143A      2.186520  
     144A      2.242754   145A      2.300137   146A      2.322599  
     147A      2.365588   148A      2.466832   149A      2.502949  
     150A      2.511872   151A      2.519238   152A      2.544717  
     153A      2.572410   154A      2.632537   155A      2.659896  
     156A      2.737927   157A      2.834298   158A      2.897302  
     159A      2.910289   160A      2.927645   161A      2.952723  
     162A      2.978238   163A      3.015109   164A      3.149261  
     165A      3.169125   166A      3.186603   167A      3.194049  
     168A      3.239174   169A      3.259286   170A      3.272367  
     171A      3.340153   172A      3.390421   173A      3.438681  
     174A      3.449239   175A      3.464426   176A      3.472693  
     177A      3.510183   178A      3.553835   179A      3.572515  
     180A      3.624088   181A      3.692700   182A      3.724536  
     183A      3.750811   184A      3.803178   185A      3.960614  
     186A      4.008290   187A      4.079616   188A      4.387736  

    Final Occupation by Irrep:
              A 
    DOCC [    38 ]

  @DF-RHF Final Energy:  -795.61275937951677

   => Energetics <=

    Nuclear Repulsion Energy =            546.0033225803673531
    One-Electron Energy =               -2197.3347658720958862
    Two-Electron Energy =                 855.7186839122118727
    Total Energy =                       -795.6127593795167741

Computation Completed


Properties will be evaluated at   0.000000,   0.000000,   0.000000 [a0]

Properties computed using the SCF density matrix

  Nuclear Dipole Moment: [e a0]
     X:     2.1217      Y:     7.0983      Z:    -2.3701

  Electronic Dipole Moment: [e a0]
     X:    -2.0070      Y:    -6.4082      Z:     1.3717

  Dipole Moment: [e a0]
     X:     0.1147      Y:     0.6901      Z:    -0.9984     Total:     1.2191

  Dipole Moment: [D]
     X:     0.2915      Y:     1.7541      Z:    -2.5377     Total:     3.0987


*** tstop() called on bme-earth.bme.utexas.edu at Sun May 12 23:10:41 2024
Module time:
	user time   =       9.01 seconds =       0.15 minutes
	system time =       0.23 seconds =       0.00 minutes
	total time  =          1 seconds =       0.02 minutes
Total time:
	user time   =       9.01 seconds =       0.15 minutes
	system time =       0.23 seconds =       0.00 minutes
	total time  =          1 seconds =       0.02 minutes

*** tstart() called on bme-earth.bme.utexas.edu
*** at Sun May 12 23:10:41 2024


  //>>>>>>>>>>>>>>>>>>>>>>>>>>>>>>>>>>>//
  //               DFMP2               //
  //<<<<<<<<<<<<<<<<<<<<<<<<<<<<<<<<<<<//

   => Loading Basis Set <=

    Name: (JUN-CC-PVDZ AUX)
    Role: RIFIT
    Keyword: DF_BASIS_MP2
    atoms 1, 12-15   entry O          line   188 file /opt/anaconda/envs/psi4v1.5/share/psi4/basis/jun-cc-pvdz-ri.gbs 
    atoms 2-7, 10-11 entry H          line    30 file /opt/anaconda/envs/psi4v1.5/share/psi4/basis/jun-cc-pvdz-ri.gbs 
    atoms 8-9        entry C          line   100 file /opt/anaconda/envs/psi4v1.5/share/psi4/basis/jun-cc-pvdz-ri.gbs 
    atoms 16         entry P          line   432 file /opt/anaconda/envs/psi4v1.5/share/psi4/basis/jun-cc-pvdz-ri.gbs 

	 --------------------------------------------------------
	                          DF-MP2                         
	      2nd-Order Density-Fitted Moller-Plesset Theory     
	              RMP2 Wavefunction,   8 Threads             
	                                                         
	        Rob Parrish, Justin Turney, Andy Simmonett,      
	           Ed Hohenstein, and C. David Sherrill          
	 --------------------------------------------------------

   => Auxiliary Basis Set <=

  Basis Set: (JUN-CC-PVDZ AUX)
    Blend: JUN-CC-PVDZ-RI
    Number of shells: 222
    Number of basis functions: 652
    Number of Cartesian functions: 752
    Spherical Harmonics?: true
    Max angular momentum: 3

	 --------------------------------------------------------
	                 NBF =   188, NAUX =   652
	 --------------------------------------------------------
	   CLASS    FOCC     OCC    AOCC    AVIR     VIR    FVIR
	   PAIRS      12      38      26     150     150       0
	 --------------------------------------------------------

	 Will save fitting metric to file 97.

	-----------------------------------------------------------
	 ==================> DF-MP2 Energies <==================== 
	-----------------------------------------------------------
	 Reference Energy          =    -795.6127593795167741 [Eh]
	 Singles Energy            =      -0.0000000000000000 [Eh]
	 Same-Spin Energy          =      -0.3652602094148432 [Eh]
	 Opposite-Spin Energy      =      -1.0216507375437376 [Eh]
	 Correlation Energy        =      -1.3869109469585807 [Eh]
	 Total Energy              =    -796.9996703264753251 [Eh]
	-----------------------------------------------------------
	 ================> DF-SCS-MP2 Energies <================== 
	-----------------------------------------------------------
	 SCS Same-Spin Scale       =       0.3333333333333333 [-]
	 SCS Opposite-Spin Scale   =       1.2000000000000000 [-]
	 SCS Same-Spin Energy      =      -0.1217534031382810 [Eh]
	 SCS Opposite-Spin Energy  =      -1.2259808850524851 [Eh]
	 SCS Correlation Energy    =      -1.3477342881907661 [Eh]
	 SCS Total Energy          =    -796.9604936677075102 [Eh]
	-----------------------------------------------------------


*** tstop() called on bme-earth.bme.utexas.edu at Sun May 12 23:10:42 2024
Module time:
	user time   =       4.31 seconds =       0.07 minutes
	system time =       0.06 seconds =       0.00 minutes
	total time  =          1 seconds =       0.02 minutes
Total time:
	user time   =      13.32 seconds =       0.22 minutes
	system time =       0.29 seconds =       0.00 minutes
	total time  =          2 seconds =       0.03 minutes

  //>>>>>>>>>>>>>>>>>>>>>>>>>>>>>>>>>>>//
  //            Monomer A HF           //
  //<<<<<<<<<<<<<<<<<<<<<<<<<<<<<<<<<<<//


*** tstart() called on bme-earth.bme.utexas.edu
*** at Sun May 12 23:10:42 2024

   => Loading Basis Set <=

    Name: JUN-CC-PVDZ
    Role: ORBITAL
    Keyword: BASIS
    atoms 1, 12-15   entry O          line   232 file /opt/anaconda/envs/psi4v1.5/share/psi4/basis/jun-cc-pvdz.gbs 
    atoms 2-7, 10-11 entry H          line    36 file /opt/anaconda/envs/psi4v1.5/share/psi4/basis/jun-cc-pvdz.gbs 
    atoms 8-9        entry C          line   164 file /opt/anaconda/envs/psi4v1.5/share/psi4/basis/jun-cc-pvdz.gbs 
    atoms 16         entry P          line   600 file /opt/anaconda/envs/psi4v1.5/share/psi4/basis/jun-cc-pvdz.gbs 


         ---------------------------------------------------------
                                   SCF
               by Justin Turney, Rob Parrish, Andy Simmonett
                          and Daniel G. A. Smith
                              RHF Reference
                        8 Threads,  47683 MiB Core
         ---------------------------------------------------------

  ==> Geometry <==

    Molecular point group: c1
    Full point group: C1

    Geometry (in Angstrom), charge = 0, multiplicity = 1:

       Center              X                  Y                   Z               Mass       
    ------------   -----------------  -----------------  -----------------  -----------------
         O            0.697851293583     2.698864208231     0.251779645717    15.994914619570
         H            0.866141293583     2.106704208231    -0.502200354283     1.007825032230
         H            0.373541293583     2.022404208231     0.890709645717     1.007825032230
      Gh(H)          -2.645728706417     0.887574208231     0.474499645717     1.007825032230
      Gh(H)          -1.479518706417     1.657504208231    -0.613610354283     1.007825032230
      Gh(H)           2.505331293583     0.373854208231     0.415989645717     1.007825032230
      Gh(H)           2.521021293583    -1.234765791769    -0.362090354283     1.007825032230
      Gh(C)           2.292631293583    -0.174705791769    -0.508420354283    12.000000000000
      Gh(C)          -2.170818706417     0.818134208231    -0.508600354283    12.000000000000
      Gh(H)          -2.934938706417     0.870494208231    -1.289850354283     1.007825032230
      Gh(H)           2.912371293583     0.227434208231    -1.315250354283     1.007825032230
      Gh(O)           0.120291293583    -2.139785791769     0.349879645717    15.994914619570
      Gh(O)          -0.172328706417     0.269004208231     1.423229645717    15.994914619570
      Gh(O)           0.929181293583    -0.006635791769    -0.897620354283    15.994914619570
      Gh(O)          -1.514358706417    -0.440195791769    -0.670540354283    15.994914619570
      Gh(P)          -0.147428706417    -0.671035791769     0.233059645717    30.973761998420

  Running in c1 symmetry.

  Rotational constants: A =      0.05910  B =      0.05571  C =      0.03743 [cm^-1]
  Rotational constants: A =   1771.64855  B =   1670.20033  C =   1122.07422 [MHz]
  Nuclear repulsion =    9.002954968703103

  Charge       = 0
  Multiplicity = 1
  Electrons    = 10
  Nalpha       = 5
  Nbeta        = 5

  ==> Algorithm <==

  SCF Algorithm Type is DF.
  DIIS enabled.
  MOM disabled.
  Fractional occupation disabled.
  Guess Type is SAD.
  Energy threshold   = 1.00e-08
  Density threshold  = 1.00e-08
  Integral threshold = 1.00e-12

  ==> Primary Basis <==

  Basis Set: JUN-CC-PVDZ
    Blend: JUN-CC-PVDZ
    Number of shells: 90
    Number of basis functions: 188
    Number of Cartesian functions: 196
    Spherical Harmonics?: true
    Max angular momentum: 2

   => Loading Basis Set <=

    Name: (JUN-CC-PVDZ AUX)
    Role: JKFIT
    Keyword: DF_BASIS_SCF
    atoms 1, 12-15   entry O          line   258 file /opt/anaconda/envs/psi4v1.5/share/psi4/basis/jun-cc-pvdz-jkfit.gbs 
    atoms 2-7, 10-11 entry H          line    70 file /opt/anaconda/envs/psi4v1.5/share/psi4/basis/jun-cc-pvdz-jkfit.gbs 
    atoms 8-9        entry C          line   146 file /opt/anaconda/envs/psi4v1.5/share/psi4/basis/jun-cc-pvdz-jkfit.gbs 
    atoms 16         entry P          line   586 file /opt/anaconda/envs/psi4v1.5/share/psi4/basis/jun-cc-pvdz-jkfit.gbs 

  ==> Integral Setup <==

  ==> DiskDFJK: Density-Fitted J/K Matrices <==

    J tasked:                  Yes
    K tasked:                  Yes
    wK tasked:                  No
    OpenMP threads:              8
    Integrals threads:           8
    Memory [MiB]:            35762
    Algorithm:                Core
    Integral Cache:           LOAD
    Schwarz Cutoff:          1E-12
    Fitting Condition:       1E-10

   => Auxiliary Basis Set <=

  Basis Set: (JUN-CC-PVDZ AUX)
    Blend: JUN-CC-PVDZ-JKFIT
    Number of shells: 300
    Number of basis functions: 858
    Number of Cartesian functions: 977
    Spherical Harmonics?: true
    Max angular momentum: 3

  Minimum eigenvalue in the overlap matrix is 3.7710571625E-04.
  Reciprocal condition number of the overlap matrix is 3.6322644671E-05.
    Using symmetric orthogonalization.

  ==> Pre-Iterations <==

  SCF Guess: Superposition of Atomic Densities via on-the-fly atomic UHF (no occupation information).

   -------------------------
    Irrep   Nso     Nmo    
   -------------------------
     A        188     188 
   -------------------------
    Total     188     188
   -------------------------

  ==> Iterations <==

                           Total Energy        Delta E     RMS |[F,P]|

   @DF-RHF iter SAD:   -75.49322506677946   -7.54932e+01   0.00000e+00 
   @DF-RHF iter   1:   -75.95632200581321   -4.63097e-01   2.30360e-03 DIIS
   @DF-RHF iter   2:   -76.00689324695270   -5.05712e-02   1.50866e-03 DIIS
   @DF-RHF iter   3:   -76.03515969562193   -2.82664e-02   1.18117e-04 DIIS
   @DF-RHF iter   4:   -76.03553984496172   -3.80149e-04   2.77893e-05 DIIS
   @DF-RHF iter   5:   -76.03556367206343   -2.38271e-05   5.73216e-06 DIIS
   @DF-RHF iter   6:   -76.03556526918936   -1.59713e-06   1.19364e-06 DIIS
   @DF-RHF iter   7:   -76.03556534450637   -7.53170e-08   1.40724e-07 DIIS
   @DF-RHF iter   8:   -76.03556534540661   -9.00243e-10   2.32850e-08 DIIS
   @DF-RHF iter   9:   -76.03556534542886   -2.22542e-11   6.21221e-09 DIIS
  Energy and wave function converged.


  ==> Post-Iterations <==

    Orbital Energies [Eh]
    ---------------------

    Doubly Occupied:                                                      

       1A    -20.583891     2A     -1.350238     3A     -0.695111  
       4A     -0.593216     5A     -0.509397  

    Virtual:                                                              

       6A      0.025032     7A      0.048048     8A      0.053097  
       9A      0.058742    10A      0.082607    11A      0.093565  
      12A      0.101146    13A      0.106385    14A      0.116287  
      15A      0.130924    16A      0.138295    17A      0.144030  
      18A      0.160524    19A      0.181686    20A      0.193560  
      21A      0.198723    22A      0.208952    23A      0.215524  
      24A      0.223980    25A      0.232979    26A      0.244539  
      27A      0.252951    28A      0.271108    29A      0.272010  
      30A      0.284097    31A      0.297468    32A      0.303863  
      33A      0.308310    34A      0.325167    35A      0.333134  
      36A      0.343941    37A      0.350389    38A      0.374342  
      39A      0.384841    40A      0.401806    41A      0.404693  
      42A      0.418573    43A      0.426643    44A      0.461410  
      45A      0.480279    46A      0.499246    47A      0.513871  
      48A      0.550977    49A      0.565522    50A      0.588827  
      51A      0.611598    52A      0.625253    53A      0.640944  
      54A      0.651091    55A      0.669005    56A      0.675360  
      57A      0.691204    58A      0.801477    59A      0.831097  
      60A      0.835154    61A      0.879588    62A      0.891789  
      63A      0.901478    64A      0.904030    65A      0.950965  
      66A      0.984115    67A      1.002279    68A      1.022261  
      69A      1.076789    70A      1.102280    71A      1.140474  
      72A      1.157683    73A      1.178680    74A      1.207138  
      75A      1.343003    76A      1.372474    77A      1.398392  
      78A      1.435509    79A      1.452966    80A      1.497514  
      81A      1.504110    82A      1.550674    83A      1.563414  
      84A      1.572822    85A      1.577248    86A      1.615322  
      87A      1.627793    88A      1.640828    89A      1.663992  
      90A      1.666633    91A      1.701474    92A      1.798420  
      93A      1.802195    94A      1.811051    95A      1.844228  
      96A      1.865091    97A      1.890150    98A      1.957019  
      99A      2.020362   100A      2.032409   101A      2.040228  
     102A      2.044626   103A      2.065106   104A      2.084823  
     105A      2.104769   106A      2.123800   107A      2.134167  
     108A      2.159585   109A      2.210146   110A      2.228775  
     111A      2.289708   112A      2.295511   113A      2.313981  
     114A      2.327435   115A      2.416434   116A      2.448684  
     117A      2.468077   118A      2.496955   119A      2.632878  
     120A      2.646023   121A      2.651599   122A      2.669089  
     123A      2.676181   124A      2.711125   125A      2.768435  
     126A      2.772302   127A      2.868833   128A      2.871722  
     129A      2.904848   130A      2.921010   131A      3.276976  
     132A      3.300195   133A      3.338365   134A      3.392497  
     135A      3.500944   136A      3.528371   137A      3.640292  
     138A      3.899316   139A      3.924438   140A      3.947053  
     141A      4.138294   142A      4.151546   143A      4.159253  
     144A      4.169664   145A      4.186477   146A      4.223342  
     147A      4.248274   148A      4.263432   149A      4.330629  
     150A      4.358372   151A      4.459000   152A      4.503667  
     153A      4.522337   154A      4.547708   155A      4.600027  
     156A      4.663893   157A      4.827422   158A      4.943473  
     159A      5.019282   160A      5.033046   161A      5.041081  
     162A      5.060951   163A      5.062415   164A      5.279563  
     165A      5.296302   166A      5.554533   167A      5.585615  
     168A      5.663387   169A      5.691712   170A      5.732039  
     171A      5.766732   172A      5.813731   173A      5.829028  
     174A      5.868840   175A      5.972676   176A      6.037205  
     177A      6.163349   178A      6.202980   179A     17.496257  
     180A     17.632651   181A     17.878052   182A     18.427627  
     183A     18.434173   184A     33.429809   185A     33.442611  
     186A     33.456697   187A     33.470467   188A    120.215558  

    Final Occupation by Irrep:
              A 
    DOCC [     5 ]

  @DF-RHF Final Energy:   -76.03556534542886

   => Energetics <=

    Nuclear Repulsion Energy =              9.0029549687031025
    One-Electron Energy =                -122.6133331319946933
    Two-Electron Energy =                  37.5748128178627141
    Total Energy =                        -76.0355653454288642

Computation Completed


Properties will be evaluated at   0.000000,   0.000000,   0.000000 [a0]

Properties computed using the SCF density matrix

  Nuclear Dipole Moment: [e a0]
     X:    12.8926      Y:    48.6038      Z:     4.5405

  Electronic Dipole Moment: [e a0]
     X:   -12.9966      Y:   -49.4602      Z:    -4.6183

  Dipole Moment: [e a0]
     X:    -0.1040      Y:    -0.8564      Z:    -0.0778     Total:     0.8662

  Dipole Moment: [D]
     X:    -0.2643      Y:    -2.1767      Z:    -0.1978     Total:     2.2016


*** tstop() called on bme-earth.bme.utexas.edu at Sun May 12 23:10:43 2024
Module time:
	user time   =       4.51 seconds =       0.08 minutes
	system time =       0.06 seconds =       0.00 minutes
	total time  =          1 seconds =       0.02 minutes
Total time:
	user time   =      17.85 seconds =       0.30 minutes
	system time =       0.35 seconds =       0.01 minutes
	total time  =          3 seconds =       0.05 minutes

*** tstart() called on bme-earth.bme.utexas.edu
*** at Sun May 12 23:10:43 2024


  //>>>>>>>>>>>>>>>>>>>>>>>>>>>>>>>>>>>//
  //               DFMP2               //
  //<<<<<<<<<<<<<<<<<<<<<<<<<<<<<<<<<<<//

   => Loading Basis Set <=

    Name: (JUN-CC-PVDZ AUX)
    Role: RIFIT
    Keyword: DF_BASIS_MP2
    atoms 1, 12-15   entry O          line   188 file /opt/anaconda/envs/psi4v1.5/share/psi4/basis/jun-cc-pvdz-ri.gbs 
    atoms 2-7, 10-11 entry H          line    30 file /opt/anaconda/envs/psi4v1.5/share/psi4/basis/jun-cc-pvdz-ri.gbs 
    atoms 8-9        entry C          line   100 file /opt/anaconda/envs/psi4v1.5/share/psi4/basis/jun-cc-pvdz-ri.gbs 
    atoms 16         entry P          line   432 file /opt/anaconda/envs/psi4v1.5/share/psi4/basis/jun-cc-pvdz-ri.gbs 

	 --------------------------------------------------------
	                          DF-MP2                         
	      2nd-Order Density-Fitted Moller-Plesset Theory     
	              RMP2 Wavefunction,   8 Threads             
	                                                         
	        Rob Parrish, Justin Turney, Andy Simmonett,      
	           Ed Hohenstein, and C. David Sherrill          
	 --------------------------------------------------------

   => Auxiliary Basis Set <=

  Basis Set: (JUN-CC-PVDZ AUX)
    Blend: JUN-CC-PVDZ-RI
    Number of shells: 222
    Number of basis functions: 652
    Number of Cartesian functions: 752
    Spherical Harmonics?: true
    Max angular momentum: 3

	 --------------------------------------------------------
	                 NBF =   188, NAUX =   652
	 --------------------------------------------------------
	   CLASS    FOCC     OCC    AOCC    AVIR     VIR    FVIR
	   PAIRS       1       5       4     183     183       0
	 --------------------------------------------------------

	 Will attempt to load fitting metric from file 97.

	-----------------------------------------------------------
	 ==================> DF-MP2 Energies <==================== 
	-----------------------------------------------------------
	 Reference Energy          =     -76.0355653454288642 [Eh]
	 Singles Energy            =      -0.0000000000000000 [Eh]
	 Same-Spin Energy          =      -0.0539165671315598 [Eh]
	 Opposite-Spin Energy      =      -0.1581686338590863 [Eh]
	 Correlation Energy        =      -0.2120852009906461 [Eh]
	 Total Energy              =     -76.2476505464195071 [Eh]
	-----------------------------------------------------------
	 ================> DF-SCS-MP2 Energies <================== 
	-----------------------------------------------------------
	 SCS Same-Spin Scale       =       0.3333333333333333 [-]
	 SCS Opposite-Spin Scale   =       1.2000000000000000 [-]
	 SCS Same-Spin Energy      =      -0.0179721890438533 [Eh]
	 SCS Opposite-Spin Energy  =      -0.1898023606309035 [Eh]
	 SCS Correlation Energy    =      -0.2077745496747568 [Eh]
	 SCS Total Energy          =     -76.2433398951036168 [Eh]
	-----------------------------------------------------------


*** tstop() called on bme-earth.bme.utexas.edu at Sun May 12 23:10:43 2024
Module time:
	user time   =       3.27 seconds =       0.05 minutes
	system time =       0.04 seconds =       0.00 minutes
	total time  =          0 seconds =       0.00 minutes
Total time:
	user time   =      21.13 seconds =       0.35 minutes
	system time =       0.39 seconds =       0.01 minutes
	total time  =          3 seconds =       0.05 minutes

  //>>>>>>>>>>>>>>>>>>>>>>>>>>>>>>>>>>>//
  //            Monomer B HF           //
  //<<<<<<<<<<<<<<<<<<<<<<<<<<<<<<<<<<<//


*** tstart() called on bme-earth.bme.utexas.edu
*** at Sun May 12 23:10:43 2024

   => Loading Basis Set <=

    Name: JUN-CC-PVDZ
    Role: ORBITAL
    Keyword: BASIS
    atoms 1, 12-15   entry O          line   232 file /opt/anaconda/envs/psi4v1.5/share/psi4/basis/jun-cc-pvdz.gbs 
    atoms 2-7, 10-11 entry H          line    36 file /opt/anaconda/envs/psi4v1.5/share/psi4/basis/jun-cc-pvdz.gbs 
    atoms 8-9        entry C          line   164 file /opt/anaconda/envs/psi4v1.5/share/psi4/basis/jun-cc-pvdz.gbs 
    atoms 16         entry P          line   600 file /opt/anaconda/envs/psi4v1.5/share/psi4/basis/jun-cc-pvdz.gbs 


         ---------------------------------------------------------
                                   SCF
               by Justin Turney, Rob Parrish, Andy Simmonett
                          and Daniel G. A. Smith
                              RHF Reference
                        8 Threads,  47683 MiB Core
         ---------------------------------------------------------

  ==> Geometry <==

    Molecular point group: c1
    Full point group: C1

    Geometry (in Angstrom), charge = -1, multiplicity = 1:

       Center              X                  Y                   Z               Mass       
    ------------   -----------------  -----------------  -----------------  -----------------
      Gh(O)           0.697851293583     2.698864208231     0.251779645717    15.994914619570
      Gh(H)           0.866141293583     2.106704208231    -0.502200354283     1.007825032230
      Gh(H)           0.373541293583     2.022404208231     0.890709645717     1.007825032230
         H           -2.645728706417     0.887574208231     0.474499645717     1.007825032230
         H           -1.479518706417     1.657504208231    -0.613610354283     1.007825032230
         H            2.505331293583     0.373854208231     0.415989645717     1.007825032230
         H            2.521021293583    -1.234765791769    -0.362090354283     1.007825032230
         C            2.292631293583    -0.174705791769    -0.508420354283    12.000000000000
         C           -2.170818706417     0.818134208231    -0.508600354283    12.000000000000
         H           -2.934938706417     0.870494208231    -1.289850354283     1.007825032230
         H            2.912371293583     0.227434208231    -1.315250354283     1.007825032230
         O            0.120291293583    -2.139785791769     0.349879645717    15.994914619570
         O           -0.172328706417     0.269004208231     1.423229645717    15.994914619570
         O            0.929181293583    -0.006635791769    -0.897620354283    15.994914619570
         O           -1.514358706417    -0.440195791769    -0.670540354283    15.994914619570
         P           -0.147428706417    -0.671035791769     0.233059645717    30.973761998420

  Running in c1 symmetry.

  Rotational constants: A =      0.05910  B =      0.05571  C =      0.03743 [cm^-1]
  Rotational constants: A =   1771.64855  B =   1670.20033  C =   1122.07422 [MHz]
  Nuclear repulsion =  434.570341646123211

  Charge       = -1
  Multiplicity = 1
  Electrons    = 66
  Nalpha       = 33
  Nbeta        = 33

  ==> Algorithm <==

  SCF Algorithm Type is DF.
  DIIS enabled.
  MOM disabled.
  Fractional occupation disabled.
  Guess Type is SAD.
  Energy threshold   = 1.00e-08
  Density threshold  = 1.00e-08
  Integral threshold = 1.00e-12

  ==> Primary Basis <==

  Basis Set: JUN-CC-PVDZ
    Blend: JUN-CC-PVDZ
    Number of shells: 90
    Number of basis functions: 188
    Number of Cartesian functions: 196
    Spherical Harmonics?: true
    Max angular momentum: 2

   => Loading Basis Set <=

    Name: (JUN-CC-PVDZ AUX)
    Role: JKFIT
    Keyword: DF_BASIS_SCF
    atoms 1, 12-15   entry O          line   258 file /opt/anaconda/envs/psi4v1.5/share/psi4/basis/jun-cc-pvdz-jkfit.gbs 
    atoms 2-7, 10-11 entry H          line    70 file /opt/anaconda/envs/psi4v1.5/share/psi4/basis/jun-cc-pvdz-jkfit.gbs 
    atoms 8-9        entry C          line   146 file /opt/anaconda/envs/psi4v1.5/share/psi4/basis/jun-cc-pvdz-jkfit.gbs 
    atoms 16         entry P          line   586 file /opt/anaconda/envs/psi4v1.5/share/psi4/basis/jun-cc-pvdz-jkfit.gbs 

  ==> Integral Setup <==

  ==> DiskDFJK: Density-Fitted J/K Matrices <==

    J tasked:                  Yes
    K tasked:                  Yes
    wK tasked:                  No
    OpenMP threads:              8
    Integrals threads:           8
    Memory [MiB]:            35762
    Algorithm:                Core
    Integral Cache:           LOAD
    Schwarz Cutoff:          1E-12
    Fitting Condition:       1E-10

   => Auxiliary Basis Set <=

  Basis Set: (JUN-CC-PVDZ AUX)
    Blend: JUN-CC-PVDZ-JKFIT
    Number of shells: 300
    Number of basis functions: 858
    Number of Cartesian functions: 977
    Spherical Harmonics?: true
    Max angular momentum: 3

  Minimum eigenvalue in the overlap matrix is 3.7710571625E-04.
  Reciprocal condition number of the overlap matrix is 3.6322644671E-05.
    Using symmetric orthogonalization.

  ==> Pre-Iterations <==

  SCF Guess: Superposition of Atomic Densities via on-the-fly atomic UHF (no occupation information).

   -------------------------
    Irrep   Nso     Nmo    
   -------------------------
     A        188     188 
   -------------------------
    Total     188     188
   -------------------------

  ==> Iterations <==

                           Total Energy        Delta E     RMS |[F,P]|

   @DF-RHF iter SAD:  -718.29640420461715   -7.18296e+02   0.00000e+00 
   @DF-RHF iter   1:  -719.26862151080718   -9.72217e-01   4.32592e-03 DIIS
   @DF-RHF iter   2:  -719.45670885310881   -1.88087e-01   2.79526e-03 DIIS
   @DF-RHF iter   3:  -719.55598974141833   -9.92809e-02   3.04273e-04 DIIS
   @DF-RHF iter   4:  -719.55798916883884   -1.99943e-03   1.31638e-04 DIIS
   @DF-RHF iter   5:  -719.55829161035342   -3.02442e-04   3.04869e-05 DIIS
   @DF-RHF iter   6:  -719.55831080289749   -1.91925e-05   7.89147e-06 DIIS
   @DF-RHF iter   7:  -719.55831266384337   -1.86095e-06   2.18188e-06 DIIS
   @DF-RHF iter   8:  -719.55831285846648   -1.94623e-07   6.51896e-07 DIIS
   @DF-RHF iter   9:  -719.55831287574210   -1.72756e-08   3.04157e-07 DIIS
   @DF-RHF iter  10:  -719.55831287823423   -2.49213e-09   8.48018e-08 DIIS
   @DF-RHF iter  11:  -719.55831287844853   -2.14300e-10   2.43587e-08 DIIS
   @DF-RHF iter  12:  -719.55831287846809   -1.95541e-11   8.79464e-09 DIIS
  Energy and wave function converged.


  ==> Post-Iterations <==

    Orbital Energies [Eh]
    ---------------------

    Doubly Occupied:                                                      

       1A    -79.914297     2A    -20.410997     3A    -20.402569  
       4A    -20.321430     5A    -20.320681     6A    -11.143664  
       7A    -11.138205     8A     -7.431993     9A     -5.330057  
      10A     -5.329498    11A     -5.329253    12A     -1.237942  
      13A     -1.186492    14A     -1.111930    15A     -1.073866  
      16A     -0.796817    17A     -0.773749    18A     -0.589617  
      19A     -0.523702    20A     -0.489760    21A     -0.482712  
      22A     -0.468089    23A     -0.440039    24A     -0.436557  
      25A     -0.376555    26A     -0.356754    27A     -0.345608  
      28A     -0.312446    29A     -0.298551    30A     -0.283774  
      31A     -0.269029    32A     -0.254218    33A     -0.236661  

    Virtual:                                                              

      34A      0.163666    35A      0.168215    36A      0.191503  
      37A      0.206004    38A      0.213006    39A      0.220364  
      40A      0.229576    41A      0.240730    42A      0.248027  
      43A      0.256742    44A      0.282106    45A      0.289500  
      46A      0.312945    47A      0.331241    48A      0.347782  
      49A      0.352477    50A      0.392572    51A      0.404455  
      52A      0.417595    53A      0.427904    54A      0.438013  
      55A      0.441845    56A      0.449755    57A      0.459984  
      58A      0.467920    59A      0.480559    60A      0.493640  
      61A      0.496616    62A      0.501089    63A      0.503458  
      64A      0.511397    65A      0.529404    66A      0.544863  
      67A      0.553990    68A      0.559130    69A      0.561093  
      70A      0.571487    71A      0.589307    72A      0.589824  
      73A      0.624635    74A      0.642038    75A      0.648929  
      76A      0.672913    77A      0.679814    78A      0.710313  
      79A      0.743958    80A      0.875387    81A      0.889825  
      82A      0.923583    83A      0.939933    84A      0.956034  
      85A      0.970953    86A      0.977322    87A      1.012856  
      88A      1.044303    89A      1.049781    90A      1.058686  
      91A      1.068341    92A      1.078864    93A      1.086461  
      94A      1.099077    95A      1.115957    96A      1.123135  
      97A      1.150555    98A      1.184448    99A      1.235173  
     100A      1.243152   101A      1.286796   102A      1.305300  
     103A      1.347963   104A      1.385602   105A      1.411164  
     106A      1.444697   107A      1.446945   108A      1.485473  
     109A      1.599825   110A      1.627590   111A      1.678710  
     112A      1.693346   113A      1.706799   114A      1.724390  
     115A      1.770075   116A      1.773353   117A      1.793776  
     118A      1.812530   119A      1.828536   120A      1.858247  
     121A      1.875585   122A      1.881098   123A      1.967677  
     124A      1.984344   125A      2.030357   126A      2.034682  
     127A      2.055355   128A      2.081654   129A      2.103928  
     130A      2.122808   131A      2.143330   132A      2.151855  
     133A      2.154561   134A      2.171750   135A      2.182695  
     136A      2.209927   137A      2.214147   138A      2.307845  
     139A      2.322206   140A      2.344557   141A      2.370931  
     142A      2.490006   143A      2.512714   144A      2.527124  
     145A      2.538774   146A      2.548907   147A      2.618472  
     148A      2.654653   149A      2.700425   150A      2.811535  
     151A      2.870399   152A      2.912943   153A      2.926679  
     154A      2.930025   155A      2.956550   156A      2.995307  
     157A      3.001138   158A      3.052006   159A      3.172195  
     160A      3.191091   161A      3.207169   162A      3.211624  
     163A      3.254747   164A      3.269593   165A      3.284555  
     166A      3.363974   167A      3.410971   168A      3.445022  
     169A      3.473906   170A      3.498336   171A      3.531304  
     172A      3.578653   173A      3.596879   174A      3.648275  
     175A      3.723869   176A      3.764547   177A      3.825714  
     178A      3.984874   179A      4.031596   180A      4.615482  
     181A      4.631803   182A      4.890909   183A      5.048484  
     184A      5.266454   185A      5.670008   186A      6.700153  
     187A      7.023778   188A     33.664741  

    Final Occupation by Irrep:
              A 
    DOCC [    33 ]

  @DF-RHF Final Energy:  -719.55831287846809

   => Energetics <=

    Nuclear Repulsion Energy =            434.5703416461232109
    One-Electron Energy =               -1869.4222793714886848
    Two-Electron Energy =                 715.2936248468975009
    Total Energy =                       -719.5583128784680866

Computation Completed


Properties will be evaluated at   0.000000,   0.000000,   0.000000 [a0]

Properties computed using the SCF density matrix

  Nuclear Dipole Moment: [e a0]
     X:   -10.7709      Y:   -41.5055      Z:    -6.9106

  Electronic Dipole Moment: [e a0]
     X:    11.0622      Y:    43.4497      Z:     5.9565

  Dipole Moment: [e a0]
     X:     0.2913      Y:     1.9442      Z:    -0.9542     Total:     2.1852

  Dipole Moment: [D]
     X:     0.7404      Y:     4.9416      Z:    -2.4253     Total:     5.5543


*** tstop() called on bme-earth.bme.utexas.edu at Sun May 12 23:10:45 2024
Module time:
	user time   =       7.48 seconds =       0.12 minutes
	system time =       0.16 seconds =       0.00 minutes
	total time  =          2 seconds =       0.03 minutes
Total time:
	user time   =      28.62 seconds =       0.48 minutes
	system time =       0.55 seconds =       0.01 minutes
	total time  =          5 seconds =       0.08 minutes

*** tstart() called on bme-earth.bme.utexas.edu
*** at Sun May 12 23:10:45 2024


  //>>>>>>>>>>>>>>>>>>>>>>>>>>>>>>>>>>>//
  //               DFMP2               //
  //<<<<<<<<<<<<<<<<<<<<<<<<<<<<<<<<<<<//

   => Loading Basis Set <=

    Name: (JUN-CC-PVDZ AUX)
    Role: RIFIT
    Keyword: DF_BASIS_MP2
    atoms 1, 12-15   entry O          line   188 file /opt/anaconda/envs/psi4v1.5/share/psi4/basis/jun-cc-pvdz-ri.gbs 
    atoms 2-7, 10-11 entry H          line    30 file /opt/anaconda/envs/psi4v1.5/share/psi4/basis/jun-cc-pvdz-ri.gbs 
    atoms 8-9        entry C          line   100 file /opt/anaconda/envs/psi4v1.5/share/psi4/basis/jun-cc-pvdz-ri.gbs 
    atoms 16         entry P          line   432 file /opt/anaconda/envs/psi4v1.5/share/psi4/basis/jun-cc-pvdz-ri.gbs 

	 --------------------------------------------------------
	                          DF-MP2                         
	      2nd-Order Density-Fitted Moller-Plesset Theory     
	              RMP2 Wavefunction,   8 Threads             
	                                                         
	        Rob Parrish, Justin Turney, Andy Simmonett,      
	           Ed Hohenstein, and C. David Sherrill          
	 --------------------------------------------------------

   => Auxiliary Basis Set <=

  Basis Set: (JUN-CC-PVDZ AUX)
    Blend: JUN-CC-PVDZ-RI
    Number of shells: 222
    Number of basis functions: 652
    Number of Cartesian functions: 752
    Spherical Harmonics?: true
    Max angular momentum: 3

	 --------------------------------------------------------
	                 NBF =   188, NAUX =   652
	 --------------------------------------------------------
	   CLASS    FOCC     OCC    AOCC    AVIR     VIR    FVIR
	   PAIRS      11      33      22     155     155       0
	 --------------------------------------------------------

	 Will attempt to load fitting metric from file 97.

	-----------------------------------------------------------
	 ==================> DF-MP2 Energies <==================== 
	-----------------------------------------------------------
	 Reference Energy          =    -719.5583128784680866 [Eh]
	 Singles Energy            =      -0.0000000000000000 [Eh]
	 Same-Spin Energy          =      -0.3090783707403102 [Eh]
	 Opposite-Spin Energy      =      -0.8637080753459516 [Eh]
	 Correlation Energy        =      -1.1727864460862618 [Eh]
	 Total Energy              =    -720.7310993245542932 [Eh]
	-----------------------------------------------------------
	 ================> DF-SCS-MP2 Energies <================== 
	-----------------------------------------------------------
	 SCS Same-Spin Scale       =       0.3333333333333333 [-]
	 SCS Opposite-Spin Scale   =       1.2000000000000000 [-]
	 SCS Same-Spin Energy      =      -0.1030261235801034 [Eh]
	 SCS Opposite-Spin Energy  =      -1.0364496904151419 [Eh]
	 SCS Correlation Energy    =      -1.1394758139952452 [Eh]
	 SCS Total Energy          =    -720.6977886924632912 [Eh]
	-----------------------------------------------------------


*** tstop() called on bme-earth.bme.utexas.edu at Sun May 12 23:10:45 2024
Module time:
	user time   =       3.84 seconds =       0.06 minutes
	system time =       0.06 seconds =       0.00 minutes
	total time  =          0 seconds =       0.00 minutes
Total time:
	user time   =      32.46 seconds =       0.54 minutes
	system time =       0.61 seconds =       0.01 minutes
	total time  =          5 seconds =       0.08 minutes
  Constructing Basis Sets for SAPT...

   => Loading Basis Set <=

    Name: (JUN-CC-PVDZ AUX)
    Role: RIFIT
    Keyword: DF_BASIS_SAPT
    atoms 1, 12-15   entry O          line   188 file /opt/anaconda/envs/psi4v1.5/share/psi4/basis/jun-cc-pvdz-ri.gbs 
    atoms 2-7, 10-11 entry H          line    30 file /opt/anaconda/envs/psi4v1.5/share/psi4/basis/jun-cc-pvdz-ri.gbs 
    atoms 8-9        entry C          line   100 file /opt/anaconda/envs/psi4v1.5/share/psi4/basis/jun-cc-pvdz-ri.gbs 
    atoms 16         entry P          line   432 file /opt/anaconda/envs/psi4v1.5/share/psi4/basis/jun-cc-pvdz-ri.gbs 


  //>>>>>>>>>>>>>>>>>>>>>>>>>>>>>>>>>>>//
  //           SAPT2+(3)DMP2           //
  //<<<<<<<<<<<<<<<<<<<<<<<<<<<<<<<<<<<//


*** tstart() called on bme-earth.bme.utexas.edu
*** at Sun May 12 23:10:45 2024

      SAPT2+(3)  
    Ed Hohenstein
     6 June 2009

      Orbital Information
  --------------------------
    NSO        =       188
    NMO        =       188
    NRI        =       652
    NOCC A     =         5
    NOCC B     =        33
    FOCC A     =         1
    FOCC B     =        11
    NVIR A     =       183
    NVIR B     =       155

    Estimated memory usage: 1049.9 MB

    Natural Orbital Cutoff:   1.000E-06
    Disp(T3) Truncation:            Yes
    CCD (vv|vv) Truncation:         Yes
    MBPT T2 Truncation:             Yes

    Monomer A: 150 virtual orbitals dropped
    Monomer B: 17 virtual orbitals dropped

    Elst10,r            =    -0.038774644080 [Eh]
    Exch10 (S^2)        =     0.028801243832 [Eh]
    Exch10              =     0.028992509043 [Eh]
    Ind20,r (A<-B)      =    -0.005649437197 [Eh]
    Ind20,r (B<-A)      =    -0.008071110737 [Eh]
    Ind20,r             =    -0.013720547934 [Eh]
    Exch-Ind20,r (A<-B) =     0.002865233130 [Eh]
    Exch-Ind20,r (B<-A) =     0.004920224286 [Eh]
    Exch-Ind20,r        =     0.007785457416 [Eh]
    Disp20              =    -0.009173472441 [Eh]
    Disp20 (NO)         =    -0.008339021503 [Eh]
    Exch-Disp20         =     0.001968997490 [Eh]
    Elst12,r            =    -0.000863670153 [Eh]
    Exch11              =    -0.000111420661 [Eh]
    Exch12              =     0.006854030292 [Eh]
    Ind22               =    -0.003268819693 [Eh]
    Disp21              =     0.000685743135 [Eh]
    Disp22 (SDQ)        =    -0.000792043462 [Eh]

    (i =   1 of  22)          0 seconds
    (i =   2 of  22)          0 seconds
    (i =   3 of  22)          0 seconds
    (i =   4 of  22)          0 seconds
    (i =   5 of  22)          0 seconds
    (i =   6 of  22)          0 seconds
    (i =   7 of  22)          0 seconds
    (i =   8 of  22)          0 seconds
    (i =   9 of  22)          1 seconds
    (i =  10 of  22)          1 seconds
    (i =  11 of  22)          1 seconds
    (i =  12 of  22)          1 seconds
    (i =  13 of  22)          1 seconds
    (i =  14 of  22)          1 seconds
    (i =  15 of  22)          1 seconds
    (i =  16 of  22)          1 seconds
    (i =  17 of  22)          1 seconds
    (i =  18 of  22)          1 seconds
    (i =  19 of  22)          1 seconds
    (i =  20 of  22)          1 seconds
    (i =  21 of  22)          1 seconds
    (i =  22 of  22)          1 seconds

    Disp220 (T)         =    -0.000642233177 [Eh]

    (i =   1 of   4)          4 seconds
    (i =   2 of   4)          8 seconds
    (i =   3 of   4)         11 seconds
    (i =   4 of   4)         15 seconds

    Disp202 (T)         =    -0.000743303104 [Eh]

    Disp22 (T)          =    -0.001385536281 [Eh]

    Est. Disp220 (T)    =    -0.000706498760 [Eh]
    Est. Disp202 (T)    =    -0.000817682331 [Eh]

    Est. Disp22 (T)     =    -0.001524181091 [Eh]
    Elst13,r            =     0.001159678860 [Eh]
    Disp30              =     0.000093605440 [Eh]

    SAPT Results 
  --------------------------------------------------------------------------------------------------------
    Electrostatics                -38.47863537 [mEh]     -24.14570823 [kcal/mol]    -101.02564325 [kJ/mol]
      Elst10,r                    -38.77464408 [mEh]     -24.33145650 [kcal/mol]    -101.80281401 [kJ/mol]
      Elst12,r                     -0.86367015 [mEh]      -0.54196120 [kcal/mol]      -2.26756567 [kJ/mol]
      Elst13,r                      1.15967886 [mEh]       0.72770947 [kcal/mol]       3.04473643 [kJ/mol]

    Exchange                       35.73511867 [mEh]      22.42412551 [kcal/mol]      93.82254115 [kJ/mol]
      Exch10                       28.99250904 [mEh]      18.19307409 [kcal/mol]      76.11982201 [kJ/mol]
      Exch10(S^2)                  28.80124383 [mEh]      18.07305336 [kcal/mol]      75.61765526 [kJ/mol]
      Exch11(S^2)                  -0.11142066 [mEh]      -0.06991752 [kcal/mol]      -0.29253490 [kJ/mol]
      Exch12(S^2)                   6.85403029 [mEh]       4.30096894 [kcal/mol]      17.99525405 [kJ/mol]

    Induction                      -9.81278499 [mEh]      -6.15761555 [kcal/mol]     -25.76346344 [kJ/mol]
      Ind20,r                     -13.72054793 [mEh]      -8.60977381 [kcal/mol]     -36.02329364 [kJ/mol]
      Ind22                        -3.26881969 [mEh]      -2.05121533 [kcal/mol]      -8.58228492 [kJ/mol]
      Exch-Ind20,r                  7.78545742 [mEh]       4.88544829 [kcal/mol]      20.44071563 [kJ/mol]
      Exch-Ind22                    1.85482800 [mEh]       1.16392214 [kcal/mol]       4.86985025 [kJ/mol]
      delta HF,r (2)               -3.16393006 [mEh]      -1.98539609 [kcal/mol]      -8.30689724 [kJ/mol]
      delta MP2,r (2)               0.70022728 [mEh]       0.43939925 [kcal/mol]       1.83844648 [kJ/mol]

    Dispersion                     -8.74135093 [mEh]      -5.48528052 [kcal/mol]     -22.95041371 [kJ/mol]
      Disp20                       -9.17347244 [mEh]      -5.75644086 [kcal/mol]     -24.08494858 [kJ/mol]
      Disp30                        0.09360544 [mEh]       0.05873830 [kcal/mol]       0.24576105 [kJ/mol]
      Disp21                        0.68574313 [mEh]       0.43031031 [kcal/mol]       1.80041835 [kJ/mol]
      Disp22 (SDQ)                 -0.79204346 [mEh]      -0.49701478 [kcal/mol]      -2.07950982 [kJ/mol]
      Disp22 (T)                   -1.38553628 [mEh]      -0.86943714 [kcal/mol]      -3.63772501 [kJ/mol]
      Est. Disp22 (T)              -1.52418109 [mEh]      -0.95643807 [kcal/mol]      -4.00173690 [kJ/mol]
      Exch-Disp20                   1.96899749 [mEh]       1.23556458 [kcal/mol]       5.16960220 [kJ/mol]

  Total HF                        -18.88115562 [mEh]     -11.84810403 [kcal/mol]     -49.57246725 [kJ/mol]
  Total SAPT0                     -26.08563057 [mEh]     -16.36898031 [kcal/mol]     -68.48781363 [kJ/mol]
  Total SAPT2                     -21.62068278 [mEh]     -13.56718328 [kcal/mol]     -56.76509483 [kJ/mol]
  Total SAPT2+                    -23.25116420 [mEh]     -14.59032581 [kcal/mol]     -61.04592320 [kJ/mol]
  Total SAPT2+(3)                 -21.99787990 [mEh]     -13.80387804 [kcal/mol]     -57.75542573 [kJ/mol]
  Total SAPT2+dMP2                -22.55093692 [mEh]     -14.15092656 [kcal/mol]     -59.20747673 [kJ/mol]
  Total SAPT2+(3)dMP2             -21.29765262 [mEh]     -13.36447879 [kcal/mol]     -55.91697925 [kJ/mol]

  Special recipe for scaled SAPT0 (see Manual):
    Electrostatics sSAPT0         -38.77464408 [mEh]     -24.33145650 [kcal/mol]    -101.80281401 [kJ/mol]
    Exchange sSAPT0                28.99250904 [mEh]      18.19307409 [kcal/mol]      76.11982201 [kJ/mol]
    Induction sSAPT0               -8.94288171 [mEh]      -5.61174300 [kcal/mol]     -23.47953271 [kJ/mol]
    Dispersion sSAPT0              -7.16498632 [mEh]      -4.49609680 [kcal/mol]     -18.81166900 [kJ/mol]
  Total sSAPT0                    -25.89000307 [mEh]     -16.24622221 [kcal/mol]     -67.97419371 [kJ/mol]
  --------------------------------------------------------------------------------------------------------

*** tstop() called on bme-earth.bme.utexas.edu at Sun May 12 23:11:22 2024
Module time:
	user time   =     286.44 seconds =       4.77 minutes
	system time =       3.23 seconds =       0.05 minutes
	total time  =         37 seconds =       0.62 minutes
Total time:
	user time   =     319.26 seconds =       5.32 minutes
	system time =       3.84 seconds =       0.06 minutes
	total time  =         42 seconds =       0.70 minutes

    Psi4 stopped on: Sunday, 12 May 2024 11:11PM
    Psi4 wall time for execution: 0:00:42.56

*** Psi4 exiting successfully. Buy a developer a beer!
