
    -----------------------------------------------------------------------
          Psi4: An Open-Source Ab Initio Electronic Structure Package
                               Psi4 1.5 release

                         Git: Rev {HEAD} e9f4d6d 


    D. G. A. Smith, L. A. Burns, A. C. Simmonett, R. M. Parrish,
    M. C. Schieber, R. Galvelis, P. Kraus, H. Kruse, R. Di Remigio,
    A. Alenaizan, A. M. James, S. Lehtola, J. P. Misiewicz, M. Scheurer,
    R. A. Shaw, J. B. Schriber, Y. Xie, Z. L. Glick, D. A. Sirianni,
    J. S. O'Brien, J. M. Waldrop, A. Kumar, E. G. Hohenstein,
    B. P. Pritchard, B. R. Brooks, H. F. Schaefer III, A. Yu. Sokolov,
    K. Patkowski, A. E. DePrince III, U. Bozkaya, R. A. King,
    F. A. Evangelista, J. M. Turney, T. D. Crawford, C. D. Sherrill,
    J. Chem. Phys. 152(18) 184108 (2020). https://doi.org/10.1063/5.0006002

                            Additional Code Authors
    E. T. Seidl, C. L. Janssen, E. F. Valeev, M. L. Leininger,
    J. F. Gonthier, R. M. Richard, H. R. McAlexander, M. Saitow, X. Wang,
    P. Verma, M. H. Lechner, and A. Jiang

             Previous Authors, Complete List of Code Contributors,
                       and Citations for Specific Modules
    https://github.com/psi4/psi4/blob/master/codemeta.json
    https://github.com/psi4/psi4/graphs/contributors
    http://psicode.org/psi4manual/master/introduction.html#citing-psifour

    -----------------------------------------------------------------------


    Psi4 started on: Sunday, 12 May 2024 10:47PM

    Process ID: 2715883
    Host:       node150.bme.utexas.edu
    PSIDATADIR: /opt/anaconda/envs/psi4v1.5/share/psi4
    Memory:     500.0 MiB
    Threads:    8
    
  ==> Input File <==

--------------------------------------------------------------------------

memory 50 GB

molecule  {
  0 1

  O 2.8280195 0.6257877564102564 0.6504684230769231
  H 1.9156994999999999 0.7752177564102564 0.9931284230769232
  H 2.6166295 0.3215677564102564 -0.24713157692307694

  --
  -1 1

  H          0.12697       -2.37209        0.27759
  C          1.03438       -1.87117       -0.07224
  H         -2.11830       -0.01234        1.83919
  H         -2.99327        0.84300        0.54501
  C         -2.57702       -0.12460        0.85235
  H          1.62886       -2.57131       -0.66684
  H          1.62028       -1.52679        0.78232
  H         -3.38930       -0.85652        0.89919
  O          0.19929        0.72659        1.11008
  O         -0.52781        1.41203       -1.34680
  O          0.70747       -0.77961       -0.93546
  O         -1.63417       -0.60635       -0.09761
  P         -0.29052        0.38309       -0.28507

units angstrom
no_reorient
symmetry c1}

set {
scf_type DF
basis jun-cc-pvdz
freeze_core True
guess SAD
}
energy('sapt2+(3)dmp2')
--------------------------------------------------------------------------

  Memory set to  46.566 GiB by Python driver.

Scratch directory: /tmp/
   => Loading Basis Set <=

    Name: JUN-CC-PVDZ
    Role: ORBITAL
    Keyword: BASIS
    atoms 1, 12-15       entry O          line   232 file /opt/anaconda/envs/psi4v1.5/share/psi4/basis/jun-cc-pvdz.gbs 
    atoms 2-4, 6-7, 9-11 entry H          line    36 file /opt/anaconda/envs/psi4v1.5/share/psi4/basis/jun-cc-pvdz.gbs 
    atoms 5, 8           entry C          line   164 file /opt/anaconda/envs/psi4v1.5/share/psi4/basis/jun-cc-pvdz.gbs 
    atoms 16             entry P          line   600 file /opt/anaconda/envs/psi4v1.5/share/psi4/basis/jun-cc-pvdz.gbs 

   => Loading Basis Set <=

    Name: JUN-CC-PVDZ
    Role: ORBITAL
    Keyword: BASIS
    atoms 1, 12-15       entry O          line   232 file /opt/anaconda/envs/psi4v1.5/share/psi4/basis/jun-cc-pvdz.gbs 
    atoms 2-4, 6-7, 9-11 entry H          line    36 file /opt/anaconda/envs/psi4v1.5/share/psi4/basis/jun-cc-pvdz.gbs 
    atoms 5, 8           entry C          line   164 file /opt/anaconda/envs/psi4v1.5/share/psi4/basis/jun-cc-pvdz.gbs 
    atoms 16             entry P          line   600 file /opt/anaconda/envs/psi4v1.5/share/psi4/basis/jun-cc-pvdz.gbs 


  //>>>>>>>>>>>>>>>>>>>>>>>>>>>>>>>>>>>//
  //              Dimer HF             //
  //<<<<<<<<<<<<<<<<<<<<<<<<<<<<<<<<<<<//


*** tstart() called on node150.bme.utexas.edu
*** at Sun May 12 22:47:28 2024

   => Loading Basis Set <=

    Name: JUN-CC-PVDZ
    Role: ORBITAL
    Keyword: BASIS
    atoms 1, 12-15       entry O          line   232 file /opt/anaconda/envs/psi4v1.5/share/psi4/basis/jun-cc-pvdz.gbs 
    atoms 2-4, 6-7, 9-11 entry H          line    36 file /opt/anaconda/envs/psi4v1.5/share/psi4/basis/jun-cc-pvdz.gbs 
    atoms 5, 8           entry C          line   164 file /opt/anaconda/envs/psi4v1.5/share/psi4/basis/jun-cc-pvdz.gbs 
    atoms 16             entry P          line   600 file /opt/anaconda/envs/psi4v1.5/share/psi4/basis/jun-cc-pvdz.gbs 


         ---------------------------------------------------------
                                   SCF
               by Justin Turney, Rob Parrish, Andy Simmonett
                          and Daniel G. A. Smith
                              RHF Reference
                        8 Threads,  47683 MiB Core
         ---------------------------------------------------------

  ==> Geometry <==

    Molecular point group: c1
    Full point group: C1

    Geometry (in Angstrom), charge = -1, multiplicity = 1:

       Center              X                  Y                   Z               Mass       
    ------------   -----------------  -----------------  -----------------  -----------------
         O            2.848650442689     0.594159834124     0.684852530503    15.994914619570
         H            1.936330442689     0.743589834124     1.027512530503     1.007825032230
         H            2.637260442689     0.289939834124    -0.212747469497     1.007825032230
         H            0.147600942689    -2.403717922286     0.311974107426     1.007825032230
         C            1.055010942689    -1.902797922286    -0.037855892574    12.000000000000
         H           -2.097669057311    -0.043967922286     1.873574107426     1.007825032230
         H           -2.972639057311     0.811372077714     0.579394107426     1.007825032230
         C           -2.556389057311    -0.156227922286     0.886734107426    12.000000000000
         H            1.649490942689    -2.602937922286    -0.632455892574     1.007825032230
         H            1.640910942689    -1.558417922286     0.816704107426     1.007825032230
         H           -3.368669057311    -0.888147922286     0.933574107426     1.007825032230
         O            0.219920942689     0.694962077714     1.144464107426    15.994914619570
         O           -0.507179057311     1.380402077714    -1.312415892574    15.994914619570
         O            0.728100942689    -0.811237922286    -0.901075892574    15.994914619570
         O           -1.613539057311    -0.637977922286    -0.063225892574    15.994914619570
         P           -0.269889057311     0.351462077714    -0.250685892574    30.973761998420

  Running in c1 symmetry.

  Rotational constants: A =      0.07912  B =      0.04138  C =      0.03783 [cm^-1]
  Rotational constants: A =   2372.05968  B =   1240.63851  C =   1134.03414 [MHz]
  Nuclear repulsion =  545.941451150988541

  Charge       = -1
  Multiplicity = 1
  Electrons    = 76
  Nalpha       = 38
  Nbeta        = 38

  ==> Algorithm <==

  SCF Algorithm Type is DF.
  DIIS enabled.
  MOM disabled.
  Fractional occupation disabled.
  Guess Type is SAD.
  Energy threshold   = 1.00e-08
  Density threshold  = 1.00e-08
  Integral threshold = 1.00e-12

  ==> Primary Basis <==

  Basis Set: JUN-CC-PVDZ
    Blend: JUN-CC-PVDZ
    Number of shells: 90
    Number of basis functions: 188
    Number of Cartesian functions: 196
    Spherical Harmonics?: true
    Max angular momentum: 2

   => Loading Basis Set <=

    Name: (JUN-CC-PVDZ AUX)
    Role: JKFIT
    Keyword: DF_BASIS_SCF
    atoms 1, 12-15       entry O          line   258 file /opt/anaconda/envs/psi4v1.5/share/psi4/basis/jun-cc-pvdz-jkfit.gbs 
    atoms 2-4, 6-7, 9-11 entry H          line    70 file /opt/anaconda/envs/psi4v1.5/share/psi4/basis/jun-cc-pvdz-jkfit.gbs 
    atoms 5, 8           entry C          line   146 file /opt/anaconda/envs/psi4v1.5/share/psi4/basis/jun-cc-pvdz-jkfit.gbs 
    atoms 16             entry P          line   586 file /opt/anaconda/envs/psi4v1.5/share/psi4/basis/jun-cc-pvdz-jkfit.gbs 

  ==> Integral Setup <==

  ==> DiskDFJK: Density-Fitted J/K Matrices <==

    J tasked:                  Yes
    K tasked:                  Yes
    wK tasked:                  No
    OpenMP threads:              8
    Integrals threads:           8
    Memory [MiB]:            35762
    Algorithm:                Core
    Integral Cache:           SAVE
    Schwarz Cutoff:          1E-12
    Fitting Condition:       1E-10

   => Auxiliary Basis Set <=

  Basis Set: (JUN-CC-PVDZ AUX)
    Blend: JUN-CC-PVDZ-JKFIT
    Number of shells: 300
    Number of basis functions: 858
    Number of Cartesian functions: 977
    Spherical Harmonics?: true
    Max angular momentum: 3

  Minimum eigenvalue in the overlap matrix is 3.6722822551E-04.
  Reciprocal condition number of the overlap matrix is 3.5968263480E-05.
    Using symmetric orthogonalization.

  ==> Pre-Iterations <==

  SCF Guess: Superposition of Atomic Densities via on-the-fly atomic UHF (no occupation information).

   -------------------------
    Irrep   Nso     Nmo    
   -------------------------
     A        188     188 
   -------------------------
    Total     188     188
   -------------------------

  ==> Iterations <==

                           Total Energy        Delta E     RMS |[F,P]|

   @DF-RHF iter SAD:  -794.07154440532804   -7.94072e+02   0.00000e+00 
   @DF-RHF iter   1:  -795.26660442393074   -1.19506e+00   4.75038e-03 DIIS
   @DF-RHF iter   2:  -795.49377160421864   -2.27167e-01   2.99057e-03 DIIS
   @DF-RHF iter   3:  -795.60666783459055   -1.12896e-01   3.33093e-04 DIIS
   @DF-RHF iter   4:  -795.60902807990954   -2.36025e-03   1.49546e-04 DIIS
   @DF-RHF iter   5:  -795.60940511778085   -3.77038e-04   3.30505e-05 DIIS
   @DF-RHF iter   6:  -795.60942907397668   -2.39562e-05   8.76215e-06 DIIS
   @DF-RHF iter   7:  -795.60943149131413   -2.41734e-06   2.64402e-06 DIIS
   @DF-RHF iter   8:  -795.60943175423006   -2.62916e-07   9.72332e-07 DIIS
   @DF-RHF iter   9:  -795.60943178172886   -2.74988e-08   4.13926e-07 DIIS
   @DF-RHF iter  10:  -795.60943178677337   -5.04451e-09   8.52555e-08 DIIS
   @DF-RHF iter  11:  -795.60943178706157   -2.88196e-10   2.74429e-08 DIIS
   @DF-RHF iter  12:  -795.60943178709022   -2.86491e-11   1.09890e-08 DIIS
   @DF-RHF iter  13:  -795.60943178709681   -6.59384e-12   4.04176e-09 DIIS
  Energy and wave function converged.


  ==> Post-Iterations <==

    Orbital Energies [Eh]
    ---------------------

    Doubly Occupied:                                                      

       1A    -79.938220     2A    -20.429003     3A    -20.426676  
       4A    -20.390651     5A    -20.350878     6A    -20.339158  
       7A    -11.156895     8A    -11.149828     9A     -7.456090  
      10A     -5.354076    11A     -5.353565    12A     -5.353474  
      13A     -1.261898    14A     -1.209044    15A     -1.170079  
      16A     -1.137718    17A     -1.100303    18A     -0.809714  
      19A     -0.792564    20A     -0.611898    21A     -0.546394  
      22A     -0.528816    23A     -0.511332    24A     -0.500573  
      25A     -0.481963    26A     -0.462162    27A     -0.457132  
      28A     -0.420511    29A     -0.397411    30A     -0.376336  
      31A     -0.361108    32A     -0.330933    33A     -0.323853  
      34A     -0.321132    35A     -0.308184    36A     -0.292277  
      37A     -0.276926    38A     -0.261990  

    Virtual:                                                              

      39A      0.159782    40A      0.164016    41A      0.198572  
      42A      0.201239    43A      0.213939    44A      0.216630  
      45A      0.222105    46A      0.234477    47A      0.249607  
      48A      0.254173    49A      0.297940    50A      0.313678  
      51A      0.332478    52A      0.350330    53A      0.369898  
      54A      0.386817    55A      0.397735    56A      0.409577  
      57A      0.414417    58A      0.420883    59A      0.421597  
      60A      0.435860    61A      0.451453    62A      0.456892  
      63A      0.461537    64A      0.466879    65A      0.470785  
      66A      0.486425    67A      0.493192    68A      0.499397  
      69A      0.504577    70A      0.517649    71A      0.525409  
      72A      0.529183    73A      0.543121    74A      0.553055  
      75A      0.571095    76A      0.581416    77A      0.587590  
      78A      0.607220    79A      0.614420    80A      0.641880  
      81A      0.649955    82A      0.682716    83A      0.710442  
      84A      0.739530    85A      0.868263    86A      0.893706  
      87A      0.906147    88A      0.931067    89A      0.944961  
      90A      0.961704    91A      1.001633    92A      1.022906  
      93A      1.039988    94A      1.046161    95A      1.050089  
      96A      1.060832    97A      1.083710    98A      1.088816  
      99A      1.100350   100A      1.118933   101A      1.195346  
     102A      1.210407   103A      1.240159   104A      1.263334  
     105A      1.294718   106A      1.333977   107A      1.372404  
     108A      1.388798   109A      1.419454   110A      1.435357  
     111A      1.465928   112A      1.542373   113A      1.576238  
     114A      1.599240   115A      1.612494   116A      1.621009  
     117A      1.647969   118A      1.661415   119A      1.701487  
     120A      1.714891   121A      1.717564   122A      1.746005  
     123A      1.758312   124A      1.791644   125A      1.807034  
     126A      1.824734   127A      1.833163   128A      1.846261  
     129A      1.865211   130A      1.897036   131A      1.918926  
     132A      1.925598   133A      1.984241   134A      2.007188  
     135A      2.048247   136A      2.058140   137A      2.085864  
     138A      2.120072   139A      2.129568   140A      2.156462  
     141A      2.165155   142A      2.175021   143A      2.193481  
     144A      2.230657   145A      2.318023   146A      2.351655  
     147A      2.360331   148A      2.428236   149A      2.508055  
     150A      2.512926   151A      2.522144   152A      2.525281  
     153A      2.587042   154A      2.640719   155A      2.664321  
     156A      2.733224   157A      2.846443   158A      2.891845  
     159A      2.908731   160A      2.919270   161A      2.958539  
     162A      2.972211   163A      2.987268   164A      3.145440  
     165A      3.164632   166A      3.181742   167A      3.199372  
     168A      3.225617   169A      3.280408   170A      3.336431  
     171A      3.362961   172A      3.392138   173A      3.445034  
     174A      3.469846   175A      3.478971   176A      3.482898  
     177A      3.501966   178A      3.553415   179A      3.568048  
     180A      3.623107   181A      3.708047   182A      3.738090  
     183A      3.772012   184A      3.793971   185A      3.946396  
     186A      4.006762   187A      4.104186   188A      4.411362  

    Final Occupation by Irrep:
              A 
    DOCC [    38 ]

  @DF-RHF Final Energy:  -795.60943178709681

   => Energetics <=

    Nuclear Repulsion Energy =            545.9414511509885415
    One-Electron Energy =               -2197.2002268122673740
    Two-Electron Energy =                 855.6493438741820228
    Total Energy =                       -795.6094317870968098

Computation Completed


Properties will be evaluated at   0.000000,   0.000000,   0.000000 [a0]

Properties computed using the SCF density matrix

  Nuclear Dipole Moment: [e a0]
     X:    -0.1443      Y:    -5.6164      Z:     4.6323

  Electronic Dipole Moment: [e a0]
     X:    -0.9897      Y:     3.7713      Z:    -4.0517

  Dipole Moment: [e a0]
     X:    -1.1340      Y:    -1.8450      Z:     0.5806     Total:     2.2421

  Dipole Moment: [D]
     X:    -2.8822      Y:    -4.6896      Z:     1.4757     Total:     5.6989


*** tstop() called on node150.bme.utexas.edu at Sun May 12 22:47:30 2024
Module time:
	user time   =      10.60 seconds =       0.18 minutes
	system time =       0.32 seconds =       0.01 minutes
	total time  =          2 seconds =       0.03 minutes
Total time:
	user time   =      10.60 seconds =       0.18 minutes
	system time =       0.32 seconds =       0.01 minutes
	total time  =          2 seconds =       0.03 minutes

*** tstart() called on node150.bme.utexas.edu
*** at Sun May 12 22:47:30 2024


  //>>>>>>>>>>>>>>>>>>>>>>>>>>>>>>>>>>>//
  //               DFMP2               //
  //<<<<<<<<<<<<<<<<<<<<<<<<<<<<<<<<<<<//

   => Loading Basis Set <=

    Name: (JUN-CC-PVDZ AUX)
    Role: RIFIT
    Keyword: DF_BASIS_MP2
    atoms 1, 12-15       entry O          line   188 file /opt/anaconda/envs/psi4v1.5/share/psi4/basis/jun-cc-pvdz-ri.gbs 
    atoms 2-4, 6-7, 9-11 entry H          line    30 file /opt/anaconda/envs/psi4v1.5/share/psi4/basis/jun-cc-pvdz-ri.gbs 
    atoms 5, 8           entry C          line   100 file /opt/anaconda/envs/psi4v1.5/share/psi4/basis/jun-cc-pvdz-ri.gbs 
    atoms 16             entry P          line   432 file /opt/anaconda/envs/psi4v1.5/share/psi4/basis/jun-cc-pvdz-ri.gbs 

	 --------------------------------------------------------
	                          DF-MP2                         
	      2nd-Order Density-Fitted Moller-Plesset Theory     
	              RMP2 Wavefunction,   8 Threads             
	                                                         
	        Rob Parrish, Justin Turney, Andy Simmonett,      
	           Ed Hohenstein, and C. David Sherrill          
	 --------------------------------------------------------

   => Auxiliary Basis Set <=

  Basis Set: (JUN-CC-PVDZ AUX)
    Blend: JUN-CC-PVDZ-RI
    Number of shells: 222
    Number of basis functions: 652
    Number of Cartesian functions: 752
    Spherical Harmonics?: true
    Max angular momentum: 3

	 --------------------------------------------------------
	                 NBF =   188, NAUX =   652
	 --------------------------------------------------------
	   CLASS    FOCC     OCC    AOCC    AVIR     VIR    FVIR
	   PAIRS      12      38      26     150     150       0
	 --------------------------------------------------------

	 Will save fitting metric to file 97.

	-----------------------------------------------------------
	 ==================> DF-MP2 Energies <==================== 
	-----------------------------------------------------------
	 Reference Energy          =    -795.6094317870968098 [Eh]
	 Singles Energy            =      -0.0000000000000000 [Eh]
	 Same-Spin Energy          =      -0.3656784525592600 [Eh]
	 Opposite-Spin Energy      =      -1.0216242229422252 [Eh]
	 Correlation Energy        =      -1.3873026755014852 [Eh]
	 Total Energy              =    -796.9967344625982832 [Eh]
	-----------------------------------------------------------
	 ================> DF-SCS-MP2 Energies <================== 
	-----------------------------------------------------------
	 SCS Same-Spin Scale       =       0.3333333333333333 [-]
	 SCS Opposite-Spin Scale   =       1.2000000000000000 [-]
	 SCS Same-Spin Energy      =      -0.1218928175197533 [Eh]
	 SCS Opposite-Spin Energy  =      -1.2259490675306701 [Eh]
	 SCS Correlation Energy    =      -1.3478418850504235 [Eh]
	 SCS Total Energy          =    -796.9572736721472666 [Eh]
	-----------------------------------------------------------


*** tstop() called on node150.bme.utexas.edu at Sun May 12 22:47:31 2024
Module time:
	user time   =       4.71 seconds =       0.08 minutes
	system time =       0.08 seconds =       0.00 minutes
	total time  =          1 seconds =       0.02 minutes
Total time:
	user time   =      15.32 seconds =       0.26 minutes
	system time =       0.40 seconds =       0.01 minutes
	total time  =          3 seconds =       0.05 minutes

  //>>>>>>>>>>>>>>>>>>>>>>>>>>>>>>>>>>>//
  //            Monomer A HF           //
  //<<<<<<<<<<<<<<<<<<<<<<<<<<<<<<<<<<<//


*** tstart() called on node150.bme.utexas.edu
*** at Sun May 12 22:47:31 2024

   => Loading Basis Set <=

    Name: JUN-CC-PVDZ
    Role: ORBITAL
    Keyword: BASIS
    atoms 1, 12-15       entry O          line   232 file /opt/anaconda/envs/psi4v1.5/share/psi4/basis/jun-cc-pvdz.gbs 
    atoms 2-4, 6-7, 9-11 entry H          line    36 file /opt/anaconda/envs/psi4v1.5/share/psi4/basis/jun-cc-pvdz.gbs 
    atoms 5, 8           entry C          line   164 file /opt/anaconda/envs/psi4v1.5/share/psi4/basis/jun-cc-pvdz.gbs 
    atoms 16             entry P          line   600 file /opt/anaconda/envs/psi4v1.5/share/psi4/basis/jun-cc-pvdz.gbs 


         ---------------------------------------------------------
                                   SCF
               by Justin Turney, Rob Parrish, Andy Simmonett
                          and Daniel G. A. Smith
                              RHF Reference
                        8 Threads,  47683 MiB Core
         ---------------------------------------------------------

  ==> Geometry <==

    Molecular point group: c1
    Full point group: C1

    Geometry (in Angstrom), charge = 0, multiplicity = 1:

       Center              X                  Y                   Z               Mass       
    ------------   -----------------  -----------------  -----------------  -----------------
         O            2.848650442689     0.594159834124     0.684852530503    15.994914619570
         H            1.936330442689     0.743589834124     1.027512530503     1.007825032230
         H            2.637260442689     0.289939834124    -0.212747469497     1.007825032230
      Gh(H)           0.147600942689    -2.403717922286     0.311974107426     1.007825032230
      Gh(C)           1.055010942689    -1.902797922286    -0.037855892574    12.000000000000
      Gh(H)          -2.097669057311    -0.043967922286     1.873574107426     1.007825032230
      Gh(H)          -2.972639057311     0.811372077714     0.579394107426     1.007825032230
      Gh(C)          -2.556389057311    -0.156227922286     0.886734107426    12.000000000000
      Gh(H)           1.649490942689    -2.602937922286    -0.632455892574     1.007825032230
      Gh(H)           1.640910942689    -1.558417922286     0.816704107426     1.007825032230
      Gh(H)          -3.368669057311    -0.888147922286     0.933574107426     1.007825032230
      Gh(O)           0.219920942689     0.694962077714     1.144464107426    15.994914619570
      Gh(O)          -0.507179057311     1.380402077714    -1.312415892574    15.994914619570
      Gh(O)           0.728100942689    -0.811237922286    -0.901075892574    15.994914619570
      Gh(O)          -1.613539057311    -0.637977922286    -0.063225892574    15.994914619570
      Gh(P)          -0.269889057311     0.351462077714    -0.250685892574    30.973761998420

  Running in c1 symmetry.

  Rotational constants: A =      0.07912  B =      0.04138  C =      0.03783 [cm^-1]
  Rotational constants: A =   2372.05968  B =   1240.63851  C =   1134.03414 [MHz]
  Nuclear repulsion =    9.007405785925695

  Charge       = 0
  Multiplicity = 1
  Electrons    = 10
  Nalpha       = 5
  Nbeta        = 5

  ==> Algorithm <==

  SCF Algorithm Type is DF.
  DIIS enabled.
  MOM disabled.
  Fractional occupation disabled.
  Guess Type is SAD.
  Energy threshold   = 1.00e-08
  Density threshold  = 1.00e-08
  Integral threshold = 1.00e-12

  ==> Primary Basis <==

  Basis Set: JUN-CC-PVDZ
    Blend: JUN-CC-PVDZ
    Number of shells: 90
    Number of basis functions: 188
    Number of Cartesian functions: 196
    Spherical Harmonics?: true
    Max angular momentum: 2

   => Loading Basis Set <=

    Name: (JUN-CC-PVDZ AUX)
    Role: JKFIT
    Keyword: DF_BASIS_SCF
    atoms 1, 12-15       entry O          line   258 file /opt/anaconda/envs/psi4v1.5/share/psi4/basis/jun-cc-pvdz-jkfit.gbs 
    atoms 2-4, 6-7, 9-11 entry H          line    70 file /opt/anaconda/envs/psi4v1.5/share/psi4/basis/jun-cc-pvdz-jkfit.gbs 
    atoms 5, 8           entry C          line   146 file /opt/anaconda/envs/psi4v1.5/share/psi4/basis/jun-cc-pvdz-jkfit.gbs 
    atoms 16             entry P          line   586 file /opt/anaconda/envs/psi4v1.5/share/psi4/basis/jun-cc-pvdz-jkfit.gbs 

  ==> Integral Setup <==

  ==> DiskDFJK: Density-Fitted J/K Matrices <==

    J tasked:                  Yes
    K tasked:                  Yes
    wK tasked:                  No
    OpenMP threads:              8
    Integrals threads:           8
    Memory [MiB]:            35762
    Algorithm:                Core
    Integral Cache:           LOAD
    Schwarz Cutoff:          1E-12
    Fitting Condition:       1E-10

   => Auxiliary Basis Set <=

  Basis Set: (JUN-CC-PVDZ AUX)
    Blend: JUN-CC-PVDZ-JKFIT
    Number of shells: 300
    Number of basis functions: 858
    Number of Cartesian functions: 977
    Spherical Harmonics?: true
    Max angular momentum: 3

  Minimum eigenvalue in the overlap matrix is 3.6722822551E-04.
  Reciprocal condition number of the overlap matrix is 3.5968263480E-05.
    Using symmetric orthogonalization.

  ==> Pre-Iterations <==

  SCF Guess: Superposition of Atomic Densities via on-the-fly atomic UHF (no occupation information).

   -------------------------
    Irrep   Nso     Nmo    
   -------------------------
     A        188     188 
   -------------------------
    Total     188     188
   -------------------------

  ==> Iterations <==

                           Total Energy        Delta E     RMS |[F,P]|

   @DF-RHF iter SAD:   -75.49248224051132   -7.54925e+01   0.00000e+00 
   @DF-RHF iter   1:   -75.95703358683730   -4.64551e-01   2.30225e-03 DIIS
   @DF-RHF iter   2:   -76.00760287759661   -5.05693e-02   1.50225e-03 DIIS
   @DF-RHF iter   3:   -76.03558896385563   -2.79861e-02   1.18261e-04 DIIS
   @DF-RHF iter   4:   -76.03597070730143   -3.81743e-04   2.76443e-05 DIIS
   @DF-RHF iter   5:   -76.03599415670432   -2.34494e-05   5.66060e-06 DIIS
   @DF-RHF iter   6:   -76.03599571795039   -1.56125e-06   1.18947e-06 DIIS
   @DF-RHF iter   7:   -76.03599579374895   -7.57986e-08   1.43495e-07 DIIS
   @DF-RHF iter   8:   -76.03599579470088   -9.51928e-10   2.46434e-08 DIIS
   @DF-RHF iter   9:   -76.03599579472747   -2.65885e-11   6.69850e-09 DIIS
  Energy and wave function converged.


  ==> Post-Iterations <==

    Orbital Energies [Eh]
    ---------------------

    Doubly Occupied:                                                      

       1A    -20.583064     2A     -1.349567     3A     -0.698559  
       4A     -0.590306     5A     -0.508977  

    Virtual:                                                              

       6A      0.025152     7A      0.048583     8A      0.051051  
       9A      0.059146    10A      0.088791    11A      0.090677  
      12A      0.099929    13A      0.106647    14A      0.109897  
      15A      0.136769    16A      0.137638    17A      0.140951  
      18A      0.155339    19A      0.189313    20A      0.195098  
      21A      0.201914    22A      0.209242    23A      0.219629  
      24A      0.224810    25A      0.236492    26A      0.248466  
      27A      0.254894    28A      0.270515    29A      0.274675  
      30A      0.282596    31A      0.291375    32A      0.308022  
      33A      0.318635    34A      0.323538    35A      0.329245  
      36A      0.331923    37A      0.357616    38A      0.372111  
      39A      0.381995    40A      0.394443    41A      0.408602  
      42A      0.419186    43A      0.437575    44A      0.453786  
      45A      0.482201    46A      0.500767    47A      0.527283  
      48A      0.537812    49A      0.549791    50A      0.588063  
      51A      0.594475    52A      0.617578    53A      0.625375  
      54A      0.654048    55A      0.675599    56A      0.676487  
      57A      0.702938    58A      0.811413    59A      0.829862  
      60A      0.855404    61A      0.869632    62A      0.883985  
      63A      0.895904    64A      0.919406    65A      0.938737  
      66A      0.990531    67A      1.003097    68A      1.011893  
      69A      1.060461    70A      1.099149    71A      1.132410  
      72A      1.147684    73A      1.178771    74A      1.242125  
      75A      1.318854    76A      1.350312    77A      1.402694  
      78A      1.428775    79A      1.454335    80A      1.509222  
      81A      1.518677    82A      1.536560    83A      1.557343  
      84A      1.574056    85A      1.577101    86A      1.612085  
      87A      1.631578    88A      1.645938    89A      1.657598  
      90A      1.685350    91A      1.708500    92A      1.779275  
      93A      1.800595    94A      1.833157    95A      1.853521  
      96A      1.863621    97A      1.868354    98A      1.978043  
      99A      1.987353   100A      2.023718   101A      2.037853  
     102A      2.040224   103A      2.068262   104A      2.091351  
     105A      2.101466   106A      2.128272   107A      2.148652  
     108A      2.159383   109A      2.187936   110A      2.248499  
     111A      2.284184   112A      2.306575   113A      2.314611  
     114A      2.326277   115A      2.430503   116A      2.453918  
     117A      2.471608   118A      2.535358   119A      2.644071  
     120A      2.653880   121A      2.661118   122A      2.679152  
     123A      2.689806   124A      2.696107   125A      2.767333  
     126A      2.779968   127A      2.867989   128A      2.879460  
     129A      2.908514   130A      2.919696   131A      3.275487  
     132A      3.298040   133A      3.345019   134A      3.407653  
     135A      3.516720   136A      3.543334   137A      3.640425  
     138A      3.897155   139A      3.928153   140A      3.938986  
     141A      4.132460   142A      4.136210   143A      4.158067  
     144A      4.163114   145A      4.175620   146A      4.226503  
     147A      4.259956   148A      4.322895   149A      4.347635  
     150A      4.374710   151A      4.460941   152A      4.513383  
     153A      4.521074   154A      4.583375   155A      4.591541  
     156A      4.653137   157A      4.842005   158A      4.941065  
     159A      5.017597   160A      5.032335   161A      5.046117  
     162A      5.050741   163A      5.067089   164A      5.273275  
     165A      5.302761   166A      5.586952   167A      5.600417  
     168A      5.634243   169A      5.711905   170A      5.736586  
     171A      5.761055   172A      5.786402   173A      5.836337  
     174A      5.902537   175A      5.936321   176A      6.031080  
     177A      6.125031   178A      6.224775   179A     17.502483  
     180A     17.636022   181A     17.874050   182A     18.429160  
     183A     18.437105   184A     33.431005   185A     33.441048  
     186A     33.459183   187A     33.472060   188A    120.215528  

    Final Occupation by Irrep:
              A 
    DOCC [     5 ]

  @DF-RHF Final Energy:   -76.03599579472747

   => Energetics <=

    Nuclear Repulsion Energy =              9.0074057859256946
    One-Electron Energy =                -122.6258543126234173
    Two-Electron Energy =                  37.5824527319702568
    Total Energy =                        -76.0359957947274552

Computation Completed


Properties will be evaluated at   0.000000,   0.000000,   0.000000 [a0]

Properties computed using the SCF density matrix

  Nuclear Dipole Moment: [e a0]
     X:    51.7082      Y:    10.9355      Z:    11.8932

  Electronic Dipole Moment: [e a0]
     X:   -52.4722      Y:   -11.0385      Z:   -12.2753

  Dipole Moment: [e a0]
     X:    -0.7640      Y:    -0.1030      Z:    -0.3821     Total:     0.8604

  Dipole Moment: [D]
     X:    -1.9419      Y:    -0.2618      Z:    -0.9712     Total:     2.1870


*** tstop() called on node150.bme.utexas.edu at Sun May 12 22:47:32 2024
Module time:
	user time   =       5.24 seconds =       0.09 minutes
	system time =       0.08 seconds =       0.00 minutes
	total time  =          1 seconds =       0.02 minutes
Total time:
	user time   =      20.58 seconds =       0.34 minutes
	system time =       0.48 seconds =       0.01 minutes
	total time  =          4 seconds =       0.07 minutes

*** tstart() called on node150.bme.utexas.edu
*** at Sun May 12 22:47:32 2024


  //>>>>>>>>>>>>>>>>>>>>>>>>>>>>>>>>>>>//
  //               DFMP2               //
  //<<<<<<<<<<<<<<<<<<<<<<<<<<<<<<<<<<<//

   => Loading Basis Set <=

    Name: (JUN-CC-PVDZ AUX)
    Role: RIFIT
    Keyword: DF_BASIS_MP2
    atoms 1, 12-15       entry O          line   188 file /opt/anaconda/envs/psi4v1.5/share/psi4/basis/jun-cc-pvdz-ri.gbs 
    atoms 2-4, 6-7, 9-11 entry H          line    30 file /opt/anaconda/envs/psi4v1.5/share/psi4/basis/jun-cc-pvdz-ri.gbs 
    atoms 5, 8           entry C          line   100 file /opt/anaconda/envs/psi4v1.5/share/psi4/basis/jun-cc-pvdz-ri.gbs 
    atoms 16             entry P          line   432 file /opt/anaconda/envs/psi4v1.5/share/psi4/basis/jun-cc-pvdz-ri.gbs 

	 --------------------------------------------------------
	                          DF-MP2                         
	      2nd-Order Density-Fitted Moller-Plesset Theory     
	              RMP2 Wavefunction,   8 Threads             
	                                                         
	        Rob Parrish, Justin Turney, Andy Simmonett,      
	           Ed Hohenstein, and C. David Sherrill          
	 --------------------------------------------------------

   => Auxiliary Basis Set <=

  Basis Set: (JUN-CC-PVDZ AUX)
    Blend: JUN-CC-PVDZ-RI
    Number of shells: 222
    Number of basis functions: 652
    Number of Cartesian functions: 752
    Spherical Harmonics?: true
    Max angular momentum: 3

	 --------------------------------------------------------
	                 NBF =   188, NAUX =   652
	 --------------------------------------------------------
	   CLASS    FOCC     OCC    AOCC    AVIR     VIR    FVIR
	   PAIRS       1       5       4     183     183       0
	 --------------------------------------------------------

	 Will attempt to load fitting metric from file 97.

	-----------------------------------------------------------
	 ==================> DF-MP2 Energies <==================== 
	-----------------------------------------------------------
	 Reference Energy          =     -76.0359957947274694 [Eh]
	 Singles Energy            =      -0.0000000000000000 [Eh]
	 Same-Spin Energy          =      -0.0537994773909344 [Eh]
	 Opposite-Spin Energy      =      -0.1579239219814921 [Eh]
	 Correlation Energy        =      -0.2117233993724265 [Eh]
	 Total Energy              =     -76.2477191940999006 [Eh]
	-----------------------------------------------------------
	 ================> DF-SCS-MP2 Energies <================== 
	-----------------------------------------------------------
	 SCS Same-Spin Scale       =       0.3333333333333333 [-]
	 SCS Opposite-Spin Scale   =       1.2000000000000000 [-]
	 SCS Same-Spin Energy      =      -0.0179331591303115 [Eh]
	 SCS Opposite-Spin Energy  =      -0.1895087063777905 [Eh]
	 SCS Correlation Energy    =      -0.2074418655081020 [Eh]
	 SCS Total Energy          =     -76.2434376602355712 [Eh]
	-----------------------------------------------------------


*** tstop() called on node150.bme.utexas.edu at Sun May 12 22:47:32 2024
Module time:
	user time   =       3.59 seconds =       0.06 minutes
	system time =       0.06 seconds =       0.00 minutes
	total time  =          0 seconds =       0.00 minutes
Total time:
	user time   =      24.17 seconds =       0.40 minutes
	system time =       0.54 seconds =       0.01 minutes
	total time  =          4 seconds =       0.07 minutes

  //>>>>>>>>>>>>>>>>>>>>>>>>>>>>>>>>>>>//
  //            Monomer B HF           //
  //<<<<<<<<<<<<<<<<<<<<<<<<<<<<<<<<<<<//


*** tstart() called on node150.bme.utexas.edu
*** at Sun May 12 22:47:32 2024

   => Loading Basis Set <=

    Name: JUN-CC-PVDZ
    Role: ORBITAL
    Keyword: BASIS
    atoms 1, 12-15       entry O          line   232 file /opt/anaconda/envs/psi4v1.5/share/psi4/basis/jun-cc-pvdz.gbs 
    atoms 2-4, 6-7, 9-11 entry H          line    36 file /opt/anaconda/envs/psi4v1.5/share/psi4/basis/jun-cc-pvdz.gbs 
    atoms 5, 8           entry C          line   164 file /opt/anaconda/envs/psi4v1.5/share/psi4/basis/jun-cc-pvdz.gbs 
    atoms 16             entry P          line   600 file /opt/anaconda/envs/psi4v1.5/share/psi4/basis/jun-cc-pvdz.gbs 


         ---------------------------------------------------------
                                   SCF
               by Justin Turney, Rob Parrish, Andy Simmonett
                          and Daniel G. A. Smith
                              RHF Reference
                        8 Threads,  47683 MiB Core
         ---------------------------------------------------------

  ==> Geometry <==

    Molecular point group: c1
    Full point group: C1

    Geometry (in Angstrom), charge = -1, multiplicity = 1:

       Center              X                  Y                   Z               Mass       
    ------------   -----------------  -----------------  -----------------  -----------------
      Gh(O)           2.848650442689     0.594159834124     0.684852530503    15.994914619570
      Gh(H)           1.936330442689     0.743589834124     1.027512530503     1.007825032230
      Gh(H)           2.637260442689     0.289939834124    -0.212747469497     1.007825032230
         H            0.147600942689    -2.403717922286     0.311974107426     1.007825032230
         C            1.055010942689    -1.902797922286    -0.037855892574    12.000000000000
         H           -2.097669057311    -0.043967922286     1.873574107426     1.007825032230
         H           -2.972639057311     0.811372077714     0.579394107426     1.007825032230
         C           -2.556389057311    -0.156227922286     0.886734107426    12.000000000000
         H            1.649490942689    -2.602937922286    -0.632455892574     1.007825032230
         H            1.640910942689    -1.558417922286     0.816704107426     1.007825032230
         H           -3.368669057311    -0.888147922286     0.933574107426     1.007825032230
         O            0.219920942689     0.694962077714     1.144464107426    15.994914619570
         O           -0.507179057311     1.380402077714    -1.312415892574    15.994914619570
         O            0.728100942689    -0.811237922286    -0.901075892574    15.994914619570
         O           -1.613539057311    -0.637977922286    -0.063225892574    15.994914619570
         P           -0.269889057311     0.351462077714    -0.250685892574    30.973761998420

  Running in c1 symmetry.

  Rotational constants: A =      0.07912  B =      0.04138  C =      0.03783 [cm^-1]
  Rotational constants: A =   2372.05968  B =   1240.63851  C =   1134.03414 [MHz]
  Nuclear repulsion =  436.148445576263953

  Charge       = -1
  Multiplicity = 1
  Electrons    = 66
  Nalpha       = 33
  Nbeta        = 33

  ==> Algorithm <==

  SCF Algorithm Type is DF.
  DIIS enabled.
  MOM disabled.
  Fractional occupation disabled.
  Guess Type is SAD.
  Energy threshold   = 1.00e-08
  Density threshold  = 1.00e-08
  Integral threshold = 1.00e-12

  ==> Primary Basis <==

  Basis Set: JUN-CC-PVDZ
    Blend: JUN-CC-PVDZ
    Number of shells: 90
    Number of basis functions: 188
    Number of Cartesian functions: 196
    Spherical Harmonics?: true
    Max angular momentum: 2

   => Loading Basis Set <=

    Name: (JUN-CC-PVDZ AUX)
    Role: JKFIT
    Keyword: DF_BASIS_SCF
    atoms 1, 12-15       entry O          line   258 file /opt/anaconda/envs/psi4v1.5/share/psi4/basis/jun-cc-pvdz-jkfit.gbs 
    atoms 2-4, 6-7, 9-11 entry H          line    70 file /opt/anaconda/envs/psi4v1.5/share/psi4/basis/jun-cc-pvdz-jkfit.gbs 
    atoms 5, 8           entry C          line   146 file /opt/anaconda/envs/psi4v1.5/share/psi4/basis/jun-cc-pvdz-jkfit.gbs 
    atoms 16             entry P          line   586 file /opt/anaconda/envs/psi4v1.5/share/psi4/basis/jun-cc-pvdz-jkfit.gbs 

  ==> Integral Setup <==

  ==> DiskDFJK: Density-Fitted J/K Matrices <==

    J tasked:                  Yes
    K tasked:                  Yes
    wK tasked:                  No
    OpenMP threads:              8
    Integrals threads:           8
    Memory [MiB]:            35762
    Algorithm:                Core
    Integral Cache:           LOAD
    Schwarz Cutoff:          1E-12
    Fitting Condition:       1E-10

   => Auxiliary Basis Set <=

  Basis Set: (JUN-CC-PVDZ AUX)
    Blend: JUN-CC-PVDZ-JKFIT
    Number of shells: 300
    Number of basis functions: 858
    Number of Cartesian functions: 977
    Spherical Harmonics?: true
    Max angular momentum: 3

  Minimum eigenvalue in the overlap matrix is 3.6722822551E-04.
  Reciprocal condition number of the overlap matrix is 3.5968263480E-05.
    Using symmetric orthogonalization.

  ==> Pre-Iterations <==

  SCF Guess: Superposition of Atomic Densities via on-the-fly atomic UHF (no occupation information).

   -------------------------
    Irrep   Nso     Nmo    
   -------------------------
     A        188     188 
   -------------------------
    Total     188     188
   -------------------------

  ==> Iterations <==

                           Total Energy        Delta E     RMS |[F,P]|

   @DF-RHF iter SAD:  -718.31944458293276   -7.18319e+02   0.00000e+00 
   @DF-RHF iter   1:  -719.26913546113860   -9.49691e-01   4.32660e-03 DIIS
   @DF-RHF iter   2:  -719.45677636023083   -1.87641e-01   2.80501e-03 DIIS
   @DF-RHF iter   3:  -719.55673731236266   -9.99610e-02   3.07062e-04 DIIS
   @DF-RHF iter   4:  -719.55874998520346   -2.01267e-03   1.33533e-04 DIIS
   @DF-RHF iter   5:  -719.55906075216660   -3.10767e-04   2.99602e-05 DIIS
   @DF-RHF iter   6:  -719.55907969973771   -1.89476e-05   7.89697e-06 DIIS
   @DF-RHF iter   7:  -719.55908156999828   -1.87026e-06   2.16950e-06 DIIS
   @DF-RHF iter   8:  -719.55908176706441   -1.97066e-07   5.93356e-07 DIIS
   @DF-RHF iter   9:  -719.55908178418440   -1.71200e-08   2.10703e-07 DIIS
   @DF-RHF iter  10:  -719.55908178563334   -1.44894e-09   7.69239e-08 DIIS
   @DF-RHF iter  11:  -719.55908178577920   -1.45860e-10   2.54126e-08 DIIS
   @DF-RHF iter  12:  -719.55908178579637   -1.71667e-11   7.58139e-09 DIIS
  Energy and wave function converged.


  ==> Post-Iterations <==

    Orbital Energies [Eh]
    ---------------------

    Doubly Occupied:                                                      

       1A    -79.914088     2A    -20.409753     3A    -20.407774  
       4A    -20.320542     5A    -20.319659     6A    -11.144047  
       7A    -11.140685     8A     -7.431753     9A     -5.329743  
      10A     -5.329367    11A     -5.329004    12A     -1.240734  
      13A     -1.189549    14A     -1.111544    15A     -1.072411  
      16A     -0.795803    17A     -0.779315    18A     -0.591917  
      19A     -0.525224    20A     -0.495796    21A     -0.486443  
      22A     -0.466206    23A     -0.445086    24A     -0.434479  
      25A     -0.377449    26A     -0.360424    27A     -0.341943  
      28A     -0.307879    29A     -0.303896    30A     -0.284897  
      31A     -0.268962    32A     -0.252896    33A     -0.236917  

    Virtual:                                                              

      34A      0.162678    35A      0.167045    36A      0.194558  
      37A      0.204940    38A      0.214146    39A      0.220138  
      40A      0.225003    41A      0.239563    42A      0.250514  
      43A      0.253273    44A      0.291560    45A      0.294074  
      46A      0.311967    47A      0.332753    48A      0.356187  
      49A      0.364598    50A      0.380046    51A      0.397660  
      52A      0.424527    53A      0.429652    54A      0.431679  
      55A      0.439652    56A      0.456278    57A      0.468621  
      58A      0.474990    59A      0.481145    60A      0.483173  
      61A      0.501881    62A      0.504737    63A      0.511896  
      64A      0.513532    65A      0.530172    66A      0.533544  
      67A      0.545808    68A      0.555836    69A      0.560433  
      70A      0.574515    71A      0.584486    72A      0.602930  
      73A      0.619562    74A      0.631037    75A      0.647356  
      76A      0.666260    77A      0.697974    78A      0.703153  
      79A      0.750281    80A      0.869511    81A      0.889453  
      82A      0.918196    83A      0.928516    84A      0.956383  
      85A      0.969650    86A      0.992598    87A      1.031302  
      88A      1.031553    89A      1.035747    90A      1.053240  
      91A      1.064495    92A      1.075565    93A      1.077903  
      94A      1.096816    95A      1.105971    96A      1.122746  
      97A      1.139697    98A      1.209718    99A      1.224353  
     100A      1.256408   101A      1.270350   102A      1.303060  
     103A      1.348963   104A      1.377810   105A      1.410596  
     106A      1.434705   107A      1.454135   108A      1.492922  
     109A      1.614696   110A      1.636126   111A      1.685985  
     112A      1.699976   113A      1.713051   114A      1.739102  
     115A      1.754168   116A      1.779044   117A      1.802379  
     118A      1.824560   119A      1.835236   120A      1.852434  
     121A      1.874942   122A      1.889172   123A      1.929162  
     124A      1.988225   125A      2.012578   126A      2.020882  
     127A      2.065058   128A      2.074565   129A      2.093098  
     130A      2.128403   131A      2.131795   132A      2.139540  
     133A      2.168524   134A      2.176024   135A      2.187229  
     136A      2.210356   137A      2.216305   138A      2.310762  
     139A      2.342285   140A      2.349196   141A      2.371125  
     142A      2.501755   143A      2.522212   144A      2.530693  
     145A      2.536491   146A      2.546962   147A      2.608362  
     148A      2.648846   149A      2.699231   150A      2.793322  
     151A      2.875437   152A      2.901093   153A      2.918636  
     154A      2.923498   155A      2.964624   156A      2.974546  
     157A      2.986915   158A      3.056920   159A      3.167237  
     160A      3.193495   161A      3.206788   162A      3.224339  
     163A      3.255829   164A      3.284915   165A      3.308185  
     166A      3.366772   167A      3.410675   168A      3.466018  
     169A      3.503551   170A      3.518154   171A      3.560176  
     172A      3.584167   173A      3.605402   174A      3.644511  
     175A      3.727327   176A      3.783977   177A      3.810508  
     178A      3.977978   179A      4.029824   180A      4.623875  
     181A      4.648101   182A      4.912971   183A      5.048519  
     184A      5.288949   185A      5.673271   186A      6.725678  
     187A      7.085936   188A     33.680930  

    Final Occupation by Irrep:
              A 
    DOCC [    33 ]

  @DF-RHF Final Energy:  -719.55908178579637

   => Energetics <=

    Nuclear Repulsion Energy =            436.1484455762639527
    One-Electron Energy =               -1872.5226768241209356
    Two-Electron Energy =                 716.8151494620607309
    Total Energy =                       -719.5590817857963657

Computation Completed


Properties will be evaluated at   0.000000,   0.000000,   0.000000 [a0]

Properties computed using the SCF density matrix

  Nuclear Dipole Moment: [e a0]
     X:   -51.8525      Y:   -16.5518      Z:    -7.2609

  Electronic Dipole Moment: [e a0]
     X:    51.9681      Y:    14.8837      Z:     8.2230

  Dipole Moment: [e a0]
     X:     0.1156      Y:    -1.6682      Z:     0.9621     Total:     1.9292

  Dipole Moment: [D]
     X:     0.2939      Y:    -4.2401      Z:     2.4454     Total:     4.9036


*** tstop() called on node150.bme.utexas.edu at Sun May 12 22:47:34 2024
Module time:
	user time   =       8.24 seconds =       0.14 minutes
	system time =       0.23 seconds =       0.00 minutes
	total time  =          2 seconds =       0.03 minutes
Total time:
	user time   =      32.43 seconds =       0.54 minutes
	system time =       0.77 seconds =       0.01 minutes
	total time  =          6 seconds =       0.10 minutes

*** tstart() called on node150.bme.utexas.edu
*** at Sun May 12 22:47:34 2024


  //>>>>>>>>>>>>>>>>>>>>>>>>>>>>>>>>>>>//
  //               DFMP2               //
  //<<<<<<<<<<<<<<<<<<<<<<<<<<<<<<<<<<<//

   => Loading Basis Set <=

    Name: (JUN-CC-PVDZ AUX)
    Role: RIFIT
    Keyword: DF_BASIS_MP2
    atoms 1, 12-15       entry O          line   188 file /opt/anaconda/envs/psi4v1.5/share/psi4/basis/jun-cc-pvdz-ri.gbs 
    atoms 2-4, 6-7, 9-11 entry H          line    30 file /opt/anaconda/envs/psi4v1.5/share/psi4/basis/jun-cc-pvdz-ri.gbs 
    atoms 5, 8           entry C          line   100 file /opt/anaconda/envs/psi4v1.5/share/psi4/basis/jun-cc-pvdz-ri.gbs 
    atoms 16             entry P          line   432 file /opt/anaconda/envs/psi4v1.5/share/psi4/basis/jun-cc-pvdz-ri.gbs 

	 --------------------------------------------------------
	                          DF-MP2                         
	      2nd-Order Density-Fitted Moller-Plesset Theory     
	              RMP2 Wavefunction,   8 Threads             
	                                                         
	        Rob Parrish, Justin Turney, Andy Simmonett,      
	           Ed Hohenstein, and C. David Sherrill          
	 --------------------------------------------------------

   => Auxiliary Basis Set <=

  Basis Set: (JUN-CC-PVDZ AUX)
    Blend: JUN-CC-PVDZ-RI
    Number of shells: 222
    Number of basis functions: 652
    Number of Cartesian functions: 752
    Spherical Harmonics?: true
    Max angular momentum: 3

	 --------------------------------------------------------
	                 NBF =   188, NAUX =   652
	 --------------------------------------------------------
	   CLASS    FOCC     OCC    AOCC    AVIR     VIR    FVIR
	   PAIRS      11      33      22     155     155       0
	 --------------------------------------------------------

	 Will attempt to load fitting metric from file 97.

	-----------------------------------------------------------
	 ==================> DF-MP2 Energies <==================== 
	-----------------------------------------------------------
	 Reference Energy          =    -719.5590817857963657 [Eh]
	 Singles Energy            =      -0.0000000000000000 [Eh]
	 Same-Spin Energy          =      -0.3094226608548242 [Eh]
	 Opposite-Spin Energy      =      -0.8639711979165381 [Eh]
	 Correlation Energy        =      -1.1733938587713624 [Eh]
	 Total Energy              =    -720.7324756445677849 [Eh]
	-----------------------------------------------------------
	 ================> DF-SCS-MP2 Energies <================== 
	-----------------------------------------------------------
	 SCS Same-Spin Scale       =       0.3333333333333333 [-]
	 SCS Opposite-Spin Scale   =       1.2000000000000000 [-]
	 SCS Same-Spin Energy      =      -0.1031408869516081 [Eh]
	 SCS Opposite-Spin Energy  =      -1.0367654374998456 [Eh]
	 SCS Correlation Energy    =      -1.1399063244514536 [Eh]
	 SCS Total Energy          =    -720.6989881102477966 [Eh]
	-----------------------------------------------------------


*** tstop() called on node150.bme.utexas.edu at Sun May 12 22:47:34 2024
Module time:
	user time   =       4.07 seconds =       0.07 minutes
	system time =       0.07 seconds =       0.00 minutes
	total time  =          0 seconds =       0.00 minutes
Total time:
	user time   =      36.51 seconds =       0.61 minutes
	system time =       0.84 seconds =       0.01 minutes
	total time  =          6 seconds =       0.10 minutes
  Constructing Basis Sets for SAPT...

   => Loading Basis Set <=

    Name: (JUN-CC-PVDZ AUX)
    Role: RIFIT
    Keyword: DF_BASIS_SAPT
    atoms 1, 12-15       entry O          line   188 file /opt/anaconda/envs/psi4v1.5/share/psi4/basis/jun-cc-pvdz-ri.gbs 
    atoms 2-4, 6-7, 9-11 entry H          line    30 file /opt/anaconda/envs/psi4v1.5/share/psi4/basis/jun-cc-pvdz-ri.gbs 
    atoms 5, 8           entry C          line   100 file /opt/anaconda/envs/psi4v1.5/share/psi4/basis/jun-cc-pvdz-ri.gbs 
    atoms 16             entry P          line   432 file /opt/anaconda/envs/psi4v1.5/share/psi4/basis/jun-cc-pvdz-ri.gbs 


  //>>>>>>>>>>>>>>>>>>>>>>>>>>>>>>>>>>>//
  //           SAPT2+(3)DMP2           //
  //<<<<<<<<<<<<<<<<<<<<<<<<<<<<<<<<<<<//


*** tstart() called on node150.bme.utexas.edu
*** at Sun May 12 22:47:35 2024

      SAPT2+(3)  
    Ed Hohenstein
     6 June 2009

      Orbital Information
  --------------------------
    NSO        =       188
    NMO        =       188
    NRI        =       652
    NOCC A     =         5
    NOCC B     =        33
    FOCC A     =         1
    FOCC B     =        11
    NVIR A     =       183
    NVIR B     =       155

    Estimated memory usage: 1049.9 MB

    Natural Orbital Cutoff:   1.000E-06
    Disp(T3) Truncation:            Yes
    CCD (vv|vv) Truncation:         Yes
    MBPT T2 Truncation:             Yes

    Monomer A: 151 virtual orbitals dropped
    Monomer B: 17 virtual orbitals dropped

    Elst10,r            =    -0.043616336708 [Eh]
    Exch10 (S^2)        =     0.041384489212 [Eh]
    Exch10              =     0.041975888576 [Eh]
    Ind20,r (A<-B)      =    -0.008479917175 [Eh]
    Ind20,r (B<-A)      =    -0.011850127905 [Eh]
    Ind20,r             =    -0.020330045080 [Eh]
    Exch-Ind20,r (A<-B) =     0.005386192502 [Eh]
    Exch-Ind20,r (B<-A) =     0.007136856554 [Eh]
    Exch-Ind20,r        =     0.012523049056 [Eh]
    Disp20              =    -0.010767002063 [Eh]
    Disp20 (NO)         =    -0.009736391235 [Eh]
    Exch-Disp20         =     0.002653210464 [Eh]
    Elst12,r            =    -0.001302347918 [Eh]
    Exch11              =    -0.000195259964 [Eh]
    Exch12              =     0.008233552662 [Eh]
    Ind22               =    -0.004614225549 [Eh]
    Disp21              =     0.000917012231 [Eh]
    Disp22 (SDQ)        =    -0.000911606723 [Eh]

    (i =   1 of  22)          0 seconds
    (i =   2 of  22)          0 seconds
    (i =   3 of  22)          1 seconds
    (i =   4 of  22)          1 seconds
    (i =   5 of  22)          1 seconds
    (i =   6 of  22)          1 seconds
    (i =   7 of  22)          1 seconds
    (i =   8 of  22)          1 seconds
    (i =   9 of  22)          1 seconds
    (i =  10 of  22)          1 seconds
    (i =  11 of  22)          1 seconds
    (i =  12 of  22)          1 seconds
    (i =  13 of  22)          1 seconds
    (i =  14 of  22)          1 seconds
    (i =  15 of  22)          1 seconds
    (i =  16 of  22)          1 seconds
    (i =  17 of  22)          1 seconds
    (i =  18 of  22)          1 seconds
    (i =  19 of  22)          1 seconds
    (i =  20 of  22)          1 seconds
    (i =  21 of  22)          1 seconds
    (i =  22 of  22)          2 seconds

    Disp220 (T)         =    -0.000727319692 [Eh]

    (i =   1 of   4)          2 seconds
    (i =   2 of   4)          5 seconds
    (i =   3 of   4)          8 seconds
    (i =   4 of   4)         10 seconds

    Disp202 (T)         =    -0.000869540982 [Eh]

    Disp22 (T)          =    -0.001596860674 [Eh]

    Est. Disp220 (T)    =    -0.000804307513 [Eh]
    Est. Disp202 (T)    =    -0.000961583129 [Eh]

    Est. Disp22 (T)     =    -0.001765890642 [Eh]
    Elst13,r            =     0.001267703366 [Eh]
    Disp30              =     0.000106425078 [Eh]

    SAPT Results 
  --------------------------------------------------------------------------------------------------------
    Electrostatics                -43.65098126 [mEh]     -27.39140428 [kcal/mol]    -114.60563551 [kJ/mol]
      Elst10,r                    -43.61633671 [mEh]     -27.36966450 [kcal/mol]    -114.51467625 [kJ/mol]
      Elst12,r                     -1.30234792 [mEh]      -0.81723566 [kcal/mol]      -3.41931399 [kJ/mol]
      Elst13,r                      1.26770337 [mEh]       0.79549587 [kcal/mol]       3.32835473 [kJ/mol]

    Exchange                       50.01418127 [mEh]      31.38437257 [kcal/mol]     131.31221485 [kJ/mol]
      Exch10                       41.97588858 [mEh]      26.34026775 [kcal/mol]     110.20768027 [kJ/mol]
      Exch10(S^2)                  41.38448921 [mEh]      25.96915905 [kcal/mol]     108.65496146 [kJ/mol]
      Exch11(S^2)                  -0.19525996 [mEh]      -0.12252748 [kcal/mol]      -0.51265496 [kJ/mol]
      Exch12(S^2)                   8.23355266 [mEh]       5.16663230 [kcal/mol]      21.61718953 [kJ/mol]

    Induction                     -13.52132898 [mEh]      -8.48476203 [kcal/mol]     -35.50024435 [kJ/mol]
      Ind20,r                     -20.33004508 [mEh]     -12.75729589 [kcal/mol]     -53.37652600 [kJ/mol]
      Ind22                        -4.61422555 [mEh]      -2.89547025 [kcal/mol]     -12.11464751 [kJ/mol]
      Exch-Ind20,r                 12.52304906 [mEh]       7.85833192 [kcal/mol]      32.87926077 [kJ/mol]
      Exch-Ind22                    2.84230422 [mEh]       1.78357283 [kcal/mol]       7.46246870 [kJ/mol]
      delta HF,r (2)               -4.90676242 [mEh]      -3.07903990 [kcal/mol]     -12.88270295 [kJ/mol]
      delta MP2,r (2)               0.96435079 [mEh]       0.60513926 [kcal/mol]       2.53190266 [kJ/mol]

    Dispersion                     -9.76785166 [mEh]      -6.12941945 [kcal/mol]     -25.64549099 [kJ/mol]
      Disp20                      -10.76700206 [mEh]      -6.75639580 [kcal/mol]     -28.26876002 [kJ/mol]
      Disp30                        0.10642508 [mEh]       0.06678274 [kcal/mol]       0.27941900 [kJ/mol]
      Disp21                        0.91701223 [mEh]       0.57543386 [kcal/mol]       2.40761528 [kJ/mol]
      Disp22 (SDQ)                 -0.91160672 [mEh]      -0.57204186 [kcal/mol]      -2.39342312 [kJ/mol]
      Disp22 (T)                   -1.59686067 [mEh]      -1.00204520 [kcal/mol]      -4.19255712 [kJ/mol]
      Est. Disp22 (T)              -1.76589064 [mEh]      -1.10811311 [kcal/mol]      -4.63634524 [kJ/mol]
      Exch-Disp20                   2.65321046 [mEh]       1.66491470 [kcal/mol]       6.96600311 [kJ/mol]

  Total HF                        -14.35420657 [mEh]      -9.00740061 [kcal/mol]     -37.68696417 [kJ/mol]
  Total SAPT0                     -22.46799817 [mEh]     -14.09888171 [kcal/mol]     -58.98972107 [kJ/mol]
  Total SAPT2                     -17.50397472 [mEh]     -10.98390997 [kcal/mol]     -45.95667930 [kJ/mol]
  Total SAPT2+                    -19.26445986 [mEh]     -12.08863107 [kcal/mol]     -50.57883239 [kJ/mol]
  Total SAPT2+(3)                 -17.89033141 [mEh]     -11.22635245 [kcal/mol]     -46.97105865 [kJ/mol]
  Total SAPT2+dMP2                -18.30010907 [mEh]     -11.48349181 [kcal/mol]     -48.04692973 [kJ/mol]
  Total SAPT2+(3)dMP2             -16.92598062 [mEh]     -10.62121319 [kcal/mol]     -44.43915600 [kJ/mol]

  Special recipe for scaled SAPT0 (see Manual):
    Electrostatics sSAPT0         -43.61633671 [mEh]     -27.36966450 [kcal/mol]    -114.51467625 [kJ/mol]
    Exchange sSAPT0                41.97588858 [mEh]      26.34026775 [kcal/mol]     110.20768027 [kJ/mol]
    Induction sSAPT0              -12.16917299 [mEh]      -7.63627134 [kcal/mol]     -31.95015928 [kJ/mol]
    Dispersion sSAPT0              -7.99841236 [mEh]      -5.01907953 [kcal/mol]     -20.99982877 [kJ/mol]
  Total sSAPT0                    -21.80803349 [mEh]     -13.68474762 [kcal/mol]     -57.25698403 [kJ/mol]
  --------------------------------------------------------------------------------------------------------

*** tstop() called on node150.bme.utexas.edu at Sun May 12 22:48:07 2024
Module time:
	user time   =     253.43 seconds =       4.22 minutes
	system time =       5.07 seconds =       0.08 minutes
	total time  =         32 seconds =       0.53 minutes
Total time:
	user time   =     290.30 seconds =       4.84 minutes
	system time =       5.91 seconds =       0.10 minutes
	total time  =         39 seconds =       0.65 minutes

    Psi4 stopped on: Sunday, 12 May 2024 10:48PM
    Psi4 wall time for execution: 0:00:39.31

*** Psi4 exiting successfully. Buy a developer a beer!
