
    -----------------------------------------------------------------------
          Psi4: An Open-Source Ab Initio Electronic Structure Package
                               Psi4 1.5 release

                         Git: Rev {HEAD} e9f4d6d 


    D. G. A. Smith, L. A. Burns, A. C. Simmonett, R. M. Parrish,
    M. C. Schieber, R. Galvelis, P. Kraus, H. Kruse, R. Di Remigio,
    A. Alenaizan, A. M. James, S. Lehtola, J. P. Misiewicz, M. Scheurer,
    R. A. Shaw, J. B. Schriber, Y. Xie, Z. L. Glick, D. A. Sirianni,
    J. S. O'Brien, J. M. Waldrop, A. Kumar, E. G. Hohenstein,
    B. P. Pritchard, B. R. Brooks, H. F. Schaefer III, A. Yu. Sokolov,
    K. Patkowski, A. E. DePrince III, U. Bozkaya, R. A. King,
    F. A. Evangelista, J. M. Turney, T. D. Crawford, C. D. Sherrill,
    J. Chem. Phys. 152(18) 184108 (2020). https://doi.org/10.1063/5.0006002

                            Additional Code Authors
    E. T. Seidl, C. L. Janssen, E. F. Valeev, M. L. Leininger,
    J. F. Gonthier, R. M. Richard, H. R. McAlexander, M. Saitow, X. Wang,
    P. Verma, M. H. Lechner, and A. Jiang

             Previous Authors, Complete List of Code Contributors,
                       and Citations for Specific Modules
    https://github.com/psi4/psi4/blob/master/codemeta.json
    https://github.com/psi4/psi4/graphs/contributors
    http://psicode.org/psi4manual/master/introduction.html#citing-psifour

    -----------------------------------------------------------------------


    Psi4 started on: Sunday, 14 April 2024 10:07PM

    Process ID: 3094573
    Host:       bme-earth.bme.utexas.edu
    PSIDATADIR: /opt/anaconda/envs/psi4v1.5/share/psi4
    Memory:     500.0 MiB
    Threads:    8
    
  ==> Input File <==

--------------------------------------------------------------------------
memory 50GB

molecule {
0 1
H -2.43488 0.93263 -0.02649
N -1.41936 1.06992 -0.01468
C -0.6643 2.21111 -0.00045
H -1.11875 3.19394 0.00448
N 0.64678 1.98904 0.0068
C 0.73093 0.61264 -0.0099
C 1.82843 -0.26997 0.00797
N 3.11301 0.17757 -0.03865
N 1.60021 -1.59414 0.00915
C 0.32195 -2.02658 -0.00981
H 0.19538 -3.10698 -0.01104
N -0.80442 -1.3016 -0.02352
C -0.53569 0.01965 -0.01716
H 3.82963 -0.49372 0.20662
H 3.27441 1.1441 0.21418
--
0 1
O -3.2104911333333335 -0.5386912666666667 -0.072363
H -3.625961133333333 -0.8112312666666667 0.760537
H -2.4160911333333335 -1.1139212666666667 -0.14583300000000002
 units angstrom
 no_reorient
 symmetry c1} 
set  {scf_type DF
 basis jun-cc-pvdz
 freeze_core True
 guess SAD}
energy('sapt2+(3)dmp2')
--------------------------------------------------------------------------

  Memory set to  46.566 GiB by Python driver.

Scratch directory: /tmp/
   => Loading Basis Set <=

    Name: JUN-CC-PVDZ
    Role: ORBITAL
    Keyword: BASIS
    atoms 1, 4, 11, 14-15, 17-18 entry H          line    36 file /opt/anaconda/envs/psi4v1.5/share/psi4/basis/jun-cc-pvdz.gbs 
    atoms 2, 5, 8-9, 12          entry N          line   198 file /opt/anaconda/envs/psi4v1.5/share/psi4/basis/jun-cc-pvdz.gbs 
    atoms 3, 6-7, 10, 13         entry C          line   164 file /opt/anaconda/envs/psi4v1.5/share/psi4/basis/jun-cc-pvdz.gbs 
    atoms 16                     entry O          line   232 file /opt/anaconda/envs/psi4v1.5/share/psi4/basis/jun-cc-pvdz.gbs 

   => Loading Basis Set <=

    Name: JUN-CC-PVDZ
    Role: ORBITAL
    Keyword: BASIS
    atoms 1, 4, 11, 14-15, 17-18 entry H          line    36 file /opt/anaconda/envs/psi4v1.5/share/psi4/basis/jun-cc-pvdz.gbs 
    atoms 2, 5, 8-9, 12          entry N          line   198 file /opt/anaconda/envs/psi4v1.5/share/psi4/basis/jun-cc-pvdz.gbs 
    atoms 3, 6-7, 10, 13         entry C          line   164 file /opt/anaconda/envs/psi4v1.5/share/psi4/basis/jun-cc-pvdz.gbs 
    atoms 16                     entry O          line   232 file /opt/anaconda/envs/psi4v1.5/share/psi4/basis/jun-cc-pvdz.gbs 


  //>>>>>>>>>>>>>>>>>>>>>>>>>>>>>>>>>>>//
  //              Dimer HF             //
  //<<<<<<<<<<<<<<<<<<<<<<<<<<<<<<<<<<<//


*** tstart() called on bme-earth.bme.utexas.edu
*** at Sun Apr 14 22:07:25 2024

   => Loading Basis Set <=

    Name: JUN-CC-PVDZ
    Role: ORBITAL
    Keyword: BASIS
    atoms 1, 4, 11, 14-15, 17-18 entry H          line    36 file /opt/anaconda/envs/psi4v1.5/share/psi4/basis/jun-cc-pvdz.gbs 
    atoms 2, 5, 8-9, 12          entry N          line   198 file /opt/anaconda/envs/psi4v1.5/share/psi4/basis/jun-cc-pvdz.gbs 
    atoms 3, 6-7, 10, 13         entry C          line   164 file /opt/anaconda/envs/psi4v1.5/share/psi4/basis/jun-cc-pvdz.gbs 
    atoms 16                     entry O          line   232 file /opt/anaconda/envs/psi4v1.5/share/psi4/basis/jun-cc-pvdz.gbs 


         ---------------------------------------------------------
                                   SCF
               by Justin Turney, Rob Parrish, Andy Simmonett
                          and Daniel G. A. Smith
                              RHF Reference
                        8 Threads,  47683 MiB Core
         ---------------------------------------------------------

  ==> Geometry <==

    Molecular point group: c1
    Full point group: C1

    Geometry (in Angstrom), charge = 0, multiplicity = 1:

       Center              X                  Y                   Z               Mass       
    ------------   -----------------  -----------------  -----------------  -----------------
         H           -2.503000043893     0.916553127652    -0.017656312026     1.007825032230
         N           -1.487480043893     1.053843127652    -0.005846312026    14.003074004430
         C           -0.732420043893     2.195033127652     0.008383687974    12.000000000000
         H           -1.186870043893     3.177863127652     0.013313687974     1.007825032230
         N            0.578659956107     1.972963127652     0.015633687974    14.003074004430
         C            0.662809956107     0.596563127652    -0.001066312026    12.000000000000
         C            1.760309956107    -0.286046872348     0.016803687974    12.000000000000
         N            3.044889956107     0.161493127652    -0.029816312026    14.003074004430
         N            1.532089956107    -1.610216872348     0.017983687974    14.003074004430
         C            0.253829956107    -2.042656872348    -0.000976312026    12.000000000000
         H            0.127259956107    -3.123056872348    -0.002206312026     1.007825032230
         N           -0.872540043893    -1.317676872348    -0.014686312026    14.003074004430
         C           -0.603810043893     0.003573127652    -0.008326312026    12.000000000000
         H            3.761509956107    -0.509796872348     0.215453687974     1.007825032230
         H            3.206289956107     1.128023127652     0.223013687974     1.007825032230
         O           -3.278611177227    -0.554768139015    -0.063529312026    15.994914619570
         H           -3.694081177227    -0.827308139015     0.769370687974     1.007825032230
         H           -2.484211177227    -1.129998139015    -0.136999312026     1.007825032230

  Running in c1 symmetry.

  Rotational constants: A =      0.06167  B =      0.03447  C =      0.02216 [cm^-1]
  Rotational constants: A =   1848.86061  B =   1033.31202  C =    664.23499 [MHz]
  Nuclear repulsion =  612.230515581857730

  Charge       = 0
  Multiplicity = 1
  Electrons    = 80
  Nalpha       = 40
  Nbeta        = 40

  ==> Algorithm <==

  SCF Algorithm Type is DF.
  DIIS enabled.
  MOM disabled.
  Fractional occupation disabled.
  Guess Type is SAD.
  Energy threshold   = 1.00e-08
  Density threshold  = 1.00e-08
  Integral threshold = 1.00e-12

  ==> Primary Basis <==

  Basis Set: JUN-CC-PVDZ
    Blend: JUN-CC-PVDZ
    Number of shells: 109
    Number of basis functions: 233
    Number of Cartesian functions: 244
    Spherical Harmonics?: true
    Max angular momentum: 2

   => Loading Basis Set <=

    Name: (JUN-CC-PVDZ AUX)
    Role: JKFIT
    Keyword: DF_BASIS_SCF
    atoms 1, 4, 11, 14-15, 17-18 entry H          line    70 file /opt/anaconda/envs/psi4v1.5/share/psi4/basis/jun-cc-pvdz-jkfit.gbs 
    atoms 2, 5, 8-9, 12          entry N          line   202 file /opt/anaconda/envs/psi4v1.5/share/psi4/basis/jun-cc-pvdz-jkfit.gbs 
    atoms 3, 6-7, 10, 13         entry C          line   146 file /opt/anaconda/envs/psi4v1.5/share/psi4/basis/jun-cc-pvdz-jkfit.gbs 
    atoms 16                     entry O          line   258 file /opt/anaconda/envs/psi4v1.5/share/psi4/basis/jun-cc-pvdz-jkfit.gbs 

  ==> Integral Setup <==

  ==> DiskDFJK: Density-Fitted J/K Matrices <==

    J tasked:                  Yes
    K tasked:                  Yes
    wK tasked:                  No
    OpenMP threads:              8
    Integrals threads:           8
    Memory [MiB]:            35762
    Algorithm:                Core
    Integral Cache:           SAVE
    Schwarz Cutoff:          1E-12
    Fitting Condition:       1E-10

   => Auxiliary Basis Set <=

  Basis Set: (JUN-CC-PVDZ AUX)
    Blend: JUN-CC-PVDZ-JKFIT
    Number of shells: 360
    Number of basis functions: 1030
    Number of Cartesian functions: 1176
    Spherical Harmonics?: true
    Max angular momentum: 3

  Minimum eigenvalue in the overlap matrix is 1.0721168617E-05.
  Reciprocal condition number of the overlap matrix is 8.1290757990E-07.
    Using symmetric orthogonalization.

  ==> Pre-Iterations <==

  SCF Guess: Superposition of Atomic Densities via on-the-fly atomic UHF (no occupation information).

   -------------------------
    Irrep   Nso     Nmo    
   -------------------------
     A        233     233 
   -------------------------
    Total     233     233
   -------------------------

  ==> Iterations <==

                           Total Energy        Delta E     RMS |[F,P]|

   @DF-RHF iter SAD:  -540.32420141459534   -5.40324e+02   0.00000e+00 
   @DF-RHF iter   1:  -540.32056809463359    3.63332e-03   3.14939e-03 DIIS
   @DF-RHF iter   2:  -540.54041993735950   -2.19852e-01   1.62421e-03 DIIS
   @DF-RHF iter   3:  -540.59798674546016   -5.75668e-02   3.32738e-04 DIIS
   @DF-RHF iter   4:  -540.60155127494488   -3.56453e-03   1.50078e-04 DIIS
   @DF-RHF iter   5:  -540.60221562208994   -6.64347e-04   3.34116e-05 DIIS
   @DF-RHF iter   6:  -540.60227352987124   -5.79078e-05   1.46994e-05 DIIS
   @DF-RHF iter   7:  -540.60228841012508   -1.48803e-05   5.05689e-06 DIIS
   @DF-RHF iter   8:  -540.60229084989362   -2.43977e-06   1.81235e-06 DIIS
   @DF-RHF iter   9:  -540.60229118718394   -3.37290e-07   9.90591e-07 DIIS
   @DF-RHF iter  10:  -540.60229127012565   -8.29417e-08   3.67147e-07 DIIS
   @DF-RHF iter  11:  -540.60229128704270   -1.69171e-08   1.57823e-07 DIIS
   @DF-RHF iter  12:  -540.60229129000186   -2.95915e-09   5.93484e-08 DIIS
   @DF-RHF iter  13:  -540.60229129039612   -3.94266e-10   2.14777e-08 DIIS
   @DF-RHF iter  14:  -540.60229129043898   -4.28599e-11   9.31563e-09 DIIS
  Energy and wave function converged.


  ==> Post-Iterations <==

    Orbital Energies [Eh]
    ---------------------

    Doubly Occupied:                                                      

       1A    -20.559908     2A    -15.622590     3A    -15.598148  
       4A    -15.584337     5A    -15.574241     6A    -15.569720  
       7A    -11.351866     8A    -11.335454     9A    -11.328507  
      10A    -11.327437    11A    -11.262436    12A     -1.376646  
      13A     -1.346332    14A     -1.309279    15A     -1.257719  
      16A     -1.186370    17A     -1.163792    18A     -1.039875  
      19A     -0.900457    20A     -0.886957    21A     -0.850956  
      22A     -0.784252    23A     -0.744446    24A     -0.717084  
      25A     -0.704560    26A     -0.680241    27A     -0.646969  
      28A     -0.634368    29A     -0.617506    30A     -0.596254  
      31A     -0.575928    32A     -0.558182    33A     -0.518975  
      34A     -0.508665    35A     -0.488008    36A     -0.455450  
      37A     -0.425466    38A     -0.420510    39A     -0.380808  
      40A     -0.314488  

    Virtual:                                                              

      41A      0.054826    42A      0.062474    43A      0.067833  
      44A      0.081145    45A      0.086153    46A      0.087430  
      47A      0.092991    48A      0.108748    49A      0.122371  
      50A      0.123467    51A      0.128495    52A      0.131972  
      53A      0.140749    54A      0.150406    55A      0.155134  
      56A      0.164595    57A      0.179912    58A      0.188867  
      59A      0.191874    60A      0.194406    61A      0.208949  
      62A      0.220885    63A      0.226479    64A      0.227543  
      65A      0.240739    66A      0.246167    67A      0.256582  
      68A      0.261163    69A      0.263343    70A      0.267621  
      71A      0.276331    72A      0.279086    73A      0.289914  
      74A      0.294517    75A      0.300367    76A      0.306229  
      77A      0.315869    78A      0.317957    79A      0.336873  
      80A      0.338441    81A      0.342642    82A      0.349483  
      83A      0.364948    84A      0.367059    85A      0.378493  
      86A      0.389605    87A      0.393307    88A      0.405338  
      89A      0.414198    90A      0.429685    91A      0.446340  
      92A      0.451913    93A      0.456139    94A      0.475202  
      95A      0.481150    96A      0.497310    97A      0.512276  
      98A      0.532460    99A      0.566215   100A      0.569524  
     101A      0.598664   102A      0.634655   103A      0.640371  
     104A      0.693998   105A      0.766945   106A      0.835634  
     107A      0.839494   108A      0.848393   109A      0.855407  
     110A      0.858191   111A      0.868404   112A      0.871682  
     113A      0.878045   114A      0.911583   115A      0.914408  
     116A      0.932970   117A      0.963311   118A      0.995734  
     119A      0.999022   120A      1.010186   121A      1.025585  
     122A      1.052119   123A      1.056043   124A      1.076794  
     125A      1.102461   126A      1.108560   127A      1.110971  
     128A      1.129248   129A      1.160958   130A      1.174027  
     131A      1.183827   132A      1.190770   133A      1.211832  
     134A      1.217111   135A      1.233790   136A      1.248690  
     137A      1.258617   138A      1.265611   139A      1.278163  
     140A      1.293422   141A      1.297043   142A      1.311717  
     143A      1.314897   144A      1.319423   145A      1.336614  
     146A      1.352968   147A      1.359279   148A      1.369264  
     149A      1.393525   150A      1.409541   151A      1.420276  
     152A      1.449179   153A      1.473529   154A      1.489756  
     155A      1.492380   156A      1.522028   157A      1.555814  
     158A      1.578832   159A      1.583475   160A      1.611530  
     161A      1.688481   162A      1.727360   163A      1.766798  
     164A      1.796543   165A      1.830890   166A      1.835379  
     167A      1.848210   168A      1.857675   169A      1.866173  
     170A      1.893789   171A      1.908580   172A      1.927625  
     173A      1.952954   174A      1.965766   175A      1.975408  
     176A      1.983761   177A      1.988662   178A      2.012675  
     179A      2.039386   180A      2.047157   181A      2.078471  
     182A      2.083178   183A      2.106638   184A      2.140949  
     185A      2.149071   186A      2.205005   187A      2.270048  
     188A      2.283236   189A      2.309869   190A      2.320553  
     191A      2.359458   192A      2.381840   193A      2.405713  
     194A      2.411952   195A      2.460797   196A      2.491324  
     197A      2.497938   198A      2.501678   199A      2.512287  
     200A      2.536129   201A      2.575461   202A      2.621592  
     203A      2.642860   204A      2.677283   205A      2.705233  
     206A      2.741999   207A      2.757923   208A      2.787474  
     209A      2.796949   210A      2.880546   211A      2.908441  
     212A      2.913510   213A      2.951779   214A      2.972992  
     215A      3.012260   216A      3.032255   217A      3.097376  
     218A      3.111202   219A      3.142717   220A      3.221384  
     221A      3.235166   222A      3.279124   223A      3.286981  
     224A      3.333407   225A      3.368456   226A      3.461238  
     227A      3.489764   228A      3.579656   229A      3.647711  
     230A      3.689120   231A      3.805897   232A      3.967162  
     233A      4.248758  

    Final Occupation by Irrep:
              A 
    DOCC [    40 ]

  @DF-RHF Final Energy:  -540.60229129043898

   => Energetics <=

    Nuclear Repulsion Energy =            612.2305155818577305
    One-Electron Energy =               -1951.2552423886515953
    Two-Electron Energy =                 798.4224355163547671
    Total Energy =                       -540.6022912904389841

Computation Completed


Properties will be evaluated at   0.000000,   0.000000,   0.000000 [a0]

Properties computed using the SCF density matrix

  Nuclear Dipole Moment: [e a0]
     X:    -2.6236      Y:    -0.3481      Z:     0.9975

  Electronic Dipole Moment: [e a0]
     X:     2.4673      Y:     0.5883      Z:    -0.1837

  Dipole Moment: [e a0]
     X:    -0.1563      Y:     0.2401      Z:     0.8138     Total:     0.8627

  Dipole Moment: [D]
     X:    -0.3972      Y:     0.6104      Z:     2.0684     Total:     2.1929


*** tstop() called on bme-earth.bme.utexas.edu at Sun Apr 14 22:07:28 2024
Module time:
	user time   =      16.70 seconds =       0.28 minutes
	system time =       0.25 seconds =       0.00 minutes
	total time  =          3 seconds =       0.05 minutes
Total time:
	user time   =      16.70 seconds =       0.28 minutes
	system time =       0.25 seconds =       0.00 minutes
	total time  =          3 seconds =       0.05 minutes

*** tstart() called on bme-earth.bme.utexas.edu
*** at Sun Apr 14 22:07:28 2024


  //>>>>>>>>>>>>>>>>>>>>>>>>>>>>>>>>>>>//
  //               DFMP2               //
  //<<<<<<<<<<<<<<<<<<<<<<<<<<<<<<<<<<<//

   => Loading Basis Set <=

    Name: (JUN-CC-PVDZ AUX)
    Role: RIFIT
    Keyword: DF_BASIS_MP2
    atoms 1, 4, 11, 14-15, 17-18 entry H          line    30 file /opt/anaconda/envs/psi4v1.5/share/psi4/basis/jun-cc-pvdz-ri.gbs 
    atoms 2, 5, 8-9, 12          entry N          line   144 file /opt/anaconda/envs/psi4v1.5/share/psi4/basis/jun-cc-pvdz-ri.gbs 
    atoms 3, 6-7, 10, 13         entry C          line   100 file /opt/anaconda/envs/psi4v1.5/share/psi4/basis/jun-cc-pvdz-ri.gbs 
    atoms 16                     entry O          line   188 file /opt/anaconda/envs/psi4v1.5/share/psi4/basis/jun-cc-pvdz-ri.gbs 

	 --------------------------------------------------------
	                          DF-MP2                         
	      2nd-Order Density-Fitted Moller-Plesset Theory     
	              RMP2 Wavefunction,   8 Threads             
	                                                         
	        Rob Parrish, Justin Turney, Andy Simmonett,      
	           Ed Hohenstein, and C. David Sherrill          
	 --------------------------------------------------------

   => Auxiliary Basis Set <=

  Basis Set: (JUN-CC-PVDZ AUX)
    Blend: JUN-CC-PVDZ-RI
    Number of shells: 273
    Number of basis functions: 813
    Number of Cartesian functions: 941
    Spherical Harmonics?: true
    Max angular momentum: 3

	 --------------------------------------------------------
	                 NBF =   233, NAUX =   813
	 --------------------------------------------------------
	   CLASS    FOCC     OCC    AOCC    AVIR     VIR    FVIR
	   PAIRS      11      40      29     193     193       0
	 --------------------------------------------------------

	 Will save fitting metric to file 97.

	-----------------------------------------------------------
	 ==================> DF-MP2 Energies <==================== 
	-----------------------------------------------------------
	 Reference Energy          =    -540.6022912904389841 [Eh]
	 Singles Energy            =      -0.0000000000000000 [Eh]
	 Same-Spin Energy          =      -0.4690524538578540 [Eh]
	 Opposite-Spin Energy      =      -1.2141609368697766 [Eh]
	 Correlation Energy        =      -1.6832133907276305 [Eh]
	 Total Energy              =    -542.2855046811665716 [Eh]
	-----------------------------------------------------------
	 ================> DF-SCS-MP2 Energies <================== 
	-----------------------------------------------------------
	 SCS Same-Spin Scale       =       0.3333333333333333 [-]
	 SCS Opposite-Spin Scale   =       1.2000000000000000 [-]
	 SCS Same-Spin Energy      =      -0.1563508179526180 [Eh]
	 SCS Opposite-Spin Energy  =      -1.4569931242437317 [Eh]
	 SCS Correlation Energy    =      -1.6133439421963498 [Eh]
	 SCS Total Energy          =    -542.2156352326353499 [Eh]
	-----------------------------------------------------------


*** tstop() called on bme-earth.bme.utexas.edu at Sun Apr 14 22:07:29 2024
Module time:
	user time   =       6.27 seconds =       0.10 minutes
	system time =       0.09 seconds =       0.00 minutes
	total time  =          1 seconds =       0.02 minutes
Total time:
	user time   =      22.97 seconds =       0.38 minutes
	system time =       0.34 seconds =       0.01 minutes
	total time  =          4 seconds =       0.07 minutes

  //>>>>>>>>>>>>>>>>>>>>>>>>>>>>>>>>>>>//
  //            Monomer A HF           //
  //<<<<<<<<<<<<<<<<<<<<<<<<<<<<<<<<<<<//


*** tstart() called on bme-earth.bme.utexas.edu
*** at Sun Apr 14 22:07:29 2024

   => Loading Basis Set <=

    Name: JUN-CC-PVDZ
    Role: ORBITAL
    Keyword: BASIS
    atoms 1, 4, 11, 14-15, 17-18 entry H          line    36 file /opt/anaconda/envs/psi4v1.5/share/psi4/basis/jun-cc-pvdz.gbs 
    atoms 2, 5, 8-9, 12          entry N          line   198 file /opt/anaconda/envs/psi4v1.5/share/psi4/basis/jun-cc-pvdz.gbs 
    atoms 3, 6-7, 10, 13         entry C          line   164 file /opt/anaconda/envs/psi4v1.5/share/psi4/basis/jun-cc-pvdz.gbs 
    atoms 16                     entry O          line   232 file /opt/anaconda/envs/psi4v1.5/share/psi4/basis/jun-cc-pvdz.gbs 


         ---------------------------------------------------------
                                   SCF
               by Justin Turney, Rob Parrish, Andy Simmonett
                          and Daniel G. A. Smith
                              RHF Reference
                        8 Threads,  47683 MiB Core
         ---------------------------------------------------------

  ==> Geometry <==

    Molecular point group: c1
    Full point group: C1

    Geometry (in Angstrom), charge = 0, multiplicity = 1:

       Center              X                  Y                   Z               Mass       
    ------------   -----------------  -----------------  -----------------  -----------------
         H           -2.503000043893     0.916553127652    -0.017656312026     1.007825032230
         N           -1.487480043893     1.053843127652    -0.005846312026    14.003074004430
         C           -0.732420043893     2.195033127652     0.008383687974    12.000000000000
         H           -1.186870043893     3.177863127652     0.013313687974     1.007825032230
         N            0.578659956107     1.972963127652     0.015633687974    14.003074004430
         C            0.662809956107     0.596563127652    -0.001066312026    12.000000000000
         C            1.760309956107    -0.286046872348     0.016803687974    12.000000000000
         N            3.044889956107     0.161493127652    -0.029816312026    14.003074004430
         N            1.532089956107    -1.610216872348     0.017983687974    14.003074004430
         C            0.253829956107    -2.042656872348    -0.000976312026    12.000000000000
         H            0.127259956107    -3.123056872348    -0.002206312026     1.007825032230
         N           -0.872540043893    -1.317676872348    -0.014686312026    14.003074004430
         C           -0.603810043893     0.003573127652    -0.008326312026    12.000000000000
         H            3.761509956107    -0.509796872348     0.215453687974     1.007825032230
         H            3.206289956107     1.128023127652     0.223013687974     1.007825032230
      Gh(O)          -3.278611177227    -0.554768139015    -0.063529312026    15.994914619570
      Gh(H)          -3.694081177227    -0.827308139015     0.769370687974     1.007825032230
      Gh(H)          -2.484211177227    -1.129998139015    -0.136999312026     1.007825032230

  Running in c1 symmetry.

  Rotational constants: A =      0.06167  B =      0.03447  C =      0.02216 [cm^-1]
  Rotational constants: A =   1848.86061  B =   1033.31202  C =    664.23499 [MHz]
  Nuclear repulsion =  501.704360688069471

  Charge       = 0
  Multiplicity = 1
  Electrons    = 70
  Nalpha       = 35
  Nbeta        = 35

  ==> Algorithm <==

  SCF Algorithm Type is DF.
  DIIS enabled.
  MOM disabled.
  Fractional occupation disabled.
  Guess Type is SAD.
  Energy threshold   = 1.00e-08
  Density threshold  = 1.00e-08
  Integral threshold = 1.00e-12

  ==> Primary Basis <==

  Basis Set: JUN-CC-PVDZ
    Blend: JUN-CC-PVDZ
    Number of shells: 109
    Number of basis functions: 233
    Number of Cartesian functions: 244
    Spherical Harmonics?: true
    Max angular momentum: 2

   => Loading Basis Set <=

    Name: (JUN-CC-PVDZ AUX)
    Role: JKFIT
    Keyword: DF_BASIS_SCF
    atoms 1, 4, 11, 14-15, 17-18 entry H          line    70 file /opt/anaconda/envs/psi4v1.5/share/psi4/basis/jun-cc-pvdz-jkfit.gbs 
    atoms 2, 5, 8-9, 12          entry N          line   202 file /opt/anaconda/envs/psi4v1.5/share/psi4/basis/jun-cc-pvdz-jkfit.gbs 
    atoms 3, 6-7, 10, 13         entry C          line   146 file /opt/anaconda/envs/psi4v1.5/share/psi4/basis/jun-cc-pvdz-jkfit.gbs 
    atoms 16                     entry O          line   258 file /opt/anaconda/envs/psi4v1.5/share/psi4/basis/jun-cc-pvdz-jkfit.gbs 

  ==> Integral Setup <==

  ==> DiskDFJK: Density-Fitted J/K Matrices <==

    J tasked:                  Yes
    K tasked:                  Yes
    wK tasked:                  No
    OpenMP threads:              8
    Integrals threads:           8
    Memory [MiB]:            35762
    Algorithm:                Core
    Integral Cache:           LOAD
    Schwarz Cutoff:          1E-12
    Fitting Condition:       1E-10

   => Auxiliary Basis Set <=

  Basis Set: (JUN-CC-PVDZ AUX)
    Blend: JUN-CC-PVDZ-JKFIT
    Number of shells: 360
    Number of basis functions: 1030
    Number of Cartesian functions: 1176
    Spherical Harmonics?: true
    Max angular momentum: 3

  Minimum eigenvalue in the overlap matrix is 1.0721168617E-05.
  Reciprocal condition number of the overlap matrix is 8.1290757990E-07.
    Using symmetric orthogonalization.

  ==> Pre-Iterations <==

  SCF Guess: Superposition of Atomic Densities via on-the-fly atomic UHF (no occupation information).

   -------------------------
    Irrep   Nso     Nmo    
   -------------------------
     A        233     233 
   -------------------------
    Total     233     233
   -------------------------

  ==> Iterations <==

                           Total Energy        Delta E     RMS |[F,P]|

   @DF-RHF iter SAD:  -464.39614608694620   -4.64396e+02   0.00000e+00 
   @DF-RHF iter   1:  -464.33625713039282    5.98890e-02   2.74673e-03 DIIS
   @DF-RHF iter   2:  -464.52325900846824   -1.87002e-01   1.37654e-03 DIIS
   @DF-RHF iter   3:  -464.56807657777921   -4.48176e-02   3.22301e-04 DIIS
   @DF-RHF iter   4:  -464.57139789913361   -3.32132e-03   1.45813e-04 DIIS
   @DF-RHF iter   5:  -464.57203086631978   -6.32967e-04   2.88207e-05 DIIS
   @DF-RHF iter   6:  -464.57208058567369   -4.97194e-05   1.36146e-05 DIIS
   @DF-RHF iter   7:  -464.57209370314098   -1.31175e-05   5.38513e-06 DIIS
   @DF-RHF iter   8:  -464.57209610106554   -2.39792e-06   1.96167e-06 DIIS
   @DF-RHF iter   9:  -464.57209644115210   -3.40087e-07   9.67529e-07 DIIS
   @DF-RHF iter  10:  -464.57209652750373   -8.63516e-08   3.58246e-07 DIIS
   @DF-RHF iter  11:  -464.57209654416539   -1.66617e-08   1.60062e-07 DIIS
   @DF-RHF iter  12:  -464.57209654719082   -3.02543e-09   5.74487e-08 DIIS
   @DF-RHF iter  13:  -464.57209654756127   -3.70449e-10   2.40491e-08 DIIS
   @DF-RHF iter  14:  -464.57209654760698   -4.57021e-11   8.55846e-09 DIIS
  Energy and wave function converged.


  ==> Post-Iterations <==

    Orbital Energies [Eh]
    ---------------------

    Doubly Occupied:                                                      

       1A    -15.646375     2A    -15.593476     3A    -15.581631  
       4A    -15.570171     5A    -15.561568     6A    -11.345813  
       7A    -11.338127     8A    -11.325984     9A    -11.321762  
      10A    -11.261013    11A     -1.375411    12A     -1.303421  
      13A     -1.249246    14A     -1.192399    15A     -1.155897  
      16A     -1.037972    17A     -0.898760    18A     -0.878960  
      19A     -0.853854    20A     -0.779329    21A     -0.737023  
      22A     -0.701338    23A     -0.677116    24A     -0.641531  
      25A     -0.632667    26A     -0.614525    27A     -0.593380  
      28A     -0.558988    29A     -0.500305    30A     -0.498101  
      31A     -0.454944    32A     -0.428266    33A     -0.411592  
      34A     -0.375186    35A     -0.311543  

    Virtual:                                                              

      36A      0.044415    37A      0.063999    38A      0.066662  
      39A      0.080276    40A      0.082737    41A      0.091266  
      42A      0.092067    43A      0.108704    44A      0.120203  
      45A      0.124586    46A      0.127131    47A      0.134656  
      48A      0.135859    49A      0.147062    50A      0.156185  
      51A      0.158584    52A      0.172711    53A      0.180051  
      54A      0.182748    55A      0.194739    56A      0.207013  
      57A      0.210083    58A      0.224530    59A      0.227834  
      60A      0.231953    61A      0.241894    62A      0.248738  
      63A      0.252784    64A      0.259582    65A      0.262874  
      66A      0.269278    67A      0.278876    68A      0.280999  
      69A      0.293078    70A      0.300713    71A      0.305047  
      72A      0.311848    73A      0.319970    74A      0.324743  
      75A      0.337209    76A      0.347128    77A      0.350000  
      78A      0.365744    79A      0.369425    80A      0.379975  
      81A      0.382534    82A      0.396924    83A      0.408419  
      84A      0.414120    85A      0.420400    86A      0.441007  
      87A      0.452891    88A      0.469801    89A      0.472842  
      90A      0.483792    91A      0.494242    92A      0.512647  
      93A      0.515521    94A      0.559990    95A      0.568581  
      96A      0.598207    97A      0.628155    98A      0.641353  
      99A      0.690304   100A      0.764323   101A      0.805217  
     102A      0.814974   103A      0.843284   104A      0.846966  
     105A      0.857048   106A      0.862699   107A      0.872269  
     108A      0.876201   109A      0.886145   110A      0.893919  
     111A      0.903353   112A      0.918888   113A      0.944185  
     114A      0.972417   115A      0.993562   116A      1.003217  
     117A      1.027464   118A      1.032799   119A      1.055648  
     120A      1.083133   121A      1.092971   122A      1.105806  
     123A      1.115148   124A      1.126102   125A      1.159000  
     126A      1.172586   127A      1.177671   128A      1.194341  
     129A      1.195607   130A      1.212436   131A      1.223965  
     132A      1.247803   133A      1.263567   134A      1.269367  
     135A      1.278280   136A      1.289597   137A      1.299243  
     138A      1.309186   139A      1.322347   140A      1.329216  
     141A      1.350821   142A      1.360751   143A      1.373060  
     144A      1.373601   145A      1.394549   146A      1.432469  
     147A      1.471058   148A      1.473658   149A      1.502112  
     150A      1.507278   151A      1.523201   152A      1.555715  
     153A      1.587648   154A      1.638264   155A      1.727167  
     156A      1.770491   157A      1.791594   158A      1.830038  
     159A      1.835226   160A      1.848319   161A      1.854736  
     162A      1.864692   163A      1.883206   164A      1.905020  
     165A      1.931708   166A      1.954116   167A      1.965342  
     168A      1.981675   169A      1.992529   170A      1.995636  
     171A      2.044771   172A      2.046902   173A      2.072661  
     174A      2.087357   175A      2.100375   176A      2.142445  
     177A      2.143441   178A      2.164577   179A      2.208971  
     180A      2.256221   181A      2.271874   182A      2.293975  
     183A      2.313785   184A      2.336344   185A      2.366551  
     186A      2.374599   187A      2.395177   188A      2.408921  
     189A      2.417510   190A      2.439449   191A      2.495139  
     192A      2.507256   193A      2.541080   194A      2.584112  
     195A      2.590199   196A      2.629156   197A      2.642318  
     198A      2.663466   199A      2.699358   200A      2.717756  
     201A      2.728738   202A      2.785104   203A      2.797693  
     204A      2.842644   205A      2.884000   206A      2.922465  
     207A      2.940524   208A      2.957664   209A      3.010660  
     210A      3.011666   211A      3.028095   212A      3.103276  
     213A      3.131701   214A      3.202845   215A      3.215463  
     216A      3.239862   217A      3.306785   218A      3.339827  
     219A      3.374532   220A      3.411257   221A      3.587154  
     222A      3.664482   223A      3.693802   224A      3.813307  
     225A      4.467624   226A      4.555089   227A      4.712648  
     228A      4.897632   229A      5.158963   230A      5.702240  
     231A      6.576588   232A      6.978795   233A     33.532980  

    Final Occupation by Irrep:
              A 
    DOCC [    35 ]

  @DF-RHF Final Energy:  -464.57209654760698

   => Energetics <=

    Nuclear Repulsion Energy =            501.7043606880694711
    One-Electron Energy =               -1625.7375696607196005
    Two-Electron Energy =                 659.4611124250430976
    Total Energy =                       -464.5720965476069750

Computation Completed


Properties will be evaluated at   0.000000,   0.000000,   0.000000 [a0]

Properties computed using the SCF density matrix

  Nuclear Dipole Moment: [e a0]
     X:    58.6171      Y:    11.7375      Z:     0.7629

  Electronic Dipole Moment: [e a0]
     X:   -59.1833      Y:   -10.8673      Z:    -0.4704

  Dipole Moment: [e a0]
     X:    -0.5662      Y:     0.8702      Z:     0.2925     Total:     1.0787

  Dipole Moment: [D]
     X:    -1.4392      Y:     2.2119      Z:     0.7435     Total:     2.7417


*** tstop() called on bme-earth.bme.utexas.edu at Sun Apr 14 22:07:30 2024
Module time:
	user time   =      13.09 seconds =       0.22 minutes
	system time =       0.19 seconds =       0.00 minutes
	total time  =          1 seconds =       0.02 minutes
Total time:
	user time   =      36.08 seconds =       0.60 minutes
	system time =       0.53 seconds =       0.01 minutes
	total time  =          5 seconds =       0.08 minutes

*** tstart() called on bme-earth.bme.utexas.edu
*** at Sun Apr 14 22:07:30 2024


  //>>>>>>>>>>>>>>>>>>>>>>>>>>>>>>>>>>>//
  //               DFMP2               //
  //<<<<<<<<<<<<<<<<<<<<<<<<<<<<<<<<<<<//

   => Loading Basis Set <=

    Name: (JUN-CC-PVDZ AUX)
    Role: RIFIT
    Keyword: DF_BASIS_MP2
    atoms 1, 4, 11, 14-15, 17-18 entry H          line    30 file /opt/anaconda/envs/psi4v1.5/share/psi4/basis/jun-cc-pvdz-ri.gbs 
    atoms 2, 5, 8-9, 12          entry N          line   144 file /opt/anaconda/envs/psi4v1.5/share/psi4/basis/jun-cc-pvdz-ri.gbs 
    atoms 3, 6-7, 10, 13         entry C          line   100 file /opt/anaconda/envs/psi4v1.5/share/psi4/basis/jun-cc-pvdz-ri.gbs 
    atoms 16                     entry O          line   188 file /opt/anaconda/envs/psi4v1.5/share/psi4/basis/jun-cc-pvdz-ri.gbs 

	 --------------------------------------------------------
	                          DF-MP2                         
	      2nd-Order Density-Fitted Moller-Plesset Theory     
	              RMP2 Wavefunction,   8 Threads             
	                                                         
	        Rob Parrish, Justin Turney, Andy Simmonett,      
	           Ed Hohenstein, and C. David Sherrill          
	 --------------------------------------------------------

   => Auxiliary Basis Set <=

  Basis Set: (JUN-CC-PVDZ AUX)
    Blend: JUN-CC-PVDZ-RI
    Number of shells: 273
    Number of basis functions: 813
    Number of Cartesian functions: 941
    Spherical Harmonics?: true
    Max angular momentum: 3

	 --------------------------------------------------------
	                 NBF =   233, NAUX =   813
	 --------------------------------------------------------
	   CLASS    FOCC     OCC    AOCC    AVIR     VIR    FVIR
	   PAIRS      10      35      25     198     198       0
	 --------------------------------------------------------

	 Will attempt to load fitting metric from file 97.

	-----------------------------------------------------------
	 ==================> DF-MP2 Energies <==================== 
	-----------------------------------------------------------
	 Reference Energy          =    -464.5720965476069750 [Eh]
	 Singles Energy            =      -0.0000000000000000 [Eh]
	 Same-Spin Energy          =      -0.4097686923445805 [Eh]
	 Opposite-Spin Energy      =      -1.0544245088381223 [Eh]
	 Correlation Energy        =      -1.4641932011827028 [Eh]
	 Total Energy              =    -466.0362897487896703 [Eh]
	-----------------------------------------------------------
	 ================> DF-SCS-MP2 Energies <================== 
	-----------------------------------------------------------
	 SCS Same-Spin Scale       =       0.3333333333333333 [-]
	 SCS Opposite-Spin Scale   =       1.2000000000000000 [-]
	 SCS Same-Spin Energy      =      -0.1365895641148601 [Eh]
	 SCS Opposite-Spin Energy  =      -1.2653094106057468 [Eh]
	 SCS Correlation Energy    =      -1.4018989747206070 [Eh]
	 SCS Total Energy          =    -465.9739955223275842 [Eh]
	-----------------------------------------------------------


*** tstop() called on bme-earth.bme.utexas.edu at Sun Apr 14 22:07:31 2024
Module time:
	user time   =       5.29 seconds =       0.09 minutes
	system time =       0.09 seconds =       0.00 minutes
	total time  =          1 seconds =       0.02 minutes
Total time:
	user time   =      41.37 seconds =       0.69 minutes
	system time =       0.62 seconds =       0.01 minutes
	total time  =          6 seconds =       0.10 minutes

  //>>>>>>>>>>>>>>>>>>>>>>>>>>>>>>>>>>>//
  //            Monomer B HF           //
  //<<<<<<<<<<<<<<<<<<<<<<<<<<<<<<<<<<<//


*** tstart() called on bme-earth.bme.utexas.edu
*** at Sun Apr 14 22:07:31 2024

   => Loading Basis Set <=

    Name: JUN-CC-PVDZ
    Role: ORBITAL
    Keyword: BASIS
    atoms 1, 4, 11, 14-15, 17-18 entry H          line    36 file /opt/anaconda/envs/psi4v1.5/share/psi4/basis/jun-cc-pvdz.gbs 
    atoms 2, 5, 8-9, 12          entry N          line   198 file /opt/anaconda/envs/psi4v1.5/share/psi4/basis/jun-cc-pvdz.gbs 
    atoms 3, 6-7, 10, 13         entry C          line   164 file /opt/anaconda/envs/psi4v1.5/share/psi4/basis/jun-cc-pvdz.gbs 
    atoms 16                     entry O          line   232 file /opt/anaconda/envs/psi4v1.5/share/psi4/basis/jun-cc-pvdz.gbs 


         ---------------------------------------------------------
                                   SCF
               by Justin Turney, Rob Parrish, Andy Simmonett
                          and Daniel G. A. Smith
                              RHF Reference
                        8 Threads,  47683 MiB Core
         ---------------------------------------------------------

  ==> Geometry <==

    Molecular point group: c1
    Full point group: C1

    Geometry (in Angstrom), charge = 0, multiplicity = 1:

       Center              X                  Y                   Z               Mass       
    ------------   -----------------  -----------------  -----------------  -----------------
      Gh(H)          -2.503000043893     0.916553127652    -0.017656312026     1.007825032230
      Gh(N)          -1.487480043893     1.053843127652    -0.005846312026    14.003074004430
      Gh(C)          -0.732420043893     2.195033127652     0.008383687974    12.000000000000
      Gh(H)          -1.186870043893     3.177863127652     0.013313687974     1.007825032230
      Gh(N)           0.578659956107     1.972963127652     0.015633687974    14.003074004430
      Gh(C)           0.662809956107     0.596563127652    -0.001066312026    12.000000000000
      Gh(C)           1.760309956107    -0.286046872348     0.016803687974    12.000000000000
      Gh(N)           3.044889956107     0.161493127652    -0.029816312026    14.003074004430
      Gh(N)           1.532089956107    -1.610216872348     0.017983687974    14.003074004430
      Gh(C)           0.253829956107    -2.042656872348    -0.000976312026    12.000000000000
      Gh(H)           0.127259956107    -3.123056872348    -0.002206312026     1.007825032230
      Gh(N)          -0.872540043893    -1.317676872348    -0.014686312026    14.003074004430
      Gh(C)          -0.603810043893     0.003573127652    -0.008326312026    12.000000000000
      Gh(H)           3.761509956107    -0.509796872348     0.215453687974     1.007825032230
      Gh(H)           3.206289956107     1.128023127652     0.223013687974     1.007825032230
         O           -3.278611177227    -0.554768139015    -0.063529312026    15.994914619570
         H           -3.694081177227    -0.827308139015     0.769370687974     1.007825032230
         H           -2.484211177227    -1.129998139015    -0.136999312026     1.007825032230

  Running in c1 symmetry.

  Rotational constants: A =      0.06167  B =      0.03447  C =      0.02216 [cm^-1]
  Rotational constants: A =   1848.86061  B =   1033.31202  C =    664.23499 [MHz]
  Nuclear repulsion =    9.012493240668849

  Charge       = 0
  Multiplicity = 1
  Electrons    = 10
  Nalpha       = 5
  Nbeta        = 5

  ==> Algorithm <==

  SCF Algorithm Type is DF.
  DIIS enabled.
  MOM disabled.
  Fractional occupation disabled.
  Guess Type is SAD.
  Energy threshold   = 1.00e-08
  Density threshold  = 1.00e-08
  Integral threshold = 1.00e-12

  ==> Primary Basis <==

  Basis Set: JUN-CC-PVDZ
    Blend: JUN-CC-PVDZ
    Number of shells: 109
    Number of basis functions: 233
    Number of Cartesian functions: 244
    Spherical Harmonics?: true
    Max angular momentum: 2

   => Loading Basis Set <=

    Name: (JUN-CC-PVDZ AUX)
    Role: JKFIT
    Keyword: DF_BASIS_SCF
    atoms 1, 4, 11, 14-15, 17-18 entry H          line    70 file /opt/anaconda/envs/psi4v1.5/share/psi4/basis/jun-cc-pvdz-jkfit.gbs 
    atoms 2, 5, 8-9, 12          entry N          line   202 file /opt/anaconda/envs/psi4v1.5/share/psi4/basis/jun-cc-pvdz-jkfit.gbs 
    atoms 3, 6-7, 10, 13         entry C          line   146 file /opt/anaconda/envs/psi4v1.5/share/psi4/basis/jun-cc-pvdz-jkfit.gbs 
    atoms 16                     entry O          line   258 file /opt/anaconda/envs/psi4v1.5/share/psi4/basis/jun-cc-pvdz-jkfit.gbs 

  ==> Integral Setup <==

  ==> DiskDFJK: Density-Fitted J/K Matrices <==

    J tasked:                  Yes
    K tasked:                  Yes
    wK tasked:                  No
    OpenMP threads:              8
    Integrals threads:           8
    Memory [MiB]:            35762
    Algorithm:                Core
    Integral Cache:           LOAD
    Schwarz Cutoff:          1E-12
    Fitting Condition:       1E-10

   => Auxiliary Basis Set <=

  Basis Set: (JUN-CC-PVDZ AUX)
    Blend: JUN-CC-PVDZ-JKFIT
    Number of shells: 360
    Number of basis functions: 1030
    Number of Cartesian functions: 1176
    Spherical Harmonics?: true
    Max angular momentum: 3

  Minimum eigenvalue in the overlap matrix is 1.0721168617E-05.
  Reciprocal condition number of the overlap matrix is 8.1290757990E-07.
    Using symmetric orthogonalization.

  ==> Pre-Iterations <==

  SCF Guess: Superposition of Atomic Densities via on-the-fly atomic UHF (no occupation information).

   -------------------------
    Irrep   Nso     Nmo    
   -------------------------
     A        233     233 
   -------------------------
    Total     233     233
   -------------------------

  ==> Iterations <==

                           Total Energy        Delta E     RMS |[F,P]|

   @DF-RHF iter SAD:   -75.48936009440605   -7.54894e+01   0.00000e+00 
   @DF-RHF iter   1:   -75.95890758428277   -4.69547e-01   1.85488e-03 DIIS
   @DF-RHF iter   2:   -76.00918813232927   -5.02805e-02   1.20348e-03 DIIS
   @DF-RHF iter   3:   -76.03660646959068   -2.74183e-02   9.50005e-05 DIIS
   @DF-RHF iter   4:   -76.03699022891458   -3.83759e-04   2.20252e-05 DIIS
   @DF-RHF iter   5:   -76.03701314306255   -2.29141e-05   4.51659e-06 DIIS
   @DF-RHF iter   6:   -76.03701471904135   -1.57598e-06   9.84877e-07 DIIS
   @DF-RHF iter   7:   -76.03701480340348   -8.43621e-08   1.31745e-07 DIIS
   @DF-RHF iter   8:   -76.03701480471437   -1.31089e-09   2.36616e-08 DIIS
   @DF-RHF iter   9:   -76.03701480475502   -4.06430e-11   6.33459e-09 DIIS
  Energy and wave function converged.


  ==> Post-Iterations <==

    Orbital Energies [Eh]
    ---------------------

    Doubly Occupied:                                                      

       1A    -20.580924     2A     -1.346956     3A     -0.708222  
       4A     -0.581422     5A     -0.507568  

    Virtual:                                                              

       6A      0.027518     7A      0.046041     8A      0.051765  
       9A      0.065747    10A      0.078318    11A      0.085598  
      12A      0.092592    13A      0.099444    14A      0.117124  
      15A      0.118745    16A      0.123738    17A      0.135383  
      18A      0.144544    19A      0.155481    20A      0.158546  
      21A      0.163117    22A      0.169460    23A      0.176329  
      24A      0.182230    25A      0.190861    26A      0.198168  
      27A      0.199847    28A      0.217373    29A      0.218588  
      30A      0.227948    31A      0.231903    32A      0.234622  
      33A      0.241215    34A      0.248910    35A      0.260948  
      36A      0.263930    37A      0.267762    38A      0.269086  
      39A      0.272143    40A      0.283576    41A      0.291268  
      42A      0.308760    43A      0.320251    44A      0.330636  
      45A      0.339077    46A      0.357936    47A      0.364234  
      48A      0.375958    49A      0.392094    50A      0.426770  
      51A      0.443343    52A      0.457306    53A      0.471045  
      54A      0.477576    55A      0.486262    56A      0.499210  
      57A      0.508622    58A      0.518752    59A      0.536019  
      60A      0.547692    61A      0.554766    62A      0.564950  
      63A      0.571564    64A      0.573016    65A      0.592341  
      66A      0.600926    67A      0.638883    68A      0.645768  
      69A      0.661952    70A      0.685618    71A      0.709871  
      72A      0.730728    73A      0.746022    74A      0.754432  
      75A      0.791496    76A      0.795482    77A      0.814905  
      78A      0.825850    79A      0.840389    80A      0.872317  
      81A      0.888467    82A      0.914449    83A      0.936578  
      84A      0.944970    85A      0.993315    86A      1.011453  
      87A      1.046405    88A      1.053274    89A      1.060374  
      90A      1.106327    91A      1.169088    92A      1.175587  
      93A      1.188228    94A      1.228605    95A      1.268777  
      96A      1.284858    97A      1.298581    98A      1.304791  
      99A      1.334028   100A      1.457460   101A      1.476466  
     102A      1.615083   103A      1.702076   104A      1.740592  
     105A      1.761585   106A      1.790887   107A      1.799703  
     108A      1.815842   109A      1.848670   110A      1.852185  
     111A      1.894489   112A      1.897080   113A      1.902205  
     114A      1.915836   115A      1.935732   116A      1.958742  
     117A      1.973824   118A      2.006811   119A      2.026602  
     120A      2.039035   121A      2.060288   122A      2.096247  
     123A      2.103440   124A      2.119303   125A      2.160420  
     126A      2.169144   127A      2.188187   128A      2.206405  
     129A      2.212360   130A      2.234896   131A      2.255513  
     132A      2.275226   133A      2.305492   134A      2.322075  
     135A      2.339315   136A      2.351870   137A      2.374810  
     138A      2.411608   139A      2.413281   140A      2.433396  
     141A      2.461512   142A      2.482309   143A      2.494669  
     144A      2.504019   145A      2.515901   146A      2.538039  
     147A      2.568453   148A      2.583948   149A      2.593606  
     150A      2.607104   151A      2.649293   152A      2.672173  
     153A      2.702994   154A      2.735465   155A      2.743415  
     156A      2.751640   157A      2.765156   158A      2.829941  
     159A      2.839869   160A      2.863661   161A      2.919574  
     162A      2.937241   163A      2.975823   164A      2.996521  
     165A      3.011708   166A      3.040748   167A      3.085865  
     168A      3.146220   169A      3.170682   170A      3.207813  
     171A      3.260663   172A      3.281497   173A      3.344373  
     174A      3.354328   175A      3.378917   176A      3.419563  
     177A      3.433895   178A      3.451400   179A      3.481948  
     180A      3.514280   181A      3.535269   182A      3.560742  
     183A      3.630416   184A      3.634318   185A      3.655251  
     186A      3.707652   187A      3.731659   188A      3.760378  
     189A      3.823171   190A      3.888425   191A      3.928026  
     192A      4.001403   193A      4.039369   194A      4.124989  
     195A      4.148172   196A      4.227724   197A      4.291655  
     198A      4.301209   199A      4.303465   200A      4.322849  
     201A      4.343395   202A      4.353640   203A      4.399498  
     204A      4.570399   205A      4.589850   206A      4.604238  
     207A      4.647143   208A      4.760705   209A      4.837578  
     210A      4.889770   211A      4.950741   212A      5.025346  
     213A      5.120160   214A      5.186988   215A      5.282488  
     216A      5.498035   217A      5.640175   218A      5.830077  
     219A      5.952727   220A      6.045148   221A      6.071130  
     222A      6.093497   223A      6.228365   224A     18.148671  
     225A     18.448475   226A     18.478096   227A     18.515958  
     228A     18.887992   229A     25.275588   230A     25.295497  
     231A     25.310488   232A     25.438781   233A     25.443867  

    Final Occupation by Irrep:
              A 
    DOCC [     5 ]

  @DF-RHF Final Energy:   -76.03701480475502

   => Energetics <=

    Nuclear Repulsion Energy =              9.0124932406688494
    One-Electron Energy =                -122.6488315849679225
    Two-Electron Energy =                  37.5993235395440664
    Total Energy =                        -76.0370148047550174

Computation Completed


Properties will be evaluated at   0.000000,   0.000000,   0.000000 [a0]

Properties computed using the SCF density matrix

  Nuclear Dipole Moment: [e a0]
     X:   -61.2407      Y:   -12.0857      Z:     0.2346

  Electronic Dipole Moment: [e a0]
     X:    61.5074      Y:    11.5005      Z:     0.3006

  Dipole Moment: [e a0]
     X:     0.2667      Y:    -0.5851      Z:     0.5352     Total:     0.8366

  Dipole Moment: [D]
     X:     0.6778      Y:    -1.4873      Z:     1.3602     Total:     2.1264


*** tstop() called on bme-earth.bme.utexas.edu at Sun Apr 14 22:07:33 2024
Module time:
	user time   =       6.83 seconds =       0.11 minutes
	system time =       0.08 seconds =       0.00 minutes
	total time  =          2 seconds =       0.03 minutes
Total time:
	user time   =      48.22 seconds =       0.80 minutes
	system time =       0.70 seconds =       0.01 minutes
	total time  =          8 seconds =       0.13 minutes

*** tstart() called on bme-earth.bme.utexas.edu
*** at Sun Apr 14 22:07:33 2024


  //>>>>>>>>>>>>>>>>>>>>>>>>>>>>>>>>>>>//
  //               DFMP2               //
  //<<<<<<<<<<<<<<<<<<<<<<<<<<<<<<<<<<<//

   => Loading Basis Set <=

    Name: (JUN-CC-PVDZ AUX)
    Role: RIFIT
    Keyword: DF_BASIS_MP2
    atoms 1, 4, 11, 14-15, 17-18 entry H          line    30 file /opt/anaconda/envs/psi4v1.5/share/psi4/basis/jun-cc-pvdz-ri.gbs 
    atoms 2, 5, 8-9, 12          entry N          line   144 file /opt/anaconda/envs/psi4v1.5/share/psi4/basis/jun-cc-pvdz-ri.gbs 
    atoms 3, 6-7, 10, 13         entry C          line   100 file /opt/anaconda/envs/psi4v1.5/share/psi4/basis/jun-cc-pvdz-ri.gbs 
    atoms 16                     entry O          line   188 file /opt/anaconda/envs/psi4v1.5/share/psi4/basis/jun-cc-pvdz-ri.gbs 

	 --------------------------------------------------------
	                          DF-MP2                         
	      2nd-Order Density-Fitted Moller-Plesset Theory     
	              RMP2 Wavefunction,   8 Threads             
	                                                         
	        Rob Parrish, Justin Turney, Andy Simmonett,      
	           Ed Hohenstein, and C. David Sherrill          
	 --------------------------------------------------------

   => Auxiliary Basis Set <=

  Basis Set: (JUN-CC-PVDZ AUX)
    Blend: JUN-CC-PVDZ-RI
    Number of shells: 273
    Number of basis functions: 813
    Number of Cartesian functions: 941
    Spherical Harmonics?: true
    Max angular momentum: 3

	 --------------------------------------------------------
	                 NBF =   233, NAUX =   813
	 --------------------------------------------------------
	   CLASS    FOCC     OCC    AOCC    AVIR     VIR    FVIR
	   PAIRS       1       5       4     228     228       0
	 --------------------------------------------------------

	 Will attempt to load fitting metric from file 97.

	-----------------------------------------------------------
	 ==================> DF-MP2 Energies <==================== 
	-----------------------------------------------------------
	 Reference Energy          =     -76.0370148047550174 [Eh]
	 Singles Energy            =      -0.0000000000000000 [Eh]
	 Same-Spin Energy          =      -0.0539285494514239 [Eh]
	 Opposite-Spin Energy      =      -0.1583717912619799 [Eh]
	 Correlation Energy        =      -0.2123003407134038 [Eh]
	 Total Energy              =     -76.2493151454684153 [Eh]
	-----------------------------------------------------------
	 ================> DF-SCS-MP2 Energies <================== 
	-----------------------------------------------------------
	 SCS Same-Spin Scale       =       0.3333333333333333 [-]
	 SCS Opposite-Spin Scale   =       1.2000000000000000 [-]
	 SCS Same-Spin Energy      =      -0.0179761831504746 [Eh]
	 SCS Opposite-Spin Energy  =      -0.1900461495143759 [Eh]
	 SCS Correlation Energy    =      -0.2080223326648505 [Eh]
	 SCS Total Energy          =     -76.2450371374198710 [Eh]
	-----------------------------------------------------------


*** tstop() called on bme-earth.bme.utexas.edu at Sun Apr 14 22:07:33 2024
Module time:
	user time   =       4.17 seconds =       0.07 minutes
	system time =       0.05 seconds =       0.00 minutes
	total time  =          0 seconds =       0.00 minutes
Total time:
	user time   =      52.40 seconds =       0.87 minutes
	system time =       0.75 seconds =       0.01 minutes
	total time  =          8 seconds =       0.13 minutes
  Constructing Basis Sets for SAPT...

   => Loading Basis Set <=

    Name: (JUN-CC-PVDZ AUX)
    Role: RIFIT
    Keyword: DF_BASIS_SAPT
    atoms 1, 4, 11, 14-15, 17-18 entry H          line    30 file /opt/anaconda/envs/psi4v1.5/share/psi4/basis/jun-cc-pvdz-ri.gbs 
    atoms 2, 5, 8-9, 12          entry N          line   144 file /opt/anaconda/envs/psi4v1.5/share/psi4/basis/jun-cc-pvdz-ri.gbs 
    atoms 3, 6-7, 10, 13         entry C          line   100 file /opt/anaconda/envs/psi4v1.5/share/psi4/basis/jun-cc-pvdz-ri.gbs 
    atoms 16                     entry O          line   188 file /opt/anaconda/envs/psi4v1.5/share/psi4/basis/jun-cc-pvdz-ri.gbs 


  //>>>>>>>>>>>>>>>>>>>>>>>>>>>>>>>>>>>//
  //           SAPT2+(3)DMP2           //
  //<<<<<<<<<<<<<<<<<<<<<<<<<<<<<<<<<<<//


*** tstart() called on bme-earth.bme.utexas.edu
*** at Sun Apr 14 22:07:33 2024

      SAPT2+(3)  
    Ed Hohenstein
     6 June 2009

      Orbital Information
  --------------------------
    NSO        =       233
    NMO        =       233
    NRI        =       813
    NOCC A     =        35
    NOCC B     =         5
    FOCC A     =        10
    FOCC B     =         1
    NVIR A     =       198
    NVIR B     =       228

    Estimated memory usage: 1866.4 MB

    Natural Orbital Cutoff:   1.000E-06
    Disp(T3) Truncation:            Yes
    CCD (vv|vv) Truncation:         Yes
    MBPT T2 Truncation:             Yes

    Monomer A: 19 virtual orbitals dropped
    Monomer B: 192 virtual orbitals dropped

    Elst10,r            =    -0.065854805460 [Eh]
    Exch10 (S^2)        =     0.097505001832 [Eh]
    Exch10              =     0.099769049696 [Eh]
    Ind20,r (A<-B)      =    -0.023282307405 [Eh]
    Ind20,r (B<-A)      =    -0.024561417906 [Eh]
    Ind20,r             =    -0.047843725311 [Eh]
    Exch-Ind20,r (A<-B) =     0.014574889502 [Eh]
    Exch-Ind20,r (B<-A) =     0.017049000798 [Eh]
    Exch-Ind20,r        =     0.031623890300 [Eh]
    Disp20              =    -0.020295717095 [Eh]
    Disp20 (NO)         =    -0.018692693623 [Eh]
    Exch-Disp20         =     0.005460718624 [Eh]
    Elst12,r            =    -0.003611277278 [Eh]
    Exch11              =    -0.000761763670 [Eh]
    Exch12              =     0.012284491470 [Eh]
    Ind22               =    -0.008472745025 [Eh]
    Disp21              =     0.002863918023 [Eh]
    Disp22 (SDQ)        =    -0.001339938615 [Eh]

    (i =   1 of   4)         10 seconds
    (i =   2 of   4)         20 seconds
    (i =   3 of   4)         29 seconds
    (i =   4 of   4)         39 seconds

    Disp220 (T)         =    -0.001512522225 [Eh]

    (i =   1 of  25)          0 seconds
    (i =   2 of  25)          0 seconds
    (i =   3 of  25)          0 seconds
    (i =   4 of  25)          0 seconds
    (i =   5 of  25)          0 seconds
    (i =   6 of  25)          1 seconds
    (i =   7 of  25)          1 seconds
    (i =   8 of  25)          1 seconds
    (i =   9 of  25)          1 seconds
    (i =  10 of  25)          1 seconds
    (i =  11 of  25)          1 seconds
    (i =  12 of  25)          1 seconds
    (i =  13 of  25)          1 seconds
    (i =  14 of  25)          1 seconds
    (i =  15 of  25)          1 seconds
    (i =  16 of  25)          1 seconds
    (i =  17 of  25)          1 seconds
    (i =  18 of  25)          1 seconds
    (i =  19 of  25)          2 seconds
    (i =  20 of  25)          2 seconds
    (i =  21 of  25)          2 seconds
    (i =  22 of  25)          2 seconds
    (i =  23 of  25)          2 seconds
    (i =  24 of  25)          2 seconds
    (i =  25 of  25)          2 seconds

    Disp202 (T)         =    -0.001342470679 [Eh]

    Disp22 (T)          =    -0.002854992904 [Eh]

    Est. Disp220 (T)    =    -0.001642231120 [Eh]
    Est. Disp202 (T)    =    -0.001457596516 [Eh]

    Est. Disp22 (T)     =    -0.003099827636 [Eh]
    Elst13,r            =     0.002045333166 [Eh]
    Disp30              =     0.000262301693 [Eh]

    SAPT Results 
  --------------------------------------------------------------------------------------------------------
    Electrostatics                -67.42074957 [mEh]     -42.30715909 [kcal/mol]    -177.01315361 [kJ/mol]
      Elst10,r                    -65.85480546 [mEh]     -41.32451432 [kcal/mol]    -172.90176791 [kJ/mol]
      Elst12,r                     -3.61127728 [mEh]      -2.26611070 [kcal/mol]      -9.48140719 [kJ/mol]
      Elst13,r                      2.04533317 [mEh]       1.28346594 [kcal/mol]       5.37002149 [kJ/mol]

    Exchange                      111.29177750 [mEh]      69.83664473 [kcal/mol]     292.19652156 [kJ/mol]
      Exch10                       99.76904970 [mEh]      62.60602387 [kcal/mol]     261.94360389 [kJ/mol]
      Exch10(S^2)                  97.50500183 [mEh]      61.18531239 [kcal/mol]     255.99934704 [kJ/mol]
      Exch11(S^2)                  -0.76176367 [mEh]      -0.47801392 [kcal/mol]      -2.00001024 [kJ/mol]
      Exch12(S^2)                  12.28449147 [mEh]       7.70863478 [kcal/mol]      32.25292791 [kJ/mol]

    Induction                     -26.89048320 [mEh]     -16.87403296 [kcal/mol]     -70.60095391 [kJ/mol]
      Ind20,r                     -47.84372531 [mEh]     -30.02239089 [kcal/mol]    -125.61368350 [kJ/mol]
      Ind22                        -8.47274503 [mEh]      -5.31672777 [kcal/mol]     -22.24518900 [kJ/mol]
      Exch-Ind20,r                 31.62389030 [mEh]      19.84429076 [kcal/mol]      83.02851254 [kJ/mol]
      Exch-Ind22                    5.60034064 [mEh]       3.51426681 [kcal/mol]      14.70369232 [kJ/mol]
      delta HF,r (2)              -10.87434730 [mEh]      -6.82375595 [kcal/mol]     -28.55059491 [kJ/mol]
      delta MP2,r (2)               3.07610350 [mEh]       1.93028409 [kcal/mol]       8.07630863 [kJ/mol]

    Dispersion                    -16.14854501 [mEh]     -10.13336498 [kcal/mol]     -42.39799907 [kJ/mol]
      Disp20                      -20.29571709 [mEh]     -12.73575475 [kcal/mol]     -53.28639789 [kJ/mol]
      Disp30                        0.26230169 [mEh]       0.16459680 [kcal/mol]       0.68867300 [kJ/mol]
      Disp21                        2.86391802 [mEh]       1.79713569 [kcal/mol]       7.51921573 [kJ/mol]
      Disp22 (SDQ)                 -1.33993861 [mEh]      -0.84082418 [kcal/mol]      -3.51800835 [kJ/mol]
      Disp22 (T)                   -2.85499290 [mEh]      -1.79153509 [kcal/mol]      -7.49578284 [kJ/mol]
      Est. Disp22 (T)              -3.09982764 [mEh]      -1.94517121 [kcal/mol]      -8.13859634 [kJ/mol]
      Exch-Disp20                   5.46071862 [mEh]       3.42665267 [kcal/mol]      14.33711477 [kJ/mol]

  Total HF                          6.82006192 [mEh]       4.27965347 [kcal/mol]      17.90607011 [kJ/mol]
  Total SAPT0                      -8.01493655 [mEh]      -5.02944862 [kcal/mol]     -21.04321301 [kJ/mol]
  Total SAPT2                      -2.97589041 [mEh]      -1.86739943 [kcal/mol]      -7.81319920 [kJ/mol]
  Total SAPT2+                     -4.55173864 [mEh]      -2.85625912 [kcal/mol]     -11.95058815 [kJ/mol]
  Total SAPT2+(3)                  -2.24410378 [mEh]      -1.40819638 [kcal/mol]      -5.89189366 [kJ/mol]
  Total SAPT2+dMP2                 -1.47563514 [mEh]      -0.92597503 [kcal/mol]      -3.87427952 [kJ/mol]
  Total SAPT2+(3)dMP2               0.83199972 [mEh]       0.52208771 [kcal/mol]       2.18441497 [kJ/mol]

  Special recipe for scaled SAPT0 (see Manual):
    Electrostatics sSAPT0         -65.85480546 [mEh]     -41.32451432 [kcal/mol]    -172.90176791 [kJ/mol]
    Exchange sSAPT0                99.76904970 [mEh]      62.60602387 [kcal/mol]     261.94360389 [kJ/mol]
    Induction sSAPT0              -24.83973301 [mEh]     -15.58716779 [kcal/mol]     -65.21671004 [kJ/mol]
    Dispersion sSAPT0             -14.44570692 [mEh]      -9.06481795 [kcal/mol]     -37.92719829 [kJ/mol]
  Total sSAPT0                     -5.37119570 [mEh]      -3.37047619 [kcal/mol]     -14.10207236 [kJ/mol]
  --------------------------------------------------------------------------------------------------------

*** tstop() called on bme-earth.bme.utexas.edu at Sun Apr 14 22:09:06 2024
Module time:
	user time   =     722.99 seconds =      12.05 minutes
	system time =       7.86 seconds =       0.13 minutes
	total time  =         93 seconds =       1.55 minutes
Total time:
	user time   =     775.79 seconds =      12.93 minutes
	system time =       8.61 seconds =       0.14 minutes
	total time  =        101 seconds =       1.68 minutes

    Psi4 stopped on: Sunday, 14 April 2024 10:09PM
    Psi4 wall time for execution: 0:01:40.76

*** Psi4 exiting successfully. Buy a developer a beer!
