
    -----------------------------------------------------------------------
          Psi4: An Open-Source Ab Initio Electronic Structure Package
                               Psi4 1.5 release

                         Git: Rev {HEAD} e9f4d6d 


    D. G. A. Smith, L. A. Burns, A. C. Simmonett, R. M. Parrish,
    M. C. Schieber, R. Galvelis, P. Kraus, H. Kruse, R. Di Remigio,
    A. Alenaizan, A. M. James, S. Lehtola, J. P. Misiewicz, M. Scheurer,
    R. A. Shaw, J. B. Schriber, Y. Xie, Z. L. Glick, D. A. Sirianni,
    J. S. O'Brien, J. M. Waldrop, A. Kumar, E. G. Hohenstein,
    B. P. Pritchard, B. R. Brooks, H. F. Schaefer III, A. Yu. Sokolov,
    K. Patkowski, A. E. DePrince III, U. Bozkaya, R. A. King,
    F. A. Evangelista, J. M. Turney, T. D. Crawford, C. D. Sherrill,
    J. Chem. Phys. 152(18) 184108 (2020). https://doi.org/10.1063/5.0006002

                            Additional Code Authors
    E. T. Seidl, C. L. Janssen, E. F. Valeev, M. L. Leininger,
    J. F. Gonthier, R. M. Richard, H. R. McAlexander, M. Saitow, X. Wang,
    P. Verma, M. H. Lechner, and A. Jiang

             Previous Authors, Complete List of Code Contributors,
                       and Citations for Specific Modules
    https://github.com/psi4/psi4/blob/master/codemeta.json
    https://github.com/psi4/psi4/graphs/contributors
    http://psicode.org/psi4manual/master/introduction.html#citing-psifour

    -----------------------------------------------------------------------


    Psi4 started on: Thursday, 28 March 2024 03:11AM

    Process ID: 1096644
    Host:       node45.bme.utexas.edu
    PSIDATADIR: /opt/anaconda/envs/psi4v1.5/share/psi4
    Memory:     500.0 MiB
    Threads:    8
    
  ==> Input File <==

--------------------------------------------------------------------------
memory 50GB

molecule {
0 1
H -3.46596 1.02777 -0.07316
N -2.69172 0.37445 -0.04513
C -2.75614 -0.99629 -0.04739
H -3.70221 -1.5221 -0.07948
N -1.5668 -1.58107 -0.00683
C -0.69073 -0.51519 0.02544
C 0.71946 -0.46536 0.05295
N 1.48253 -1.57835 0.12599
N 1.30813 0.74985 0.06098
C 0.52735 1.85589 0.03606
H 1.0664 2.80083 0.04072
N -0.80495 1.93879 0.00629
C -1.35787 0.71237 -0.00277
H 2.48448 -1.47022 -0.03844
H 1.03486 -2.46321 -0.07215
--
0 1
O 5.357551399999999 -0.1612072 -0.1765316
H 5.7815914 -0.05966719999999999 0.6899584
H 4.5953814 0.4605928 -0.14087159999999999
 units angstrom
 no_reorient
 symmetry c1} 
set  {scf_type DF
 basis aug-cc-pvtz
 freeze_core True
 guess SAD}
energy('sapt2+(3)dmp2')
--------------------------------------------------------------------------

  Memory set to  46.566 GiB by Python driver.

Scratch directory: /tmp/
   => Loading Basis Set <=

    Name: AUG-CC-PVTZ
    Role: ORBITAL
    Keyword: BASIS
    atoms 1, 4, 11, 14-15, 17-18 entry H          line    40 file /opt/anaconda/envs/psi4v1.5/share/psi4/basis/aug-cc-pvtz.gbs 
    atoms 2, 5, 8-9, 12          entry N          line   285 file /opt/anaconda/envs/psi4v1.5/share/psi4/basis/aug-cc-pvtz.gbs 
    atoms 3, 6-7, 10, 13         entry C          line   239 file /opt/anaconda/envs/psi4v1.5/share/psi4/basis/aug-cc-pvtz.gbs 
    atoms 16                     entry O          line   331 file /opt/anaconda/envs/psi4v1.5/share/psi4/basis/aug-cc-pvtz.gbs 

   => Loading Basis Set <=

    Name: AUG-CC-PVTZ
    Role: ORBITAL
    Keyword: BASIS
    atoms 1, 4, 11, 14-15, 17-18 entry H          line    40 file /opt/anaconda/envs/psi4v1.5/share/psi4/basis/aug-cc-pvtz.gbs 
    atoms 2, 5, 8-9, 12          entry N          line   285 file /opt/anaconda/envs/psi4v1.5/share/psi4/basis/aug-cc-pvtz.gbs 
    atoms 3, 6-7, 10, 13         entry C          line   239 file /opt/anaconda/envs/psi4v1.5/share/psi4/basis/aug-cc-pvtz.gbs 
    atoms 16                     entry O          line   331 file /opt/anaconda/envs/psi4v1.5/share/psi4/basis/aug-cc-pvtz.gbs 


  //>>>>>>>>>>>>>>>>>>>>>>>>>>>>>>>>>>>//
  //              Dimer HF             //
  //<<<<<<<<<<<<<<<<<<<<<<<<<<<<<<<<<<<//


*** tstart() called on node45.bme.utexas.edu
*** at Thu Mar 28 03:11:16 2024

   => Loading Basis Set <=

    Name: AUG-CC-PVTZ
    Role: ORBITAL
    Keyword: BASIS
    atoms 1, 4, 11, 14-15, 17-18 entry H          line    40 file /opt/anaconda/envs/psi4v1.5/share/psi4/basis/aug-cc-pvtz.gbs 
    atoms 2, 5, 8-9, 12          entry N          line   285 file /opt/anaconda/envs/psi4v1.5/share/psi4/basis/aug-cc-pvtz.gbs 
    atoms 3, 6-7, 10, 13         entry C          line   239 file /opt/anaconda/envs/psi4v1.5/share/psi4/basis/aug-cc-pvtz.gbs 
    atoms 16                     entry O          line   331 file /opt/anaconda/envs/psi4v1.5/share/psi4/basis/aug-cc-pvtz.gbs 


         ---------------------------------------------------------
                                   SCF
               by Justin Turney, Rob Parrish, Andy Simmonett
                          and Daniel G. A. Smith
                              RHF Reference
                        8 Threads,  47683 MiB Core
         ---------------------------------------------------------

  ==> Geometry <==

    Molecular point group: c1
    Full point group: C1

    Geometry (in Angstrom), charge = 0, multiplicity = 1:

       Center              X                  Y                   Z               Mass       
    ------------   -----------------  -----------------  -----------------  -----------------
         H           -3.590270707813     1.015134650307    -0.074830131390     1.007825032230
         N           -2.816030707813     0.361814650307    -0.046800131390    14.003074004430
         C           -2.880450707813    -1.008925349693    -0.049060131390    12.000000000000
         H           -3.826520707813    -1.534735349693    -0.081150131390     1.007825032230
         N           -1.691110707813    -1.593705349693    -0.008500131390    14.003074004430
         C           -0.815040707813    -0.527825349693     0.023769868610    12.000000000000
         C            0.595149292187    -0.477995349693     0.051279868610    12.000000000000
         N            1.358219292187    -1.590985349693     0.124319868610    14.003074004430
         N            1.183819292187     0.737214650307     0.059309868610    14.003074004430
         C            0.403039292187     1.843254650307     0.034389868610    12.000000000000
         H            0.942089292187     2.788194650307     0.039049868610     1.007825032230
         N           -0.929260707813     1.926154650307     0.004619868610    14.003074004430
         C           -1.482180707813     0.699734650307    -0.004440131390    12.000000000000
         H            2.360169292187    -1.482855349693    -0.040110131390     1.007825032230
         H            0.910549292187    -2.475845349693    -0.073820131390     1.007825032230
         O            5.233240692187    -0.173842549693    -0.178201731390    15.994914619570
         H            5.657280692187    -0.072302549693     0.688288268610     1.007825032230
         H            4.471070692187     0.447957450307    -0.142541731390     1.007825032230

  Running in c1 symmetry.

  Rotational constants: A =      0.07695  B =      0.01925  C =      0.01544 [cm^-1]
  Rotational constants: A =   2306.86872  B =    577.12304  C =    462.80785 [MHz]
  Nuclear repulsion =  576.155745172543106

  Charge       = 0
  Multiplicity = 1
  Electrons    = 80
  Nalpha       = 40
  Nbeta        = 40

  ==> Algorithm <==

  SCF Algorithm Type is DF.
  DIIS enabled.
  MOM disabled.
  Fractional occupation disabled.
  Guess Type is SAD.
  Energy threshold   = 1.00e-08
  Density threshold  = 1.00e-08
  Integral threshold = 1.00e-12

  ==> Primary Basis <==

  Basis Set: AUG-CC-PVTZ
    Blend: AUG-CC-PVTZ
    Number of shells: 217
    Number of basis functions: 667
    Number of Cartesian functions: 780
    Spherical Harmonics?: true
    Max angular momentum: 3

   => Loading Basis Set <=

    Name: (AUG-CC-PVTZ AUX)
    Role: JKFIT
    Keyword: DF_BASIS_SCF
    atoms 1, 4, 11, 14-15, 17-18 entry H          line    70 file /opt/anaconda/envs/psi4v1.5/share/psi4/basis/aug-cc-pvtz-jkfit.gbs 
    atoms 2, 5, 8-9, 12          entry N          line   224 file /opt/anaconda/envs/psi4v1.5/share/psi4/basis/aug-cc-pvtz-jkfit.gbs 
    atoms 3, 6-7, 10, 13         entry C          line   162 file /opt/anaconda/envs/psi4v1.5/share/psi4/basis/aug-cc-pvtz-jkfit.gbs 
    atoms 16                     entry O          line   286 file /opt/anaconda/envs/psi4v1.5/share/psi4/basis/aug-cc-pvtz-jkfit.gbs 

  ==> Integral Setup <==

  ==> DiskDFJK: Density-Fitted J/K Matrices <==

    J tasked:                  Yes
    K tasked:                  Yes
    wK tasked:                  No
    OpenMP threads:              8
    Integrals threads:           8
    Memory [MiB]:            35762
    Algorithm:                Core
    Integral Cache:           SAVE
    Schwarz Cutoff:          1E-12
    Fitting Condition:       1E-10

   => Auxiliary Basis Set <=

  Basis Set: (AUG-CC-PVTZ AUX)
    Blend: AUG-CC-PVTZ-JKFIT
    Number of shells: 428
    Number of basis functions: 1466
    Number of Cartesian functions: 1826
    Spherical Harmonics?: true
    Max angular momentum: 4

  Minimum eigenvalue in the overlap matrix is 1.5165242174E-06.
  Reciprocal condition number of the overlap matrix is 8.8425172906E-08.
    Using symmetric orthogonalization.

  ==> Pre-Iterations <==

  SCF Guess: Superposition of Atomic Densities via on-the-fly atomic UHF (no occupation information).

   -------------------------
    Irrep   Nso     Nmo    
   -------------------------
     A        667     667 
   -------------------------
    Total     667     667
   -------------------------

  ==> Iterations <==

                           Total Energy        Delta E     RMS |[F,P]|

   @DF-RHF iter SAD:  -539.92366784331489   -5.39924e+02   0.00000e+00 
   @DF-RHF iter   1:  -540.42550531586198   -5.01837e-01   1.21465e-03 DIIS
   @DF-RHF iter   2:  -540.66476898760629   -2.39264e-01   6.84785e-04 DIIS
   @DF-RHF iter   3:  -540.73938409851110   -7.46151e-02   1.15515e-04 DIIS
   @DF-RHF iter   4:  -540.74304148528063   -3.65739e-03   5.20104e-05 DIIS
   @DF-RHF iter   5:  -540.74367117019187   -6.29685e-04   1.29651e-05 DIIS
   @DF-RHF iter   6:  -540.74373848918322   -6.73190e-05   5.95632e-06 DIIS
   @DF-RHF iter   7:  -540.74375611571190   -1.76265e-05   2.14768e-06 DIIS
   @DF-RHF iter   8:  -540.74375978987166   -3.67416e-06   8.24064e-07 DIIS
   @DF-RHF iter   9:  -540.74376037164893   -5.81777e-07   4.38416e-07 DIIS
   @DF-RHF iter  10:  -540.74376051061211   -1.38963e-07   1.68745e-07 DIIS
   @DF-RHF iter  11:  -540.74376054093705   -3.03249e-08   7.25270e-08 DIIS
   @DF-RHF iter  12:  -540.74376054565619   -4.71914e-09   2.83344e-08 DIIS
   @DF-RHF iter  13:  -540.74376054637423   -7.18046e-10   8.80611e-09 DIIS
  Energy and wave function converged.


  ==> Post-Iterations <==

    Orbital Energies [Eh]
    ---------------------

    Doubly Occupied:                                                      

       1A    -20.566603     2A    -15.637349     3A    -15.588373  
       4A    -15.573710     5A    -15.563124     6A    -15.556763  
       7A    -11.341998     8A    -11.329002     9A    -11.321489  
      10A    -11.316260    11A    -11.256123    12A     -1.369367  
      13A     -1.340139    14A     -1.299389    15A     -1.248962  
      16A     -1.188442    17A     -1.152901    18A     -1.034864  
      19A     -0.896425    20A     -0.877944    21A     -0.848786  
      22A     -0.779594    23A     -0.738412    24A     -0.702207  
      25A     -0.700193    26A     -0.677018    27A     -0.641305  
      28A     -0.635264    29A     -0.613753    30A     -0.593857  
      31A     -0.578987    32A     -0.560223    33A     -0.505701  
      34A     -0.500950    35A     -0.499734    36A     -0.455515  
      37A     -0.427922    38A     -0.414205    39A     -0.376297  
      40A     -0.311498  

    Virtual:                                                              

      41A      0.020541    42A      0.030397    43A      0.035226  
      44A      0.045038    45A      0.045571    46A      0.063207  
      47A      0.068860    48A      0.074209    49A      0.081691  
      50A      0.083031    51A      0.092654    52A      0.100469  
      53A      0.104145    54A      0.108725    55A      0.111370  
      56A      0.116413    57A      0.120476    58A      0.125216  
      59A      0.127140    60A      0.131733    61A      0.134593  
      62A      0.138290    63A      0.142758    64A      0.153707  
      65A      0.159281    66A      0.160505    67A      0.165437  
      68A      0.167857    69A      0.181364    70A      0.181948  
      71A      0.188945    72A      0.194113    73A      0.195326  
      74A      0.202034    75A      0.206715    76A      0.209828  
      77A      0.214410    78A      0.219583    79A      0.221653  
      80A      0.228230    81A      0.229638    82A      0.233051  
      83A      0.237724    84A      0.243403    85A      0.251441  
      86A      0.255520    87A      0.262921    88A      0.270133  
      89A      0.273808    90A      0.283980    91A      0.289203  
      92A      0.293248    93A      0.301595    94A      0.304921  
      95A      0.313370    96A      0.318420    97A      0.321824  
      98A      0.329468    99A      0.334138   100A      0.336745  
     101A      0.341863   102A      0.343443   103A      0.345057  
     104A      0.351691   105A      0.362215   106A      0.371735  
     107A      0.372455   108A      0.383352   109A      0.388054  
     110A      0.388519   111A      0.395219   112A      0.398088  
     113A      0.408086   114A      0.418136   115A      0.421450  
     116A      0.424354   117A      0.427991   118A      0.434782  
     119A      0.441391   120A      0.448402   121A      0.450076  
     122A      0.455805   123A      0.457634   124A      0.458720  
     125A      0.464048   126A      0.468893   127A      0.475349  
     128A      0.477193   129A      0.485180   130A      0.493050  
     131A      0.494206   132A      0.503921   133A      0.506270  
     134A      0.510405   135A      0.516331   136A      0.522429  
     137A      0.524497   138A      0.529295   139A      0.534897  
     140A      0.545668   141A      0.548726   142A      0.554031  
     143A      0.560914   144A      0.575289   145A      0.584408  
     146A      0.595662   147A      0.597674   148A      0.602722  
     149A      0.607455   150A      0.625378   151A      0.630605  
     152A      0.633929   153A      0.644460   154A      0.647576  
     155A      0.651184   156A      0.659402   157A      0.665519  
     158A      0.668797   159A      0.674344   160A      0.674735  
     161A      0.681921   162A      0.682852   163A      0.694147  
     164A      0.707591   165A      0.712036   166A      0.718894  
     167A      0.729726   168A      0.736289   169A      0.740174  
     170A      0.750334   171A      0.753261   172A      0.757748  
     173A      0.759959   174A      0.763659   175A      0.780475  
     176A      0.784536   177A      0.789882   178A      0.800612  
     179A      0.803310   180A      0.812481   181A      0.815459  
     182A      0.821987   183A      0.825264   184A      0.831904  
     185A      0.834450   186A      0.843831   187A      0.851334  
     188A      0.858302   189A      0.869316   190A      0.875235  
     191A      0.878155   192A      0.889689   193A      0.899738  
     194A      0.900429   195A      0.903701   196A      0.910588  
     197A      0.924333   198A      0.926773   199A      0.928653  
     200A      0.938753   201A      0.945636   202A      0.948777  
     203A      0.951468   204A      0.962067   205A      0.964329  
     206A      0.970877   207A      0.973710   208A      0.978038  
     209A      0.983196   210A      0.985633   211A      0.989398  
     212A      1.003201   213A      1.007486   214A      1.019203  
     215A      1.021719   216A      1.023403   217A      1.028428  
     218A      1.038320   219A      1.041908   220A      1.046659  
     221A      1.047521   222A      1.053833   223A      1.058076  
     224A      1.078636   225A      1.082297   226A      1.083439  
     227A      1.088581   228A      1.098783   229A      1.105047  
     230A      1.108198   231A      1.116066   232A      1.120627  
     233A      1.123719   234A      1.130394   235A      1.134795  
     236A      1.140161   237A      1.146286   238A      1.155081  
     239A      1.166155   240A      1.175753   241A      1.177616  
     242A      1.181245   243A      1.187101   244A      1.210105  
     245A      1.213298   246A      1.223786   247A      1.227465  
     248A      1.228578   249A      1.237295   250A      1.245300  
     251A      1.250886   252A      1.260977   253A      1.264811  
     254A      1.275168   255A      1.285368   256A      1.296777  
     257A      1.305150   258A      1.312478   259A      1.315444  
     260A      1.320235   261A      1.327640   262A      1.332227  
     263A      1.336803   264A      1.344978   265A      1.356893  
     266A      1.366684   267A      1.369529   268A      1.382128  
     269A      1.387178   270A      1.400837   271A      1.407485  
     272A      1.420593   273A      1.430982   274A      1.437888  
     275A      1.445215   276A      1.454763   277A      1.478745  
     278A      1.482241   279A      1.486000   280A      1.492165  
     281A      1.497912   282A      1.507181   283A      1.512191  
     284A      1.518999   285A      1.537846   286A      1.541291  
     287A      1.555352   288A      1.565692   289A      1.573371  
     290A      1.574918   291A      1.585387   292A      1.594295  
     293A      1.597989   294A      1.605645   295A      1.623797  
     296A      1.627959   297A      1.642088   298A      1.642649  
     299A      1.647219   300A      1.673186   301A      1.677505  
     302A      1.681508   303A      1.694143   304A      1.696096  
     305A      1.711611   306A      1.721778   307A      1.728741  
     308A      1.750104   309A      1.753882   310A      1.769043  
     311A      1.774038   312A      1.784133   313A      1.802050  
     314A      1.803859   315A      1.818036   316A      1.829690  
     317A      1.839016   318A      1.848669   319A      1.859875  
     320A      1.882009   321A      1.893999   322A      1.905430  
     323A      1.923338   324A      1.934364   325A      1.935886  
     326A      1.941685   327A      1.953802   328A      1.967881  
     329A      1.991215   330A      1.998934   331A      2.014500  
     332A      2.018101   333A      2.030271   334A      2.036632  
     335A      2.053887   336A      2.066048   337A      2.077238  
     338A      2.085276   339A      2.097328   340A      2.100912  
     341A      2.119981   342A      2.130960   343A      2.138940  
     344A      2.146952   345A      2.167864   346A      2.179994  
     347A      2.187610   348A      2.190643   349A      2.203009  
     350A      2.210782   351A      2.213712   352A      2.228288  
     353A      2.255217   354A      2.257172   355A      2.264406  
     356A      2.278307   357A      2.282465   358A      2.294101  
     359A      2.309478   360A      2.314179   361A      2.326098  
     362A      2.336014   363A      2.350860   364A      2.353641  
     365A      2.372514   366A      2.374309   367A      2.387959  
     368A      2.396147   369A      2.398198   370A      2.408968  
     371A      2.421004   372A      2.429640   373A      2.438205  
     374A      2.441852   375A      2.448416   376A      2.459777  
     377A      2.468799   378A      2.473045   379A      2.480929  
     380A      2.498913   381A      2.513446   382A      2.532991  
     383A      2.540106   384A      2.557839   385A      2.563372  
     386A      2.574486   387A      2.587535   388A      2.602087  
     389A      2.610149   390A      2.627465   391A      2.635045  
     392A      2.656988   393A      2.660467   394A      2.669549  
     395A      2.675950   396A      2.698150   397A      2.718793  
     398A      2.729439   399A      2.733830   400A      2.764088  
     401A      2.765993   402A      2.791190   403A      2.795647  
     404A      2.809074   405A      2.823603   406A      2.831548  
     407A      2.842669   408A      2.854280   409A      2.859819  
     410A      2.877917   411A      2.897240   412A      2.943744  
     413A      2.982230   414A      2.995923   415A      3.012885  
     416A      3.043517   417A      3.077171   418A      3.092747  
     419A      3.119373   420A      3.132486   421A      3.160866  
     422A      3.179234   423A      3.199562   424A      3.224919  
     425A      3.227439   426A      3.267230   427A      3.310918  
     428A      3.354464   429A      3.356834   430A      3.404337  
     431A      3.415453   432A      3.441185   433A      3.456504  
     434A      3.460339   435A      3.489537   436A      3.513784  
     437A      3.518364   438A      3.523786   439A      3.536004  
     440A      3.553959   441A      3.567984   442A      3.588609  
     443A      3.612827   444A      3.621490   445A      3.635114  
     446A      3.649830   447A      3.674268   448A      3.684418  
     449A      3.701966   450A      3.715323   451A      3.724698  
     452A      3.733789   453A      3.757341   454A      3.765375  
     455A      3.778343   456A      3.784239   457A      3.801363  
     458A      3.802072   459A      3.834522   460A      3.839756  
     461A      3.859652   462A      3.869014   463A      3.894410  
     464A      3.902353   465A      3.908206   466A      3.930037  
     467A      3.943021   468A      3.948366   469A      3.953929  
     470A      3.968029   471A      3.997141   472A      4.009903  
     473A      4.012801   474A      4.021750   475A      4.050625  
     476A      4.056094   477A      4.069827   478A      4.075283  
     479A      4.095546   480A      4.110197   481A      4.139011  
     482A      4.155714   483A      4.159687   484A      4.172045  
     485A      4.188985   486A      4.191379   487A      4.200105  
     488A      4.211955   489A      4.222354   490A      4.224154  
     491A      4.237442   492A      4.243439   493A      4.246943  
     494A      4.256880   495A      4.267737   496A      4.281898  
     497A      4.292954   498A      4.308780   499A      4.314883  
     500A      4.328883   501A      4.333410   502A      4.352249  
     503A      4.355913   504A      4.374265   505A      4.379672  
     506A      4.388377   507A      4.410788   508A      4.421413  
     509A      4.423671   510A      4.433828   511A      4.449772  
     512A      4.456305   513A      4.476572   514A      4.487865  
     515A      4.489393   516A      4.511701   517A      4.529104  
     518A      4.536699   519A      4.558344   520A      4.565159  
     521A      4.580730   522A      4.605008   523A      4.619383  
     524A      4.638707   525A      4.642654   526A      4.680739  
     527A      4.686940   528A      4.717521   529A      4.767937  
     530A      4.783011   531A      4.792696   532A      4.798927  
     533A      4.805400   534A      4.813165   535A      4.852342  
     536A      4.861257   537A      4.867702   538A      4.889122  
     539A      4.911117   540A      4.924084   541A      4.927494  
     542A      4.949456   543A      4.979322   544A      5.019980  
     545A      5.026957   546A      5.075166   547A      5.096722  
     548A      5.102178   549A      5.114414   550A      5.129536  
     551A      5.136480   552A      5.149694   553A      5.153845  
     554A      5.163284   555A      5.220638   556A      5.234508  
     557A      5.262694   558A      5.272910   559A      5.288569  
     560A      5.293570   561A      5.305309   562A      5.317105  
     563A      5.331426   564A      5.342269   565A      5.361094  
     566A      5.375399   567A      5.405547   568A      5.434007  
     569A      5.453622   570A      5.459605   571A      5.483217  
     572A      5.501941   573A      5.511726   574A      5.526977  
     575A      5.536611   576A      5.553637   577A      5.576470  
     578A      5.600005   579A      5.612858   580A      5.625700  
     581A      5.631015   582A      5.653633   583A      5.657087  
     584A      5.668089   585A      5.680090   586A      5.689940  
     587A      5.701710   588A      5.708440   589A      5.734960  
     590A      5.748550   591A      5.759441   592A      5.790414  
     593A      5.817815   594A      5.820418   595A      5.853560  
     596A      5.887763   597A      5.900171   598A      5.916781  
     599A      5.928355   600A      5.933995   601A      5.962697  
     602A      5.974575   603A      5.996335   604A      6.016817  
     605A      6.063162   606A      6.074012   607A      6.125726  
     608A      6.139637   609A      6.158573   610A      6.176062  
     611A      6.197820   612A      6.201230   613A      6.216315  
     614A      6.268831   615A      6.290491   616A      6.306628  
     617A      6.398350   618A      6.436935   619A      6.483567  
     620A      6.521851   621A      6.538502   622A      6.563886  
     623A      6.587269   624A      6.616477   625A      6.674832  
     626A      6.704687   627A      6.725188   628A      6.744866  
     629A      6.752569   630A      6.783078   631A      6.837739  
     632A      6.884564   633A      6.911374   634A      6.967517  
     635A      7.026639   636A      7.037306   637A      7.064626  
     638A      7.102661   639A      7.139725   640A      7.166849  
     641A      7.278523   642A      7.283097   643A      7.293864  
     644A      7.324172   645A      7.365474   646A      7.380651  
     647A      7.425322   648A      7.429281   649A      7.489093  
     650A      7.578230   651A      7.615421   652A      7.764546  
     653A      7.859084   654A      7.894474   655A      7.930956  
     656A      8.760425   657A     15.433363   658A     16.047920  
     659A     16.182734   660A     16.287083   661A     17.691090  
     662A     18.012888   663A     18.840937   664A     19.166164  
     665A     19.230652   666A     19.850058   667A     20.860160  

    Final Occupation by Irrep:
              A 
    DOCC [    40 ]

  @DF-RHF Final Energy:  -540.74376054637423

   => Energetics <=

    Nuclear Repulsion Energy =            576.1557451725431065
    One-Electron Energy =               -1879.7577202900865814
    Two-Electron Energy =                 762.8582145711693556
    Total Energy =                       -540.7437605463742329

Computation Completed


Properties will be evaluated at   0.000000,   0.000000,   0.000000 [a0]

Properties computed using the SCF density matrix

  Nuclear Dipole Moment: [e a0]
     X:     6.5249      Y:    -1.2326      Z:     0.2940

  Electronic Dipole Moment: [e a0]
     X:    -7.6816      Y:     1.2032      Z:     0.0348

  Dipole Moment: [e a0]
     X:    -1.1567      Y:    -0.0294      Z:     0.3287     Total:     1.2028

  Dipole Moment: [D]
     X:    -2.9399      Y:    -0.0747      Z:     0.8356     Total:     3.0573


*** tstop() called on node45.bme.utexas.edu at Thu Mar 28 03:12:34 2024
Module time:
	user time   =     568.98 seconds =       9.48 minutes
	system time =       8.35 seconds =       0.14 minutes
	total time  =         78 seconds =       1.30 minutes
Total time:
	user time   =     568.98 seconds =       9.48 minutes
	system time =       8.35 seconds =       0.14 minutes
	total time  =         78 seconds =       1.30 minutes

*** tstart() called on node45.bme.utexas.edu
*** at Thu Mar 28 03:12:34 2024


  //>>>>>>>>>>>>>>>>>>>>>>>>>>>>>>>>>>>//
  //               DFMP2               //
  //<<<<<<<<<<<<<<<<<<<<<<<<<<<<<<<<<<<//

   => Loading Basis Set <=

    Name: (AUG-CC-PVTZ AUX)
    Role: RIFIT
    Keyword: DF_BASIS_MP2
    atoms 1, 4, 11, 14-15, 17-18 entry H          line    30 file /opt/anaconda/envs/psi4v1.5/share/psi4/basis/aug-cc-pvtz-ri.gbs 
    atoms 2, 5, 8-9, 12          entry N          line   206 file /opt/anaconda/envs/psi4v1.5/share/psi4/basis/aug-cc-pvtz-ri.gbs 
    atoms 3, 6-7, 10, 13         entry C          line   148 file /opt/anaconda/envs/psi4v1.5/share/psi4/basis/aug-cc-pvtz-ri.gbs 
    atoms 16                     entry O          line   264 file /opt/anaconda/envs/psi4v1.5/share/psi4/basis/aug-cc-pvtz-ri.gbs 

	 --------------------------------------------------------
	                          DF-MP2                         
	      2nd-Order Density-Fitted Moller-Plesset Theory     
	              RMP2 Wavefunction,   8 Threads             
	                                                         
	        Rob Parrish, Justin Turney, Andy Simmonett,      
	           Ed Hohenstein, and C. David Sherrill          
	 --------------------------------------------------------

   => Auxiliary Basis Set <=

  Basis Set: (AUG-CC-PVTZ AUX)
    Blend: AUG-CC-PVTZ-RI
    Number of shells: 406
    Number of basis functions: 1488
    Number of Cartesian functions: 1881
    Spherical Harmonics?: true
    Max angular momentum: 4

	 --------------------------------------------------------
	                 NBF =   667, NAUX =  1488
	 --------------------------------------------------------
	   CLASS    FOCC     OCC    AOCC    AVIR     VIR    FVIR
	   PAIRS      11      40      29     627     627       0
	 --------------------------------------------------------

	 Will save fitting metric to file 97.

	-----------------------------------------------------------
	 ==================> DF-MP2 Energies <==================== 
	-----------------------------------------------------------
	 Reference Energy          =    -540.7437605463742329 [Eh]
	 Singles Energy            =      -0.0000000000000000 [Eh]
	 Same-Spin Energy          =      -0.5447471792992512 [Eh]
	 Opposite-Spin Energy      =      -1.5291087325656463 [Eh]
	 Correlation Energy        =      -2.0738559118648974 [Eh]
	 Total Energy              =    -542.8176164582391721 [Eh]
	-----------------------------------------------------------
	 ================> DF-SCS-MP2 Energies <================== 
	-----------------------------------------------------------
	 SCS Same-Spin Scale       =       0.3333333333333333 [-]
	 SCS Opposite-Spin Scale   =       1.2000000000000000 [-]
	 SCS Same-Spin Energy      =      -0.1815823930997504 [Eh]
	 SCS Opposite-Spin Energy  =      -1.8349304790787755 [Eh]
	 SCS Correlation Energy    =      -2.0165128721785259 [Eh]
	 SCS Total Energy          =    -542.7602734185527424 [Eh]
	-----------------------------------------------------------


*** tstop() called on node45.bme.utexas.edu at Thu Mar 28 03:12:56 2024
Module time:
	user time   =     126.71 seconds =       2.11 minutes
	system time =       2.76 seconds =       0.05 minutes
	total time  =         22 seconds =       0.37 minutes
Total time:
	user time   =     695.71 seconds =      11.60 minutes
	system time =      11.12 seconds =       0.19 minutes
	total time  =        100 seconds =       1.67 minutes

  //>>>>>>>>>>>>>>>>>>>>>>>>>>>>>>>>>>>//
  //            Monomer A HF           //
  //<<<<<<<<<<<<<<<<<<<<<<<<<<<<<<<<<<<//


*** tstart() called on node45.bme.utexas.edu
*** at Thu Mar 28 03:12:56 2024

   => Loading Basis Set <=

    Name: AUG-CC-PVTZ
    Role: ORBITAL
    Keyword: BASIS
    atoms 1, 4, 11, 14-15, 17-18 entry H          line    40 file /opt/anaconda/envs/psi4v1.5/share/psi4/basis/aug-cc-pvtz.gbs 
    atoms 2, 5, 8-9, 12          entry N          line   285 file /opt/anaconda/envs/psi4v1.5/share/psi4/basis/aug-cc-pvtz.gbs 
    atoms 3, 6-7, 10, 13         entry C          line   239 file /opt/anaconda/envs/psi4v1.5/share/psi4/basis/aug-cc-pvtz.gbs 
    atoms 16                     entry O          line   331 file /opt/anaconda/envs/psi4v1.5/share/psi4/basis/aug-cc-pvtz.gbs 


         ---------------------------------------------------------
                                   SCF
               by Justin Turney, Rob Parrish, Andy Simmonett
                          and Daniel G. A. Smith
                              RHF Reference
                        8 Threads,  47683 MiB Core
         ---------------------------------------------------------

  ==> Geometry <==

    Molecular point group: c1
    Full point group: C1

    Geometry (in Angstrom), charge = 0, multiplicity = 1:

       Center              X                  Y                   Z               Mass       
    ------------   -----------------  -----------------  -----------------  -----------------
         H           -3.590270707813     1.015134650307    -0.074830131390     1.007825032230
         N           -2.816030707813     0.361814650307    -0.046800131390    14.003074004430
         C           -2.880450707813    -1.008925349693    -0.049060131390    12.000000000000
         H           -3.826520707813    -1.534735349693    -0.081150131390     1.007825032230
         N           -1.691110707813    -1.593705349693    -0.008500131390    14.003074004430
         C           -0.815040707813    -0.527825349693     0.023769868610    12.000000000000
         C            0.595149292187    -0.477995349693     0.051279868610    12.000000000000
         N            1.358219292187    -1.590985349693     0.124319868610    14.003074004430
         N            1.183819292187     0.737214650307     0.059309868610    14.003074004430
         C            0.403039292187     1.843254650307     0.034389868610    12.000000000000
         H            0.942089292187     2.788194650307     0.039049868610     1.007825032230
         N           -0.929260707813     1.926154650307     0.004619868610    14.003074004430
         C           -1.482180707813     0.699734650307    -0.004440131390    12.000000000000
         H            2.360169292187    -1.482855349693    -0.040110131390     1.007825032230
         H            0.910549292187    -2.475845349693    -0.073820131390     1.007825032230
      Gh(O)           5.233240692187    -0.173842549693    -0.178201731390    15.994914619570
      Gh(H)           5.657280692187    -0.072302549693     0.688288268610     1.007825032230
      Gh(H)           4.471070692187     0.447957450307    -0.142541731390     1.007825032230

  Running in c1 symmetry.

  Rotational constants: A =      0.07695  B =      0.01925  C =      0.01544 [cm^-1]
  Rotational constants: A =   2306.86872  B =    577.12304  C =    462.80785 [MHz]
  Nuclear repulsion =  501.638371265567116

  Charge       = 0
  Multiplicity = 1
  Electrons    = 70
  Nalpha       = 35
  Nbeta        = 35

  ==> Algorithm <==

  SCF Algorithm Type is DF.
  DIIS enabled.
  MOM disabled.
  Fractional occupation disabled.
  Guess Type is SAD.
  Energy threshold   = 1.00e-08
  Density threshold  = 1.00e-08
  Integral threshold = 1.00e-12

  ==> Primary Basis <==

  Basis Set: AUG-CC-PVTZ
    Blend: AUG-CC-PVTZ
    Number of shells: 217
    Number of basis functions: 667
    Number of Cartesian functions: 780
    Spherical Harmonics?: true
    Max angular momentum: 3

   => Loading Basis Set <=

    Name: (AUG-CC-PVTZ AUX)
    Role: JKFIT
    Keyword: DF_BASIS_SCF
    atoms 1, 4, 11, 14-15, 17-18 entry H          line    70 file /opt/anaconda/envs/psi4v1.5/share/psi4/basis/aug-cc-pvtz-jkfit.gbs 
    atoms 2, 5, 8-9, 12          entry N          line   224 file /opt/anaconda/envs/psi4v1.5/share/psi4/basis/aug-cc-pvtz-jkfit.gbs 
    atoms 3, 6-7, 10, 13         entry C          line   162 file /opt/anaconda/envs/psi4v1.5/share/psi4/basis/aug-cc-pvtz-jkfit.gbs 
    atoms 16                     entry O          line   286 file /opt/anaconda/envs/psi4v1.5/share/psi4/basis/aug-cc-pvtz-jkfit.gbs 

  ==> Integral Setup <==

  ==> DiskDFJK: Density-Fitted J/K Matrices <==

    J tasked:                  Yes
    K tasked:                  Yes
    wK tasked:                  No
    OpenMP threads:              8
    Integrals threads:           8
    Memory [MiB]:            35762
    Algorithm:                Core
    Integral Cache:           LOAD
    Schwarz Cutoff:          1E-12
    Fitting Condition:       1E-10

   => Auxiliary Basis Set <=

  Basis Set: (AUG-CC-PVTZ AUX)
    Blend: AUG-CC-PVTZ-JKFIT
    Number of shells: 428
    Number of basis functions: 1466
    Number of Cartesian functions: 1826
    Spherical Harmonics?: true
    Max angular momentum: 4

  Minimum eigenvalue in the overlap matrix is 1.5165242174E-06.
  Reciprocal condition number of the overlap matrix is 8.8425172906E-08.
    Using symmetric orthogonalization.

  ==> Pre-Iterations <==

  SCF Guess: Superposition of Atomic Densities via on-the-fly atomic UHF (no occupation information).

   -------------------------
    Irrep   Nso     Nmo    
   -------------------------
     A        667     667 
   -------------------------
    Total     667     667
   -------------------------

  ==> Iterations <==

                           Total Energy        Delta E     RMS |[F,P]|

   @DF-RHF iter SAD:  -464.45164505977385   -4.64452e+02   0.00000e+00 
   @DF-RHF iter   1:  -464.44360416918960    8.04089e-03   1.00136e-03 DIIS
   @DF-RHF iter   2:  -464.63355884863262   -1.89955e-01   4.93609e-04 DIIS
   @DF-RHF iter   3:  -464.67713386954921   -4.35750e-02   1.13614e-04 DIIS
   @DF-RHF iter   4:  -464.68043651042916   -3.30264e-03   5.34892e-05 DIIS
   @DF-RHF iter   5:  -464.68109717301991   -6.60663e-04   1.05801e-05 DIIS
   @DF-RHF iter   6:  -464.68115237547488   -5.52025e-05   5.05672e-06 DIIS
   @DF-RHF iter   7:  -464.68116659859982   -1.42231e-05   2.04977e-06 DIIS
   @DF-RHF iter   8:  -464.68116976645229   -3.16785e-06   7.59678e-07 DIIS
   @DF-RHF iter   9:  -464.68117024534035   -4.78888e-07   4.06368e-07 DIIS
   @DF-RHF iter  10:  -464.68117036763903   -1.22299e-07   1.51875e-07 DIIS
   @DF-RHF iter  11:  -464.68117039350443   -2.58654e-08   6.34385e-08 DIIS
   @DF-RHF iter  12:  -464.68117039722722   -3.72279e-09   2.50917e-08 DIIS
   @DF-RHF iter  13:  -464.68117039775882   -5.31600e-10   8.55101e-09 DIIS
  Energy and wave function converged.


  ==> Post-Iterations <==

    Orbital Energies [Eh]
    ---------------------

    Doubly Occupied:                                                      

       1A    -15.635228     2A    -15.587996     3A    -15.571858  
       4A    -15.559940     5A    -15.551859     6A    -11.339052  
       7A    -11.327116     8A    -11.318824     9A    -11.312105  
      10A    -11.253733    11A     -1.367121    12A     -1.296289  
      13A     -1.246868    14A     -1.186583    15A     -1.149596  
      16A     -1.032330    17A     -0.893855    18A     -0.874903  
      19A     -0.846676    20A     -0.777303    21A     -0.736655  
      22A     -0.698694    23A     -0.674660    24A     -0.638948  
      25A     -0.632953    26A     -0.611631    27A     -0.590586  
      28A     -0.557546    29A     -0.498568    30A     -0.497033  
      31A     -0.451645    32A     -0.426307    33A     -0.410056  
      34A     -0.372439    35A     -0.309366  

    Virtual:                                                              

      36A      0.021253    37A      0.028363    38A      0.035850  
      39A      0.045096    40A      0.046444    41A      0.060076  
      42A      0.067676    43A      0.071734    44A      0.083395  
      45A      0.084743    46A      0.090606    47A      0.100071  
      48A      0.103702    49A      0.108699    50A      0.112070  
      51A      0.115429    52A      0.119026    53A      0.125420  
      54A      0.128326    55A      0.131354    56A      0.135785  
      57A      0.138627    58A      0.143993    59A      0.146432  
      60A      0.154207    61A      0.160585    62A      0.162998  
      63A      0.166158    64A      0.171899    65A      0.182743  
      66A      0.185172    67A      0.190128    68A      0.194526  
      69A      0.196333    70A      0.203165    71A      0.207679  
      72A      0.215780    73A      0.218825    74A      0.226018  
      75A      0.226392    76A      0.231203    77A      0.233375  
      78A      0.236208    79A      0.243886    80A      0.249639  
      81A      0.259228    82A      0.265265    83A      0.274661  
      84A      0.276901    85A      0.283654    86A      0.290820  
      87A      0.298284    88A      0.306482    89A      0.307905  
      90A      0.315992    91A      0.321090    92A      0.328449  
      93A      0.332001    94A      0.336904    95A      0.337812  
      96A      0.340230    97A      0.346245    98A      0.349553  
      99A      0.356304   100A      0.364121   101A      0.368148  
     102A      0.375332   103A      0.378407   104A      0.382912  
     105A      0.389521   106A      0.390475   107A      0.400727  
     108A      0.403692   109A      0.410227   110A      0.420600  
     111A      0.426308   112A      0.429011   113A      0.435252  
     114A      0.439612   115A      0.442611   116A      0.446731  
     117A      0.450990   118A      0.456751   119A      0.461064  
     120A      0.467103   121A      0.469690   122A      0.475272  
     123A      0.480448   124A      0.486589   125A      0.490458  
     126A      0.495887   127A      0.498398   128A      0.506830  
     129A      0.511188   130A      0.514736   131A      0.521542  
     132A      0.522805   133A      0.525815   134A      0.531321  
     135A      0.538821   136A      0.547651   137A      0.551417  
     138A      0.557374   139A      0.565302   140A      0.583961  
     141A      0.591078   142A      0.599349   143A      0.604214  
     144A      0.608940   145A      0.623418   146A      0.632432  
     147A      0.641928   148A      0.644480   149A      0.651048  
     150A      0.657344   151A      0.665436   152A      0.670031  
     153A      0.672717   154A      0.676979   155A      0.679960  
     156A      0.688281   157A      0.695271   158A      0.707107  
     159A      0.712775   160A      0.726199   161A      0.729126  
     162A      0.738848   163A      0.749023   164A      0.751933  
     165A      0.755809   166A      0.760880   167A      0.771671  
     168A      0.777295   169A      0.779760   170A      0.782076  
     171A      0.797766   172A      0.804116   173A      0.804635  
     174A      0.807918   175A      0.815324   176A      0.819529  
     177A      0.821306   178A      0.825562   179A      0.829927  
     180A      0.840354   181A      0.840550   182A      0.854647  
     183A      0.857112   184A      0.860331   185A      0.870865  
     186A      0.872529   187A      0.878363   188A      0.885260  
     189A      0.898952   190A      0.902938   191A      0.909196  
     192A      0.912987   193A      0.928512   194A      0.934882  
     195A      0.941174   196A      0.945789   197A      0.951615  
     198A      0.955495   199A      0.961920   200A      0.969179  
     201A      0.976260   202A      0.976491   203A      0.980523  
     204A      0.985271   205A      0.988242   206A      0.994083  
     207A      1.003827   208A      1.007763   209A      1.019380  
     210A      1.021879   211A      1.026010   212A      1.026442  
     213A      1.042068   214A      1.047689   215A      1.051426  
     216A      1.054562   217A      1.057093   218A      1.061710  
     219A      1.079712   220A      1.084469   221A      1.087187  
     222A      1.093287   223A      1.095531   224A      1.101499  
     225A      1.106387   226A      1.110236   227A      1.115085  
     228A      1.127180   229A      1.130536   230A      1.137091  
     231A      1.139971   232A      1.147637   233A      1.154231  
     234A      1.168486   235A      1.175820   236A      1.180743  
     237A      1.191567   238A      1.195467   239A      1.205221  
     240A      1.219147   241A      1.228189   242A      1.230887  
     243A      1.233744   244A      1.240621   245A      1.246921  
     246A      1.254280   247A      1.261767   248A      1.264608  
     249A      1.278560   250A      1.288994   251A      1.296213  
     252A      1.308201   253A      1.313745   254A      1.317291  
     255A      1.329198   256A      1.332230   257A      1.339830  
     258A      1.342229   259A      1.354166   260A      1.364553  
     261A      1.375594   262A      1.379757   263A      1.389044  
     264A      1.393445   265A      1.409043   266A      1.413361  
     267A      1.436354   268A      1.439063   269A      1.446207  
     270A      1.456705   271A      1.469643   272A      1.475578  
     273A      1.482157   274A      1.491123   275A      1.502714  
     276A      1.504813   277A      1.512990   278A      1.521163  
     279A      1.528349   280A      1.539616   281A      1.546571  
     282A      1.557594   283A      1.568516   284A      1.572976  
     285A      1.580346   286A      1.591144   287A      1.598336  
     288A      1.602846   289A      1.627941   290A      1.640241  
     291A      1.643820   292A      1.647333   293A      1.665921  
     294A      1.670643   295A      1.682571   296A      1.695685  
     297A      1.697781   298A      1.707729   299A      1.724621  
     300A      1.727665   301A      1.732497   302A      1.738145  
     303A      1.754024   304A      1.757222   305A      1.770380  
     306A      1.775798   307A      1.787001   308A      1.794735  
     309A      1.808731   310A      1.820421   311A      1.827499  
     312A      1.841026   313A      1.849176   314A      1.856456  
     315A      1.863661   316A      1.865521   317A      1.896794  
     318A      1.907478   319A      1.925706   320A      1.933791  
     321A      1.939902   322A      1.948700   323A      1.955269  
     324A      1.974885   325A      1.994474   326A      2.004683  
     327A      2.017055   328A      2.030773   329A      2.036802  
     330A      2.056940   331A      2.064155   332A      2.075526  
     333A      2.080212   334A      2.089267   335A      2.102251  
     336A      2.110021   337A      2.132818   338A      2.137433  
     339A      2.149934   340A      2.151135   341A      2.176782  
     342A      2.182195   343A      2.193021   344A      2.198631  
     345A      2.212897   346A      2.219038   347A      2.228995  
     348A      2.246399   349A      2.260586   350A      2.261149  
     351A      2.275077   352A      2.284601   353A      2.297370  
     354A      2.311967   355A      2.321979   356A      2.339136  
     357A      2.340556   358A      2.356893   359A      2.371446  
     360A      2.382993   361A      2.395246   362A      2.400108  
     363A      2.404677   364A      2.424804   365A      2.434736  
     366A      2.437886   367A      2.443018   368A      2.449129  
     369A      2.456068   370A      2.475707   371A      2.487039  
     372A      2.494292   373A      2.500321   374A      2.519775  
     375A      2.546405   376A      2.557871   377A      2.566323  
     378A      2.570819   379A      2.576249   380A      2.589115  
     381A      2.603674   382A      2.607898   383A      2.616417  
     384A      2.619775   385A      2.640716   386A      2.659210  
     387A      2.669738   388A      2.671955   389A      2.681609  
     390A      2.698670   391A      2.720446   392A      2.726157  
     393A      2.733153   394A      2.749984   395A      2.768233  
     396A      2.794981   397A      2.811534   398A      2.833094  
     399A      2.842110   400A      2.852968   401A      2.859584  
     402A      2.874686   403A      2.900784   404A      2.913271  
     405A      2.953796   406A      2.995817   407A      3.016720  
     408A      3.046011   409A      3.079698   410A      3.092751  
     411A      3.119144   412A      3.135179   413A      3.162410  
     414A      3.178122   415A      3.180131   416A      3.194935  
     417A      3.204744   418A      3.223900   419A      3.231797  
     420A      3.254081   421A      3.270358   422A      3.310157  
     423A      3.322656   424A      3.356939   425A      3.360286  
     426A      3.388382   427A      3.407131   428A      3.420064  
     429A      3.445939   430A      3.459709   431A      3.464933  
     432A      3.495837   433A      3.516641   434A      3.521552  
     435A      3.524597   436A      3.535485   437A      3.548800  
     438A      3.558197   439A      3.573160   440A      3.594617  
     441A      3.617839   442A      3.627607   443A      3.638197  
     444A      3.657282   445A      3.678457   446A      3.687997  
     447A      3.705633   448A      3.715010   449A      3.719323  
     450A      3.740333   451A      3.756582   452A      3.769616  
     453A      3.788189   454A      3.804493   455A      3.808450  
     456A      3.836529   457A      3.843218   458A      3.861426  
     459A      3.872490   460A      3.897999   461A      3.905235  
     462A      3.910279   463A      3.932613   464A      3.946062  
     465A      3.951564   466A      3.957406   467A      3.971768  
     468A      4.000854   469A      4.013891   470A      4.021545  
     471A      4.026093   472A      4.056207   473A      4.072672  
     474A      4.075596   475A      4.098527   476A      4.118700  
     477A      4.142875   478A      4.158170   479A      4.164092  
     480A      4.176255   481A      4.196602   482A      4.198820  
     483A      4.207834   484A      4.226003   485A      4.232004  
     486A      4.244836   487A      4.249623   488A      4.269293  
     489A      4.284594   490A      4.295451   491A      4.307398  
     492A      4.321151   493A      4.334182   494A      4.346933  
     495A      4.356121   496A      4.369039   497A      4.380747  
     498A      4.389988   499A      4.392278   500A      4.419566  
     501A      4.436980   502A      4.454977   503A      4.466436  
     504A      4.477812   505A      4.487681   506A      4.490635  
     507A      4.513803   508A      4.531770   509A      4.543686  
     510A      4.553874   511A      4.563924   512A      4.576088  
     513A      4.603197   514A      4.612446   515A      4.624631  
     516A      4.639660   517A      4.645459   518A      4.663357  
     519A      4.680985   520A      4.686740   521A      4.699901  
     522A      4.723825   523A      4.782638   524A      4.784794  
     525A      4.800028   526A      4.806034   527A      4.820693  
     528A      4.850963   529A      4.864326   530A      4.880628  
     531A      4.893904   532A      4.903674   533A      4.916790  
     534A      4.931592   535A      4.936308   536A      4.956670  
     537A      4.974553   538A      4.982430   539A      5.023235  
     540A      5.029302   541A      5.078897   542A      5.099166  
     543A      5.107028   544A      5.130076   545A      5.140066  
     546A      5.155232   547A      5.165438   548A      5.219915  
     549A      5.222635   550A      5.241677   551A      5.270638  
     552A      5.286749   553A      5.301186   554A      5.316395  
     555A      5.333328   556A      5.343480   557A      5.364910  
     558A      5.377087   559A      5.407484   560A      5.436338  
     561A      5.455152   562A      5.461781   563A      5.484156  
     564A      5.493611   565A      5.513753   566A      5.527703  
     567A      5.537388   568A      5.554869   569A      5.578679  
     570A      5.582732   571A      5.602858   572A      5.615514  
     573A      5.619459   574A      5.630627   575A      5.633107  
     576A      5.656872   577A      5.668218   578A      5.676625  
     579A      5.692501   580A      5.704540   581A      5.710997  
     582A      5.736821   583A      5.750548   584A      5.762089  
     585A      5.792558   586A      5.819330   587A      5.823455  
     588A      5.837781   589A      5.856383   590A      5.889743  
     591A      5.903022   592A      5.919708   593A      5.931012  
     594A      5.936431   595A      5.965594   596A      5.977027  
     597A      5.997611   598A      6.018736   599A      6.066099  
     600A      6.077654   601A      6.125419   602A      6.141737  
     603A      6.152820   604A      6.163187   605A      6.179984  
     606A      6.201479   607A      6.203611   608A      6.270787  
     609A      6.292878   610A      6.308619   611A      6.360879  
     612A      6.401140   613A      6.439455   614A      6.485900  
     615A      6.526064   616A      6.541551   617A      6.571064  
     618A      6.589433   619A      6.620224   620A      6.678227  
     621A      6.710502   622A      6.729053   623A      6.747226  
     624A      6.785940   625A      6.840879   626A      6.887328  
     627A      6.969504   628A      7.004876   629A      7.029700  
     630A      7.041730   631A      7.067318   632A      7.105350  
     633A      7.169449   634A      7.283740   635A      7.370143  
     636A      7.430766   637A      7.487087   638A      7.616438  
     639A      7.686745   640A      7.762308   641A      7.820529  
     642A      7.861153   643A      8.039046   644A      8.141075  
     645A      8.281280   646A      8.669594   647A      8.772544  
     648A      9.703097   649A      9.876111   650A     10.037714  
     651A     10.228061   652A     11.133696   653A     11.666171  
     654A     11.943554   655A     13.441190   656A     13.893435  
     657A     16.051980   658A     16.185533   659A     16.285040  
     660A     17.692838   661A     18.015145   662A     18.844051  
     663A     19.168845   664A     19.232783   665A     19.852635  
     666A     20.862150   667A     64.049849  

    Final Occupation by Irrep:
              A 
    DOCC [    35 ]

  @DF-RHF Final Energy:  -464.68117039775882

   => Energetics <=

    Nuclear Repulsion Energy =            501.6383712655671161
    One-Electron Energy =               -1626.1664361631103475
    Two-Electron Energy =                 659.8468944997842982
    Total Energy =                       -464.6811703977588195

Computation Completed


Properties will be evaluated at   0.000000,   0.000000,   0.000000 [a0]

Properties computed using the SCF density matrix

  Nuclear Dipole Moment: [e a0]
     X:   -91.7300      Y:     0.6856      Z:     1.9567

  Electronic Dipole Moment: [e a0]
     X:    90.8516      Y:    -1.1589      Z:    -2.2090

  Dipole Moment: [e a0]
     X:    -0.8784      Y:    -0.4733      Z:    -0.2524     Total:     1.0293

  Dipole Moment: [D]
     X:    -2.2328      Y:    -1.2031      Z:    -0.6415     Total:     2.6162


*** tstop() called on node45.bme.utexas.edu at Thu Mar 28 03:13:55 2024
Module time:
	user time   =     426.69 seconds =       7.11 minutes
	system time =       4.90 seconds =       0.08 minutes
	total time  =         59 seconds =       0.98 minutes
Total time:
	user time   =    1122.46 seconds =      18.71 minutes
	system time =      16.02 seconds =       0.27 minutes
	total time  =        159 seconds =       2.65 minutes

*** tstart() called on node45.bme.utexas.edu
*** at Thu Mar 28 03:13:55 2024


  //>>>>>>>>>>>>>>>>>>>>>>>>>>>>>>>>>>>//
  //               DFMP2               //
  //<<<<<<<<<<<<<<<<<<<<<<<<<<<<<<<<<<<//

   => Loading Basis Set <=

    Name: (AUG-CC-PVTZ AUX)
    Role: RIFIT
    Keyword: DF_BASIS_MP2
    atoms 1, 4, 11, 14-15, 17-18 entry H          line    30 file /opt/anaconda/envs/psi4v1.5/share/psi4/basis/aug-cc-pvtz-ri.gbs 
    atoms 2, 5, 8-9, 12          entry N          line   206 file /opt/anaconda/envs/psi4v1.5/share/psi4/basis/aug-cc-pvtz-ri.gbs 
    atoms 3, 6-7, 10, 13         entry C          line   148 file /opt/anaconda/envs/psi4v1.5/share/psi4/basis/aug-cc-pvtz-ri.gbs 
    atoms 16                     entry O          line   264 file /opt/anaconda/envs/psi4v1.5/share/psi4/basis/aug-cc-pvtz-ri.gbs 

	 --------------------------------------------------------
	                          DF-MP2                         
	      2nd-Order Density-Fitted Moller-Plesset Theory     
	              RMP2 Wavefunction,   8 Threads             
	                                                         
	        Rob Parrish, Justin Turney, Andy Simmonett,      
	           Ed Hohenstein, and C. David Sherrill          
	 --------------------------------------------------------

   => Auxiliary Basis Set <=

  Basis Set: (AUG-CC-PVTZ AUX)
    Blend: AUG-CC-PVTZ-RI
    Number of shells: 406
    Number of basis functions: 1488
    Number of Cartesian functions: 1881
    Spherical Harmonics?: true
    Max angular momentum: 4

	 --------------------------------------------------------
	                 NBF =   667, NAUX =  1488
	 --------------------------------------------------------
	   CLASS    FOCC     OCC    AOCC    AVIR     VIR    FVIR
	   PAIRS      10      35      25     632     632       0
	 --------------------------------------------------------

	 Will attempt to load fitting metric from file 97.

	-----------------------------------------------------------
	 ==================> DF-MP2 Energies <==================== 
	-----------------------------------------------------------
	 Reference Energy          =    -464.6811703977588195 [Eh]
	 Singles Energy            =      -0.0000000000000000 [Eh]
	 Same-Spin Energy          =      -0.4787710509435973 [Eh]
	 Opposite-Spin Energy      =      -1.3241948614029355 [Eh]
	 Correlation Energy        =      -1.8029659123465329 [Eh]
	 Total Energy              =    -466.4841363101053275 [Eh]
	-----------------------------------------------------------
	 ================> DF-SCS-MP2 Energies <================== 
	-----------------------------------------------------------
	 SCS Same-Spin Scale       =       0.3333333333333333 [-]
	 SCS Opposite-Spin Scale   =       1.2000000000000000 [-]
	 SCS Same-Spin Energy      =      -0.1595903503145324 [Eh]
	 SCS Opposite-Spin Energy  =      -1.5890338336835226 [Eh]
	 SCS Correlation Energy    =      -1.7486241839980550 [Eh]
	 SCS Total Energy          =    -466.4297945817568802 [Eh]
	-----------------------------------------------------------


*** tstop() called on node45.bme.utexas.edu at Thu Mar 28 03:14:14 2024
Module time:
	user time   =     102.07 seconds =       1.70 minutes
	system time =       2.17 seconds =       0.04 minutes
	total time  =         19 seconds =       0.32 minutes
Total time:
	user time   =    1224.55 seconds =      20.41 minutes
	system time =      18.19 seconds =       0.30 minutes
	total time  =        178 seconds =       2.97 minutes

  //>>>>>>>>>>>>>>>>>>>>>>>>>>>>>>>>>>>//
  //            Monomer B HF           //
  //<<<<<<<<<<<<<<<<<<<<<<<<<<<<<<<<<<<//


*** tstart() called on node45.bme.utexas.edu
*** at Thu Mar 28 03:14:14 2024

   => Loading Basis Set <=

    Name: AUG-CC-PVTZ
    Role: ORBITAL
    Keyword: BASIS
    atoms 1, 4, 11, 14-15, 17-18 entry H          line    40 file /opt/anaconda/envs/psi4v1.5/share/psi4/basis/aug-cc-pvtz.gbs 
    atoms 2, 5, 8-9, 12          entry N          line   285 file /opt/anaconda/envs/psi4v1.5/share/psi4/basis/aug-cc-pvtz.gbs 
    atoms 3, 6-7, 10, 13         entry C          line   239 file /opt/anaconda/envs/psi4v1.5/share/psi4/basis/aug-cc-pvtz.gbs 
    atoms 16                     entry O          line   331 file /opt/anaconda/envs/psi4v1.5/share/psi4/basis/aug-cc-pvtz.gbs 


         ---------------------------------------------------------
                                   SCF
               by Justin Turney, Rob Parrish, Andy Simmonett
                          and Daniel G. A. Smith
                              RHF Reference
                        8 Threads,  47683 MiB Core
         ---------------------------------------------------------

  ==> Geometry <==

    Molecular point group: c1
    Full point group: C1

    Geometry (in Angstrom), charge = 0, multiplicity = 1:

       Center              X                  Y                   Z               Mass       
    ------------   -----------------  -----------------  -----------------  -----------------
      Gh(H)          -3.590270707813     1.015134650307    -0.074830131390     1.007825032230
      Gh(N)          -2.816030707813     0.361814650307    -0.046800131390    14.003074004430
      Gh(C)          -2.880450707813    -1.008925349693    -0.049060131390    12.000000000000
      Gh(H)          -3.826520707813    -1.534735349693    -0.081150131390     1.007825032230
      Gh(N)          -1.691110707813    -1.593705349693    -0.008500131390    14.003074004430
      Gh(C)          -0.815040707813    -0.527825349693     0.023769868610    12.000000000000
      Gh(C)           0.595149292187    -0.477995349693     0.051279868610    12.000000000000
      Gh(N)           1.358219292187    -1.590985349693     0.124319868610    14.003074004430
      Gh(N)           1.183819292187     0.737214650307     0.059309868610    14.003074004430
      Gh(C)           0.403039292187     1.843254650307     0.034389868610    12.000000000000
      Gh(H)           0.942089292187     2.788194650307     0.039049868610     1.007825032230
      Gh(N)          -0.929260707813     1.926154650307     0.004619868610    14.003074004430
      Gh(C)          -1.482180707813     0.699734650307    -0.004440131390    12.000000000000
      Gh(H)           2.360169292187    -1.482855349693    -0.040110131390     1.007825032230
      Gh(H)           0.910549292187    -2.475845349693    -0.073820131390     1.007825032230
         O            5.233240692187    -0.173842549693    -0.178201731390    15.994914619570
         H            5.657280692187    -0.072302549693     0.688288268610     1.007825032230
         H            4.471070692187     0.447957450307    -0.142541731390     1.007825032230

  Running in c1 symmetry.

  Rotational constants: A =      0.07695  B =      0.01925  C =      0.01544 [cm^-1]
  Rotational constants: A =   2306.86872  B =    577.12304  C =    462.80785 [MHz]
  Nuclear repulsion =    9.009192701693237

  Charge       = 0
  Multiplicity = 1
  Electrons    = 10
  Nalpha       = 5
  Nbeta        = 5

  ==> Algorithm <==

  SCF Algorithm Type is DF.
  DIIS enabled.
  MOM disabled.
  Fractional occupation disabled.
  Guess Type is SAD.
  Energy threshold   = 1.00e-08
  Density threshold  = 1.00e-08
  Integral threshold = 1.00e-12

  ==> Primary Basis <==

  Basis Set: AUG-CC-PVTZ
    Blend: AUG-CC-PVTZ
    Number of shells: 217
    Number of basis functions: 667
    Number of Cartesian functions: 780
    Spherical Harmonics?: true
    Max angular momentum: 3

   => Loading Basis Set <=

    Name: (AUG-CC-PVTZ AUX)
    Role: JKFIT
    Keyword: DF_BASIS_SCF
    atoms 1, 4, 11, 14-15, 17-18 entry H          line    70 file /opt/anaconda/envs/psi4v1.5/share/psi4/basis/aug-cc-pvtz-jkfit.gbs 
    atoms 2, 5, 8-9, 12          entry N          line   224 file /opt/anaconda/envs/psi4v1.5/share/psi4/basis/aug-cc-pvtz-jkfit.gbs 
    atoms 3, 6-7, 10, 13         entry C          line   162 file /opt/anaconda/envs/psi4v1.5/share/psi4/basis/aug-cc-pvtz-jkfit.gbs 
    atoms 16                     entry O          line   286 file /opt/anaconda/envs/psi4v1.5/share/psi4/basis/aug-cc-pvtz-jkfit.gbs 

  ==> Integral Setup <==

  ==> DiskDFJK: Density-Fitted J/K Matrices <==

    J tasked:                  Yes
    K tasked:                  Yes
    wK tasked:                  No
    OpenMP threads:              8
    Integrals threads:           8
    Memory [MiB]:            35762
    Algorithm:                Core
    Integral Cache:           LOAD
    Schwarz Cutoff:          1E-12
    Fitting Condition:       1E-10

   => Auxiliary Basis Set <=

  Basis Set: (AUG-CC-PVTZ AUX)
    Blend: AUG-CC-PVTZ-JKFIT
    Number of shells: 428
    Number of basis functions: 1466
    Number of Cartesian functions: 1826
    Spherical Harmonics?: true
    Max angular momentum: 4

  Minimum eigenvalue in the overlap matrix is 1.5165242174E-06.
  Reciprocal condition number of the overlap matrix is 8.8425172906E-08.
    Using symmetric orthogonalization.

  ==> Pre-Iterations <==

  SCF Guess: Superposition of Atomic Densities via on-the-fly atomic UHF (no occupation information).

   -------------------------
    Irrep   Nso     Nmo    
   -------------------------
     A        667     667 
   -------------------------
    Total     667     667
   -------------------------

  ==> Iterations <==

                           Total Energy        Delta E     RMS |[F,P]|

   @DF-RHF iter SAD:   -75.45546713503646   -7.54555e+01   0.00000e+00 
   @DF-RHF iter   1:   -75.97324654836692   -5.17779e-01   7.00293e-04 DIIS
   @DF-RHF iter   2:   -76.02518123395322   -5.19347e-02   4.87271e-04 DIIS
   @DF-RHF iter   3:   -76.05804068678896   -3.28595e-02   3.32168e-05 DIIS
   @DF-RHF iter   4:   -76.05845514591630   -4.14459e-04   8.27039e-06 DIIS
   @DF-RHF iter   5:   -76.05848354554652   -2.83996e-05   1.91105e-06 DIIS
   @DF-RHF iter   6:   -76.05848593638423   -2.39084e-06   4.19228e-07 DIIS
   @DF-RHF iter   7:   -76.05848606144123   -1.25057e-07   7.40629e-08 DIIS
   @DF-RHF iter   8:   -76.05848606482925   -3.38802e-09   1.27228e-08 DIIS
   @DF-RHF iter   9:   -76.05848606490936   -8.01066e-11   3.22597e-09 DIIS
  Energy and wave function converged.


  ==> Post-Iterations <==

    Orbital Energies [Eh]
    ---------------------

    Doubly Occupied:                                                      

       1A    -20.570893     2A     -1.343991     3A     -0.705868  
       4A     -0.582282     5A     -0.508933  

    Virtual:                                                              

       6A      0.014109     7A      0.024833     8A      0.031651  
       9A      0.041287    10A      0.047593    11A      0.052019  
      12A      0.058828    13A      0.065954    14A      0.070741  
      15A      0.078865    16A      0.081663    17A      0.087608  
      18A      0.093155    19A      0.098569    20A      0.101143  
      21A      0.107130    22A      0.116686    23A      0.121713  
      24A      0.127427    25A      0.128590    26A      0.133731  
      27A      0.139792    28A      0.146337    29A      0.152674  
      30A      0.158193    31A      0.159352    32A      0.164107  
      33A      0.168224    34A      0.169546    35A      0.175694  
      36A      0.184287    37A      0.188547    38A      0.192332  
      39A      0.195461    40A      0.197886    41A      0.204177  
      42A      0.206268    43A      0.209458    44A      0.217346  
      45A      0.220092    46A      0.230128    47A      0.234461  
      48A      0.241991    49A      0.251396    50A      0.254947  
      51A      0.258002    52A      0.267876    53A      0.270976  
      54A      0.273207    55A      0.281109    56A      0.289472  
      57A      0.290218    58A      0.297106    59A      0.301018  
      60A      0.307698    61A      0.319541    62A      0.324018  
      63A      0.331411    64A      0.335920    65A      0.337749  
      66A      0.343994    67A      0.353792    68A      0.358906  
      69A      0.365928    70A      0.369917    71A      0.376329  
      72A      0.382602    73A      0.385053    74A      0.387359  
      75A      0.395634    76A      0.400909    77A      0.406967  
      78A      0.411945    79A      0.412817    80A      0.417003  
      81A      0.423160    82A      0.426032    83A      0.430234  
      84A      0.435502    85A      0.437737    86A      0.450032  
      87A      0.453888    88A      0.457900    89A      0.459224  
      90A      0.461760    91A      0.464454    92A      0.468144  
      93A      0.474591    94A      0.477795    95A      0.488793  
      96A      0.493196    97A      0.500191    98A      0.505083  
      99A      0.514135   100A      0.532942   101A      0.538049  
     102A      0.541950   103A      0.548620   104A      0.555900  
     105A      0.567055   106A      0.576648   107A      0.583769  
     108A      0.592141   109A      0.600290   110A      0.607154  
     111A      0.619895   112A      0.626797   113A      0.634746  
     114A      0.645373   115A      0.657109   116A      0.657634  
     117A      0.663814   118A      0.673436   119A      0.681668  
     120A      0.687088   121A      0.689350   122A      0.699584  
     123A      0.707169   124A      0.718725   125A      0.725745  
     126A      0.732173   127A      0.740395   128A      0.745755  
     129A      0.747809   130A      0.749595   131A      0.758091  
     132A      0.762697   133A      0.767659   134A      0.786260  
     135A      0.788753   136A      0.792138   137A      0.795767  
     138A      0.804274   139A      0.810506   140A      0.812367  
     141A      0.821076   142A      0.828963   143A      0.831866  
     144A      0.840018   145A      0.845152   146A      0.846566  
     147A      0.851392   148A      0.852491   149A      0.861655  
     150A      0.870882   151A      0.873583   152A      0.875807  
     153A      0.881830   154A      0.889674   155A      0.894113  
     156A      0.897259   157A      0.902743   158A      0.915552  
     159A      0.920093   160A      0.923841   161A      0.926340  
     162A      0.928967   163A      0.939526   164A      0.945632  
     165A      0.947246   166A      0.953027   167A      0.956611  
     168A      0.966610   169A      0.973357   170A      0.977665  
     171A      0.980207   172A      0.995829   173A      1.004814  
     174A      1.021261   175A      1.026187   176A      1.029827  
     177A      1.037435   178A      1.038937   179A      1.043349  
     180A      1.049821   181A      1.061734   182A      1.070329  
     183A      1.076326   184A      1.087135   185A      1.096051  
     186A      1.101729   187A      1.106858   188A      1.112407  
     189A      1.123057   190A      1.135940   191A      1.141889  
     192A      1.144339   193A      1.149076   194A      1.153770  
     195A      1.169106   196A      1.173083   197A      1.175969  
     198A      1.186483   199A      1.191823   200A      1.199833  
     201A      1.204869   202A      1.212745   203A      1.225802  
     204A      1.233417   205A      1.236659   206A      1.244439  
     207A      1.251357   208A      1.261474   209A      1.273573  
     210A      1.279064   211A      1.282827   212A      1.289619  
     213A      1.298374   214A      1.306574   215A      1.318543  
     216A      1.330050   217A      1.334084   218A      1.347199  
     219A      1.354370   220A      1.362390   221A      1.375270  
     222A      1.395054   223A      1.396478   224A      1.410711  
     225A      1.416993   226A      1.426676   227A      1.433152  
     228A      1.443588   229A      1.453489   230A      1.473130  
     231A      1.501597   232A      1.507427   233A      1.514186  
     234A      1.526417   235A      1.533771   236A      1.545295  
     237A      1.550108   238A      1.556824   239A      1.566738  
     240A      1.572001   241A      1.577768   242A      1.588357  
     243A      1.603141   244A      1.610677   245A      1.622448  
     246A      1.623353   247A      1.636249   248A      1.644516  
     249A      1.653577   250A      1.662269   251A      1.662544  
     252A      1.669934   253A      1.676740   254A      1.690670  
     255A      1.696892   256A      1.702072   257A      1.714237  
     258A      1.722415   259A      1.730608   260A      1.737777  
     261A      1.743858   262A      1.746803   263A      1.750168  
     264A      1.764833   265A      1.768699   266A      1.773437  
     267A      1.785117   268A      1.793650   269A      1.795499  
     270A      1.810969   271A      1.819059   272A      1.825219  
     273A      1.830249   274A      1.835742   275A      1.845651  
     276A      1.867945   277A      1.879159   278A      1.883390  
     279A      1.892849   280A      1.904073   281A      1.920287  
     282A      1.929293   283A      1.937266   284A      1.939821  
     285A      1.967588   286A      1.978596   287A      1.983051  
     288A      1.986403   289A      1.993733   290A      2.005461  
     291A      2.013306   292A      2.021550   293A      2.038524  
     294A      2.042052   295A      2.051728   296A      2.052468  
     297A      2.073511   298A      2.087462   299A      2.092673  
     300A      2.106696   301A      2.121483   302A      2.133344  
     303A      2.147481   304A      2.157810   305A      2.160088  
     306A      2.169532   307A      2.179479   308A      2.205110  
     309A      2.219540   310A      2.232903   311A      2.239046  
     312A      2.250893   313A      2.268794   314A      2.278794  
     315A      2.289017   316A      2.309122   317A      2.315218  
     318A      2.334619   319A      2.339247   320A      2.342232  
     321A      2.349654   322A      2.362480   323A      2.389826  
     324A      2.395814   325A      2.402942   326A      2.406745  
     327A      2.421154   328A      2.426987   329A      2.444174  
     330A      2.457137   331A      2.474377   332A      2.481278  
     333A      2.490478   334A      2.500471   335A      2.510674  
     336A      2.523258   337A      2.531965   338A      2.537494  
     339A      2.547900   340A      2.574196   341A      2.579728  
     342A      2.591465   343A      2.600657   344A      2.614358  
     345A      2.616076   346A      2.632089   347A      2.637745  
     348A      2.643939   349A      2.670975   350A      2.688217  
     351A      2.705876   352A      2.715944   353A      2.733402  
     354A      2.746512   355A      2.755432   356A      2.770648  
     357A      2.790295   358A      2.794593   359A      2.795913  
     360A      2.817409   361A      2.829809   362A      2.850213  
     363A      2.854337   364A      2.864737   365A      2.876035  
     366A      2.881289   367A      2.897572   368A      2.900611  
     369A      2.934109   370A      2.953319   371A      2.964688  
     372A      2.968816   373A      2.980510   374A      2.992750  
     375A      3.000909   376A      3.033264   377A      3.037111  
     378A      3.046053   379A      3.050169   380A      3.061442  
     381A      3.071549   382A      3.089009   383A      3.119865  
     384A      3.135452   385A      3.138860   386A      3.167587  
     387A      3.187223   388A      3.191489   389A      3.203571  
     390A      3.228884   391A      3.242852   392A      3.286457  
     393A      3.304336   394A      3.305796   395A      3.338399  
     396A      3.354521   397A      3.379749   398A      3.415812  
     399A      3.480937   400A      3.506332   401A      3.534809  
     402A      3.587821   403A      3.662702   404A      3.676078  
     405A      3.702187   406A      3.735310   407A      3.761972  
     408A      3.780819   409A      3.837466   410A      3.848221  
     411A      3.872678   412A      3.897611   413A      3.950944  
     414A      3.960759   415A      4.034104   416A      4.048144  
     417A      4.094546   418A      4.107633   419A      4.125341  
     420A      4.138849   421A      4.148448   422A      4.149747  
     423A      4.169208   424A      4.177090   425A      4.189080  
     426A      4.197823   427A      4.208120   428A      4.230786  
     429A      4.247331   430A      4.250844   431A      4.260252  
     432A      4.276272   433A      4.312049   434A      4.329717  
     435A      4.337199   436A      4.400644   437A      4.408341  
     438A      4.416699   439A      4.428132   440A      4.434522  
     441A      4.449046   442A      4.491555   443A      4.504010  
     444A      4.522329   445A      4.525525   446A      4.534847  
     447A      4.545953   448A      4.564746   449A      4.579931  
     450A      4.592645   451A      4.603108   452A      4.627392  
     453A      4.633130   454A      4.654255   455A      4.667029  
     456A      4.682752   457A      4.696074   458A      4.705783  
     459A      4.731242   460A      4.737772   461A      4.777833  
     462A      4.780080   463A      4.791690   464A      4.826020  
     465A      4.828872   466A      4.849007   467A      4.860896  
     468A      4.876046   469A      4.898824   470A      4.905126  
     471A      4.921260   472A      4.936541   473A      4.941083  
     474A      4.960895   475A      4.975258   476A      4.977306  
     477A      4.989137   478A      4.997838   479A      5.008061  
     480A      5.017499   481A      5.040503   482A      5.043826  
     483A      5.056105   484A      5.066118   485A      5.094626  
     486A      5.108688   487A      5.118640   488A      5.125863  
     489A      5.131607   490A      5.137412   491A      5.144058  
     492A      5.153723   493A      5.178997   494A      5.211873  
     495A      5.237626   496A      5.256449   497A      5.268371  
     498A      5.272628   499A      5.280277   500A      5.296686  
     501A      5.332021   502A      5.336212   503A      5.337522  
     504A      5.364944   505A      5.401208   506A      5.434830  
     507A      5.442864   508A      5.480708   509A      5.490693  
     510A      5.508191   511A      5.524473   512A      5.541013  
     513A      5.551949   514A      5.582296   515A      5.618061  
     516A      5.646149   517A      5.659229   518A      5.664117  
     519A      5.731119   520A      5.749969   521A      5.772773  
     522A      5.788157   523A      5.807865   524A      5.852615  
     525A      5.880172   526A      5.939577   527A      5.992387  
     528A      6.011682   529A      6.031859   530A      6.049028  
     531A      6.074482   532A      6.083488   533A      6.097704  
     534A      6.141945   535A      6.191653   536A      6.198911  
     537A      6.212622   538A      6.245657   539A      6.306745  
     540A      6.338412   541A      6.351011   542A      6.435621  
     543A      6.451508   544A      6.468653   545A      6.481030  
     546A      6.485659   547A      6.497825   548A      6.513830  
     549A      6.524264   550A      6.531331   551A      6.559694  
     552A      6.563228   553A      6.594777   554A      6.614581  
     555A      6.676674   556A      6.697732   557A      6.710374  
     558A      6.728304   559A      6.750669   560A      6.770930  
     561A      6.815101   562A      6.836996   563A      6.856879  
     564A      6.876688   565A      6.885916   566A      6.903457  
     567A      6.910460   568A      6.922101   569A      6.932925  
     570A      6.939655   571A      6.977999   572A      7.073354  
     573A      7.135318   574A      7.137535   575A      7.211707  
     576A      7.221492   577A      7.272040   578A      7.277015  
     579A      7.291003   580A      7.308625   581A      7.340219  
     582A      7.346306   583A      7.373110   584A      7.400964  
     585A      7.416083   586A      7.437387   587A      7.443812  
     588A      7.447727   589A      7.496221   590A      7.511715  
     591A      7.559379   592A      7.571198   593A      7.585860  
     594A      7.633455   595A      7.636965   596A      7.656772  
     597A      7.680706   598A      7.722603   599A      7.751821  
     600A      7.781687   601A      7.806368   602A      7.840455  
     603A      7.869057   604A      7.884544   605A      7.891595  
     606A      7.916647   607A      7.927011   608A      7.936356  
     609A      7.973903   610A      7.997648   611A      8.043575  
     612A      8.118512   613A      8.161795   614A      8.217881  
     615A      8.292350   616A      8.311819   617A      8.371131  
     618A      8.422503   619A      8.446126   620A      8.535508  
     621A      8.676592   622A      8.756196   623A      8.788256  
     624A      8.820000   625A      8.921625   626A      9.003553  
     627A      9.047744   628A      9.223099   629A      9.260238  
     630A      9.378771   631A      9.507011   632A      9.540274  
     633A      9.563948   634A      9.669002   635A      9.742384  
     636A      9.764847   637A     10.148304   638A     10.243458  
     639A     10.390148   640A     10.704448   641A     10.984408  
     642A     11.015664   643A     11.155384   644A     11.222486  
     645A     11.501064   646A     11.635799   647A     11.709147  
     648A     11.845629   649A     12.016021   650A     12.053587  
     651A     12.158769   652A     12.291686   653A     12.389201  
     654A     12.503919   655A     12.843536   656A     12.930844  
     657A     15.440549   658A     51.499162   659A     51.676827  
     660A     52.198766   661A     53.933684   662A     56.140017  
     663A     59.989864   664A     61.142742   665A     62.049224  
     666A     62.365208   667A     63.961122  

    Final Occupation by Irrep:
              A 
    DOCC [     5 ]

  @DF-RHF Final Energy:   -76.05848606490936

   => Energetics <=

    Nuclear Repulsion Energy =              9.0091927016932374
    One-Electron Energy =                -122.7114196389523784
    Two-Electron Energy =                  37.6437408723497811
    Total Energy =                        -76.0584860649093599

Computation Completed


Properties will be evaluated at   0.000000,   0.000000,   0.000000 [a0]

Properties computed using the SCF density matrix

  Nuclear Dipole Moment: [e a0]
     X:    98.2549      Y:    -1.9182      Z:    -1.6627

  Electronic Dipole Moment: [e a0]
     X:   -98.4748      Y:     2.3923      Z:     2.2558

  Dipole Moment: [e a0]
     X:    -0.2199      Y:     0.4740      Z:     0.5931     Total:     0.7904

  Dipole Moment: [D]
     X:    -0.5588      Y:     1.2049      Z:     1.5075     Total:     2.0091


*** tstop() called on node45.bme.utexas.edu at Thu Mar 28 03:14:47 2024
Module time:
	user time   =     224.63 seconds =       3.74 minutes
	system time =       3.53 seconds =       0.06 minutes
	total time  =         33 seconds =       0.55 minutes
Total time:
	user time   =    1449.25 seconds =      24.15 minutes
	system time =      21.73 seconds =       0.36 minutes
	total time  =        211 seconds =       3.52 minutes

*** tstart() called on node45.bme.utexas.edu
*** at Thu Mar 28 03:14:47 2024


  //>>>>>>>>>>>>>>>>>>>>>>>>>>>>>>>>>>>//
  //               DFMP2               //
  //<<<<<<<<<<<<<<<<<<<<<<<<<<<<<<<<<<<//

   => Loading Basis Set <=

    Name: (AUG-CC-PVTZ AUX)
    Role: RIFIT
    Keyword: DF_BASIS_MP2
    atoms 1, 4, 11, 14-15, 17-18 entry H          line    30 file /opt/anaconda/envs/psi4v1.5/share/psi4/basis/aug-cc-pvtz-ri.gbs 
    atoms 2, 5, 8-9, 12          entry N          line   206 file /opt/anaconda/envs/psi4v1.5/share/psi4/basis/aug-cc-pvtz-ri.gbs 
    atoms 3, 6-7, 10, 13         entry C          line   148 file /opt/anaconda/envs/psi4v1.5/share/psi4/basis/aug-cc-pvtz-ri.gbs 
    atoms 16                     entry O          line   264 file /opt/anaconda/envs/psi4v1.5/share/psi4/basis/aug-cc-pvtz-ri.gbs 

	 --------------------------------------------------------
	                          DF-MP2                         
	      2nd-Order Density-Fitted Moller-Plesset Theory     
	              RMP2 Wavefunction,   8 Threads             
	                                                         
	        Rob Parrish, Justin Turney, Andy Simmonett,      
	           Ed Hohenstein, and C. David Sherrill          
	 --------------------------------------------------------

   => Auxiliary Basis Set <=

  Basis Set: (AUG-CC-PVTZ AUX)
    Blend: AUG-CC-PVTZ-RI
    Number of shells: 406
    Number of basis functions: 1488
    Number of Cartesian functions: 1881
    Spherical Harmonics?: true
    Max angular momentum: 4

	 --------------------------------------------------------
	                 NBF =   667, NAUX =  1488
	 --------------------------------------------------------
	   CLASS    FOCC     OCC    AOCC    AVIR     VIR    FVIR
	   PAIRS       1       5       4     662     662       0
	 --------------------------------------------------------

	 Will attempt to load fitting metric from file 97.

	-----------------------------------------------------------
	 ==================> DF-MP2 Energies <==================== 
	-----------------------------------------------------------
	 Reference Energy          =     -76.0584860649093599 [Eh]
	 Singles Energy            =      -0.0000000000000000 [Eh]
	 Same-Spin Energy          =      -0.0655426619030805 [Eh]
	 Opposite-Spin Energy      =      -0.2045808753142976 [Eh]
	 Correlation Energy        =      -0.2701235372173781 [Eh]
	 Total Energy              =     -76.3286096021267326 [Eh]
	-----------------------------------------------------------
	 ================> DF-SCS-MP2 Energies <================== 
	-----------------------------------------------------------
	 SCS Same-Spin Scale       =       0.3333333333333333 [-]
	 SCS Opposite-Spin Scale   =       1.2000000000000000 [-]
	 SCS Same-Spin Energy      =      -0.0218475539676935 [Eh]
	 SCS Opposite-Spin Energy  =      -0.2454970503771572 [Eh]
	 SCS Correlation Energy    =      -0.2673446043448506 [Eh]
	 SCS Total Energy          =     -76.3258306692542163 [Eh]
	-----------------------------------------------------------


*** tstop() called on node45.bme.utexas.edu at Thu Mar 28 03:15:03 2024
Module time:
	user time   =      67.99 seconds =       1.13 minutes
	system time =       1.59 seconds =       0.03 minutes
	total time  =         16 seconds =       0.27 minutes
Total time:
	user time   =    1517.25 seconds =      25.29 minutes
	system time =      23.32 seconds =       0.39 minutes
	total time  =        227 seconds =       3.78 minutes
  Constructing Basis Sets for SAPT...

   => Loading Basis Set <=

    Name: (AUG-CC-PVTZ AUX)
    Role: RIFIT
    Keyword: DF_BASIS_SAPT
    atoms 1, 4, 11, 14-15, 17-18 entry H          line    30 file /opt/anaconda/envs/psi4v1.5/share/psi4/basis/aug-cc-pvtz-ri.gbs 
    atoms 2, 5, 8-9, 12          entry N          line   206 file /opt/anaconda/envs/psi4v1.5/share/psi4/basis/aug-cc-pvtz-ri.gbs 
    atoms 3, 6-7, 10, 13         entry C          line   148 file /opt/anaconda/envs/psi4v1.5/share/psi4/basis/aug-cc-pvtz-ri.gbs 
    atoms 16                     entry O          line   264 file /opt/anaconda/envs/psi4v1.5/share/psi4/basis/aug-cc-pvtz-ri.gbs 


  //>>>>>>>>>>>>>>>>>>>>>>>>>>>>>>>>>>>//
  //           SAPT2+(3)DMP2           //
  //<<<<<<<<<<<<<<<<<<<<<<<<<<<<<<<<<<<//


*** tstart() called on node45.bme.utexas.edu
*** at Thu Mar 28 03:15:03 2024

      SAPT2+(3)  
    Ed Hohenstein
     6 June 2009

      Orbital Information
  --------------------------
    NSO        =       667
    NMO        =       667
    NRI        =      1488
    NOCC A     =        35
    NOCC B     =         5
    FOCC A     =        10
    FOCC B     =         1
    NVIR A     =       632
    NVIR B     =       662

    Estimated memory usage: 18101.2 MB

    Natural Orbital Cutoff:   1.000E-06
    Disp(T3) Truncation:            Yes
    CCD (vv|vv) Truncation:         Yes
    MBPT T2 Truncation:             Yes

    Monomer A: 147 virtual orbitals dropped
    Monomer B: 584 virtual orbitals dropped

    Elst10,r            =    -0.004205877680 [Eh]
    Exch10 (S^2)        =     0.000431636296 [Eh]
    Exch10              =     0.000431768886 [Eh]
    Ind20,r (A<-B)      =    -0.000219374513 [Eh]
    Ind20,r (B<-A)      =    -0.000148939699 [Eh]
    Ind20,r             =    -0.000368314212 [Eh]
    Exch-Ind20,r (A<-B) =     0.000063726796 [Eh]
    Exch-Ind20,r (B<-A) =     0.000025537748 [Eh]
    Exch-Ind20,r        =     0.000089264544 [Eh]
    Disp20              =    -0.001046544556 [Eh]
    Disp20 (NO)         =    -0.000949534143 [Eh]
    Exch-Disp20         =     0.000048689243 [Eh]
    Elst12,r            =     0.000110891083 [Eh]
    Exch11              =     0.000001169808 [Eh]
    Exch12              =     0.000155000499 [Eh]
    Ind22               =    -0.000066201794 [Eh]
    Disp21              =     0.000072843293 [Eh]
    Disp22 (SDQ)        =    -0.000026785559 [Eh]

    (i =   1 of   4)        839 seconds
    (i =   2 of   4)       1655 seconds
    (i =   3 of   4)       2433 seconds
    (i =   4 of   4)       3215 seconds

    Disp220 (T)         =    -0.000111438655 [Eh]

    (i =   1 of  25)          6 seconds
    (i =   2 of  25)         14 seconds
    (i =   3 of  25)         22 seconds
    (i =   4 of  25)         28 seconds
    (i =   5 of  25)         36 seconds
    (i =   6 of  25)         43 seconds
    (i =   7 of  25)         50 seconds
    (i =   8 of  25)         57 seconds
    (i =   9 of  25)         65 seconds
    (i =  10 of  25)         72 seconds
    (i =  11 of  25)         79 seconds
    (i =  12 of  25)         85 seconds
    (i =  13 of  25)         92 seconds
    (i =  14 of  25)         99 seconds
    (i =  15 of  25)        106 seconds
    (i =  16 of  25)        112 seconds
    (i =  17 of  25)        119 seconds
    (i =  18 of  25)        126 seconds
    (i =  19 of  25)        133 seconds
    (i =  20 of  25)        140 seconds
    (i =  21 of  25)        147 seconds
    (i =  22 of  25)        155 seconds
    (i =  23 of  25)        161 seconds
    (i =  24 of  25)        169 seconds
    (i =  25 of  25)        176 seconds

    Disp202 (T)         =    -0.000099106872 [Eh]

    Disp22 (T)          =    -0.000210545527 [Eh]

    Est. Disp220 (T)    =    -0.000122823933 [Eh]
    Est. Disp202 (T)    =    -0.000109232257 [Eh]

    Est. Disp22 (T)     =    -0.000232056190 [Eh]
    Elst13,r            =     0.000032123304 [Eh]
    Disp30              =     0.000021165968 [Eh]

    SAPT Results 
  --------------------------------------------------------------------------------------------------------
    Electrostatics                 -4.06286329 [mEh]      -2.54948521 [kcal/mol]     -10.66704610 [kJ/mol]
      Elst10,r                     -4.20587768 [mEh]      -2.63922809 [kcal/mol]     -11.04253033 [kJ/mol]
      Elst12,r                      0.11089108 [mEh]       0.06958521 [kcal/mol]       0.29114450 [kJ/mol]
      Elst13,r                      0.03212330 [mEh]       0.02015768 [kcal/mol]       0.08433972 [kJ/mol]

    Exchange                        0.58793919 [mEh]       0.36893741 [kcal/mol]       1.54363414 [kJ/mol]
      Exch10                        0.43176889 [mEh]       0.27093907 [kcal/mol]       1.13360905 [kJ/mol]
      Exch10(S^2)                   0.43163630 [mEh]       0.27085586 [kcal/mol]       1.13326094 [kJ/mol]
      Exch11(S^2)                   0.00116981 [mEh]       0.00073407 [kcal/mol]       0.00307133 [kJ/mol]
      Exch12(S^2)                   0.15500050 [mEh]       0.09726428 [kcal/mol]       0.40695375 [kJ/mol]

    Induction                      -0.36564329 [mEh]      -0.22944463 [kcal/mol]      -0.95999633 [kJ/mol]
      Ind20,r                      -0.36831421 [mEh]      -0.23112066 [kcal/mol]      -0.96700883 [kJ/mol]
      Ind22                        -0.06620179 [mEh]      -0.04154225 [kcal/mol]      -0.17381279 [kJ/mol]
      Exch-Ind20,r                  0.08926454 [mEh]       0.05601435 [kcal/mol]       0.23436403 [kJ/mol]
      Exch-Ind22                    0.01604465 [mEh]       0.01006817 [kcal/mol]       0.04212523 [kJ/mol]
      delta HF,r (2)               -0.05092524 [mEh]      -0.03195607 [kcal/mol]      -0.13370421 [kJ/mol]
      delta MP2,r (2)               0.01448877 [mEh]       0.00909184 [kcal/mol]       0.03804025 [kJ/mol]

    Dispersion                     -1.16268780 [mEh]      -0.72959761 [kcal/mol]      -3.05263641 [kJ/mol]
      Disp20                       -1.04654456 [mEh]      -0.65671662 [kcal/mol]      -2.74770235 [kJ/mol]
      Disp30                        0.02116597 [mEh]       0.01328185 [kcal/mol]       0.05557124 [kJ/mol]
      Disp21                        0.07284329 [mEh]       0.04570986 [kcal/mol]       0.19125004 [kJ/mol]
      Disp22 (SDQ)                 -0.02678556 [mEh]      -0.01680819 [kcal/mol]      -0.07032548 [kJ/mol]
      Disp22 (T)                   -0.21054553 [mEh]      -0.13211931 [kcal/mol]      -0.55278721 [kJ/mol]
      Est. Disp22 (T)              -0.23205619 [mEh]      -0.14561746 [kcal/mol]      -0.60926344 [kJ/mol]
      Exch-Disp20                   0.04868924 [mEh]       0.03055296 [kcal/mol]       0.12783359 [kJ/mol]

  Total HF                         -4.10408371 [mEh]      -2.57535141 [kcal/mol]     -10.77527029 [kJ/mol]
  Total SAPT0                      -5.10193902 [mEh]      -3.20151507 [kcal/mol]     -13.39513905 [kJ/mol]
  Total SAPT2                      -4.88503477 [mEh]      -3.06540560 [kcal/mol]     -12.82565703 [kJ/mol]
  Total SAPT2+                     -5.07103323 [mEh]      -3.18212139 [kcal/mol]     -13.31399591 [kJ/mol]
  Total SAPT2+(3)                  -5.01774396 [mEh]      -3.14868187 [kcal/mol]     -13.17408495 [kJ/mol]
  Total SAPT2+dMP2                 -5.05654446 [mEh]      -3.17302956 [kcal/mol]     -13.27595566 [kJ/mol]
  Total SAPT2+(3)dMP2              -5.00325519 [mEh]      -3.13959003 [kcal/mol]     -13.13604470 [kJ/mol]

  Special recipe for scaled SAPT0 (see Manual):
    Electrostatics sSAPT0          -4.20587768 [mEh]      -2.63922809 [kcal/mol]     -11.04253033 [kJ/mol]
    Exchange sSAPT0                 0.43176889 [mEh]       0.27093907 [kcal/mol]       1.13360905 [kJ/mol]
    Induction sSAPT0               -0.32989263 [mEh]      -0.20701075 [kcal/mol]      -0.86613297 [kJ/mol]
    Dispersion sSAPT0              -0.99781043 [mEh]      -0.62613550 [kcal/mol]      -2.61975093 [kJ/mol]
  Total sSAPT0                     -5.10181185 [mEh]      -3.20143527 [kcal/mol]     -13.39480517 [kJ/mol]
  --------------------------------------------------------------------------------------------------------

*** tstop() called on node45.bme.utexas.edu at Thu Mar 28 06:21:10 2024
Module time:
	user time   =   79430.50 seconds =    1323.84 minutes
	system time =    1089.60 seconds =      18.16 minutes
	total time  =      11167 seconds =     186.12 minutes
Total time:
	user time   =   80949.25 seconds =    1349.15 minutes
	system time =    1112.99 seconds =      18.55 minutes
	total time  =      11394 seconds =     189.90 minutes

    Psi4 stopped on: Thursday, 28 March 2024 06:21AM
    Psi4 wall time for execution: 3:09:55.36

*** Psi4 exiting successfully. Buy a developer a beer!
