
    -----------------------------------------------------------------------
          Psi4: An Open-Source Ab Initio Electronic Structure Package
                               Psi4 1.5 release

                         Git: Rev {HEAD} e9f4d6d 


    D. G. A. Smith, L. A. Burns, A. C. Simmonett, R. M. Parrish,
    M. C. Schieber, R. Galvelis, P. Kraus, H. Kruse, R. Di Remigio,
    A. Alenaizan, A. M. James, S. Lehtola, J. P. Misiewicz, M. Scheurer,
    R. A. Shaw, J. B. Schriber, Y. Xie, Z. L. Glick, D. A. Sirianni,
    J. S. O'Brien, J. M. Waldrop, A. Kumar, E. G. Hohenstein,
    B. P. Pritchard, B. R. Brooks, H. F. Schaefer III, A. Yu. Sokolov,
    K. Patkowski, A. E. DePrince III, U. Bozkaya, R. A. King,
    F. A. Evangelista, J. M. Turney, T. D. Crawford, C. D. Sherrill,
    J. Chem. Phys. 152(18) 184108 (2020). https://doi.org/10.1063/5.0006002

                            Additional Code Authors
    E. T. Seidl, C. L. Janssen, E. F. Valeev, M. L. Leininger,
    J. F. Gonthier, R. M. Richard, H. R. McAlexander, M. Saitow, X. Wang,
    P. Verma, M. H. Lechner, and A. Jiang

             Previous Authors, Complete List of Code Contributors,
                       and Citations for Specific Modules
    https://github.com/psi4/psi4/blob/master/codemeta.json
    https://github.com/psi4/psi4/graphs/contributors
    http://psicode.org/psi4manual/master/introduction.html#citing-psifour

    -----------------------------------------------------------------------


    Psi4 started on: Thursday, 28 March 2024 03:10AM

    Process ID: 2094223
    Host:       node113.bme.utexas.edu
    PSIDATADIR: /opt/anaconda/envs/psi4v1.5/share/psi4
    Memory:     500.0 MiB
    Threads:    8
    
  ==> Input File <==

--------------------------------------------------------------------------
memory 50GB

molecule {
0 1
H -2.43488 0.93263 -0.02649
N -1.41936 1.06992 -0.01468
C -0.6643 2.21111 -0.00045
H -1.11875 3.19394 0.00448
N 0.64678 1.98904 0.0068
C 0.73093 0.61264 -0.0099
C 1.82843 -0.26997 0.00797
N 3.11301 0.17757 -0.03865
N 1.60021 -1.59414 0.00915
C 0.32195 -2.02658 -0.00981
H 0.19538 -3.10698 -0.01104
N -0.80442 -1.3016 -0.02352
C -0.53569 0.01965 -0.01716
H 3.82963 -0.49372 0.20662
H 3.27441 1.1441 0.21418
--
0 1
O -4.8349666 -0.9794862 -0.0008310000000000053
H -5.2504366 -1.2520262 0.832069
H -4.0405666 -1.5547162 -0.074301
 units angstrom
 no_reorient
 symmetry c1} 
set  {scf_type DF
 basis aug-cc-pvtz
 freeze_core True
 guess SAD}
energy('sapt2+(3)dmp2')
--------------------------------------------------------------------------

  Memory set to  46.566 GiB by Python driver.

Scratch directory: /tmp/
   => Loading Basis Set <=

    Name: AUG-CC-PVTZ
    Role: ORBITAL
    Keyword: BASIS
    atoms 1, 4, 11, 14-15, 17-18 entry H          line    40 file /opt/anaconda/envs/psi4v1.5/share/psi4/basis/aug-cc-pvtz.gbs 
    atoms 2, 5, 8-9, 12          entry N          line   285 file /opt/anaconda/envs/psi4v1.5/share/psi4/basis/aug-cc-pvtz.gbs 
    atoms 3, 6-7, 10, 13         entry C          line   239 file /opt/anaconda/envs/psi4v1.5/share/psi4/basis/aug-cc-pvtz.gbs 
    atoms 16                     entry O          line   331 file /opt/anaconda/envs/psi4v1.5/share/psi4/basis/aug-cc-pvtz.gbs 

   => Loading Basis Set <=

    Name: AUG-CC-PVTZ
    Role: ORBITAL
    Keyword: BASIS
    atoms 1, 4, 11, 14-15, 17-18 entry H          line    40 file /opt/anaconda/envs/psi4v1.5/share/psi4/basis/aug-cc-pvtz.gbs 
    atoms 2, 5, 8-9, 12          entry N          line   285 file /opt/anaconda/envs/psi4v1.5/share/psi4/basis/aug-cc-pvtz.gbs 
    atoms 3, 6-7, 10, 13         entry C          line   239 file /opt/anaconda/envs/psi4v1.5/share/psi4/basis/aug-cc-pvtz.gbs 
    atoms 16                     entry O          line   331 file /opt/anaconda/envs/psi4v1.5/share/psi4/basis/aug-cc-pvtz.gbs 


  //>>>>>>>>>>>>>>>>>>>>>>>>>>>>>>>>>>>//
  //              Dimer HF             //
  //<<<<<<<<<<<<<<<<<<<<<<<<<<<<<<<<<<<//


*** tstart() called on node113.bme.utexas.edu
*** at Thu Mar 28 03:10:50 2024

   => Loading Basis Set <=

    Name: AUG-CC-PVTZ
    Role: ORBITAL
    Keyword: BASIS
    atoms 1, 4, 11, 14-15, 17-18 entry H          line    40 file /opt/anaconda/envs/psi4v1.5/share/psi4/basis/aug-cc-pvtz.gbs 
    atoms 2, 5, 8-9, 12          entry N          line   285 file /opt/anaconda/envs/psi4v1.5/share/psi4/basis/aug-cc-pvtz.gbs 
    atoms 3, 6-7, 10, 13         entry C          line   239 file /opt/anaconda/envs/psi4v1.5/share/psi4/basis/aug-cc-pvtz.gbs 
    atoms 16                     entry O          line   331 file /opt/anaconda/envs/psi4v1.5/share/psi4/basis/aug-cc-pvtz.gbs 


         ---------------------------------------------------------
                                   SCF
               by Justin Turney, Rob Parrish, Andy Simmonett
                          and Daniel G. A. Smith
                              RHF Reference
                        8 Threads,  47683 MiB Core
         ---------------------------------------------------------

  ==> Geometry <==

    Molecular point group: c1
    Full point group: C1

    Geometry (in Angstrom), charge = 0, multiplicity = 1:

       Center              X                  Y                   Z               Mass       
    ------------   -----------------  -----------------  -----------------  -----------------
         H           -2.311854393179     0.968419736962    -0.026073201642     1.007825032230
         N           -1.296334393179     1.105709736962    -0.014263201642    14.003074004430
         C           -0.541274393179     2.246899736962    -0.000033201642    12.000000000000
         H           -0.995724393179     3.229729736962     0.004896798358     1.007825032230
         N            0.769805606821     2.024829736962     0.007216798358    14.003074004430
         C            0.853955606821     0.648429736962    -0.009483201642    12.000000000000
         C            1.951455606821    -0.234180263038     0.008386798358    12.000000000000
         N            3.236035606821     0.213359736962    -0.038233201642    14.003074004430
         N            1.723235606821    -1.558350263038     0.009566798358    14.003074004430
         C            0.444975606821    -1.990790263038    -0.009393201642    12.000000000000
         H            0.318405606821    -3.071190263038    -0.010623201642     1.007825032230
         N           -0.681394393179    -1.265810263038    -0.023103201642    14.003074004430
         C           -0.412664393179     0.055439736962    -0.016743201642    12.000000000000
         H            3.952655606821    -0.457930263038     0.207036798358     1.007825032230
         H            3.397435606821     1.179889736962     0.214596798358     1.007825032230
         O           -4.711940993179    -0.943696463038    -0.000414201642    15.994914619570
         H           -5.127410993179    -1.216236463038     0.832485798358     1.007825032230
         H           -3.917540993179    -1.518926463038    -0.073884201642     1.007825032230

  Running in c1 symmetry.

  Rotational constants: A =      0.05953  B =      0.02327  C =      0.01676 [cm^-1]
  Rotational constants: A =   1784.74080  B =    697.54416  C =    502.34466 [MHz]
  Nuclear repulsion =  580.056905058065468

  Charge       = 0
  Multiplicity = 1
  Electrons    = 80
  Nalpha       = 40
  Nbeta        = 40

  ==> Algorithm <==

  SCF Algorithm Type is DF.
  DIIS enabled.
  MOM disabled.
  Fractional occupation disabled.
  Guess Type is SAD.
  Energy threshold   = 1.00e-08
  Density threshold  = 1.00e-08
  Integral threshold = 1.00e-12

  ==> Primary Basis <==

  Basis Set: AUG-CC-PVTZ
    Blend: AUG-CC-PVTZ
    Number of shells: 217
    Number of basis functions: 667
    Number of Cartesian functions: 780
    Spherical Harmonics?: true
    Max angular momentum: 3

   => Loading Basis Set <=

    Name: (AUG-CC-PVTZ AUX)
    Role: JKFIT
    Keyword: DF_BASIS_SCF
    atoms 1, 4, 11, 14-15, 17-18 entry H          line    70 file /opt/anaconda/envs/psi4v1.5/share/psi4/basis/aug-cc-pvtz-jkfit.gbs 
    atoms 2, 5, 8-9, 12          entry N          line   224 file /opt/anaconda/envs/psi4v1.5/share/psi4/basis/aug-cc-pvtz-jkfit.gbs 
    atoms 3, 6-7, 10, 13         entry C          line   162 file /opt/anaconda/envs/psi4v1.5/share/psi4/basis/aug-cc-pvtz-jkfit.gbs 
    atoms 16                     entry O          line   286 file /opt/anaconda/envs/psi4v1.5/share/psi4/basis/aug-cc-pvtz-jkfit.gbs 

  ==> Integral Setup <==

  ==> DiskDFJK: Density-Fitted J/K Matrices <==

    J tasked:                  Yes
    K tasked:                  Yes
    wK tasked:                  No
    OpenMP threads:              8
    Integrals threads:           8
    Memory [MiB]:            35762
    Algorithm:                Core
    Integral Cache:           SAVE
    Schwarz Cutoff:          1E-12
    Fitting Condition:       1E-10

   => Auxiliary Basis Set <=

  Basis Set: (AUG-CC-PVTZ AUX)
    Blend: AUG-CC-PVTZ-JKFIT
    Number of shells: 428
    Number of basis functions: 1466
    Number of Cartesian functions: 1826
    Spherical Harmonics?: true
    Max angular momentum: 4

  Minimum eigenvalue in the overlap matrix is 1.4002517042E-06.
  Reciprocal condition number of the overlap matrix is 8.1448108083E-08.
    Using symmetric orthogonalization.

  ==> Pre-Iterations <==

  SCF Guess: Superposition of Atomic Densities via on-the-fly atomic UHF (no occupation information).

   -------------------------
    Irrep   Nso     Nmo    
   -------------------------
     A        667     667 
   -------------------------
    Total     667     667
   -------------------------

  ==> Iterations <==

                           Total Energy        Delta E     RMS |[F,P]|

   @DF-RHF iter SAD:  -539.92861312712841   -5.39929e+02   0.00000e+00 
   @DF-RHF iter   1:  -540.42744247624603   -4.98829e-01   1.21328e-03 DIIS
   @DF-RHF iter   2:  -540.66577691135126   -2.38334e-01   6.83908e-04 DIIS
   @DF-RHF iter   3:  -540.74024904518274   -7.44721e-02   1.16457e-04 DIIS
   @DF-RHF iter   4:  -540.74392508111532   -3.67604e-03   5.34543e-05 DIIS
   @DF-RHF iter   5:  -540.74458903832590   -6.63957e-04   1.32024e-05 DIIS
   @DF-RHF iter   6:  -540.74465719737418   -6.81590e-05   5.86294e-06 DIIS
   @DF-RHF iter   7:  -540.74467444798472   -1.72506e-05   2.08715e-06 DIIS
   @DF-RHF iter   8:  -540.74467791942106   -3.47144e-06   7.81694e-07 DIIS
   @DF-RHF iter   9:  -540.74467846135019   -5.41929e-07   4.18786e-07 DIIS
   @DF-RHF iter  10:  -540.74467858789626   -1.26546e-07   1.63611e-07 DIIS
   @DF-RHF iter  11:  -540.74467861642006   -2.85238e-08   7.10738e-08 DIIS
   @DF-RHF iter  12:  -540.74467862097197   -4.55191e-09   2.84504e-08 DIIS
   @DF-RHF iter  13:  -540.74467862169035   -7.18387e-10   8.84798e-09 DIIS
  Energy and wave function converged.


  ==> Post-Iterations <==

    Orbital Energies [Eh]
    ---------------------

    Doubly Occupied:                                                      

       1A    -20.574514     2A    -15.636068     3A    -15.585714  
       4A    -15.572623     5A    -15.564955     6A    -15.555170  
       7A    -11.339830     8A    -11.328795     9A    -11.319365  
      10A    -11.315876    11A    -11.255207    12A     -1.368724  
      13A     -1.348332    14A     -1.299356    15A     -1.246265  
      16A     -1.186972    17A     -1.152722    18A     -1.033567  
      19A     -0.895244    20A     -0.876401    21A     -0.848870  
      22A     -0.777251    23A     -0.735133    24A     -0.710829  
      25A     -0.699191    26A     -0.675487    27A     -0.640489  
      28A     -0.631106    29A     -0.612400    30A     -0.592368  
      31A     -0.587018    32A     -0.558931    33A     -0.514401  
      34A     -0.500327    35A     -0.499619    36A     -0.454876  
      37A     -0.427416    38A     -0.413367    39A     -0.375805  
      40A     -0.311206  

    Virtual:                                                              

      41A      0.023784    42A      0.030973    43A      0.031584  
      44A      0.043248    45A      0.053300    46A      0.059601  
      47A      0.063874    48A      0.073799    49A      0.079601  
      50A      0.083916    51A      0.096761    52A      0.103087  
      53A      0.106175    54A      0.108163    55A      0.114700  
      56A      0.117023    57A      0.118713    58A      0.128847  
      59A      0.130492    60A      0.130976    61A      0.137331  
      62A      0.142109    63A      0.143220    64A      0.148970  
      65A      0.150474    66A      0.161328    67A      0.166351  
      68A      0.169883    69A      0.179703    70A      0.184669  
      71A      0.185865    72A      0.191527    73A      0.194611  
      74A      0.204644    75A      0.206002    76A      0.214131  
      77A      0.215146    78A      0.221359    79A      0.223486  
      80A      0.225358    81A      0.233782    82A      0.238947  
      83A      0.240798    84A      0.245233    85A      0.248199  
      86A      0.259670    87A      0.266816    88A      0.268842  
      89A      0.280930    90A      0.283400    91A      0.286655  
      92A      0.295301    93A      0.297768    94A      0.305083  
      95A      0.309174    96A      0.313476    97A      0.322612  
      98A      0.324559    99A      0.329038   100A      0.337225  
     101A      0.339020   102A      0.347891   103A      0.361460  
     104A      0.364268   105A      0.365908   106A      0.372930  
     107A      0.377135   108A      0.379381   109A      0.386421  
     110A      0.396860   111A      0.398124   112A      0.405164  
     113A      0.409761   114A      0.418708   115A      0.425897  
     116A      0.427236   117A      0.431695   118A      0.436703  
     119A      0.437789   120A      0.443054   121A      0.448229  
     122A      0.449443   123A      0.453264   124A      0.460769  
     125A      0.465252   126A      0.470403   127A      0.474745  
     128A      0.482472   129A      0.487677   130A      0.493466  
     131A      0.494078   132A      0.501773   133A      0.506161  
     134A      0.516190   135A      0.521066   136A      0.525663  
     137A      0.528704   138A      0.534155   139A      0.542417  
     140A      0.544355   141A      0.549550   142A      0.557200  
     143A      0.561659   144A      0.575273   145A      0.581273  
     146A      0.587049   147A      0.600119   148A      0.604123  
     149A      0.608557   150A      0.617898   151A      0.626476  
     152A      0.630268   153A      0.642694   154A      0.650009  
     155A      0.652930   156A      0.657067   157A      0.667317  
     158A      0.667765   159A      0.672553   160A      0.676493  
     161A      0.686440   162A      0.693258   163A      0.695710  
     164A      0.706956   165A      0.716440   166A      0.724274  
     167A      0.730206   168A      0.736106   169A      0.740242  
     170A      0.746131   171A      0.753046   172A      0.763689  
     173A      0.765923   174A      0.769054   175A      0.775366  
     176A      0.787844   177A      0.796202   178A      0.806337  
     179A      0.812324   180A      0.814953   181A      0.820441  
     182A      0.823323   183A      0.825110   184A      0.829769  
     185A      0.833821   186A      0.839270   187A      0.847413  
     188A      0.855610   189A      0.872885   190A      0.875495  
     191A      0.876205   192A      0.886453   193A      0.900871  
     194A      0.906330   195A      0.908138   196A      0.922248  
     197A      0.928330   198A      0.930675   199A      0.937110  
     200A      0.942579   201A      0.946777   202A      0.949880  
     203A      0.956225   204A      0.962361   205A      0.966166  
     206A      0.974379   207A      0.975642   208A      0.982829  
     209A      0.987523   210A      0.988515   211A      0.996024  
     212A      0.996306   213A      1.005517   214A      1.016102  
     215A      1.020257   216A      1.029619   217A      1.033004  
     218A      1.036008   219A      1.036813   220A      1.051557  
     221A      1.054955   222A      1.061982   223A      1.067345  
     224A      1.071217   225A      1.077611   226A      1.088873  
     227A      1.095366   228A      1.102097   229A      1.106385  
     230A      1.110500   231A      1.117481   232A      1.118040  
     233A      1.126205   234A      1.129683   235A      1.136243  
     236A      1.141553   237A      1.145581   238A      1.153923  
     239A      1.163740   240A      1.172730   241A      1.177977  
     242A      1.182591   243A      1.185148   244A      1.198624  
     245A      1.207904   246A      1.216100   247A      1.221407  
     248A      1.234182   249A      1.241110   250A      1.243389  
     251A      1.255352   252A      1.264789   253A      1.273766  
     254A      1.278651   255A      1.287089   256A      1.296192  
     257A      1.299106   258A      1.302656   259A      1.306288  
     260A      1.314005   261A      1.318974   262A      1.332795  
     263A      1.343603   264A      1.349008   265A      1.360798  
     266A      1.372801   267A      1.375472   268A      1.387390  
     269A      1.394527   270A      1.408564   271A      1.416102  
     272A      1.425009   273A      1.430270   274A      1.440459  
     275A      1.459749   276A      1.462195   277A      1.474588  
     278A      1.480243   279A      1.491221   280A      1.495536  
     281A      1.507947   282A      1.517896   283A      1.528223  
     284A      1.533570   285A      1.542059   286A      1.549502  
     287A      1.563191   288A      1.566169   289A      1.572840  
     290A      1.578251   291A      1.599581   292A      1.604545  
     293A      1.616795   294A      1.622018   295A      1.626597  
     296A      1.634555   297A      1.641653   298A      1.652710  
     299A      1.659406   300A      1.672554   301A      1.676733  
     302A      1.691497   303A      1.697450   304A      1.703283  
     305A      1.721489   306A      1.722547   307A      1.742853  
     308A      1.750014   309A      1.756801   310A      1.764634  
     311A      1.772947   312A      1.778573   313A      1.788397  
     314A      1.800641   315A      1.823277   316A      1.835043  
     317A      1.840178   318A      1.847504   319A      1.864693  
     320A      1.883493   321A      1.902562   322A      1.912375  
     323A      1.916786   324A      1.930373   325A      1.942104  
     326A      1.948373   327A      1.951421   328A      1.968052  
     329A      1.973469   330A      1.999212   331A      2.006558  
     332A      2.025663   333A      2.035982   334A      2.046813  
     335A      2.057014   336A      2.067579   337A      2.076088  
     338A      2.090663   339A      2.098093   340A      2.107833  
     341A      2.122201   342A      2.128737   343A      2.141729  
     344A      2.152929   345A      2.158960   346A      2.179300  
     347A      2.187118   348A      2.199639   349A      2.200889  
     350A      2.217528   351A      2.220467   352A      2.230081  
     353A      2.250687   354A      2.253864   355A      2.268014  
     356A      2.270874   357A      2.284362   358A      2.295632  
     359A      2.317158   360A      2.317588   361A      2.332545  
     362A      2.340114   363A      2.350195   364A      2.354973  
     365A      2.365314   366A      2.371059   367A      2.381118  
     368A      2.394925   369A      2.402048   370A      2.410203  
     371A      2.426055   372A      2.429310   373A      2.435494  
     374A      2.445411   375A      2.446906   376A      2.455593  
     377A      2.465436   378A      2.477612   379A      2.491823  
     380A      2.496505   381A      2.506910   382A      2.520808  
     383A      2.536828   384A      2.559855   385A      2.569926  
     386A      2.573336   387A      2.587390   388A      2.596657  
     389A      2.608877   390A      2.629549   391A      2.647384  
     392A      2.656070   393A      2.667432   394A      2.676436  
     395A      2.685681   396A      2.701018   397A      2.711792  
     398A      2.728101   399A      2.730389   400A      2.749045  
     401A      2.771343   402A      2.784145   403A      2.795173  
     404A      2.807305   405A      2.818385   406A      2.842135  
     407A      2.849386   408A      2.857284   409A      2.873351  
     410A      2.888280   411A      2.907346   412A      2.942611  
     413A      2.967494   414A      2.982138   415A      3.011867  
     416A      3.047157   417A      3.086014   418A      3.089525  
     419A      3.114836   420A      3.150271   421A      3.164896  
     422A      3.183484   423A      3.196632   424A      3.238946  
     425A      3.242019   426A      3.272009   427A      3.310809  
     428A      3.356900   429A      3.360198   430A      3.407775  
     431A      3.425332   432A      3.443756   433A      3.462701  
     434A      3.467303   435A      3.472094   436A      3.516708  
     437A      3.523826   438A      3.526810   439A      3.547798  
     440A      3.552553   441A      3.563906   442A      3.586230  
     443A      3.603030   444A      3.641280   445A      3.647582  
     446A      3.651999   447A      3.673765   448A      3.687760  
     449A      3.711779   450A      3.719359   451A      3.720389  
     452A      3.731709   453A      3.758603   454A      3.769278  
     455A      3.778512   456A      3.783652   457A      3.796887  
     458A      3.809475   459A      3.831558   460A      3.841116  
     461A      3.856833   462A      3.866056   463A      3.895172  
     464A      3.906696   465A      3.916204   466A      3.932187  
     467A      3.943112   468A      3.948081   469A      3.952530  
     470A      3.965540   471A      4.003219   472A      4.007660  
     473A      4.019175   474A      4.021547   475A      4.047501  
     476A      4.053794   477A      4.065944   478A      4.083558  
     479A      4.099198   480A      4.112483   481A      4.140164  
     482A      4.147761   483A      4.149369   484A      4.175579  
     485A      4.190336   486A      4.194697   487A      4.197091  
     488A      4.205966   489A      4.223345   490A      4.238961  
     491A      4.242881   492A      4.244050   493A      4.252823  
     494A      4.267080   495A      4.276998   496A      4.291688  
     497A      4.299972   498A      4.302759   499A      4.318525  
     500A      4.334927   501A      4.347383   502A      4.354294  
     503A      4.365736   504A      4.381722   505A      4.391582  
     506A      4.399891   507A      4.412193   508A      4.422363  
     509A      4.423470   510A      4.439599   511A      4.454429  
     512A      4.467837   513A      4.480336   514A      4.486074  
     515A      4.502218   516A      4.521646   517A      4.527480  
     518A      4.548172   519A      4.561336   520A      4.574292  
     521A      4.589602   522A      4.609869   523A      4.615714  
     524A      4.637469   525A      4.658674   526A      4.666012  
     527A      4.672354   528A      4.710757   529A      4.770408  
     530A      4.778012   531A      4.785093   532A      4.792737  
     533A      4.807504   534A      4.820595   535A      4.835825  
     536A      4.861258   537A      4.865667   538A      4.889620  
     539A      4.899220   540A      4.921402   541A      4.929451  
     542A      4.951904   543A      4.971850   544A      5.013043  
     545A      5.033769   546A      5.075143   547A      5.081878  
     548A      5.090941   549A      5.114544   550A      5.120664  
     551A      5.134212   552A      5.135977   553A      5.159667  
     554A      5.179000   555A      5.224283   556A      5.240900  
     557A      5.260691   558A      5.278968   559A      5.285603  
     560A      5.292636   561A      5.300063   562A      5.316380  
     563A      5.324860   564A      5.337053   565A      5.360115  
     566A      5.372422   567A      5.396115   568A      5.427299  
     569A      5.446468   570A      5.448749   571A      5.469565  
     572A      5.494601   573A      5.506496   574A      5.522209  
     575A      5.541066   576A      5.574326   577A      5.601632  
     578A      5.608847   579A      5.618277   580A      5.633494  
     581A      5.638248   582A      5.650571   583A      5.664420  
     584A      5.676634   585A      5.687586   586A      5.700886  
     587A      5.711799   588A      5.719359   589A      5.751413  
     590A      5.759163   591A      5.767126   592A      5.799111  
     593A      5.815080   594A      5.831483   595A      5.862828  
     596A      5.891372   597A      5.913699   598A      5.924287  
     599A      5.931945   600A      5.947184   601A      5.967061  
     602A      5.981180   603A      6.002243   604A      6.023021  
     605A      6.060641   606A      6.069718   607A      6.130797  
     608A      6.136800   609A      6.164837   610A      6.184585  
     611A      6.195050   612A      6.207944   613A      6.216124  
     614A      6.256925   615A      6.292212   616A      6.305051  
     617A      6.387287   618A      6.430267   619A      6.491950  
     620A      6.516453   621A      6.545923   622A      6.560331  
     623A      6.605067   624A      6.620554   625A      6.679562  
     626A      6.707919   627A      6.722545   628A      6.735456  
     629A      6.753512   630A      6.774111   631A      6.850396  
     632A      6.895978   633A      6.908221   634A      6.949608  
     635A      7.026296   636A      7.046211   637A      7.072250  
     638A      7.099835   639A      7.141537   640A      7.164298  
     641A      7.281135   642A      7.286542   643A      7.301692  
     644A      7.325879   645A      7.360258   646A      7.371892  
     647A      7.411670   648A      7.426233   649A      7.439846  
     650A      7.562607   651A      7.598191   652A      7.759761  
     653A      7.873034   654A      7.892195   655A      7.935057  
     656A      8.772987   657A     15.426113   658A     16.016573  
     659A     16.154977   660A     16.286906   661A     17.711907  
     662A     18.047085   663A     18.902464   664A     19.215606  
     665A     19.307919   666A     19.844677   667A     20.942437  

    Final Occupation by Irrep:
              A 
    DOCC [    40 ]

  @DF-RHF Final Energy:  -540.74467862169035

   => Energetics <=

    Nuclear Repulsion Energy =            580.0569050580654675
    One-Electron Energy =               -1887.5596001044280001
    Two-Electron Energy =                 766.7580164246721779
    Total Energy =                       -540.7446786216903547

Computation Completed


Properties will be evaluated at   0.000000,   0.000000,   0.000000 [a0]

Properties computed using the SCF density matrix

  Nuclear Dipole Moment: [e a0]
     X:    -4.4247      Y:    -0.8369      Z:     1.0768

  Electronic Dipole Moment: [e a0]
     X:     4.1446      Y:     1.1704      Z:    -0.3068

  Dipole Moment: [e a0]
     X:    -0.2800      Y:     0.3336      Z:     0.7700     Total:     0.8846

  Dipole Moment: [D]
     X:    -0.7118      Y:     0.8478      Z:     1.9571     Total:     2.2485


*** tstop() called on node113.bme.utexas.edu at Thu Mar 28 03:12:33 2024
Module time:
	user time   =     764.32 seconds =      12.74 minutes
	system time =       9.10 seconds =       0.15 minutes
	total time  =        103 seconds =       1.72 minutes
Total time:
	user time   =     764.32 seconds =      12.74 minutes
	system time =       9.10 seconds =       0.15 minutes
	total time  =        103 seconds =       1.72 minutes

*** tstart() called on node113.bme.utexas.edu
*** at Thu Mar 28 03:12:33 2024


  //>>>>>>>>>>>>>>>>>>>>>>>>>>>>>>>>>>>//
  //               DFMP2               //
  //<<<<<<<<<<<<<<<<<<<<<<<<<<<<<<<<<<<//

   => Loading Basis Set <=

    Name: (AUG-CC-PVTZ AUX)
    Role: RIFIT
    Keyword: DF_BASIS_MP2
    atoms 1, 4, 11, 14-15, 17-18 entry H          line    30 file /opt/anaconda/envs/psi4v1.5/share/psi4/basis/aug-cc-pvtz-ri.gbs 
    atoms 2, 5, 8-9, 12          entry N          line   206 file /opt/anaconda/envs/psi4v1.5/share/psi4/basis/aug-cc-pvtz-ri.gbs 
    atoms 3, 6-7, 10, 13         entry C          line   148 file /opt/anaconda/envs/psi4v1.5/share/psi4/basis/aug-cc-pvtz-ri.gbs 
    atoms 16                     entry O          line   264 file /opt/anaconda/envs/psi4v1.5/share/psi4/basis/aug-cc-pvtz-ri.gbs 

	 --------------------------------------------------------
	                          DF-MP2                         
	      2nd-Order Density-Fitted Moller-Plesset Theory     
	              RMP2 Wavefunction,   8 Threads             
	                                                         
	        Rob Parrish, Justin Turney, Andy Simmonett,      
	           Ed Hohenstein, and C. David Sherrill          
	 --------------------------------------------------------

   => Auxiliary Basis Set <=

  Basis Set: (AUG-CC-PVTZ AUX)
    Blend: AUG-CC-PVTZ-RI
    Number of shells: 406
    Number of basis functions: 1488
    Number of Cartesian functions: 1881
    Spherical Harmonics?: true
    Max angular momentum: 4

	 --------------------------------------------------------
	                 NBF =   667, NAUX =  1488
	 --------------------------------------------------------
	   CLASS    FOCC     OCC    AOCC    AVIR     VIR    FVIR
	   PAIRS      11      40      29     627     627       0
	 --------------------------------------------------------

	 Will save fitting metric to file 97.

	-----------------------------------------------------------
	 ==================> DF-MP2 Energies <==================== 
	-----------------------------------------------------------
	 Reference Energy          =    -540.7446786216903547 [Eh]
	 Singles Energy            =      -0.0000000000000000 [Eh]
	 Same-Spin Energy          =      -0.5450176567210487 [Eh]
	 Opposite-Spin Energy      =      -1.5293782970215082 [Eh]
	 Correlation Energy        =      -2.0743959537425569 [Eh]
	 Total Energy              =    -542.8190745754328645 [Eh]
	-----------------------------------------------------------
	 ================> DF-SCS-MP2 Energies <================== 
	-----------------------------------------------------------
	 SCS Same-Spin Scale       =       0.3333333333333333 [-]
	 SCS Opposite-Spin Scale   =       1.2000000000000000 [-]
	 SCS Same-Spin Energy      =      -0.1816725522403496 [Eh]
	 SCS Opposite-Spin Energy  =      -1.8352539564258097 [Eh]
	 SCS Correlation Energy    =      -2.0169265086661592 [Eh]
	 SCS Total Energy          =    -542.7616051303565428 [Eh]
	-----------------------------------------------------------


*** tstop() called on node113.bme.utexas.edu at Thu Mar 28 03:13:01 2024
Module time:
	user time   =     163.12 seconds =       2.72 minutes
	system time =       3.06 seconds =       0.05 minutes
	total time  =         28 seconds =       0.47 minutes
Total time:
	user time   =     927.45 seconds =      15.46 minutes
	system time =      12.16 seconds =       0.20 minutes
	total time  =        131 seconds =       2.18 minutes

  //>>>>>>>>>>>>>>>>>>>>>>>>>>>>>>>>>>>//
  //            Monomer A HF           //
  //<<<<<<<<<<<<<<<<<<<<<<<<<<<<<<<<<<<//


*** tstart() called on node113.bme.utexas.edu
*** at Thu Mar 28 03:13:01 2024

   => Loading Basis Set <=

    Name: AUG-CC-PVTZ
    Role: ORBITAL
    Keyword: BASIS
    atoms 1, 4, 11, 14-15, 17-18 entry H          line    40 file /opt/anaconda/envs/psi4v1.5/share/psi4/basis/aug-cc-pvtz.gbs 
    atoms 2, 5, 8-9, 12          entry N          line   285 file /opt/anaconda/envs/psi4v1.5/share/psi4/basis/aug-cc-pvtz.gbs 
    atoms 3, 6-7, 10, 13         entry C          line   239 file /opt/anaconda/envs/psi4v1.5/share/psi4/basis/aug-cc-pvtz.gbs 
    atoms 16                     entry O          line   331 file /opt/anaconda/envs/psi4v1.5/share/psi4/basis/aug-cc-pvtz.gbs 


         ---------------------------------------------------------
                                   SCF
               by Justin Turney, Rob Parrish, Andy Simmonett
                          and Daniel G. A. Smith
                              RHF Reference
                        8 Threads,  47683 MiB Core
         ---------------------------------------------------------

  ==> Geometry <==

    Molecular point group: c1
    Full point group: C1

    Geometry (in Angstrom), charge = 0, multiplicity = 1:

       Center              X                  Y                   Z               Mass       
    ------------   -----------------  -----------------  -----------------  -----------------
         H           -2.311854393179     0.968419736962    -0.026073201642     1.007825032230
         N           -1.296334393179     1.105709736962    -0.014263201642    14.003074004430
         C           -0.541274393179     2.246899736962    -0.000033201642    12.000000000000
         H           -0.995724393179     3.229729736962     0.004896798358     1.007825032230
         N            0.769805606821     2.024829736962     0.007216798358    14.003074004430
         C            0.853955606821     0.648429736962    -0.009483201642    12.000000000000
         C            1.951455606821    -0.234180263038     0.008386798358    12.000000000000
         N            3.236035606821     0.213359736962    -0.038233201642    14.003074004430
         N            1.723235606821    -1.558350263038     0.009566798358    14.003074004430
         C            0.444975606821    -1.990790263038    -0.009393201642    12.000000000000
         H            0.318405606821    -3.071190263038    -0.010623201642     1.007825032230
         N           -0.681394393179    -1.265810263038    -0.023103201642    14.003074004430
         C           -0.412664393179     0.055439736962    -0.016743201642    12.000000000000
         H            3.952655606821    -0.457930263038     0.207036798358     1.007825032230
         H            3.397435606821     1.179889736962     0.214596798358     1.007825032230
      Gh(O)          -4.711940993179    -0.943696463038    -0.000414201642    15.994914619570
      Gh(H)          -5.127410993179    -1.216236463038     0.832485798358     1.007825032230
      Gh(H)          -3.917540993179    -1.518926463038    -0.073884201642     1.007825032230

  Running in c1 symmetry.

  Rotational constants: A =      0.05953  B =      0.02327  C =      0.01676 [cm^-1]
  Rotational constants: A =   1784.74080  B =    697.54416  C =    502.34466 [MHz]
  Nuclear repulsion =  501.704360688069471

  Charge       = 0
  Multiplicity = 1
  Electrons    = 70
  Nalpha       = 35
  Nbeta        = 35

  ==> Algorithm <==

  SCF Algorithm Type is DF.
  DIIS enabled.
  MOM disabled.
  Fractional occupation disabled.
  Guess Type is SAD.
  Energy threshold   = 1.00e-08
  Density threshold  = 1.00e-08
  Integral threshold = 1.00e-12

  ==> Primary Basis <==

  Basis Set: AUG-CC-PVTZ
    Blend: AUG-CC-PVTZ
    Number of shells: 217
    Number of basis functions: 667
    Number of Cartesian functions: 780
    Spherical Harmonics?: true
    Max angular momentum: 3

   => Loading Basis Set <=

    Name: (AUG-CC-PVTZ AUX)
    Role: JKFIT
    Keyword: DF_BASIS_SCF
    atoms 1, 4, 11, 14-15, 17-18 entry H          line    70 file /opt/anaconda/envs/psi4v1.5/share/psi4/basis/aug-cc-pvtz-jkfit.gbs 
    atoms 2, 5, 8-9, 12          entry N          line   224 file /opt/anaconda/envs/psi4v1.5/share/psi4/basis/aug-cc-pvtz-jkfit.gbs 
    atoms 3, 6-7, 10, 13         entry C          line   162 file /opt/anaconda/envs/psi4v1.5/share/psi4/basis/aug-cc-pvtz-jkfit.gbs 
    atoms 16                     entry O          line   286 file /opt/anaconda/envs/psi4v1.5/share/psi4/basis/aug-cc-pvtz-jkfit.gbs 

  ==> Integral Setup <==

  ==> DiskDFJK: Density-Fitted J/K Matrices <==

    J tasked:                  Yes
    K tasked:                  Yes
    wK tasked:                  No
    OpenMP threads:              8
    Integrals threads:           8
    Memory [MiB]:            35762
    Algorithm:                Core
    Integral Cache:           LOAD
    Schwarz Cutoff:          1E-12
    Fitting Condition:       1E-10

   => Auxiliary Basis Set <=

  Basis Set: (AUG-CC-PVTZ AUX)
    Blend: AUG-CC-PVTZ-JKFIT
    Number of shells: 428
    Number of basis functions: 1466
    Number of Cartesian functions: 1826
    Spherical Harmonics?: true
    Max angular momentum: 4

  Minimum eigenvalue in the overlap matrix is 1.4002517042E-06.
  Reciprocal condition number of the overlap matrix is 8.1448108083E-08.
    Using symmetric orthogonalization.

  ==> Pre-Iterations <==

  SCF Guess: Superposition of Atomic Densities via on-the-fly atomic UHF (no occupation information).

   -------------------------
    Irrep   Nso     Nmo    
   -------------------------
     A        667     667 
   -------------------------
    Total     667     667
   -------------------------

  ==> Iterations <==

                           Total Energy        Delta E     RMS |[F,P]|

   @DF-RHF iter SAD:  -464.45545102023436   -4.64455e+02   0.00000e+00 
   @DF-RHF iter   1:  -464.44219070774926    1.32603e-02   1.00220e-03 DIIS
   @DF-RHF iter   2:  -464.63219333243200   -1.90003e-01   4.96084e-04 DIIS
   @DF-RHF iter   3:  -464.67618737086207   -4.39940e-02   1.14862e-04 DIIS
   @DF-RHF iter   4:  -464.67954462415730   -3.35725e-03   5.43556e-05 DIIS
   @DF-RHF iter   5:  -464.68022829743825   -6.83673e-04   1.06166e-05 DIIS
   @DF-RHF iter   6:  -464.68028388827577   -5.55908e-05   5.04974e-06 DIIS
   @DF-RHF iter   7:  -464.68029793587181   -1.40476e-05   2.04302e-06 DIIS
   @DF-RHF iter   8:  -464.68030102208849   -3.08622e-06   7.66581e-07 DIIS
   @DF-RHF iter   9:  -464.68030149741480   -4.75326e-07   4.06383e-07 DIIS
   @DF-RHF iter  10:  -464.68030162084881   -1.23434e-07   1.51960e-07 DIIS
   @DF-RHF iter  11:  -464.68030164698797   -2.61392e-08   6.33306e-08 DIIS
   @DF-RHF iter  12:  -464.68030165073367   -3.74570e-09   2.52471e-08 DIIS
   @DF-RHF iter  13:  -464.68030165127988   -5.46208e-10   8.75977e-09 DIIS
  Energy and wave function converged.


  ==> Post-Iterations <==

    Orbital Energies [Eh]
    ---------------------

    Doubly Occupied:                                                      

       1A    -15.638113     2A    -15.584477     3A    -15.573384  
       4A    -15.561123     5A    -15.553130     6A    -11.338274  
       7A    -11.329555     8A    -11.318400     9A    -11.312830  
      10A    -11.254404    11A     -1.369109    12A     -1.297731  
      13A     -1.244363    14A     -1.187452    15A     -1.150855  
      16A     -1.032662    17A     -0.894618    18A     -0.874861  
      19A     -0.849987    20A     -0.776214    21A     -0.734404  
      22A     -0.698808    23A     -0.674378    24A     -0.640275  
      25A     -0.630249    26A     -0.611875    27A     -0.590935  
      28A     -0.558132    29A     -0.498693    30A     -0.497335  
      31A     -0.453565    32A     -0.427754    33A     -0.410427  
      34A     -0.374180    35A     -0.310111  

    Virtual:                                                              

      36A      0.019441    37A      0.031266    38A      0.032523  
      39A      0.044454    40A      0.051432    41A      0.055456  
      42A      0.062777    43A      0.073784    44A      0.080596  
      45A      0.083371    46A      0.093383    47A      0.097729  
      48A      0.105741    49A      0.107132    50A      0.112680  
      51A      0.117218    52A      0.117653    53A      0.128174  
      54A      0.128675    55A      0.130613    56A      0.133615  
      57A      0.137688    58A      0.141609    59A      0.146205  
      60A      0.150640    61A      0.159019    62A      0.161246  
      63A      0.167717    64A      0.172258    65A      0.182283  
      66A      0.184979    67A      0.188926    68A      0.194528  
      69A      0.197730    70A      0.205700    71A      0.210813  
      72A      0.215108    73A      0.217396    74A      0.224982  
      75A      0.225309    76A      0.232338    77A      0.238007  
      78A      0.241404    79A      0.246089    80A      0.249131  
      81A      0.259899    82A      0.264681    83A      0.273073  
      84A      0.283666    85A      0.287887    86A      0.292999  
      87A      0.297113    88A      0.302044    89A      0.306018  
      90A      0.310879    91A      0.314406    92A      0.320312  
      93A      0.327156    94A      0.330311    95A      0.336976  
      96A      0.339544    97A      0.344306    98A      0.360457  
      99A      0.363852   100A      0.366799   101A      0.371851  
     102A      0.372612   103A      0.376127   104A      0.379104  
     105A      0.391735   106A      0.397468   107A      0.405465  
     108A      0.410113   109A      0.413158   110A      0.419359  
     111A      0.425559   112A      0.432025   113A      0.433813  
     114A      0.438535   115A      0.441489   116A      0.446110  
     117A      0.451011   118A      0.455244   119A      0.461039  
     120A      0.467651   121A      0.469931   122A      0.474730  
     123A      0.477999   124A      0.486590   125A      0.491365  
     126A      0.494477   127A      0.497112   128A      0.502823  
     129A      0.509060   130A      0.514151   131A      0.524026  
     132A      0.525605   133A      0.528121   134A      0.532526  
     135A      0.535576   136A      0.547167   137A      0.551506  
     138A      0.558349   139A      0.576957   140A      0.579685  
     141A      0.588110   142A      0.592188   143A      0.605425  
     144A      0.609301   145A      0.619457   146A      0.627046  
     147A      0.640980   148A      0.646467   149A      0.655559  
     150A      0.659201   151A      0.659779   152A      0.667227  
     153A      0.670837   154A      0.677353   155A      0.686039  
     156A      0.688320   157A      0.695202   158A      0.706463  
     159A      0.717737   160A      0.720081   161A      0.733253  
     162A      0.737645   163A      0.746711   164A      0.752056  
     165A      0.758217   166A      0.762383   167A      0.767565  
     168A      0.776780   169A      0.778318   170A      0.787886  
     171A      0.796245   172A      0.802989   173A      0.804303  
     174A      0.809287   175A      0.813603   176A      0.819665  
     177A      0.828444   178A      0.831268   179A      0.835221  
     180A      0.839176   181A      0.842042   182A      0.845297  
     183A      0.856582   184A      0.862825   185A      0.868631  
     186A      0.873117   187A      0.882518   188A      0.885052  
     189A      0.903502   190A      0.910018   191A      0.912567  
     192A      0.924402   193A      0.932789   194A      0.937802  
     195A      0.938564   196A      0.945028   197A      0.946407  
     198A      0.954306   199A      0.963343   200A      0.966636  
     201A      0.970709   202A      0.975070   203A      0.981312  
     204A      0.986846   205A      0.993938   206A      0.998273  
     207A      0.999896   208A      1.009368   209A      1.015593  
     210A      1.024590   211A      1.027997   212A      1.035732  
     213A      1.039132   214A      1.042403   215A      1.047342  
     216A      1.050941   217A      1.068730   218A      1.073197  
     219A      1.075195   220A      1.080858   221A      1.083745  
     222A      1.091452   223A      1.095401   224A      1.102398  
     225A      1.110440   226A      1.112132   227A      1.117990  
     228A      1.128676   229A      1.131402   230A      1.136576  
     231A      1.141946   232A      1.151881   233A      1.160016  
     234A      1.165795   235A      1.172511   236A      1.179508  
     237A      1.185102   238A      1.194981   239A      1.201590  
     240A      1.206028   241A      1.218122   242A      1.228316  
     243A      1.237444   244A      1.241551   245A      1.250039  
     246A      1.257314   247A      1.263451   248A      1.272699  
     249A      1.281490   250A      1.289566   251A      1.298276  
     252A      1.300894   253A      1.305728   254A      1.313222  
     255A      1.320429   256A      1.332836   257A      1.337285  
     258A      1.345738   259A      1.349712   260A      1.370648  
     261A      1.374948   262A      1.382531   263A      1.390651  
     264A      1.397977   265A      1.406298   266A      1.422035  
     267A      1.425381   268A      1.444022   269A      1.451713  
     270A      1.462554   271A      1.466476   272A      1.477597  
     273A      1.480591   274A      1.497559   275A      1.500224  
     276A      1.510113   277A      1.518391   278A      1.522521  
     279A      1.540673   280A      1.545798   281A      1.550429  
     282A      1.560325   283A      1.567679   284A      1.576102  
     285A      1.581279   286A      1.604287   287A      1.616255  
     288A      1.622267   289A      1.627094   290A      1.637330  
     291A      1.637615   292A      1.657786   293A      1.666347  
     294A      1.677276   295A      1.682359   296A      1.695915  
     297A      1.704344   298A      1.715808   299A      1.719091  
     300A      1.729702   301A      1.740027   302A      1.746913  
     303A      1.758803   304A      1.761389   305A      1.771662  
     306A      1.773376   307A      1.775338   308A      1.790896  
     309A      1.801636   310A      1.823359   311A      1.835690  
     312A      1.836917   313A      1.846571   314A      1.863027  
     315A      1.866408   316A      1.884121   317A      1.894700  
     318A      1.910648   319A      1.917543   320A      1.931264  
     321A      1.939505   322A      1.950147   323A      1.950558  
     324A      1.970625   325A      1.978987   326A      2.002384  
     327A      2.026565   328A      2.030274   329A      2.043561  
     330A      2.058380   331A      2.061592   332A      2.075660  
     333A      2.082482   334A      2.098947   335A      2.100609  
     336A      2.108985   337A      2.122900   338A      2.130319  
     339A      2.140048   340A      2.161009   341A      2.167825  
     342A      2.181053   343A      2.196121   344A      2.206691  
     345A      2.218023   346A      2.221281   347A      2.228211  
     348A      2.240446   349A      2.255715   350A      2.269353  
     351A      2.272731   352A      2.285171   353A      2.297066  
     354A      2.317778   355A      2.320115   356A      2.334856  
     357A      2.348987   358A      2.353052   359A      2.367715  
     360A      2.379065   361A      2.388120   362A      2.405417  
     363A      2.408746   364A      2.418028   365A      2.427618  
     366A      2.441894   367A      2.445457   368A      2.449719  
     369A      2.453945   370A      2.462989   371A      2.476147  
     372A      2.496874   373A      2.499926   374A      2.534578  
     375A      2.542427   376A      2.547128   377A      2.559089  
     378A      2.570501   379A      2.574584   380A      2.583199  
     381A      2.593454   382A      2.609003   383A      2.622743  
     384A      2.633286   385A      2.646886   386A      2.667206  
     387A      2.675037   388A      2.682644   389A      2.691242  
     390A      2.701651   391A      2.711563   392A      2.720542  
     393A      2.732914   394A      2.743938   395A      2.777474  
     396A      2.799425   397A      2.809413   398A      2.822019  
     399A      2.844420   400A      2.855850   401A      2.871092  
     402A      2.880670   403A      2.898838   404A      2.914196  
     405A      2.952767   406A      2.981527   407A      3.009228  
     408A      3.044568   409A      3.086070   410A      3.089446  
     411A      3.113673   412A      3.148451   413A      3.164404  
     414A      3.171720   415A      3.184425   416A      3.192606  
     417A      3.207072   418A      3.233999   419A      3.242878  
     420A      3.270564   421A      3.278046   422A      3.306109  
     423A      3.314728   424A      3.357068   425A      3.361581  
     426A      3.397975   427A      3.408978   428A      3.427429  
     429A      3.445167   430A      3.467348   431A      3.470638  
     432A      3.476082   433A      3.517601   434A      3.523042  
     435A      3.525046   436A      3.534652   437A      3.550278  
     438A      3.562936   439A      3.566941   440A      3.592746  
     441A      3.610059   442A      3.641485   443A      3.655367  
     444A      3.660176   445A      3.678091   446A      3.690822  
     447A      3.710557   448A      3.721254   449A      3.724310  
     450A      3.730649   451A      3.760983   452A      3.770771  
     453A      3.778219   454A      3.787659   455A      3.803520  
     456A      3.831359   457A      3.843677   458A      3.857375  
     459A      3.867901   460A      3.897437   461A      3.907698  
     462A      3.917619   463A      3.934058   464A      3.946306  
     465A      3.950312   466A      3.953438   467A      3.968044  
     468A      4.004560   469A      4.011295   470A      4.021673  
     471A      4.023637   472A      4.052590   473A      4.066245  
     474A      4.081560   475A      4.100490   476A      4.114261  
     477A      4.144990   478A      4.148573   479A      4.160831  
     480A      4.181213   481A      4.193932   482A      4.197692  
     483A      4.205150   484A      4.235918   485A      4.240514  
     486A      4.246011   487A      4.253147   488A      4.268028  
     489A      4.282368   490A      4.298817   491A      4.303950  
     492A      4.322042   493A      4.337326   494A      4.356559  
     495A      4.358887   496A      4.374320   497A      4.384888  
     498A      4.388516   499A      4.395552   500A      4.416051  
     501A      4.430507   502A      4.460403   503A      4.467078  
     504A      4.478409   505A      4.489423   506A      4.500077  
     507A      4.502287   508A      4.529136   509A      4.543967  
     510A      4.548706   511A      4.573026   512A      4.588054  
     513A      4.608326   514A      4.614032   515A      4.621478  
     516A      4.636777   517A      4.648249   518A      4.655022  
     519A      4.670689   520A      4.689423   521A      4.709600  
     522A      4.721704   523A      4.778625   524A      4.784057  
     525A      4.794046   526A      4.811237   527A      4.823459  
     528A      4.836570   529A      4.862919   530A      4.888502  
     531A      4.893365   532A      4.900498   533A      4.910826  
     534A      4.928573   535A      4.934951   536A      4.953114  
     537A      4.973935   538A      4.988570   539A      5.014813  
     540A      5.039462   541A      5.076483   542A      5.083223  
     543A      5.089081   544A      5.116703   545A      5.136972  
     546A      5.159275   547A      5.180181   548A      5.219659  
     549A      5.224558   550A      5.243983   551A      5.281679  
     552A      5.286191   553A      5.288711   554A      5.313744  
     555A      5.324850   556A      5.337316   557A      5.361110  
     558A      5.375356   559A      5.395424   560A      5.428575  
     561A      5.448136   562A      5.457100   563A      5.476531  
     564A      5.483940   565A      5.498786   566A      5.518302  
     567A      5.542006   568A      5.571332   569A      5.582147  
     570A      5.592753   571A      5.608883   572A      5.614362  
     573A      5.617471   574A      5.634752   575A      5.642480  
     576A      5.651915   577A      5.675193   578A      5.678143  
     579A      5.701273   580A      5.707918   581A      5.719219  
     582A      5.753534   583A      5.760385   584A      5.764442  
     585A      5.799806   586A      5.815190   587A      5.832098  
     588A      5.832828   589A      5.864407   590A      5.891375  
     591A      5.914953   592A      5.925437   593A      5.932580  
     594A      5.947650   595A      5.967889   596A      5.982918  
     597A      6.003358   598A      6.024010   599A      6.062525  
     600A      6.070886   601A      6.129903   602A      6.136859  
     603A      6.163784   604A      6.179526   605A      6.189094  
     606A      6.209950   607A      6.216223   608A      6.256187  
     609A      6.294828   610A      6.305977   611A      6.344950  
     612A      6.390348   613A      6.431789   614A      6.495095  
     615A      6.518515   616A      6.550631   617A      6.577336  
     618A      6.606144   619A      6.621051   620A      6.680688  
     621A      6.711383   622A      6.725872   623A      6.738188  
     624A      6.774401   625A      6.849116   626A      6.901867  
     627A      6.948712   628A      7.002652   629A      7.027357  
     630A      7.048838   631A      7.076809   632A      7.101677  
     633A      7.166997   634A      7.285494   635A      7.361065  
     636A      7.417880   637A      7.433037   638A      7.597767  
     639A      7.692250   640A      7.760682   641A      7.806239  
     642A      7.870706   643A      8.041752   644A      8.141039  
     645A      8.267130   646A      8.659190   647A      8.764456  
     648A      9.688113   649A      9.910712   650A     10.034108  
     651A     10.222835   652A     11.129480   653A     11.697443  
     654A     11.952882   655A     13.437619   656A     13.895792  
     657A     16.017789   658A     16.155042   659A     16.285486  
     660A     17.713215   661A     18.047218   662A     18.902731  
     663A     19.217250   664A     19.308737   665A     19.846046  
     666A     20.943491   667A     64.032863  

    Final Occupation by Irrep:
              A 
    DOCC [    35 ]

  @DF-RHF Final Energy:  -464.68030165127988

   => Energetics <=

    Nuclear Repulsion Energy =            501.7043606880694711
    One-Electron Energy =               -1626.2639986222184234
    Two-Electron Energy =                 659.8793362828690761
    Total Energy =                       -464.6803016512798195

Computation Completed


Properties will be evaluated at   0.000000,   0.000000,   0.000000 [a0]

Properties computed using the SCF density matrix

  Nuclear Dipole Moment: [e a0]
     X:    83.9020      Y:    18.5985      Z:    -0.3505

  Electronic Dipole Moment: [e a0]
     X:   -84.4342      Y:   -17.7413      Z:     0.6310

  Dipole Moment: [e a0]
     X:    -0.5322      Y:     0.8572      Z:     0.2805     Total:     1.0472

  Dipole Moment: [D]
     X:    -1.3526      Y:     2.1787      Z:     0.7130     Total:     2.6617


*** tstop() called on node113.bme.utexas.edu at Thu Mar 28 03:14:18 2024
Module time:
	user time   =     576.44 seconds =       9.61 minutes
	system time =       5.50 seconds =       0.09 minutes
	total time  =         77 seconds =       1.28 minutes
Total time:
	user time   =    1503.94 seconds =      25.07 minutes
	system time =      17.67 seconds =       0.29 minutes
	total time  =        208 seconds =       3.47 minutes

*** tstart() called on node113.bme.utexas.edu
*** at Thu Mar 28 03:14:18 2024


  //>>>>>>>>>>>>>>>>>>>>>>>>>>>>>>>>>>>//
  //               DFMP2               //
  //<<<<<<<<<<<<<<<<<<<<<<<<<<<<<<<<<<<//

   => Loading Basis Set <=

    Name: (AUG-CC-PVTZ AUX)
    Role: RIFIT
    Keyword: DF_BASIS_MP2
    atoms 1, 4, 11, 14-15, 17-18 entry H          line    30 file /opt/anaconda/envs/psi4v1.5/share/psi4/basis/aug-cc-pvtz-ri.gbs 
    atoms 2, 5, 8-9, 12          entry N          line   206 file /opt/anaconda/envs/psi4v1.5/share/psi4/basis/aug-cc-pvtz-ri.gbs 
    atoms 3, 6-7, 10, 13         entry C          line   148 file /opt/anaconda/envs/psi4v1.5/share/psi4/basis/aug-cc-pvtz-ri.gbs 
    atoms 16                     entry O          line   264 file /opt/anaconda/envs/psi4v1.5/share/psi4/basis/aug-cc-pvtz-ri.gbs 

	 --------------------------------------------------------
	                          DF-MP2                         
	      2nd-Order Density-Fitted Moller-Plesset Theory     
	              RMP2 Wavefunction,   8 Threads             
	                                                         
	        Rob Parrish, Justin Turney, Andy Simmonett,      
	           Ed Hohenstein, and C. David Sherrill          
	 --------------------------------------------------------

   => Auxiliary Basis Set <=

  Basis Set: (AUG-CC-PVTZ AUX)
    Blend: AUG-CC-PVTZ-RI
    Number of shells: 406
    Number of basis functions: 1488
    Number of Cartesian functions: 1881
    Spherical Harmonics?: true
    Max angular momentum: 4

	 --------------------------------------------------------
	                 NBF =   667, NAUX =  1488
	 --------------------------------------------------------
	   CLASS    FOCC     OCC    AOCC    AVIR     VIR    FVIR
	   PAIRS      10      35      25     632     632       0
	 --------------------------------------------------------

	 Will attempt to load fitting metric from file 97.

	-----------------------------------------------------------
	 ==================> DF-MP2 Energies <==================== 
	-----------------------------------------------------------
	 Reference Energy          =    -464.6803016512798763 [Eh]
	 Singles Energy            =      -0.0000000000000000 [Eh]
	 Same-Spin Energy          =      -0.4789599037278200 [Eh]
	 Opposite-Spin Energy      =      -1.3245185593135214 [Eh]
	 Correlation Energy        =      -1.8034784630413414 [Eh]
	 Total Energy              =    -466.4837801143212346 [Eh]
	-----------------------------------------------------------
	 ================> DF-SCS-MP2 Energies <================== 
	-----------------------------------------------------------
	 SCS Same-Spin Scale       =       0.3333333333333333 [-]
	 SCS Opposite-Spin Scale   =       1.2000000000000000 [-]
	 SCS Same-Spin Energy      =      -0.1596533012426067 [Eh]
	 SCS Opposite-Spin Energy  =      -1.5894222711762256 [Eh]
	 SCS Correlation Energy    =      -1.7490755724188323 [Eh]
	 SCS Total Energy          =    -466.4293772236987365 [Eh]
	-----------------------------------------------------------


*** tstop() called on node113.bme.utexas.edu at Thu Mar 28 03:14:42 2024
Module time:
	user time   =     132.57 seconds =       2.21 minutes
	system time =       2.22 seconds =       0.04 minutes
	total time  =         24 seconds =       0.40 minutes
Total time:
	user time   =    1636.53 seconds =      27.28 minutes
	system time =      19.89 seconds =       0.33 minutes
	total time  =        232 seconds =       3.87 minutes

  //>>>>>>>>>>>>>>>>>>>>>>>>>>>>>>>>>>>//
  //            Monomer B HF           //
  //<<<<<<<<<<<<<<<<<<<<<<<<<<<<<<<<<<<//


*** tstart() called on node113.bme.utexas.edu
*** at Thu Mar 28 03:14:42 2024

   => Loading Basis Set <=

    Name: AUG-CC-PVTZ
    Role: ORBITAL
    Keyword: BASIS
    atoms 1, 4, 11, 14-15, 17-18 entry H          line    40 file /opt/anaconda/envs/psi4v1.5/share/psi4/basis/aug-cc-pvtz.gbs 
    atoms 2, 5, 8-9, 12          entry N          line   285 file /opt/anaconda/envs/psi4v1.5/share/psi4/basis/aug-cc-pvtz.gbs 
    atoms 3, 6-7, 10, 13         entry C          line   239 file /opt/anaconda/envs/psi4v1.5/share/psi4/basis/aug-cc-pvtz.gbs 
    atoms 16                     entry O          line   331 file /opt/anaconda/envs/psi4v1.5/share/psi4/basis/aug-cc-pvtz.gbs 


         ---------------------------------------------------------
                                   SCF
               by Justin Turney, Rob Parrish, Andy Simmonett
                          and Daniel G. A. Smith
                              RHF Reference
                        8 Threads,  47683 MiB Core
         ---------------------------------------------------------

  ==> Geometry <==

    Molecular point group: c1
    Full point group: C1

    Geometry (in Angstrom), charge = 0, multiplicity = 1:

       Center              X                  Y                   Z               Mass       
    ------------   -----------------  -----------------  -----------------  -----------------
      Gh(H)          -2.311854393179     0.968419736962    -0.026073201642     1.007825032230
      Gh(N)          -1.296334393179     1.105709736962    -0.014263201642    14.003074004430
      Gh(C)          -0.541274393179     2.246899736962    -0.000033201642    12.000000000000
      Gh(H)          -0.995724393179     3.229729736962     0.004896798358     1.007825032230
      Gh(N)           0.769805606821     2.024829736962     0.007216798358    14.003074004430
      Gh(C)           0.853955606821     0.648429736962    -0.009483201642    12.000000000000
      Gh(C)           1.951455606821    -0.234180263038     0.008386798358    12.000000000000
      Gh(N)           3.236035606821     0.213359736962    -0.038233201642    14.003074004430
      Gh(N)           1.723235606821    -1.558350263038     0.009566798358    14.003074004430
      Gh(C)           0.444975606821    -1.990790263038    -0.009393201642    12.000000000000
      Gh(H)           0.318405606821    -3.071190263038    -0.010623201642     1.007825032230
      Gh(N)          -0.681394393179    -1.265810263038    -0.023103201642    14.003074004430
      Gh(C)          -0.412664393179     0.055439736962    -0.016743201642    12.000000000000
      Gh(H)           3.952655606821    -0.457930263038     0.207036798358     1.007825032230
      Gh(H)           3.397435606821     1.179889736962     0.214596798358     1.007825032230
         O           -4.711940993179    -0.943696463038    -0.000414201642    15.994914619570
         H           -5.127410993179    -1.216236463038     0.832485798358     1.007825032230
         H           -3.917540993179    -1.518926463038    -0.073884201642     1.007825032230

  Running in c1 symmetry.

  Rotational constants: A =      0.05953  B =      0.02327  C =      0.01676 [cm^-1]
  Rotational constants: A =   1784.74080  B =    697.54416  C =    502.34466 [MHz]
  Nuclear repulsion =    9.012493240668851

  Charge       = 0
  Multiplicity = 1
  Electrons    = 10
  Nalpha       = 5
  Nbeta        = 5

  ==> Algorithm <==

  SCF Algorithm Type is DF.
  DIIS enabled.
  MOM disabled.
  Fractional occupation disabled.
  Guess Type is SAD.
  Energy threshold   = 1.00e-08
  Density threshold  = 1.00e-08
  Integral threshold = 1.00e-12

  ==> Primary Basis <==

  Basis Set: AUG-CC-PVTZ
    Blend: AUG-CC-PVTZ
    Number of shells: 217
    Number of basis functions: 667
    Number of Cartesian functions: 780
    Spherical Harmonics?: true
    Max angular momentum: 3

   => Loading Basis Set <=

    Name: (AUG-CC-PVTZ AUX)
    Role: JKFIT
    Keyword: DF_BASIS_SCF
    atoms 1, 4, 11, 14-15, 17-18 entry H          line    70 file /opt/anaconda/envs/psi4v1.5/share/psi4/basis/aug-cc-pvtz-jkfit.gbs 
    atoms 2, 5, 8-9, 12          entry N          line   224 file /opt/anaconda/envs/psi4v1.5/share/psi4/basis/aug-cc-pvtz-jkfit.gbs 
    atoms 3, 6-7, 10, 13         entry C          line   162 file /opt/anaconda/envs/psi4v1.5/share/psi4/basis/aug-cc-pvtz-jkfit.gbs 
    atoms 16                     entry O          line   286 file /opt/anaconda/envs/psi4v1.5/share/psi4/basis/aug-cc-pvtz-jkfit.gbs 

  ==> Integral Setup <==

  ==> DiskDFJK: Density-Fitted J/K Matrices <==

    J tasked:                  Yes
    K tasked:                  Yes
    wK tasked:                  No
    OpenMP threads:              8
    Integrals threads:           8
    Memory [MiB]:            35762
    Algorithm:                Core
    Integral Cache:           LOAD
    Schwarz Cutoff:          1E-12
    Fitting Condition:       1E-10

   => Auxiliary Basis Set <=

  Basis Set: (AUG-CC-PVTZ AUX)
    Blend: AUG-CC-PVTZ-JKFIT
    Number of shells: 428
    Number of basis functions: 1466
    Number of Cartesian functions: 1826
    Spherical Harmonics?: true
    Max angular momentum: 4

  Minimum eigenvalue in the overlap matrix is 1.4002517042E-06.
  Reciprocal condition number of the overlap matrix is 8.1448108083E-08.
    Using symmetric orthogonalization.

  ==> Pre-Iterations <==

  SCF Guess: Superposition of Atomic Densities via on-the-fly atomic UHF (no occupation information).

   -------------------------
    Irrep   Nso     Nmo    
   -------------------------
     A        667     667 
   -------------------------
    Total     667     667
   -------------------------

  ==> Iterations <==

                           Total Energy        Delta E     RMS |[F,P]|

   @DF-RHF iter SAD:   -75.45565032330744   -7.54557e+01   0.00000e+00 
   @DF-RHF iter   1:   -75.97341230778001   -5.17762e-01   7.00321e-04 DIIS
   @DF-RHF iter   2:   -76.02535180953872   -5.19395e-02   4.86851e-04 DIIS
   @DF-RHF iter   3:   -76.05814231128475   -3.27905e-02   3.31917e-05 DIIS
   @DF-RHF iter   4:   -76.05855645104026   -4.14140e-04   8.25645e-06 DIIS
   @DF-RHF iter   5:   -76.05858474216031   -2.82911e-05   1.90579e-06 DIIS
   @DF-RHF iter   6:   -76.05858712194927   -2.37979e-06   4.18746e-07 DIIS
   @DF-RHF iter   7:   -76.05858724700333   -1.25054e-07   7.43374e-08 DIIS
   @DF-RHF iter   8:   -76.05858725042947   -3.42614e-09   1.27666e-08 DIIS
   @DF-RHF iter   9:   -76.05858725050996   -8.04903e-11   3.24253e-09 DIIS
  Energy and wave function converged.


  ==> Post-Iterations <==

    Orbital Energies [Eh]
    ---------------------

    Doubly Occupied:                                                      

       1A    -20.570624     2A     -1.343949     3A     -0.706727  
       4A     -0.581685     5A     -0.508866  

    Virtual:                                                              

       6A      0.014553     7A      0.026452     8A      0.029871  
       9A      0.041005    10A      0.050774    11A      0.053206  
      12A      0.056895    13A      0.063916    14A      0.073016  
      15A      0.079909    16A      0.081590    17A      0.087561  
      18A      0.092992    19A      0.094985    20A      0.104647  
      21A      0.112431    22A      0.119848    23A      0.123116  
      24A      0.128300    25A      0.130948    26A      0.136713  
      27A      0.138656    28A      0.139538    29A      0.151099  
      30A      0.152838    31A      0.164779    32A      0.167680  
      33A      0.170965    34A      0.172891    35A      0.176497  
      36A      0.185345    37A      0.188001    38A      0.191583  
      39A      0.193924    40A      0.199348    41A      0.206076  
      42A      0.208129    43A      0.211553    44A      0.219157  
      45A      0.224794    46A      0.233240    47A      0.235216  
      48A      0.242624    49A      0.247525    50A      0.259525  
      51A      0.263898    52A      0.270676    53A      0.276504  
      54A      0.277187    55A      0.283488    56A      0.289079  
      57A      0.291757    58A      0.300525    59A      0.304712  
      60A      0.308937    61A      0.318257    62A      0.321456  
      63A      0.328967    64A      0.335490    65A      0.341240  
      66A      0.343261    67A      0.355897    68A      0.362228  
      69A      0.368108    70A      0.373845    71A      0.378376  
      72A      0.381733    73A      0.386360    74A      0.394294  
      75A      0.397700    76A      0.405472    77A      0.410295  
      78A      0.416698    79A      0.417959    80A      0.422464  
      81A      0.423593    82A      0.428512    83A      0.433401  
      84A      0.435199    85A      0.445924    86A      0.446583  
      87A      0.455307    88A      0.457906    89A      0.462298  
      90A      0.463419    91A      0.466374    92A      0.469216  
      93A      0.476501    94A      0.484182    95A      0.486390  
      96A      0.491130    97A      0.499478    98A      0.507419  
      99A      0.512286   100A      0.523038   101A      0.534726  
     102A      0.542190   103A      0.553313   104A      0.564892  
     105A      0.570131   106A      0.583207   107A      0.591275  
     108A      0.598156   109A      0.602218   110A      0.609274  
     111A      0.617364   112A      0.628360   113A      0.634328  
     114A      0.636804   115A      0.647108   116A      0.661020  
     117A      0.666593   118A      0.677492   119A      0.684586  
     120A      0.686872   121A      0.697759   122A      0.705968  
     123A      0.707050   124A      0.725137   125A      0.732499  
     126A      0.732854   127A      0.737942   128A      0.747919  
     129A      0.753335   130A      0.758151   131A      0.759405  
     132A      0.766872   133A      0.774579   134A      0.778589  
     135A      0.787478   136A      0.793324   137A      0.803314  
     138A      0.808509   139A      0.810999   140A      0.821882  
     141A      0.826129   142A      0.834751   143A      0.835365  
     144A      0.841442   145A      0.843775   146A      0.850468  
     147A      0.853324   148A      0.858429   149A      0.860402  
     150A      0.866223   151A      0.869671   152A      0.875503  
     153A      0.880842   154A      0.884787   155A      0.898922  
     156A      0.905574   157A      0.906504   158A      0.915240  
     159A      0.919068   160A      0.925871   161A      0.927647  
     162A      0.935823   163A      0.939255   164A      0.945200  
     165A      0.952910   166A      0.961658   167A      0.973584  
     168A      0.975224   169A      0.978595   170A      0.989577  
     171A      1.001039   172A      1.007538   173A      1.008640  
     174A      1.023126   175A      1.028042   176A      1.032825  
     177A      1.039206   178A      1.041981   179A      1.046839  
     180A      1.052130   181A      1.066655   182A      1.070618  
     183A      1.086372   184A      1.090417   185A      1.092319  
     186A      1.096940   187A      1.108620   188A      1.113125  
     189A      1.125444   190A      1.128705   191A      1.141209  
     192A      1.146793   193A      1.151077   194A      1.161032  
     195A      1.169063   196A      1.175556   197A      1.178947  
     198A      1.187345   199A      1.191730   200A      1.200732  
     201A      1.207179   202A      1.212986   203A      1.221293  
     204A      1.228832   205A      1.234771   206A      1.241044  
     207A      1.254314   208A      1.261374   209A      1.265410  
     210A      1.280093   211A      1.283228   212A      1.297757  
     213A      1.304854   214A      1.313294   215A      1.321001  
     216A      1.329330   217A      1.345020   218A      1.349957  
     219A      1.358132   220A      1.360179   221A      1.375212  
     222A      1.386237   223A      1.411185   224A      1.419115  
     225A      1.427142   226A      1.438509   227A      1.442616  
     228A      1.458457   229A      1.469494   230A      1.479916  
     231A      1.507924   232A      1.517314   233A      1.519819  
     234A      1.530221   235A      1.538812   236A      1.546236  
     237A      1.551638   238A      1.557080   239A      1.570930  
     240A      1.575667   241A      1.579270   242A      1.590420  
     243A      1.616176   244A      1.618599   245A      1.626748  
     246A      1.636765   247A      1.640387   248A      1.647238  
     249A      1.659250   250A      1.661722   251A      1.668738  
     252A      1.677637   253A      1.686088   254A      1.695577  
     255A      1.704394   256A      1.710416   257A      1.716064  
     258A      1.722705   259A      1.726818   260A      1.738610  
     261A      1.742610   262A      1.753544   263A      1.762473  
     264A      1.765679   265A      1.771263   266A      1.772479  
     267A      1.779443   268A      1.788698   269A      1.799693  
     270A      1.815885   271A      1.823377   272A      1.828828  
     273A      1.834109   274A      1.850963   275A      1.860156  
     276A      1.875889   277A      1.878068   278A      1.886245  
     279A      1.902360   280A      1.905059   281A      1.925115  
     282A      1.929653   283A      1.935858   284A      1.950763  
     285A      1.954625   286A      1.961898   287A      1.978871  
     288A      1.983827   289A      2.000358   290A      2.009352  
     291A      2.019236   292A      2.024526   293A      2.034728  
     294A      2.045192   295A      2.048188   296A      2.061103  
     297A      2.078363   298A      2.091401   299A      2.112262  
     300A      2.114179   301A      2.121715   302A      2.136976  
     303A      2.143069   304A      2.150944   305A      2.163036  
     306A      2.170011   307A      2.182641   308A      2.207118  
     309A      2.213613   310A      2.231034   311A      2.248358  
     312A      2.252868   313A      2.272821   314A      2.279086  
     315A      2.281139   316A      2.312317   317A      2.325622  
     318A      2.337358   319A      2.340953   320A      2.345503  
     321A      2.351236   322A      2.377905   323A      2.403846  
     324A      2.407897   325A      2.409886   326A      2.414896  
     327A      2.433847   328A      2.439903   329A      2.449079  
     330A      2.452837   331A      2.465624   332A      2.477006  
     333A      2.498457   334A      2.509885   335A      2.512131  
     336A      2.521997   337A      2.528413   338A      2.545340  
     339A      2.549977   340A      2.561120   341A      2.573995  
     342A      2.593535   343A      2.601694   344A      2.621353  
     345A      2.632705   346A      2.636319   347A      2.645645  
     348A      2.659804   349A      2.678016   350A      2.692208  
     351A      2.704530   352A      2.719842   353A      2.733931  
     354A      2.751265   355A      2.752863   356A      2.775032  
     357A      2.791858   358A      2.794538   359A      2.800643  
     360A      2.818053   361A      2.840207   362A      2.844172  
     363A      2.859577   364A      2.866467   365A      2.882665  
     366A      2.892369   367A      2.906932   368A      2.913477  
     369A      2.938865   370A      2.951684   371A      2.953892  
     372A      2.967495   373A      2.981197   374A      2.998766  
     375A      3.006753   376A      3.032731   377A      3.038210  
     378A      3.048862   379A      3.052012   380A      3.060479  
     381A      3.066960   382A      3.087056   383A      3.124324  
     384A      3.128865   385A      3.154905   386A      3.164606  
     387A      3.186356   388A      3.196499   389A      3.215756  
     390A      3.228099   391A      3.240988   392A      3.291994  
     393A      3.303293   394A      3.314007   395A      3.333039  
     396A      3.355438   397A      3.370976   398A      3.414214  
     399A      3.479843   400A      3.501642   401A      3.550080  
     402A      3.579166   403A      3.653343   404A      3.674725  
     405A      3.704382   406A      3.738205   407A      3.785837  
     408A      3.793133   409A      3.846108   410A      3.851094  
     411A      3.873773   412A      3.885629   413A      3.950905  
     414A      3.968846   415A      4.029312   416A      4.050988  
     417A      4.092954   418A      4.115484   419A      4.126967  
     420A      4.143505   421A      4.151014   422A      4.156946  
     423A      4.169860   424A      4.176469   425A      4.192354  
     426A      4.202727   427A      4.207516   428A      4.242775  
     429A      4.245591   430A      4.253583   431A      4.273878  
     432A      4.279667   433A      4.329716   434A      4.334375  
     435A      4.380317   436A      4.402318   437A      4.413571  
     438A      4.428579   439A      4.436865   440A      4.452027  
     441A      4.467158   442A      4.482366   443A      4.506655  
     444A      4.526310   445A      4.534522   446A      4.542617  
     447A      4.552924   448A      4.561054   449A      4.587694  
     450A      4.591695   451A      4.594850   452A      4.617387  
     453A      4.630316   454A      4.662636   455A      4.666826  
     456A      4.678859   457A      4.702033   458A      4.706563  
     459A      4.733869   460A      4.744886   461A      4.773122  
     462A      4.781971   463A      4.792931   464A      4.814150  
     465A      4.827551   466A      4.846485   467A      4.864533  
     468A      4.884972   469A      4.904657   470A      4.914720  
     471A      4.927730   472A      4.933335   473A      4.940505  
     474A      4.962482   475A      4.979145   476A      4.981766  
     477A      4.997102   478A      5.000013   479A      5.004456  
     480A      5.020447   481A      5.041971   482A      5.049725  
     483A      5.068823   484A      5.075026   485A      5.081825  
     486A      5.108302   487A      5.119762   488A      5.130223  
     489A      5.133138   490A      5.142162   491A      5.148021  
     492A      5.169295   493A      5.189086   494A      5.201365  
     495A      5.240366   496A      5.262317   497A      5.276542  
     498A      5.279246   499A      5.286251   500A      5.302291  
     501A      5.329455   502A      5.335921   503A      5.345223  
     504A      5.374072   505A      5.399824   506A      5.429978  
     507A      5.446714   508A      5.478745   509A      5.491312  
     510A      5.508702   511A      5.520669   512A      5.538018  
     513A      5.560513   514A      5.593304   515A      5.595637  
     516A      5.638194   517A      5.672249   518A      5.681889  
     519A      5.753513   520A      5.775106   521A      5.779822  
     522A      5.803254   523A      5.823887   524A      5.848769  
     525A      5.867159   526A      5.942622   527A      5.973701  
     528A      5.996298   529A      6.022329   530A      6.055442  
     531A      6.061448   532A      6.084707   533A      6.104628  
     534A      6.121720   535A      6.171725   536A      6.196151  
     537A      6.203805   538A      6.217171   539A      6.313808  
     540A      6.342120   541A      6.363187   542A      6.428572  
     543A      6.455560   544A      6.475220   545A      6.481343  
     546A      6.485741   547A      6.497685   548A      6.515736  
     549A      6.527129   550A      6.543565   551A      6.554781  
     552A      6.567623   553A      6.588884   554A      6.613776  
     555A      6.675043   556A      6.701010   557A      6.723023  
     558A      6.728165   559A      6.756380   560A      6.783340  
     561A      6.808395   562A      6.846642   563A      6.861304  
     564A      6.883409   565A      6.890372   566A      6.907331  
     567A      6.911755   568A      6.921624   569A      6.946272  
     570A      6.956505   571A      6.998213   572A      7.076742  
     573A      7.141809   574A      7.148126   575A      7.204387  
     576A      7.217241   577A      7.260973   578A      7.286702  
     579A      7.304526   580A      7.310771   581A      7.335246  
     582A      7.355993   583A      7.375389   584A      7.404959  
     585A      7.421676   586A      7.435049   587A      7.444915  
     588A      7.473072   589A      7.503915   590A      7.514413  
     591A      7.554968   592A      7.561896   593A      7.586108  
     594A      7.630055   595A      7.643303   596A      7.653503  
     597A      7.698292   598A      7.719549   599A      7.737318  
     600A      7.782131   601A      7.815537   602A      7.843639  
     603A      7.887488   604A      7.896055   605A      7.918215  
     606A      7.922135   607A      7.939261   608A      7.940507  
     609A      7.973095   610A      8.001374   611A      8.031237  
     612A      8.109248   613A      8.183713   614A      8.200557  
     615A      8.289335   616A      8.326848   617A      8.355025  
     618A      8.417493   619A      8.468250   620A      8.547271  
     621A      8.669322   622A      8.773725   623A      8.787178  
     624A      8.847465   625A      8.898296   626A      9.010192  
     627A      9.033860   628A      9.216775   629A      9.284616  
     630A      9.372995   631A      9.521091   632A      9.550704  
     633A      9.579457   634A      9.672150   635A      9.748369  
     636A      9.785498   637A     10.128113   638A     10.244855  
     639A     10.401342   640A     10.713468   641A     11.018233  
     642A     11.029839   643A     11.107532   644A     11.209895  
     645A     11.501249   646A     11.638235   647A     11.732756  
     648A     11.828317   649A     12.006510   650A     12.041753  
     651A     12.147295   652A     12.291642   653A     12.395435  
     654A     12.520694   655A     12.861359   656A     12.922762  
     657A     15.439710   658A     51.464520   659A     51.777542  
     660A     52.388315   661A     53.996371   662A     56.182901  
     663A     59.817892   664A     61.183742   665A     62.075746  
     666A     62.727117   667A     63.935180  

    Final Occupation by Irrep:
              A 
    DOCC [     5 ]

  @DF-RHF Final Energy:   -76.05858725050996

   => Energetics <=

    Nuclear Repulsion Energy =              9.0124932406688512
    One-Electron Energy =                -122.7184542164800831
    Two-Electron Energy =                  37.6473737253012786
    Total Energy =                        -76.0585872505099587

Computation Completed


Properties will be evaluated at   0.000000,   0.000000,   0.000000 [a0]

Properties computed using the SCF density matrix

  Nuclear Dipole Moment: [e a0]
     X:   -88.3267      Y:   -19.4353      Z:     1.4273

  Electronic Dipole Moment: [e a0]
     X:    88.5736      Y:    18.8786      Z:    -0.9273

  Dipole Moment: [e a0]
     X:     0.2469      Y:    -0.5567      Z:     0.4999     Total:     0.7879

  Dipole Moment: [D]
     X:     0.6276      Y:    -1.4151      Z:     1.2707     Total:     2.0027


*** tstop() called on node113.bme.utexas.edu at Thu Mar 28 03:15:33 2024
Module time:
	user time   =     373.41 seconds =       6.22 minutes
	system time =       3.15 seconds =       0.05 minutes
	total time  =         51 seconds =       0.85 minutes
Total time:
	user time   =    2010.01 seconds =      33.50 minutes
	system time =      23.04 seconds =       0.38 minutes
	total time  =        283 seconds =       4.72 minutes

*** tstart() called on node113.bme.utexas.edu
*** at Thu Mar 28 03:15:33 2024


  //>>>>>>>>>>>>>>>>>>>>>>>>>>>>>>>>>>>//
  //               DFMP2               //
  //<<<<<<<<<<<<<<<<<<<<<<<<<<<<<<<<<<<//

   => Loading Basis Set <=

    Name: (AUG-CC-PVTZ AUX)
    Role: RIFIT
    Keyword: DF_BASIS_MP2
    atoms 1, 4, 11, 14-15, 17-18 entry H          line    30 file /opt/anaconda/envs/psi4v1.5/share/psi4/basis/aug-cc-pvtz-ri.gbs 
    atoms 2, 5, 8-9, 12          entry N          line   206 file /opt/anaconda/envs/psi4v1.5/share/psi4/basis/aug-cc-pvtz-ri.gbs 
    atoms 3, 6-7, 10, 13         entry C          line   148 file /opt/anaconda/envs/psi4v1.5/share/psi4/basis/aug-cc-pvtz-ri.gbs 
    atoms 16                     entry O          line   264 file /opt/anaconda/envs/psi4v1.5/share/psi4/basis/aug-cc-pvtz-ri.gbs 

	 --------------------------------------------------------
	                          DF-MP2                         
	      2nd-Order Density-Fitted Moller-Plesset Theory     
	              RMP2 Wavefunction,   8 Threads             
	                                                         
	        Rob Parrish, Justin Turney, Andy Simmonett,      
	           Ed Hohenstein, and C. David Sherrill          
	 --------------------------------------------------------

   => Auxiliary Basis Set <=

  Basis Set: (AUG-CC-PVTZ AUX)
    Blend: AUG-CC-PVTZ-RI
    Number of shells: 406
    Number of basis functions: 1488
    Number of Cartesian functions: 1881
    Spherical Harmonics?: true
    Max angular momentum: 4

	 --------------------------------------------------------
	                 NBF =   667, NAUX =  1488
	 --------------------------------------------------------
	   CLASS    FOCC     OCC    AOCC    AVIR     VIR    FVIR
	   PAIRS       1       5       4     662     662       0
	 --------------------------------------------------------

	 Will attempt to load fitting metric from file 97.

	-----------------------------------------------------------
	 ==================> DF-MP2 Energies <==================== 
	-----------------------------------------------------------
	 Reference Energy          =     -76.0585872505099587 [Eh]
	 Singles Energy            =      -0.0000000000000000 [Eh]
	 Same-Spin Energy          =      -0.0655283127703728 [Eh]
	 Opposite-Spin Energy      =      -0.2045584367326733 [Eh]
	 Correlation Energy        =      -0.2700867495030461 [Eh]
	 Total Energy              =     -76.3286740000130095 [Eh]
	-----------------------------------------------------------
	 ================> DF-SCS-MP2 Energies <================== 
	-----------------------------------------------------------
	 SCS Same-Spin Scale       =       0.3333333333333333 [-]
	 SCS Opposite-Spin Scale   =       1.2000000000000000 [-]
	 SCS Same-Spin Energy      =      -0.0218427709234576 [Eh]
	 SCS Opposite-Spin Energy  =      -0.2454701240792079 [Eh]
	 SCS Correlation Energy    =      -0.2673128950026655 [Eh]
	 SCS Total Energy          =     -76.3259001455126196 [Eh]
	-----------------------------------------------------------


*** tstop() called on node113.bme.utexas.edu at Thu Mar 28 03:15:47 2024
Module time:
	user time   =      63.84 seconds =       1.06 minutes
	system time =       1.49 seconds =       0.02 minutes
	total time  =         14 seconds =       0.23 minutes
Total time:
	user time   =    2073.86 seconds =      34.56 minutes
	system time =      24.53 seconds =       0.41 minutes
	total time  =        297 seconds =       4.95 minutes
  Constructing Basis Sets for SAPT...

   => Loading Basis Set <=

    Name: (AUG-CC-PVTZ AUX)
    Role: RIFIT
    Keyword: DF_BASIS_SAPT
    atoms 1, 4, 11, 14-15, 17-18 entry H          line    30 file /opt/anaconda/envs/psi4v1.5/share/psi4/basis/aug-cc-pvtz-ri.gbs 
    atoms 2, 5, 8-9, 12          entry N          line   206 file /opt/anaconda/envs/psi4v1.5/share/psi4/basis/aug-cc-pvtz-ri.gbs 
    atoms 3, 6-7, 10, 13         entry C          line   148 file /opt/anaconda/envs/psi4v1.5/share/psi4/basis/aug-cc-pvtz-ri.gbs 
    atoms 16                     entry O          line   264 file /opt/anaconda/envs/psi4v1.5/share/psi4/basis/aug-cc-pvtz-ri.gbs 


  //>>>>>>>>>>>>>>>>>>>>>>>>>>>>>>>>>>>//
  //           SAPT2+(3)DMP2           //
  //<<<<<<<<<<<<<<<<<<<<<<<<<<<<<<<<<<<//


*** tstart() called on node113.bme.utexas.edu
*** at Thu Mar 28 03:15:48 2024

      SAPT2+(3)  
    Ed Hohenstein
     6 June 2009

      Orbital Information
  --------------------------
    NSO        =       667
    NMO        =       667
    NRI        =      1488
    NOCC A     =        35
    NOCC B     =         5
    FOCC A     =        10
    FOCC B     =         1
    NVIR A     =       632
    NVIR B     =       662

    Estimated memory usage: 18101.2 MB

    Natural Orbital Cutoff:   1.000E-06
    Disp(T3) Truncation:            Yes
    CCD (vv|vv) Truncation:         Yes
    MBPT T2 Truncation:             Yes

    Monomer A: 146 virtual orbitals dropped
    Monomer B: 583 virtual orbitals dropped

    Elst10,r            =    -0.005806993640 [Eh]
    Exch10 (S^2)        =     0.000515572610 [Eh]
    Exch10              =     0.000515722374 [Eh]
    Ind20,r (A<-B)      =    -0.000253357624 [Eh]
    Ind20,r (B<-A)      =    -0.000290197338 [Eh]
    Ind20,r             =    -0.000543554962 [Eh]
    Exch-Ind20,r (A<-B) =     0.000069989997 [Eh]
    Exch-Ind20,r (B<-A) =     0.000046403637 [Eh]
    Exch-Ind20,r        =     0.000116393634 [Eh]
    Disp20              =    -0.001221370722 [Eh]
    Disp20 (NO)         =    -0.001111724971 [Eh]
    Exch-Disp20         =     0.000057908460 [Eh]
    Elst12,r            =     0.000209378544 [Eh]
    Exch11              =    -0.000002413081 [Eh]
    Exch12              =     0.000183289010 [Eh]
    Ind22               =    -0.000082353928 [Eh]
    Disp21              =     0.000123490928 [Eh]
    Disp22 (SDQ)        =    -0.000047359294 [Eh]

    (i =   1 of   4)        951 seconds
    (i =   2 of   4)       1894 seconds
    (i =   3 of   4)       2838 seconds
    (i =   4 of   4)       3780 seconds

    Disp220 (T)         =    -0.000135314460 [Eh]

    (i =   1 of  25)         13 seconds
    (i =   2 of  25)         25 seconds
    (i =   3 of  25)         37 seconds
    (i =   4 of  25)         49 seconds
    (i =   5 of  25)         62 seconds
    (i =   6 of  25)         75 seconds
    (i =   7 of  25)         88 seconds
    (i =   8 of  25)        101 seconds
    (i =   9 of  25)        114 seconds
    (i =  10 of  25)        127 seconds
    (i =  11 of  25)        140 seconds
    (i =  12 of  25)        154 seconds
    (i =  13 of  25)        166 seconds
    (i =  14 of  25)        179 seconds
    (i =  15 of  25)        192 seconds
    (i =  16 of  25)        205 seconds
    (i =  17 of  25)        218 seconds
    (i =  18 of  25)        230 seconds
    (i =  19 of  25)        243 seconds
    (i =  20 of  25)        255 seconds
    (i =  21 of  25)        264 seconds
    (i =  22 of  25)        273 seconds
    (i =  23 of  25)        284 seconds
    (i =  24 of  25)        293 seconds
    (i =  25 of  25)        303 seconds

    Disp202 (T)         =    -0.000114850906 [Eh]

    Disp22 (T)          =    -0.000250165366 [Eh]

    Est. Disp220 (T)    =    -0.000148660076 [Eh]
    Est. Disp202 (T)    =    -0.000126178271 [Eh]

    Est. Disp22 (T)     =    -0.000274838347 [Eh]
    Elst13,r            =     0.000058384670 [Eh]
    Disp30              =     0.000023225467 [Eh]

    SAPT Results 
  --------------------------------------------------------------------------------------------------------
    Electrostatics                 -5.53923043 [mEh]      -3.47591957 [kcal/mol]     -14.54324748 [kJ/mol]
      Elst10,r                     -5.80699364 [mEh]      -3.64394352 [kcal/mol]     -15.24625970 [kJ/mol]
      Elst12,r                      0.20937854 [mEh]       0.13138702 [kcal/mol]       0.54972329 [kJ/mol]
      Elst13,r                      0.05838467 [mEh]       0.03663693 [kcal/mol]       0.15328893 [kJ/mol]

    Exchange                        0.69659830 [mEh]       0.43712203 [kcal/mol]       1.82891859 [kJ/mol]
      Exch10                        0.51572237 [mEh]       0.32362068 [kcal/mol]       1.35402891 [kJ/mol]
      Exch10(S^2)                   0.51557261 [mEh]       0.32352670 [kcal/mol]       1.35363570 [kJ/mol]
      Exch11(S^2)                  -0.00241308 [mEh]      -0.00151423 [kcal/mol]      -0.00633554 [kJ/mol]
      Exch12(S^2)                   0.18328901 [mEh]       0.11501559 [kcal/mol]       0.48122523 [kJ/mol]

    Induction                      -0.55598204 [mEh]      -0.34888400 [kcal/mol]      -1.45973065 [kJ/mol]
      Ind20,r                      -0.54355496 [mEh]      -0.34108589 [kcal/mol]      -1.42710336 [kJ/mol]
      Ind22                        -0.08235393 [mEh]      -0.05167787 [kcal/mol]      -0.21622021 [kJ/mol]
      Exch-Ind20,r                  0.11639363 [mEh]       0.07303811 [kcal/mol]       0.30559144 [kJ/mol]
      Exch-Ind22                    0.01763478 [mEh]       0.01106599 [kcal/mol]       0.04630011 [kJ/mol]
      delta HF,r (2)               -0.07128731 [mEh]      -0.04473346 [kcal/mol]      -0.18716480 [kJ/mol]
      delta MP2,r (2)               0.00718574 [mEh]       0.00450912 [kcal/mol]       0.01886615 [kJ/mol]

    Dispersion                     -1.33894351 [mEh]      -0.84019974 [kcal/mol]      -3.51539570 [kJ/mol]
      Disp20                       -1.22137072 [mEh]      -0.76642170 [kcal/mol]      -3.20670839 [kJ/mol]
      Disp30                        0.02322547 [mEh]       0.01457420 [kcal/mol]       0.06097845 [kJ/mol]
      Disp21                        0.12349093 [mEh]       0.07749173 [kcal/mol]       0.32422539 [kJ/mol]
      Disp22 (SDQ)                 -0.04735929 [mEh]      -0.02971841 [kcal/mol]      -0.12434181 [kJ/mol]
      Disp22 (T)                   -0.25016537 [mEh]      -0.15698114 [kcal/mol]      -0.65680908 [kJ/mol]
      Est. Disp22 (T)              -0.27483835 [mEh]      -0.17246367 [kcal/mol]      -0.72158798 [kJ/mol]
      Exch-Disp20                   0.05790846 [mEh]       0.03633811 [kcal/mol]       0.15203864 [kJ/mol]

  Total HF                         -5.78971990 [mEh]      -3.63310409 [kcal/mol]     -15.20090750 [kJ/mol]
  Total SAPT0                      -6.95318216 [mEh]      -4.36318768 [kcal/mol]     -18.25557725 [kJ/mol]
  Total SAPT2                      -6.62764684 [mEh]      -4.15891118 [kcal/mol]     -17.40088437 [kJ/mol]
  Total SAPT2+                     -6.82635355 [mEh]      -4.28360152 [kcal/mol]     -17.92258877 [kJ/mol]
  Total SAPT2+(3)                  -6.74474341 [mEh]      -4.23239039 [kcal/mol]     -17.70832139 [kJ/mol]
  Total SAPT2+dMP2                 -6.81916781 [mEh]      -4.27909241 [kcal/mol]     -17.90372262 [kJ/mol]
  Total SAPT2+(3)dMP2              -6.73755768 [mEh]      -4.22788127 [kcal/mol]     -17.68945524 [kJ/mol]

  Special recipe for scaled SAPT0 (see Manual):
    Electrostatics sSAPT0          -5.80699364 [mEh]      -3.64394352 [kcal/mol]     -15.24625970 [kJ/mol]
    Exchange sSAPT0                 0.51572237 [mEh]       0.32362068 [kcal/mol]       1.35402891 [kJ/mol]
    Induction sSAPT0               -0.49834717 [mEh]      -0.31271757 [kcal/mol]      -1.30841033 [kJ/mol]
    Dispersion sSAPT0              -1.16341178 [mEh]      -0.73005192 [kcal/mol]      -3.05453722 [kJ/mol]
  Total sSAPT0                     -6.95303022 [mEh]      -4.36309234 [kcal/mol]     -18.25517834 [kJ/mol]
  --------------------------------------------------------------------------------------------------------

*** tstop() called on node113.bme.utexas.edu at Thu Mar 28 07:46:40 2024
Module time:
	user time   =  119986.87 seconds =    1999.78 minutes
	system time =    1309.54 seconds =      21.83 minutes
	total time  =      16252 seconds =     270.87 minutes
Total time:
	user time   =  122062.05 seconds =    2034.37 minutes
	system time =    1334.12 seconds =      22.24 minutes
	total time  =      16550 seconds =     275.83 minutes

    Psi4 stopped on: Thursday, 28 March 2024 07:46AM
    Psi4 wall time for execution: 4:35:50.59

*** Psi4 exiting successfully. Buy a developer a beer!
