
    -----------------------------------------------------------------------
          Psi4: An Open-Source Ab Initio Electronic Structure Package
                               Psi4 1.5 release

                         Git: Rev {HEAD} e9f4d6d 


    D. G. A. Smith, L. A. Burns, A. C. Simmonett, R. M. Parrish,
    M. C. Schieber, R. Galvelis, P. Kraus, H. Kruse, R. Di Remigio,
    A. Alenaizan, A. M. James, S. Lehtola, J. P. Misiewicz, M. Scheurer,
    R. A. Shaw, J. B. Schriber, Y. Xie, Z. L. Glick, D. A. Sirianni,
    J. S. O'Brien, J. M. Waldrop, A. Kumar, E. G. Hohenstein,
    B. P. Pritchard, B. R. Brooks, H. F. Schaefer III, A. Yu. Sokolov,
    K. Patkowski, A. E. DePrince III, U. Bozkaya, R. A. King,
    F. A. Evangelista, J. M. Turney, T. D. Crawford, C. D. Sherrill,
    J. Chem. Phys. 152(18) 184108 (2020). https://doi.org/10.1063/5.0006002

                            Additional Code Authors
    E. T. Seidl, C. L. Janssen, E. F. Valeev, M. L. Leininger,
    J. F. Gonthier, R. M. Richard, H. R. McAlexander, M. Saitow, X. Wang,
    P. Verma, M. H. Lechner, and A. Jiang

             Previous Authors, Complete List of Code Contributors,
                       and Citations for Specific Modules
    https://github.com/psi4/psi4/blob/master/codemeta.json
    https://github.com/psi4/psi4/graphs/contributors
    http://psicode.org/psi4manual/master/introduction.html#citing-psifour

    -----------------------------------------------------------------------


    Psi4 started on: Sunday, 12 May 2024 11:54PM

    Process ID: 1740769
    Host:       node44.bme.utexas.edu
    PSIDATADIR: /opt/anaconda/envs/psi4v1.5/share/psi4
    Memory:     500.0 MiB
    Threads:    8
    
  ==> Input File <==

--------------------------------------------------------------------------
memory 50GB

molecule {
0 1
H -3.46596 1.02777 -0.07316
N -2.69172 0.37445 -0.04513
C -2.75614 -0.99629 -0.04739
H -3.70221 -1.5221 -0.07948
N -1.5668 -1.58107 -0.00683
C -0.69073 -0.51519 0.02544
C 0.71946 -0.46536 0.05295
N 1.48253 -1.57835 0.12599
N 1.30813 0.74985 0.06098
C 0.52735 1.85589 0.03606
H 1.0664 2.80083 0.04072
N -0.80495 1.93879 0.00629
C -1.35787 0.71237 -0.00277
H 2.48448 -1.47022 -0.03844
H 1.03486 -2.46321 -0.07215
--
0 1
O 3.5711761999999996 -0.20901093333333334 -0.21508946666666667
H 3.9952162 -0.10747093333333332 0.6514005333333333
H 2.8090062 0.41278906666666665 -0.17942946666666665
 units angstrom
 no_reorient
 symmetry c1} 
set  {scf_type DF
 basis aug-cc-pvdz
 freeze_core True
 guess SAD}
energy('sapt2+(3)dmp2')
--------------------------------------------------------------------------

  Memory set to  46.566 GiB by Python driver.

Scratch directory: /tmp/
   => Loading Basis Set <=

    Name: AUG-CC-PVDZ
    Role: ORBITAL
    Keyword: BASIS
    atoms 1, 4, 11, 14-15, 17-18 entry H          line    40 file /opt/anaconda/envs/psi4v1.5/share/psi4/basis/aug-cc-pvdz.gbs 
    atoms 2, 5, 8-9, 12          entry N          line   218 file /opt/anaconda/envs/psi4v1.5/share/psi4/basis/aug-cc-pvdz.gbs 
    atoms 3, 6-7, 10, 13         entry C          line   182 file /opt/anaconda/envs/psi4v1.5/share/psi4/basis/aug-cc-pvdz.gbs 
    atoms 16                     entry O          line   254 file /opt/anaconda/envs/psi4v1.5/share/psi4/basis/aug-cc-pvdz.gbs 

   => Loading Basis Set <=

    Name: AUG-CC-PVDZ
    Role: ORBITAL
    Keyword: BASIS
    atoms 1, 4, 11, 14-15, 17-18 entry H          line    40 file /opt/anaconda/envs/psi4v1.5/share/psi4/basis/aug-cc-pvdz.gbs 
    atoms 2, 5, 8-9, 12          entry N          line   218 file /opt/anaconda/envs/psi4v1.5/share/psi4/basis/aug-cc-pvdz.gbs 
    atoms 3, 6-7, 10, 13         entry C          line   182 file /opt/anaconda/envs/psi4v1.5/share/psi4/basis/aug-cc-pvdz.gbs 
    atoms 16                     entry O          line   254 file /opt/anaconda/envs/psi4v1.5/share/psi4/basis/aug-cc-pvdz.gbs 


  //>>>>>>>>>>>>>>>>>>>>>>>>>>>>>>>>>>>//
  //              Dimer HF             //
  //<<<<<<<<<<<<<<<<<<<<<<<<<<<<<<<<<<<//


*** tstart() called on node44.bme.utexas.edu
*** at Sun May 12 23:54:23 2024

   => Loading Basis Set <=

    Name: AUG-CC-PVDZ
    Role: ORBITAL
    Keyword: BASIS
    atoms 1, 4, 11, 14-15, 17-18 entry H          line    40 file /opt/anaconda/envs/psi4v1.5/share/psi4/basis/aug-cc-pvdz.gbs 
    atoms 2, 5, 8-9, 12          entry N          line   218 file /opt/anaconda/envs/psi4v1.5/share/psi4/basis/aug-cc-pvdz.gbs 
    atoms 3, 6-7, 10, 13         entry C          line   182 file /opt/anaconda/envs/psi4v1.5/share/psi4/basis/aug-cc-pvdz.gbs 
    atoms 16                     entry O          line   254 file /opt/anaconda/envs/psi4v1.5/share/psi4/basis/aug-cc-pvdz.gbs 


         ---------------------------------------------------------
                                   SCF
               by Justin Turney, Rob Parrish, Andy Simmonett
                          and Daniel G. A. Smith
                              RHF Reference
                        8 Threads,  47683 MiB Core
         ---------------------------------------------------------

  ==> Geometry <==

    Molecular point group: c1
    Full point group: C1

    Geometry (in Angstrom), charge = 0, multiplicity = 1:

       Center              X                  Y                   Z               Mass       
    ------------   -----------------  -----------------  -----------------  -----------------
         H           -3.380074951071     1.020759527938    -0.070293178591     1.007825032230
         N           -2.605834951071     0.367439527938    -0.042263178591    14.003074004430
         C           -2.670254951071    -1.003300472062    -0.044523178591    12.000000000000
         H           -3.616324951071    -1.529110472062    -0.076613178591     1.007825032230
         N           -1.480914951071    -1.588080472062    -0.003963178591    14.003074004430
         C           -0.604844951071    -0.522200472062     0.028306821409    12.000000000000
         C            0.805345048929    -0.472370472062     0.055816821409    12.000000000000
         N            1.568415048929    -1.585360472062     0.128856821409    14.003074004430
         N            1.394015048929     0.742839527938     0.063846821409    14.003074004430
         C            0.613235048929     1.848879527938     0.038926821409    12.000000000000
         H            1.152285048929     2.793819527938     0.043586821409     1.007825032230
         N           -0.719064951071     1.931779527938     0.009156821409    14.003074004430
         C           -1.271984951071     0.705359527938     0.000096821409    12.000000000000
         H            2.570365048929    -1.477230472062    -0.035573178591     1.007825032230
         H            1.120745048929    -2.470220472062    -0.069283178591     1.007825032230
         O            3.657061248929    -0.216021405395    -0.212222645258    15.994914619570
         H            4.081101248929    -0.114481405395     0.654267354742     1.007825032230
         H            2.894891248929     0.405778594605    -0.176562645258     1.007825032230

  Running in c1 symmetry.

  Rotational constants: A =      0.07678  B =      0.02852  C =      0.02088 [cm^-1]
  Rotational constants: A =   2301.89083  B =    855.01806  C =    625.91377 [MHz]
  Nuclear repulsion =  607.813138796790327

  Charge       = 0
  Multiplicity = 1
  Electrons    = 80
  Nalpha       = 40
  Nbeta        = 40

  ==> Algorithm <==

  SCF Algorithm Type is DF.
  DIIS enabled.
  MOM disabled.
  Fractional occupation disabled.
  Guess Type is SAD.
  Energy threshold   = 1.00e-08
  Density threshold  = 1.00e-08
  Integral threshold = 1.00e-12

  ==> Primary Basis <==

  Basis Set: AUG-CC-PVDZ
    Blend: AUG-CC-PVDZ
    Number of shells: 134
    Number of basis functions: 316
    Number of Cartesian functions: 338
    Spherical Harmonics?: true
    Max angular momentum: 2

   => Loading Basis Set <=

    Name: (AUG-CC-PVDZ AUX)
    Role: JKFIT
    Keyword: DF_BASIS_SCF
    atoms 1, 4, 11, 14-15, 17-18 entry H          line    70 file /opt/anaconda/envs/psi4v1.5/share/psi4/basis/aug-cc-pvdz-jkfit.gbs 
    atoms 2, 5, 8-9, 12          entry N          line   212 file /opt/anaconda/envs/psi4v1.5/share/psi4/basis/aug-cc-pvdz-jkfit.gbs 
    atoms 3, 6-7, 10, 13         entry C          line   154 file /opt/anaconda/envs/psi4v1.5/share/psi4/basis/aug-cc-pvdz-jkfit.gbs 
    atoms 16                     entry O          line   270 file /opt/anaconda/envs/psi4v1.5/share/psi4/basis/aug-cc-pvdz-jkfit.gbs 

  ==> Integral Setup <==

  ==> DiskDFJK: Density-Fitted J/K Matrices <==

    J tasked:                  Yes
    K tasked:                  Yes
    wK tasked:                  No
    OpenMP threads:              8
    Integrals threads:           8
    Memory [MiB]:            35762
    Algorithm:                Core
    Integral Cache:           SAVE
    Schwarz Cutoff:          1E-12
    Fitting Condition:       1E-10

   => Auxiliary Basis Set <=

  Basis Set: (AUG-CC-PVDZ AUX)
    Blend: AUG-CC-PVDZ-JKFIT
    Number of shells: 392
    Number of basis functions: 1170
    Number of Cartesian functions: 1356
    Spherical Harmonics?: true
    Max angular momentum: 3

  Minimum eigenvalue in the overlap matrix is 2.9581540961E-06.
  Reciprocal condition number of the overlap matrix is 1.9436818382E-07.
    Using symmetric orthogonalization.

  ==> Pre-Iterations <==

  SCF Guess: Superposition of Atomic Densities via on-the-fly atomic UHF (no occupation information).

   -------------------------
    Irrep   Nso     Nmo    
   -------------------------
     A        316     316 
   -------------------------
    Total     316     316
   -------------------------

  ==> Iterations <==

                           Total Energy        Delta E     RMS |[F,P]|

   @DF-RHF iter SAD:  -540.29559433748932   -5.40296e+02   0.00000e+00 
   @DF-RHF iter   1:  -540.31706693167382   -2.14726e-02   2.41413e-03 DIIS
   @DF-RHF iter   2:  -540.54633142049397   -2.29264e-01   1.26948e-03 DIIS
   @DF-RHF iter   3:  -540.60999068815738   -6.36593e-02   2.46406e-04 DIIS
   @DF-RHF iter   4:  -540.61369742633974   -3.70674e-03   1.08177e-04 DIIS
   @DF-RHF iter   5:  -540.61433792327159   -6.40497e-04   2.44018e-05 DIIS
   @DF-RHF iter   6:  -540.61439986178675   -6.19385e-05   1.20409e-05 DIIS
   @DF-RHF iter   7:  -540.61441683810403   -1.69763e-05   4.30141e-06 DIIS
   @DF-RHF iter   8:  -540.61442004172011   -3.20362e-06   1.83930e-06 DIIS
   @DF-RHF iter   9:  -540.61442058060425   -5.38884e-07   8.52161e-07 DIIS
   @DF-RHF iter  10:  -540.61442071620422   -1.35600e-07   3.17672e-07 DIIS
   @DF-RHF iter  11:  -540.61442074019067   -2.39864e-08   1.37745e-07 DIIS
   @DF-RHF iter  12:  -540.61442074427373   -4.08306e-09   4.62244e-08 DIIS
   @DF-RHF iter  13:  -540.61442074470881   -4.35080e-10   1.66624e-08 DIIS
   @DF-RHF iter  14:  -540.61442074475303   -4.42242e-11   6.74039e-09 DIIS
  Energy and wave function converged.


  ==> Post-Iterations <==

    Orbital Energies [Eh]
    ---------------------

    Doubly Occupied:                                                      

       1A    -20.537541     2A    -15.647940     3A    -15.584918  
       4A    -15.578110     5A    -15.576685     6A    -15.573959  
       7A    -11.353215     8A    -11.337896     9A    -11.334065  
      10A    -11.332060    11A    -11.264649    12A     -1.377085  
      13A     -1.337927    14A     -1.304502    15A     -1.250740  
      16A     -1.192207    17A     -1.164729    18A     -1.041554  
      19A     -0.903035    20A     -0.889134    21A     -0.854274  
      22A     -0.785748    23A     -0.743177    24A     -0.710414  
      25A     -0.705222    26A     -0.672730    27A     -0.644291  
      28A     -0.637864    29A     -0.626943    30A     -0.601380  
      31A     -0.567682    32A     -0.559559    33A     -0.505129  
      34A     -0.501019    35A     -0.478743    36A     -0.457546  
      37A     -0.425141    38A     -0.419522    39A     -0.386959  
      40A     -0.311888  

    Virtual:                                                              

      41A      0.024825    42A      0.040026    43A      0.043526  
      44A      0.053857    45A      0.060763    46A      0.077557  
      47A      0.081779    48A      0.089383    49A      0.093707  
      50A      0.098721    51A      0.110124    52A      0.120290  
      53A      0.121181    54A      0.127923    55A      0.130225  
      56A      0.137749    57A      0.139901    58A      0.150306  
      59A      0.156296    60A      0.157794    61A      0.160163  
      62A      0.165460    63A      0.176646    64A      0.189711  
      65A      0.193873    66A      0.194647    67A      0.200489  
      68A      0.213263    69A      0.218669    70A      0.225796  
      71A      0.238130    72A      0.242274    73A      0.242834  
      74A      0.251286    75A      0.257082    76A      0.268320  
      77A      0.269930    78A      0.277733    79A      0.280027  
      80A      0.288016    81A      0.289909    82A      0.297304  
      83A      0.305893    84A      0.312152    85A      0.316120  
      86A      0.324546    87A      0.332914    88A      0.337104  
      89A      0.348119    90A      0.354287    91A      0.357622  
      92A      0.370002    93A      0.378396    94A      0.390480  
      95A      0.394431    96A      0.398933    97A      0.406896  
      98A      0.427187    99A      0.429572   100A      0.437326  
     101A      0.440949   102A      0.446723   103A      0.451245  
     104A      0.459684   105A      0.462673   106A      0.469175  
     107A      0.477807   108A      0.487005   109A      0.498168  
     110A      0.503434   111A      0.525909   112A      0.529804  
     113A      0.546567   114A      0.552640   115A      0.558557  
     116A      0.565879   117A      0.572692   118A      0.580806  
     119A      0.586493   120A      0.593121   121A      0.603829  
     122A      0.608033   123A      0.621978   124A      0.628177  
     125A      0.638873   126A      0.641958   127A      0.651911  
     128A      0.657063   129A      0.669443   130A      0.676251  
     131A      0.679126   132A      0.688064   133A      0.689175  
     134A      0.695400   135A      0.702809   136A      0.706266  
     137A      0.723890   138A      0.729649   139A      0.734090  
     140A      0.740524   141A      0.757687   142A      0.774882  
     143A      0.781705   144A      0.786246   145A      0.798217  
     146A      0.807984   147A      0.819755   148A      0.828200  
     149A      0.840259   150A      0.852337   151A      0.860565  
     152A      0.861772   153A      0.881820   154A      0.886879  
     155A      0.891085   156A      0.899215   157A      0.908725  
     158A      0.913802   159A      0.921682   160A      0.928731  
     161A      0.939580   162A      0.965404   163A      0.966574  
     164A      0.982870   165A      0.998688   166A      1.005868  
     167A      1.018523   168A      1.028868   169A      1.035552  
     170A      1.059611   171A      1.062756   172A      1.072310  
     173A      1.087067   174A      1.095322   175A      1.099869  
     176A      1.111845   177A      1.117326   178A      1.132416  
     179A      1.133958   180A      1.156594   181A      1.163886  
     182A      1.180666   183A      1.205595   184A      1.215966  
     185A      1.225299   186A      1.248702   187A      1.257131  
     188A      1.262084   189A      1.278600   190A      1.300933  
     191A      1.317379   192A      1.334172   193A      1.365745  
     194A      1.382086   195A      1.388261   196A      1.393064  
     197A      1.427507   198A      1.439323   199A      1.447662  
     200A      1.465924   201A      1.510006   202A      1.519110  
     203A      1.554032   204A      1.564650   205A      1.576705  
     206A      1.594387   207A      1.600203   208A      1.619721  
     209A      1.637643   210A      1.653130   211A      1.672820  
     212A      1.678339   213A      1.702984   214A      1.717558  
     215A      1.727407   216A      1.729974   217A      1.745545  
     218A      1.763873   219A      1.765370   220A      1.786821  
     221A      1.809092   222A      1.822169   223A      1.837980  
     224A      1.874343   225A      1.880770   226A      1.895105  
     227A      1.898335   228A      1.934171   229A      1.947568  
     230A      1.958570   231A      1.970105   232A      1.982733  
     233A      2.043233   234A      2.055709   235A      2.060256  
     236A      2.072693   237A      2.090605   238A      2.098104  
     239A      2.107936   240A      2.131392   241A      2.159770  
     242A      2.180810   243A      2.191583   244A      2.217576  
     245A      2.226167   246A      2.259453   247A      2.275147  
     248A      2.280143   249A      2.293910   250A      2.299421  
     251A      2.313492   252A      2.348801   253A      2.353068  
     254A      2.367479   255A      2.384317   256A      2.394917  
     257A      2.414754   258A      2.449843   259A      2.477747  
     260A      2.485072   261A      2.505813   262A      2.533508  
     263A      2.571377   264A      2.579080   265A      2.596793  
     266A      2.628751   267A      2.637838   268A      2.659315  
     269A      2.677862   270A      2.695892   271A      2.717700  
     272A      2.723569   273A      2.739515   274A      2.761085  
     275A      2.765926   276A      2.792073   277A      2.815210  
     278A      2.818358   279A      2.826020   280A      2.834712  
     281A      2.857648   282A      2.867432   283A      2.876110  
     284A      2.904630   285A      2.916591   286A      2.963490  
     287A      2.972320   288A      3.005877   289A      3.039736  
     290A      3.075404   291A      3.089769   292A      3.122728  
     293A      3.173031   294A      3.188752   295A      3.220316  
     296A      3.282269   297A      3.313946   298A      3.328679  
     299A      3.335930   300A      3.336642   301A      3.425299  
     302A      3.432270   303A      3.471260   304A      3.521237  
     305A      3.549581   306A      3.624776   307A      3.753042  
     308A      3.791635   309A      3.822954   310A      3.859841  
     311A      3.916920   312A      3.989795   313A      4.155165  
     314A      4.227922   315A      4.468787   316A      4.543822  

    Final Occupation by Irrep:
              A 
    DOCC [    40 ]

  @DF-RHF Final Energy:  -540.61442074475303

   => Energetics <=

    Nuclear Repulsion Energy =            607.8131387967903265
    One-Electron Energy =               -1942.5007565793646336
    Two-Electron Energy =                 794.0731970378212736
    Total Energy =                       -540.6144207447530334

Computation Completed


Properties will be evaluated at   0.000000,   0.000000,   0.000000 [a0]

Properties computed using the SCF density matrix

  Nuclear Dipole Moment: [e a0]
     X:     4.5443      Y:    -1.2856      Z:     0.2512

  Electronic Dipole Moment: [e a0]
     X:    -5.8966      Y:     1.3558      Z:     0.0746

  Dipole Moment: [e a0]
     X:    -1.3523      Y:     0.0702      Z:     0.3258     Total:     1.3928

  Dipole Moment: [D]
     X:    -3.4372      Y:     0.1785      Z:     0.8282     Total:     3.5401


*** tstop() called on node44.bme.utexas.edu at Sun May 12 23:54:40 2024
Module time:
	user time   =      73.39 seconds =       1.22 minutes
	system time =       3.03 seconds =       0.05 minutes
	total time  =         17 seconds =       0.28 minutes
Total time:
	user time   =      73.39 seconds =       1.22 minutes
	system time =       3.03 seconds =       0.05 minutes
	total time  =         17 seconds =       0.28 minutes

*** tstart() called on node44.bme.utexas.edu
*** at Sun May 12 23:54:40 2024


  //>>>>>>>>>>>>>>>>>>>>>>>>>>>>>>>>>>>//
  //               DFMP2               //
  //<<<<<<<<<<<<<<<<<<<<<<<<<<<<<<<<<<<//

   => Loading Basis Set <=

    Name: (AUG-CC-PVDZ AUX)
    Role: RIFIT
    Keyword: DF_BASIS_MP2
    atoms 1, 4, 11, 14-15, 17-18 entry H          line    30 file /opt/anaconda/envs/psi4v1.5/share/psi4/basis/aug-cc-pvdz-ri.gbs 
    atoms 2, 5, 8-9, 12          entry N          line   158 file /opt/anaconda/envs/psi4v1.5/share/psi4/basis/aug-cc-pvdz-ri.gbs 
    atoms 3, 6-7, 10, 13         entry C          line   112 file /opt/anaconda/envs/psi4v1.5/share/psi4/basis/aug-cc-pvdz-ri.gbs 
    atoms 16                     entry O          line   204 file /opt/anaconda/envs/psi4v1.5/share/psi4/basis/aug-cc-pvdz-ri.gbs 

	 --------------------------------------------------------
	                          DF-MP2                         
	      2nd-Order Density-Fitted Moller-Plesset Theory     
	              RMP2 Wavefunction,   8 Threads             
	                                                         
	        Rob Parrish, Justin Turney, Andy Simmonett,      
	           Ed Hohenstein, and C. David Sherrill          
	 --------------------------------------------------------

   => Auxiliary Basis Set <=

  Basis Set: (AUG-CC-PVDZ AUX)
    Blend: AUG-CC-PVDZ-RI
    Number of shells: 305
    Number of basis functions: 953
    Number of Cartesian functions: 1121
    Spherical Harmonics?: true
    Max angular momentum: 3

	 --------------------------------------------------------
	                 NBF =   316, NAUX =   953
	 --------------------------------------------------------
	   CLASS    FOCC     OCC    AOCC    AVIR     VIR    FVIR
	   PAIRS      11      40      29     276     276       0
	 --------------------------------------------------------

	 Will save fitting metric to file 97.

	-----------------------------------------------------------
	 ==================> DF-MP2 Energies <==================== 
	-----------------------------------------------------------
	 Reference Energy          =    -540.6144207447530334 [Eh]
	 Singles Energy            =      -0.0000000000000000 [Eh]
	 Same-Spin Energy          =      -0.4849515311197862 [Eh]
	 Opposite-Spin Energy      =      -1.2598630698276485 [Eh]
	 Correlation Energy        =      -1.7448146009474348 [Eh]
	 Total Energy              =    -542.3592353457004265 [Eh]
	-----------------------------------------------------------
	 ================> DF-SCS-MP2 Energies <================== 
	-----------------------------------------------------------
	 SCS Same-Spin Scale       =       0.3333333333333333 [-]
	 SCS Opposite-Spin Scale   =       1.2000000000000000 [-]
	 SCS Same-Spin Energy      =      -0.1616505103732621 [Eh]
	 SCS Opposite-Spin Energy  =      -1.5118356837931781 [Eh]
	 SCS Correlation Energy    =      -1.6734861941664403 [Eh]
	 SCS Total Energy          =    -542.2879069389194910 [Eh]
	-----------------------------------------------------------


*** tstop() called on node44.bme.utexas.edu at Sun May 12 23:54:45 2024
Module time:
	user time   =      20.47 seconds =       0.34 minutes
	system time =       0.87 seconds =       0.01 minutes
	total time  =          5 seconds =       0.08 minutes
Total time:
	user time   =      93.86 seconds =       1.56 minutes
	system time =       3.90 seconds =       0.07 minutes
	total time  =         22 seconds =       0.37 minutes

  //>>>>>>>>>>>>>>>>>>>>>>>>>>>>>>>>>>>//
  //            Monomer A HF           //
  //<<<<<<<<<<<<<<<<<<<<<<<<<<<<<<<<<<<//


*** tstart() called on node44.bme.utexas.edu
*** at Sun May 12 23:54:45 2024

   => Loading Basis Set <=

    Name: AUG-CC-PVDZ
    Role: ORBITAL
    Keyword: BASIS
    atoms 1, 4, 11, 14-15, 17-18 entry H          line    40 file /opt/anaconda/envs/psi4v1.5/share/psi4/basis/aug-cc-pvdz.gbs 
    atoms 2, 5, 8-9, 12          entry N          line   218 file /opt/anaconda/envs/psi4v1.5/share/psi4/basis/aug-cc-pvdz.gbs 
    atoms 3, 6-7, 10, 13         entry C          line   182 file /opt/anaconda/envs/psi4v1.5/share/psi4/basis/aug-cc-pvdz.gbs 
    atoms 16                     entry O          line   254 file /opt/anaconda/envs/psi4v1.5/share/psi4/basis/aug-cc-pvdz.gbs 


         ---------------------------------------------------------
                                   SCF
               by Justin Turney, Rob Parrish, Andy Simmonett
                          and Daniel G. A. Smith
                              RHF Reference
                        8 Threads,  47683 MiB Core
         ---------------------------------------------------------

  ==> Geometry <==

    Molecular point group: c1
    Full point group: C1

    Geometry (in Angstrom), charge = 0, multiplicity = 1:

       Center              X                  Y                   Z               Mass       
    ------------   -----------------  -----------------  -----------------  -----------------
         H           -3.380074951071     1.020759527938    -0.070293178591     1.007825032230
         N           -2.605834951071     0.367439527938    -0.042263178591    14.003074004430
         C           -2.670254951071    -1.003300472062    -0.044523178591    12.000000000000
         H           -3.616324951071    -1.529110472062    -0.076613178591     1.007825032230
         N           -1.480914951071    -1.588080472062    -0.003963178591    14.003074004430
         C           -0.604844951071    -0.522200472062     0.028306821409    12.000000000000
         C            0.805345048929    -0.472370472062     0.055816821409    12.000000000000
         N            1.568415048929    -1.585360472062     0.128856821409    14.003074004430
         N            1.394015048929     0.742839527938     0.063846821409    14.003074004430
         C            0.613235048929     1.848879527938     0.038926821409    12.000000000000
         H            1.152285048929     2.793819527938     0.043586821409     1.007825032230
         N           -0.719064951071     1.931779527938     0.009156821409    14.003074004430
         C           -1.271984951071     0.705359527938     0.000096821409    12.000000000000
         H            2.570365048929    -1.477230472062    -0.035573178591     1.007825032230
         H            1.120745048929    -2.470220472062    -0.069283178591     1.007825032230
      Gh(O)           3.657061248929    -0.216021405395    -0.212222645258    15.994914619570
      Gh(H)           4.081101248929    -0.114481405395     0.654267354742     1.007825032230
      Gh(H)           2.894891248929     0.405778594605    -0.176562645258     1.007825032230

  Running in c1 symmetry.

  Rotational constants: A =      0.07678  B =      0.02852  C =      0.02088 [cm^-1]
  Rotational constants: A =   2301.89083  B =    855.01806  C =    625.91377 [MHz]
  Nuclear repulsion =  501.638371265567116

  Charge       = 0
  Multiplicity = 1
  Electrons    = 70
  Nalpha       = 35
  Nbeta        = 35

  ==> Algorithm <==

  SCF Algorithm Type is DF.
  DIIS enabled.
  MOM disabled.
  Fractional occupation disabled.
  Guess Type is SAD.
  Energy threshold   = 1.00e-08
  Density threshold  = 1.00e-08
  Integral threshold = 1.00e-12

  ==> Primary Basis <==

  Basis Set: AUG-CC-PVDZ
    Blend: AUG-CC-PVDZ
    Number of shells: 134
    Number of basis functions: 316
    Number of Cartesian functions: 338
    Spherical Harmonics?: true
    Max angular momentum: 2

   => Loading Basis Set <=

    Name: (AUG-CC-PVDZ AUX)
    Role: JKFIT
    Keyword: DF_BASIS_SCF
    atoms 1, 4, 11, 14-15, 17-18 entry H          line    70 file /opt/anaconda/envs/psi4v1.5/share/psi4/basis/aug-cc-pvdz-jkfit.gbs 
    atoms 2, 5, 8-9, 12          entry N          line   212 file /opt/anaconda/envs/psi4v1.5/share/psi4/basis/aug-cc-pvdz-jkfit.gbs 
    atoms 3, 6-7, 10, 13         entry C          line   154 file /opt/anaconda/envs/psi4v1.5/share/psi4/basis/aug-cc-pvdz-jkfit.gbs 
    atoms 16                     entry O          line   270 file /opt/anaconda/envs/psi4v1.5/share/psi4/basis/aug-cc-pvdz-jkfit.gbs 

  ==> Integral Setup <==

  ==> DiskDFJK: Density-Fitted J/K Matrices <==

    J tasked:                  Yes
    K tasked:                  Yes
    wK tasked:                  No
    OpenMP threads:              8
    Integrals threads:           8
    Memory [MiB]:            35762
    Algorithm:                Core
    Integral Cache:           LOAD
    Schwarz Cutoff:          1E-12
    Fitting Condition:       1E-10

   => Auxiliary Basis Set <=

  Basis Set: (AUG-CC-PVDZ AUX)
    Blend: AUG-CC-PVDZ-JKFIT
    Number of shells: 392
    Number of basis functions: 1170
    Number of Cartesian functions: 1356
    Spherical Harmonics?: true
    Max angular momentum: 3

  Minimum eigenvalue in the overlap matrix is 2.9581540961E-06.
  Reciprocal condition number of the overlap matrix is 1.9436818382E-07.
    Using symmetric orthogonalization.

  ==> Pre-Iterations <==

  SCF Guess: Superposition of Atomic Densities via on-the-fly atomic UHF (no occupation information).

   -------------------------
    Irrep   Nso     Nmo    
   -------------------------
     A        316     316 
   -------------------------
    Total     316     316
   -------------------------

  ==> Iterations <==

                           Total Energy        Delta E     RMS |[F,P]|

   @DF-RHF iter SAD:  -464.36503200513300   -4.64365e+02   0.00000e+00 
   @DF-RHF iter   1:  -464.34866096164609    1.63710e-02   2.03738e-03 DIIS
   @DF-RHF iter   2:  -464.53743309747756   -1.88772e-01   9.86127e-04 DIIS
   @DF-RHF iter   3:  -464.57960471610153   -4.21716e-02   2.34173e-04 DIIS
   @DF-RHF iter   4:  -464.58286254897786   -3.25783e-03   1.07661e-04 DIIS
   @DF-RHF iter   5:  -464.58349167214300   -6.29123e-04   2.10368e-05 DIIS
   @DF-RHF iter   6:  -464.58354193369610   -5.02616e-05   1.01146e-05 DIIS
   @DF-RHF iter   7:  -464.58355517089348   -1.32372e-05   4.00102e-06 DIIS
   @DF-RHF iter   8:  -464.58355786940649   -2.69851e-06   1.47356e-06 DIIS
   @DF-RHF iter   9:  -464.58355825541400   -3.86008e-07   7.69590e-07 DIIS
   @DF-RHF iter  10:  -464.58355835849528   -1.03081e-07   2.82177e-07 DIIS
   @DF-RHF iter  11:  -464.58355837833557   -1.98403e-08   1.22948e-07 DIIS
   @DF-RHF iter  12:  -464.58355838159781   -3.26224e-09   4.42485e-08 DIIS
   @DF-RHF iter  13:  -464.58355838198418   -3.86365e-10   1.74640e-08 DIIS
   @DF-RHF iter  14:  -464.58355838202510   -4.09273e-11   6.44915e-09 DIIS
  Energy and wave function converged.


  ==> Post-Iterations <==

    Orbital Energies [Eh]
    ---------------------

    Doubly Occupied:                                                      

       1A    -15.642382     2A    -15.595901     3A    -15.580485  
       4A    -15.568567     5A    -15.560320     6A    -11.345570  
       7A    -11.334022     8A    -11.324775     9A    -11.319218  
      10A    -11.259342    11A     -1.371016    12A     -1.299853  
      13A     -1.250214    14A     -1.189819    15A     -1.152690  
      16A     -1.035344    17A     -0.896223    18A     -0.877286  
      19A     -0.848728    20A     -0.779017    21A     -0.738108  
      22A     -0.699762    23A     -0.675949    24A     -0.638732  
      25A     -0.633645    26A     -0.612631    27A     -0.591344  
      28A     -0.557097    29A     -0.498105    30A     -0.497492  
      31A     -0.451914    32A     -0.425392    33A     -0.410074  
      34A     -0.371623    35A     -0.308897  

    Virtual:                                                              

      36A      0.026612    37A      0.036534    38A      0.044171  
      39A      0.054020    40A      0.060611    41A      0.071812  
      42A      0.082472    43A      0.086592    44A      0.096800  
      45A      0.101589    46A      0.108590    47A      0.123888  
      48A      0.125214    49A      0.129169    50A      0.137121  
      51A      0.138433    52A      0.141825    53A      0.148633  
      54A      0.155289    55A      0.160836    56A      0.162179  
      57A      0.165090    58A      0.175530    59A      0.180443  
      60A      0.193544    61A      0.196149    62A      0.198221  
      63A      0.204314    64A      0.212886    65A      0.218168  
      66A      0.231189    67A      0.237635    68A      0.242454  
      69A      0.246385    70A      0.247715    71A      0.259446  
      72A      0.270469    73A      0.272730    74A      0.279513  
      75A      0.283735    76A      0.291005    77A      0.291586  
      78A      0.300946    79A      0.317317    80A      0.319077  
      81A      0.322191    82A      0.332155    83A      0.335368  
      84A      0.351284    85A      0.356878    86A      0.361611  
      87A      0.369949    88A      0.380488    89A      0.393602  
      90A      0.400205    91A      0.405407    92A      0.413699  
      93A      0.428998    94A      0.431772    95A      0.439234  
      96A      0.448007    97A      0.450938    98A      0.452164  
      99A      0.459456   100A      0.463599   101A      0.468332  
     102A      0.480803   103A      0.496847   104A      0.502484  
     105A      0.504802   106A      0.510099   107A      0.531239  
     108A      0.534615   109A      0.553593   110A      0.558833  
     111A      0.565482   112A      0.576537   113A      0.581850  
     114A      0.585247   115A      0.598722   116A      0.602802  
     117A      0.609678   118A      0.621863   119A      0.625685  
     120A      0.638977   121A      0.646331   122A      0.651639  
     123A      0.653458   124A      0.658709   125A      0.676522  
     126A      0.683397   127A      0.688134   128A      0.691404  
     129A      0.698309   130A      0.704192   131A      0.710978  
     132A      0.715886   133A      0.726438   134A      0.733943  
     135A      0.753374   136A      0.766539   137A      0.777099  
     138A      0.783829   139A      0.795547   140A      0.800137  
     141A      0.810605   142A      0.819527   143A      0.835213  
     144A      0.841369   145A      0.854620   146A      0.857587  
     147A      0.869340   148A      0.889027   149A      0.891454  
     150A      0.897181   151A      0.902710   152A      0.912807  
     153A      0.918271   154A      0.925342   155A      0.937369  
     156A      0.960243   157A      0.967709   158A      0.976565  
     159A      0.990184   160A      1.002921   161A      1.013662  
     162A      1.029516   163A      1.033112   164A      1.054646  
     165A      1.067691   166A      1.073168   167A      1.088261  
     168A      1.098262   169A      1.103889   170A      1.112668  
     171A      1.123779   172A      1.137877   173A      1.141226  
     174A      1.159371   175A      1.166864   176A      1.170746  
     177A      1.205941   178A      1.215768   179A      1.218696  
     180A      1.229120   181A      1.238314   182A      1.262092  
     183A      1.284261   184A      1.287843   185A      1.306316  
     186A      1.315182   187A      1.357248   188A      1.369614  
     189A      1.381636   190A      1.394324   191A      1.404522  
     192A      1.418226   193A      1.442999   194A      1.444604  
     195A      1.456034   196A      1.469570   197A      1.495901  
     198A      1.514701   199A      1.533927   200A      1.563561  
     201A      1.572981   202A      1.583967   203A      1.602576  
     204A      1.622824   205A      1.629523   206A      1.649016  
     207A      1.674752   208A      1.685607   209A      1.690770  
     210A      1.710342   211A      1.729662   212A      1.736585  
     213A      1.741317   214A      1.754173   215A      1.785986  
     216A      1.796064   217A      1.819155   218A      1.823162  
     219A      1.845075   220A      1.864526   221A      1.890401  
     222A      1.903091   223A      1.910532   224A      1.941355  
     225A      1.964213   226A      1.990062   227A      1.993117  
     228A      2.027001   229A      2.056353   230A      2.070643  
     231A      2.073414   232A      2.092966   233A      2.105777  
     234A      2.134769   235A      2.144767   236A      2.178562  
     237A      2.193627   238A      2.205666   239A      2.230140  
     240A      2.258192   241A      2.273174   242A      2.280286  
     243A      2.300170   244A      2.307541   245A      2.341899  
     246A      2.354237   247A      2.366110   248A      2.373403  
     249A      2.396446   250A      2.409079   251A      2.417116  
     252A      2.450811   253A      2.496732   254A      2.503345  
     255A      2.506049   256A      2.527969   257A      2.561212  
     258A      2.579678   259A      2.595046   260A      2.608673  
     261A      2.645061   262A      2.647599   263A      2.676697  
     264A      2.699779   265A      2.715309   266A      2.732756  
     267A      2.746292   268A      2.759165   269A      2.783277  
     270A      2.795719   271A      2.803491   272A      2.828126  
     273A      2.839087   274A      2.846739   275A      2.858179  
     276A      2.879723   277A      2.887993   278A      2.901219  
     279A      2.927751   280A      2.969326   281A      2.984222  
     282A      3.010425   283A      3.062635   284A      3.074761  
     285A      3.095408   286A      3.104857   287A      3.152317  
     288A      3.197163   289A      3.266128   290A      3.295703  
     291A      3.322467   292A      3.344420   293A      3.359023  
     294A      3.421439   295A      3.439886   296A      3.472497  
     297A      3.526168   298A      3.547805   299A      3.625513  
     300A      3.660748   301A      3.775602   302A      3.873762  
     303A      3.908373   304A      4.119505   305A      4.160517  
     306A      4.339192   307A      4.517643   308A      5.025596  
     309A      5.066596   310A      5.153223   311A      5.267372  
     312A      5.575435   313A      6.304852   314A      6.719421  
     315A      7.128374   316A     33.590801  

    Final Occupation by Irrep:
              A 
    DOCC [    35 ]

  @DF-RHF Final Energy:  -464.58355838202510

   => Energetics <=

    Nuclear Repulsion Energy =            501.6383712655671161
    One-Electron Energy =               -1625.7607859387153439
    Two-Electron Energy =                 659.5388562911232384
    Total Energy =                       -464.5835583820251031

Computation Completed


Properties will be evaluated at   0.000000,   0.000000,   0.000000 [a0]

Properties computed using the SCF density matrix

  Nuclear Dipole Moment: [e a0]
     X:   -63.9251      Y:     1.4297      Z:     2.5568

  Electronic Dipole Moment: [e a0]
     X:    63.0452      Y:    -1.9012      Z:    -2.8098

  Dipole Moment: [e a0]
     X:    -0.8800      Y:    -0.4715      Z:    -0.2529     Total:     1.0299

  Dipole Moment: [D]
     X:    -2.2367      Y:    -1.1984      Z:    -0.6429     Total:     2.6177


*** tstop() called on node44.bme.utexas.edu at Sun May 12 23:55:03 2024
Module time:
	user time   =      75.40 seconds =       1.26 minutes
	system time =       3.07 seconds =       0.05 minutes
	total time  =         18 seconds =       0.30 minutes
Total time:
	user time   =     169.48 seconds =       2.82 minutes
	system time =       6.99 seconds =       0.12 minutes
	total time  =         40 seconds =       0.67 minutes

*** tstart() called on node44.bme.utexas.edu
*** at Sun May 12 23:55:03 2024


  //>>>>>>>>>>>>>>>>>>>>>>>>>>>>>>>>>>>//
  //               DFMP2               //
  //<<<<<<<<<<<<<<<<<<<<<<<<<<<<<<<<<<<//

   => Loading Basis Set <=

    Name: (AUG-CC-PVDZ AUX)
    Role: RIFIT
    Keyword: DF_BASIS_MP2
    atoms 1, 4, 11, 14-15, 17-18 entry H          line    30 file /opt/anaconda/envs/psi4v1.5/share/psi4/basis/aug-cc-pvdz-ri.gbs 
    atoms 2, 5, 8-9, 12          entry N          line   158 file /opt/anaconda/envs/psi4v1.5/share/psi4/basis/aug-cc-pvdz-ri.gbs 
    atoms 3, 6-7, 10, 13         entry C          line   112 file /opt/anaconda/envs/psi4v1.5/share/psi4/basis/aug-cc-pvdz-ri.gbs 
    atoms 16                     entry O          line   204 file /opt/anaconda/envs/psi4v1.5/share/psi4/basis/aug-cc-pvdz-ri.gbs 

	 --------------------------------------------------------
	                          DF-MP2                         
	      2nd-Order Density-Fitted Moller-Plesset Theory     
	              RMP2 Wavefunction,   8 Threads             
	                                                         
	        Rob Parrish, Justin Turney, Andy Simmonett,      
	           Ed Hohenstein, and C. David Sherrill          
	 --------------------------------------------------------

   => Auxiliary Basis Set <=

  Basis Set: (AUG-CC-PVDZ AUX)
    Blend: AUG-CC-PVDZ-RI
    Number of shells: 305
    Number of basis functions: 953
    Number of Cartesian functions: 1121
    Spherical Harmonics?: true
    Max angular momentum: 3

	 --------------------------------------------------------
	                 NBF =   316, NAUX =   953
	 --------------------------------------------------------
	   CLASS    FOCC     OCC    AOCC    AVIR     VIR    FVIR
	   PAIRS      10      35      25     281     281       0
	 --------------------------------------------------------

	 Will attempt to load fitting metric from file 97.

	-----------------------------------------------------------
	 ==================> DF-MP2 Energies <==================== 
	-----------------------------------------------------------
	 Reference Energy          =    -464.5835583820251031 [Eh]
	 Singles Energy            =      -0.0000000000000000 [Eh]
	 Same-Spin Energy          =      -0.4221190112095146 [Eh]
	 Opposite-Spin Energy      =      -1.0906469178342029 [Eh]
	 Correlation Energy        =      -1.5127659290437174 [Eh]
	 Total Energy              =    -466.0963243110688268 [Eh]
	-----------------------------------------------------------
	 ================> DF-SCS-MP2 Energies <================== 
	-----------------------------------------------------------
	 SCS Same-Spin Scale       =       0.3333333333333333 [-]
	 SCS Opposite-Spin Scale   =       1.2000000000000000 [-]
	 SCS Same-Spin Energy      =      -0.1407063370698382 [Eh]
	 SCS Opposite-Spin Energy  =      -1.3087763014010434 [Eh]
	 SCS Correlation Energy    =      -1.4494826384708817 [Eh]
	 SCS Total Energy          =    -466.0330410204960003 [Eh]
	-----------------------------------------------------------


*** tstop() called on node44.bme.utexas.edu at Sun May 12 23:55:07 2024
Module time:
	user time   =      16.55 seconds =       0.28 minutes
	system time =       0.68 seconds =       0.01 minutes
	total time  =          4 seconds =       0.07 minutes
Total time:
	user time   =     186.03 seconds =       3.10 minutes
	system time =       7.67 seconds =       0.13 minutes
	total time  =         44 seconds =       0.73 minutes

  //>>>>>>>>>>>>>>>>>>>>>>>>>>>>>>>>>>>//
  //            Monomer B HF           //
  //<<<<<<<<<<<<<<<<<<<<<<<<<<<<<<<<<<<//


*** tstart() called on node44.bme.utexas.edu
*** at Sun May 12 23:55:07 2024

   => Loading Basis Set <=

    Name: AUG-CC-PVDZ
    Role: ORBITAL
    Keyword: BASIS
    atoms 1, 4, 11, 14-15, 17-18 entry H          line    40 file /opt/anaconda/envs/psi4v1.5/share/psi4/basis/aug-cc-pvdz.gbs 
    atoms 2, 5, 8-9, 12          entry N          line   218 file /opt/anaconda/envs/psi4v1.5/share/psi4/basis/aug-cc-pvdz.gbs 
    atoms 3, 6-7, 10, 13         entry C          line   182 file /opt/anaconda/envs/psi4v1.5/share/psi4/basis/aug-cc-pvdz.gbs 
    atoms 16                     entry O          line   254 file /opt/anaconda/envs/psi4v1.5/share/psi4/basis/aug-cc-pvdz.gbs 


         ---------------------------------------------------------
                                   SCF
               by Justin Turney, Rob Parrish, Andy Simmonett
                          and Daniel G. A. Smith
                              RHF Reference
                        8 Threads,  47683 MiB Core
         ---------------------------------------------------------

  ==> Geometry <==

    Molecular point group: c1
    Full point group: C1

    Geometry (in Angstrom), charge = 0, multiplicity = 1:

       Center              X                  Y                   Z               Mass       
    ------------   -----------------  -----------------  -----------------  -----------------
      Gh(H)          -3.380074951071     1.020759527938    -0.070293178591     1.007825032230
      Gh(N)          -2.605834951071     0.367439527938    -0.042263178591    14.003074004430
      Gh(C)          -2.670254951071    -1.003300472062    -0.044523178591    12.000000000000
      Gh(H)          -3.616324951071    -1.529110472062    -0.076613178591     1.007825032230
      Gh(N)          -1.480914951071    -1.588080472062    -0.003963178591    14.003074004430
      Gh(C)          -0.604844951071    -0.522200472062     0.028306821409    12.000000000000
      Gh(C)           0.805345048929    -0.472370472062     0.055816821409    12.000000000000
      Gh(N)           1.568415048929    -1.585360472062     0.128856821409    14.003074004430
      Gh(N)           1.394015048929     0.742839527938     0.063846821409    14.003074004430
      Gh(C)           0.613235048929     1.848879527938     0.038926821409    12.000000000000
      Gh(H)           1.152285048929     2.793819527938     0.043586821409     1.007825032230
      Gh(N)          -0.719064951071     1.931779527938     0.009156821409    14.003074004430
      Gh(C)          -1.271984951071     0.705359527938     0.000096821409    12.000000000000
      Gh(H)           2.570365048929    -1.477230472062    -0.035573178591     1.007825032230
      Gh(H)           1.120745048929    -2.470220472062    -0.069283178591     1.007825032230
         O            3.657061248929    -0.216021405395    -0.212222645258    15.994914619570
         H            4.081101248929    -0.114481405395     0.654267354742     1.007825032230
         H            2.894891248929     0.405778594605    -0.176562645258     1.007825032230

  Running in c1 symmetry.

  Rotational constants: A =      0.07678  B =      0.02852  C =      0.02088 [cm^-1]
  Rotational constants: A =   2301.89083  B =    855.01806  C =    625.91377 [MHz]
  Nuclear repulsion =    9.009192701693236

  Charge       = 0
  Multiplicity = 1
  Electrons    = 10
  Nalpha       = 5
  Nbeta        = 5

  ==> Algorithm <==

  SCF Algorithm Type is DF.
  DIIS enabled.
  MOM disabled.
  Fractional occupation disabled.
  Guess Type is SAD.
  Energy threshold   = 1.00e-08
  Density threshold  = 1.00e-08
  Integral threshold = 1.00e-12

  ==> Primary Basis <==

  Basis Set: AUG-CC-PVDZ
    Blend: AUG-CC-PVDZ
    Number of shells: 134
    Number of basis functions: 316
    Number of Cartesian functions: 338
    Spherical Harmonics?: true
    Max angular momentum: 2

   => Loading Basis Set <=

    Name: (AUG-CC-PVDZ AUX)
    Role: JKFIT
    Keyword: DF_BASIS_SCF
    atoms 1, 4, 11, 14-15, 17-18 entry H          line    70 file /opt/anaconda/envs/psi4v1.5/share/psi4/basis/aug-cc-pvdz-jkfit.gbs 
    atoms 2, 5, 8-9, 12          entry N          line   212 file /opt/anaconda/envs/psi4v1.5/share/psi4/basis/aug-cc-pvdz-jkfit.gbs 
    atoms 3, 6-7, 10, 13         entry C          line   154 file /opt/anaconda/envs/psi4v1.5/share/psi4/basis/aug-cc-pvdz-jkfit.gbs 
    atoms 16                     entry O          line   270 file /opt/anaconda/envs/psi4v1.5/share/psi4/basis/aug-cc-pvdz-jkfit.gbs 

  ==> Integral Setup <==

  ==> DiskDFJK: Density-Fitted J/K Matrices <==

    J tasked:                  Yes
    K tasked:                  Yes
    wK tasked:                  No
    OpenMP threads:              8
    Integrals threads:           8
    Memory [MiB]:            35762
    Algorithm:                Core
    Integral Cache:           LOAD
    Schwarz Cutoff:          1E-12
    Fitting Condition:       1E-10

   => Auxiliary Basis Set <=

  Basis Set: (AUG-CC-PVDZ AUX)
    Blend: AUG-CC-PVDZ-JKFIT
    Number of shells: 392
    Number of basis functions: 1170
    Number of Cartesian functions: 1356
    Spherical Harmonics?: true
    Max angular momentum: 3

  Minimum eigenvalue in the overlap matrix is 2.9581540961E-06.
  Reciprocal condition number of the overlap matrix is 1.9436818382E-07.
    Using symmetric orthogonalization.

  ==> Pre-Iterations <==

  SCF Guess: Superposition of Atomic Densities via on-the-fly atomic UHF (no occupation information).

   -------------------------
    Irrep   Nso     Nmo    
   -------------------------
     A        316     316 
   -------------------------
    Total     316     316
   -------------------------

  ==> Iterations <==

                           Total Energy        Delta E     RMS |[F,P]|

   @DF-RHF iter SAD:   -75.44314741540433   -7.54431e+01   0.00000e+00 
   @DF-RHF iter   1:   -75.95528928498332   -5.12142e-01   1.43393e-03 DIIS
   @DF-RHF iter   2:   -76.00795989704783   -5.26706e-02   9.59042e-04 DIIS
   @DF-RHF iter   3:   -76.03995789519543   -3.19980e-02   6.81509e-05 DIIS
   @DF-RHF iter   4:   -76.04035808780006   -4.00193e-04   1.60432e-05 DIIS
   @DF-RHF iter   5:   -76.04038312835800   -2.50406e-05   3.70152e-06 DIIS
   @DF-RHF iter   6:   -76.04038519375497   -2.06540e-06   7.47324e-07 DIIS
   @DF-RHF iter   7:   -76.04038528194384   -8.81889e-08   1.23530e-07 DIIS
   @DF-RHF iter   8:   -76.04038528413737   -2.19353e-09   2.04086e-08 DIIS
   @DF-RHF iter   9:   -76.04038528419026   -5.28928e-11   5.33023e-09 DIIS
  Energy and wave function converged.


  ==> Post-Iterations <==

    Orbital Energies [Eh]
    ---------------------

    Doubly Occupied:                                                      

       1A    -20.581146     2A     -1.346720     3A     -0.706942  
       4A     -0.582507     5A     -0.507721  

    Virtual:                                                              

       6A      0.017083     7A      0.030540     8A      0.039053  
       9A      0.053035    10A      0.056927    11A      0.062775  
      12A      0.068849    13A      0.083285    14A      0.086632  
      15A      0.093144    16A      0.098111    17A      0.102873  
      18A      0.111488    19A      0.119533    20A      0.128801  
      21A      0.131728    22A      0.140499    23A      0.146340  
      24A      0.150554    25A      0.157575    26A      0.161390  
      27A      0.169919    28A      0.179349    29A      0.185325  
      30A      0.193745    31A      0.194641    32A      0.198146  
      33A      0.205534    34A      0.210402    35A      0.219441  
      36A      0.224545    37A      0.229761    38A      0.237947  
      39A      0.244319    40A      0.248884    41A      0.252456  
      42A      0.255025    43A      0.260536    44A      0.266087  
      45A      0.274894    46A      0.281401    47A      0.297178  
      48A      0.304885    49A      0.308010    50A      0.316995  
      51A      0.328734    52A      0.337744    53A      0.345129  
      54A      0.350195    55A      0.362068    56A      0.366824  
      57A      0.386547    58A      0.393187    59A      0.394614  
      60A      0.404958    61A      0.422249    62A      0.430913  
      63A      0.445182    64A      0.463635    65A      0.473485  
      66A      0.475532    67A      0.479562    68A      0.486239  
      69A      0.498417    70A      0.505419    71A      0.512146  
      72A      0.516624    73A      0.521277    74A      0.525746  
      75A      0.534760    76A      0.542597    77A      0.551301  
      78A      0.554119    79A      0.556781    80A      0.567028  
      81A      0.574049    82A      0.574784    83A      0.580722  
      84A      0.587770    85A      0.594677    86A      0.608313  
      87A      0.616944    88A      0.627815    89A      0.629173  
      90A      0.638271    91A      0.642164    92A      0.653176  
      93A      0.663558    94A      0.668843    95A      0.679746  
      96A      0.692866    97A      0.699832    98A      0.710889  
      99A      0.736793   100A      0.748773   101A      0.759512  
     102A      0.773596   103A      0.785484   104A      0.790872  
     105A      0.812287   106A      0.817922   107A      0.828231  
     108A      0.840991   109A      0.846426   110A      0.859951  
     111A      0.861384   112A      0.873610   113A      0.887518  
     114A      0.896661   115A      0.912711   116A      0.931945  
     117A      0.949662   118A      0.951940   119A      0.956313  
     120A      0.968422   121A      0.981607   122A      0.997131  
     123A      1.014291   124A      1.027929   125A      1.032483  
     126A      1.050695   127A      1.069114   128A      1.069727  
     129A      1.088076   130A      1.106861   131A      1.119607  
     132A      1.131720   133A      1.152425   134A      1.156941  
     135A      1.158817   136A      1.162534   137A      1.169140  
     138A      1.179510   139A      1.190924   140A      1.201518  
     141A      1.208938   142A      1.217771   143A      1.222816  
     144A      1.231005   145A      1.244909   146A      1.248279  
     147A      1.259335   148A      1.269939   149A      1.276013  
     150A      1.280121   151A      1.295211   152A      1.302638  
     153A      1.316541   154A      1.320521   155A      1.336309  
     156A      1.342539   157A      1.357391   158A      1.379906  
     159A      1.387353   160A      1.396208   161A      1.407420  
     162A      1.412480   163A      1.425198   164A      1.446864  
     165A      1.459832   166A      1.475678   167A      1.501162  
     168A      1.524848   169A      1.546100   170A      1.552967  
     171A      1.587052   172A      1.611737   173A      1.639761  
     174A      1.664002   175A      1.677885   176A      1.699096  
     177A      1.709270   178A      1.746267   179A      1.763344  
     180A      1.788358   181A      1.839550   182A      1.869019  
     183A      1.988689   184A      2.071825   185A      2.128802  
     186A      2.152806   187A      2.155563   188A      2.167435  
     189A      2.181000   190A      2.234750   191A      2.264429  
     192A      2.270637   193A      2.317083   194A      2.358455  
     195A      2.392294   196A      2.398466   197A      2.403655  
     198A      2.432357   199A      2.443324   200A      2.450396  
     201A      2.459095   202A      2.481777   203A      2.492609  
     204A      2.505678   205A      2.525957   206A      2.537181  
     207A      2.558715   208A      2.572538   209A      2.602340  
     210A      2.617005   211A      2.624930   212A      2.651617  
     213A      2.666382   214A      2.714119   215A      2.742603  
     216A      2.773647   217A      2.782662   218A      2.810527  
     219A      2.817946   220A      2.862679   221A      2.898845  
     222A      2.910876   223A      2.934560   224A      2.956224  
     225A      2.984972   226A      3.039833   227A      3.053984  
     228A      3.088729   229A      3.135836   230A      3.159728  
     231A      3.177981   232A      3.185721   233A      3.219283  
     234A      3.236751   235A      3.258424   236A      3.290613  
     237A      3.358046   238A      3.378866   239A      3.382456  
     240A      3.408045   241A      3.439645   242A      3.454633  
     243A      3.483492   244A      3.494066   245A      3.524109  
     246A      3.542930   247A      3.554875   248A      3.580965  
     249A      3.602186   250A      3.618043   251A      3.631325  
     252A      3.635569   253A      3.663546   254A      3.703112  
     255A      3.721039   256A      3.738878   257A      3.768391  
     258A      3.784692   259A      3.787413   260A      3.792114  
     261A      3.804235   262A      3.832432   263A      3.841553  
     264A      3.867803   265A      3.897033   266A      3.931804  
     267A      3.954004   268A      3.959310   269A      3.978698  
     270A      4.070467   271A      4.146247   272A      4.198517  
     273A      4.225687   274A      4.310295   275A      4.334735  
     276A      4.371226   277A      4.474802   278A      4.570143  
     279A      4.592585   280A      4.705156   281A      4.725615  
     282A      4.758764   283A      4.783748   284A      4.845746  
     285A      4.924940   286A      4.950002   287A      4.951860  
     288A      5.050294   289A      5.208378   290A      5.257732  
     291A      5.337014   292A      5.495206   293A      5.505829  
     294A      5.580777   295A      5.608450   296A      5.692962  
     297A      5.717541   298A      5.802674   299A      5.821649  
     300A      5.882850   301A      6.076000   302A      6.160272  
     303A      6.184927   304A      6.202268   305A      6.294443  
     306A      6.397503   307A     18.254271   308A     18.605668  
     309A     18.661598   310A     19.148965   311A     20.114602  
     312A     25.317945   313A     25.342929   314A     25.352223  
     315A     25.501752   316A     25.554802  

    Final Occupation by Irrep:
              A 
    DOCC [     5 ]

  @DF-RHF Final Energy:   -76.04038528419026

   => Energetics <=

    Nuclear Repulsion Energy =              9.0091927016932356
    One-Electron Energy =                -122.6490821346501150
    Two-Electron Energy =                  37.5995041487666057
    Total Energy =                        -76.0403852841902790

Computation Completed


Properties will be evaluated at   0.000000,   0.000000,   0.000000 [a0]

Properties computed using the SCF density matrix

  Nuclear Dipole Moment: [e a0]
     X:    68.4695      Y:    -2.7153      Z:    -2.3056

  Electronic Dipole Moment: [e a0]
     X:   -68.6913      Y:     3.1902      Z:     2.8999

  Dipole Moment: [e a0]
     X:    -0.2218      Y:     0.4749      Z:     0.5943     Total:     0.7924

  Dipole Moment: [D]
     X:    -0.5639      Y:     1.2071      Z:     1.5104     Total:     2.0141


*** tstop() called on node44.bme.utexas.edu at Sun May 12 23:55:18 2024
Module time:
	user time   =      40.82 seconds =       0.68 minutes
	system time =       1.67 seconds =       0.03 minutes
	total time  =         11 seconds =       0.18 minutes
Total time:
	user time   =     226.88 seconds =       3.78 minutes
	system time =       9.34 seconds =       0.16 minutes
	total time  =         55 seconds =       0.92 minutes

*** tstart() called on node44.bme.utexas.edu
*** at Sun May 12 23:55:18 2024


  //>>>>>>>>>>>>>>>>>>>>>>>>>>>>>>>>>>>//
  //               DFMP2               //
  //<<<<<<<<<<<<<<<<<<<<<<<<<<<<<<<<<<<//

   => Loading Basis Set <=

    Name: (AUG-CC-PVDZ AUX)
    Role: RIFIT
    Keyword: DF_BASIS_MP2
    atoms 1, 4, 11, 14-15, 17-18 entry H          line    30 file /opt/anaconda/envs/psi4v1.5/share/psi4/basis/aug-cc-pvdz-ri.gbs 
    atoms 2, 5, 8-9, 12          entry N          line   158 file /opt/anaconda/envs/psi4v1.5/share/psi4/basis/aug-cc-pvdz-ri.gbs 
    atoms 3, 6-7, 10, 13         entry C          line   112 file /opt/anaconda/envs/psi4v1.5/share/psi4/basis/aug-cc-pvdz-ri.gbs 
    atoms 16                     entry O          line   204 file /opt/anaconda/envs/psi4v1.5/share/psi4/basis/aug-cc-pvdz-ri.gbs 

	 --------------------------------------------------------
	                          DF-MP2                         
	      2nd-Order Density-Fitted Moller-Plesset Theory     
	              RMP2 Wavefunction,   8 Threads             
	                                                         
	        Rob Parrish, Justin Turney, Andy Simmonett,      
	           Ed Hohenstein, and C. David Sherrill          
	 --------------------------------------------------------

   => Auxiliary Basis Set <=

  Basis Set: (AUG-CC-PVDZ AUX)
    Blend: AUG-CC-PVDZ-RI
    Number of shells: 305
    Number of basis functions: 953
    Number of Cartesian functions: 1121
    Spherical Harmonics?: true
    Max angular momentum: 3

	 --------------------------------------------------------
	                 NBF =   316, NAUX =   953
	 --------------------------------------------------------
	   CLASS    FOCC     OCC    AOCC    AVIR     VIR    FVIR
	   PAIRS       1       5       4     311     311       0
	 --------------------------------------------------------

	 Will attempt to load fitting metric from file 97.

	-----------------------------------------------------------
	 ==================> DF-MP2 Energies <==================== 
	-----------------------------------------------------------
	 Reference Energy          =     -76.0403852841902648 [Eh]
	 Singles Energy            =      -0.0000000000000000 [Eh]
	 Same-Spin Energy          =      -0.0565784465976424 [Eh]
	 Opposite-Spin Energy      =      -0.1663624727950127 [Eh]
	 Correlation Energy        =      -0.2229409193926551 [Eh]
	 Total Energy              =     -76.2633262035829205 [Eh]
	-----------------------------------------------------------
	 ================> DF-SCS-MP2 Energies <================== 
	-----------------------------------------------------------
	 SCS Same-Spin Scale       =       0.3333333333333333 [-]
	 SCS Opposite-Spin Scale   =       1.2000000000000000 [-]
	 SCS Same-Spin Energy      =      -0.0188594821992141 [Eh]
	 SCS Opposite-Spin Energy  =      -0.1996349673540152 [Eh]
	 SCS Correlation Energy    =      -0.2184944495532293 [Eh]
	 SCS Total Energy          =     -76.2588797337434983 [Eh]
	-----------------------------------------------------------


*** tstop() called on node44.bme.utexas.edu at Sun May 12 23:55:21 2024
Module time:
	user time   =      11.88 seconds =       0.20 minutes
	system time =       0.35 seconds =       0.01 minutes
	total time  =          3 seconds =       0.05 minutes
Total time:
	user time   =     238.76 seconds =       3.98 minutes
	system time =       9.69 seconds =       0.16 minutes
	total time  =         58 seconds =       0.97 minutes
  Constructing Basis Sets for SAPT...

   => Loading Basis Set <=

    Name: (AUG-CC-PVDZ AUX)
    Role: RIFIT
    Keyword: DF_BASIS_SAPT
    atoms 1, 4, 11, 14-15, 17-18 entry H          line    30 file /opt/anaconda/envs/psi4v1.5/share/psi4/basis/aug-cc-pvdz-ri.gbs 
    atoms 2, 5, 8-9, 12          entry N          line   158 file /opt/anaconda/envs/psi4v1.5/share/psi4/basis/aug-cc-pvdz-ri.gbs 
    atoms 3, 6-7, 10, 13         entry C          line   112 file /opt/anaconda/envs/psi4v1.5/share/psi4/basis/aug-cc-pvdz-ri.gbs 
    atoms 16                     entry O          line   204 file /opt/anaconda/envs/psi4v1.5/share/psi4/basis/aug-cc-pvdz-ri.gbs 


  //>>>>>>>>>>>>>>>>>>>>>>>>>>>>>>>>>>>//
  //           SAPT2+(3)DMP2           //
  //<<<<<<<<<<<<<<<<<<<<<<<<<<<<<<<<<<<//


*** tstart() called on node44.bme.utexas.edu
*** at Sun May 12 23:55:22 2024

      SAPT2+(3)  
    Ed Hohenstein
     6 June 2009

      Orbital Information
  --------------------------
    NSO        =       316
    NMO        =       316
    NRI        =       953
    NOCC A     =        35
    NOCC B     =         5
    FOCC A     =        10
    FOCC B     =         1
    NVIR A     =       281
    NVIR B     =       311

    Estimated memory usage: 3581.0 MB

    Natural Orbital Cutoff:   1.000E-06
    Disp(T3) Truncation:            Yes
    CCD (vv|vv) Truncation:         Yes
    MBPT T2 Truncation:             Yes

    Monomer A: 42 virtual orbitals dropped
    Monomer B: 263 virtual orbitals dropped

    Elst10,r            =    -0.069729287652 [Eh]
    Exch10 (S^2)        =     0.107316787754 [Eh]
    Exch10              =     0.110627267447 [Eh]
    Ind20,r (A<-B)      =    -0.030442929697 [Eh]
    Ind20,r (B<-A)      =    -0.023076276620 [Eh]
    Ind20,r             =    -0.053519206318 [Eh]
    Exch-Ind20,r (A<-B) =     0.018882101055 [Eh]
    Exch-Ind20,r (B<-A) =     0.015759914466 [Eh]
    Exch-Ind20,r        =     0.034642015522 [Eh]
    Disp20              =    -0.024670633590 [Eh]
    Disp20 (NO)         =    -0.022797581411 [Eh]
    Exch-Disp20         =     0.006340481357 [Eh]
    Elst12,r            =    -0.003327551991 [Eh]
    Exch11              =    -0.000002926421 [Eh]
    Exch12              =     0.012750943846 [Eh]
    Ind22               =    -0.009524107757 [Eh]
    Disp21              =     0.003023734485 [Eh]
    Disp22 (SDQ)        =    -0.001321876938 [Eh]

    (i =   1 of   4)        112 seconds
    (i =   2 of   4)        221 seconds
    (i =   3 of   4)        328 seconds
    (i =   4 of   4)        437 seconds

    Disp220 (T)         =    -0.001864859390 [Eh]

    (i =   1 of  25)          2 seconds
    (i =   2 of  25)          4 seconds
    (i =   3 of  25)          5 seconds
    (i =   4 of  25)          6 seconds
    (i =   5 of  25)          6 seconds
    (i =   6 of  25)          7 seconds
    (i =   7 of  25)          7 seconds
    (i =   8 of  25)          8 seconds
    (i =   9 of  25)         11 seconds
    (i =  10 of  25)         14 seconds
    (i =  11 of  25)         15 seconds
    (i =  12 of  25)         16 seconds
    (i =  13 of  25)         18 seconds
    (i =  14 of  25)         19 seconds
    (i =  15 of  25)         21 seconds
    (i =  16 of  25)         23 seconds
    (i =  17 of  25)         24 seconds
    (i =  18 of  25)         25 seconds
    (i =  19 of  25)         27 seconds
    (i =  20 of  25)         28 seconds
    (i =  21 of  25)         29 seconds
    (i =  22 of  25)         30 seconds
    (i =  23 of  25)         32 seconds
    (i =  24 of  25)         33 seconds
    (i =  25 of  25)         35 seconds

    Disp202 (T)         =    -0.001767287791 [Eh]

    Disp22 (T)          =    -0.003632147181 [Eh]

    Est. Disp220 (T)    =    -0.002018076474 [Eh]
    Est. Disp202 (T)    =    -0.001912488380 [Eh]

    Est. Disp22 (T)     =    -0.003930564854 [Eh]
    Elst13,r            =     0.001644886261 [Eh]
    Disp30              =     0.000437025451 [Eh]

    SAPT Results 
  --------------------------------------------------------------------------------------------------------
    Electrostatics                -71.41195338 [mEh]     -44.81167729 [kcal/mol]    -187.49205777 [kJ/mol]
      Elst10,r                    -69.72928765 [mEh]     -43.75578860 [kcal/mol]    -183.07421951 [kJ/mol]
      Elst12,r                     -3.32755199 [mEh]      -2.08807040 [kcal/mol]      -8.73648655 [kJ/mol]
      Elst13,r                      1.64488626 [mEh]       1.03218171 [kcal/mol]       4.31864828 [kJ/mol]

    Exchange                      123.37528487 [mEh]      77.41916009 [kcal/mol]     323.92176581 [kJ/mol]
      Exch10                      110.62726745 [mEh]      69.41965838 [kcal/mol]     290.45185067 [kJ/mol]
      Exch10(S^2)                 107.31678775 [mEh]      67.34230101 [kcal/mol]     281.76018743 [kJ/mol]
      Exch11(S^2)                  -0.00292642 [mEh]      -0.00183636 [kcal/mol]      -0.00768332 [kJ/mol]
      Exch12(S^2)                  12.75094385 [mEh]       8.00133806 [kcal/mol]      33.47759846 [kJ/mol]

    Induction                     -31.57312404 [mEh]     -19.81243445 [kcal/mol]     -82.89522576 [kJ/mol]
      Ind20,r                     -53.51920632 [mEh]     -33.58380899 [kcal/mol]    -140.51465683 [kJ/mol]
      Ind22                        -9.52410776 [mEh]      -5.97646785 [kcal/mol]     -25.00554147 [kJ/mol]
      Exch-Ind20,r                 34.64201552 [mEh]      21.73819293 [kcal/mol]      90.95259922 [kJ/mol]
      Exch-Ind22                    6.16478292 [mEh]       3.86845968 [kcal/mol]      16.18563531 [kJ/mol]
      delta HF,r (2)              -12.49786754 [mEh]      -7.84253028 [kcal/mol]     -32.81314670 [kJ/mol]
      delta MP2,r (2)               3.16125913 [mEh]       1.98372005 [kcal/mol]       8.29988470 [kJ/mol]

    Dispersion                    -20.12183409 [mEh]     -12.62664152 [kcal/mol]     -52.82986812 [kJ/mol]
      Disp20                      -24.67063359 [mEh]     -15.48105630 [kcal/mol]     -64.77273957 [kJ/mol]
      Disp30                        0.43702545 [mEh]       0.27423761 [kcal/mol]       1.14741016 [kJ/mol]
      Disp21                        3.02373449 [mEh]       1.89742204 [kcal/mol]       7.93881380 [kJ/mol]
      Disp22 (SDQ)                 -1.32187694 [mEh]      -0.82949030 [kcal/mol]      -3.47058742 [kJ/mol]
      Disp22 (T)                   -3.63214718 [mEh]      -2.27920677 [kcal/mol]      -9.53620111 [kJ/mol]
      Est. Disp22 (T)              -3.93056485 [mEh]      -2.46646668 [kcal/mol]     -10.31969660 [kJ/mol]
      Exch-Disp20                   6.34048136 [mEh]       3.97871212 [kcal/mol]      16.64693151 [kJ/mol]

  Total HF                          9.52292146 [mEh]       5.97572344 [kcal/mol]      25.00242685 [kJ/mol]
  Total SAPT0                      -8.80723077 [mEh]      -5.52662075 [kcal/mol]     -23.12338120 [kJ/mol]
  Total SAPT2                      -2.74609018 [mEh]      -1.72319760 [kcal/mol]      -7.20985877 [kJ/mol]
  Total SAPT2+                     -4.97479749 [mEh]      -3.12173255 [kcal/mol]     -13.06132900 [kJ/mol]
  Total SAPT2+(3)                  -2.89288577 [mEh]      -1.81531323 [kcal/mol]      -7.59527055 [kJ/mol]
  Total SAPT2+dMP2                 -1.81353836 [mEh]      -1.13801250 [kcal/mol]      -4.76144430 [kJ/mol]
  Total SAPT2+(3)dMP2               0.26837336 [mEh]       0.16840682 [kcal/mol]       0.70461415 [kJ/mol]

  Special recipe for scaled SAPT0 (see Manual):
    Electrostatics sSAPT0         -69.72928765 [mEh]     -43.75578860 [kcal/mol]    -183.07421951 [kJ/mol]
    Exchange sSAPT0               110.62726745 [mEh]      69.41965838 [kcal/mol]     290.45185067 [kJ/mol]
    Induction sSAPT0              -28.06926421 [mEh]     -17.61372921 [kcal/mol]     -73.69584302 [kJ/mol]
    Dispersion sSAPT0             -17.72509719 [mEh]     -11.12266641 [kcal/mol]     -46.53723627 [kJ/mol]
  Total sSAPT0                     -4.89638161 [mEh]      -3.07252585 [kcal/mol]     -12.85544814 [kJ/mol]
  --------------------------------------------------------------------------------------------------------

*** tstop() called on node44.bme.utexas.edu at Mon May 13 00:14:11 2024
Module time:
	user time   =    4999.80 seconds =      83.33 minutes
	system time =     223.79 seconds =       3.73 minutes
	total time  =       1129 seconds =      18.82 minutes
Total time:
	user time   =    5239.37 seconds =      87.32 minutes
	system time =     233.54 seconds =       3.89 minutes
	total time  =       1188 seconds =      19.80 minutes

    Psi4 stopped on: Monday, 13 May 2024 12:14AM
    Psi4 wall time for execution: 0:19:48.79

*** Psi4 exiting successfully. Buy a developer a beer!
