
    -----------------------------------------------------------------------
          Psi4: An Open-Source Ab Initio Electronic Structure Package
                               Psi4 1.5 release

                         Git: Rev {HEAD} e9f4d6d 


    D. G. A. Smith, L. A. Burns, A. C. Simmonett, R. M. Parrish,
    M. C. Schieber, R. Galvelis, P. Kraus, H. Kruse, R. Di Remigio,
    A. Alenaizan, A. M. James, S. Lehtola, J. P. Misiewicz, M. Scheurer,
    R. A. Shaw, J. B. Schriber, Y. Xie, Z. L. Glick, D. A. Sirianni,
    J. S. O'Brien, J. M. Waldrop, A. Kumar, E. G. Hohenstein,
    B. P. Pritchard, B. R. Brooks, H. F. Schaefer III, A. Yu. Sokolov,
    K. Patkowski, A. E. DePrince III, U. Bozkaya, R. A. King,
    F. A. Evangelista, J. M. Turney, T. D. Crawford, C. D. Sherrill,
    J. Chem. Phys. 152(18) 184108 (2020). https://doi.org/10.1063/5.0006002

                            Additional Code Authors
    E. T. Seidl, C. L. Janssen, E. F. Valeev, M. L. Leininger,
    J. F. Gonthier, R. M. Richard, H. R. McAlexander, M. Saitow, X. Wang,
    P. Verma, M. H. Lechner, and A. Jiang

             Previous Authors, Complete List of Code Contributors,
                       and Citations for Specific Modules
    https://github.com/psi4/psi4/blob/master/codemeta.json
    https://github.com/psi4/psi4/graphs/contributors
    http://psicode.org/psi4manual/master/introduction.html#citing-psifour

    -----------------------------------------------------------------------


    Psi4 started on: Thursday, 28 March 2024 03:09AM

    Process ID: 4095280
    Host:       bme-earth.bme.utexas.edu
    PSIDATADIR: /opt/anaconda/envs/psi4v1.5/share/psi4
    Memory:     500.0 MiB
    Threads:    8
    
  ==> Input File <==

--------------------------------------------------------------------------
memory 50GB

molecule {
0 1
H 1.84086 2.75515 -0.02875
N 1.0969 2.0673 -0.00392
C -0.24861 2.30169 0.02623
H -0.66031 3.30288 0.02832
N -0.96776 1.18677 0.05175
C -0.02223 0.17505 0.03552
C -0.12426 -1.23821 0.02676
N -1.30186 -1.89412 0.10029
N 1.01703 -1.95319 -0.00939
C 2.19681 -1.2996 -0.0363
H 3.07766 -1.9378 -0.06472
N 2.43049 0.01927 -0.03512
C 1.27362 0.69939 -0.00293
H -1.2633 -2.89297 -0.05583
H -2.18155 -1.39652 -0.05745
--
0 1
O -3.3595290333333336 -0.04697186666666668 -0.1811243
H -3.7623290333333337 0.02033813333333332 0.6987656999999999
H -2.6242690333333334 0.6071081333333334 -0.1565643
 units angstrom
 no_reorient
 symmetry c1} 
set  {scf_type DF
 basis aug-cc-pvtz
 freeze_core True
 guess SAD}
energy('sapt2+(3)dmp2')
--------------------------------------------------------------------------

  Memory set to  46.566 GiB by Python driver.

Scratch directory: /tmp/
   => Loading Basis Set <=

    Name: AUG-CC-PVTZ
    Role: ORBITAL
    Keyword: BASIS
    atoms 1, 4, 11, 14-15, 17-18 entry H          line    40 file /opt/anaconda/envs/psi4v1.5/share/psi4/basis/aug-cc-pvtz.gbs 
    atoms 2, 5, 8-9, 12          entry N          line   285 file /opt/anaconda/envs/psi4v1.5/share/psi4/basis/aug-cc-pvtz.gbs 
    atoms 3, 6-7, 10, 13         entry C          line   239 file /opt/anaconda/envs/psi4v1.5/share/psi4/basis/aug-cc-pvtz.gbs 
    atoms 16                     entry O          line   331 file /opt/anaconda/envs/psi4v1.5/share/psi4/basis/aug-cc-pvtz.gbs 

   => Loading Basis Set <=

    Name: AUG-CC-PVTZ
    Role: ORBITAL
    Keyword: BASIS
    atoms 1, 4, 11, 14-15, 17-18 entry H          line    40 file /opt/anaconda/envs/psi4v1.5/share/psi4/basis/aug-cc-pvtz.gbs 
    atoms 2, 5, 8-9, 12          entry N          line   285 file /opt/anaconda/envs/psi4v1.5/share/psi4/basis/aug-cc-pvtz.gbs 
    atoms 3, 6-7, 10, 13         entry C          line   239 file /opt/anaconda/envs/psi4v1.5/share/psi4/basis/aug-cc-pvtz.gbs 
    atoms 16                     entry O          line   331 file /opt/anaconda/envs/psi4v1.5/share/psi4/basis/aug-cc-pvtz.gbs 


  //>>>>>>>>>>>>>>>>>>>>>>>>>>>>>>>>>>>//
  //              Dimer HF             //
  //<<<<<<<<<<<<<<<<<<<<<<<<<<<<<<<<<<<//


*** tstart() called on bme-earth.bme.utexas.edu
*** at Thu Mar 28 03:09:38 2024

   => Loading Basis Set <=

    Name: AUG-CC-PVTZ
    Role: ORBITAL
    Keyword: BASIS
    atoms 1, 4, 11, 14-15, 17-18 entry H          line    40 file /opt/anaconda/envs/psi4v1.5/share/psi4/basis/aug-cc-pvtz.gbs 
    atoms 2, 5, 8-9, 12          entry N          line   285 file /opt/anaconda/envs/psi4v1.5/share/psi4/basis/aug-cc-pvtz.gbs 
    atoms 3, 6-7, 10, 13         entry C          line   239 file /opt/anaconda/envs/psi4v1.5/share/psi4/basis/aug-cc-pvtz.gbs 
    atoms 16                     entry O          line   331 file /opt/anaconda/envs/psi4v1.5/share/psi4/basis/aug-cc-pvtz.gbs 


         ---------------------------------------------------------
                                   SCF
               by Justin Turney, Rob Parrish, Andy Simmonett
                          and Daniel G. A. Smith
                              RHF Reference
                        8 Threads,  47683 MiB Core
         ---------------------------------------------------------

  ==> Geometry <==

    Molecular point group: c1
    Full point group: C1

    Geometry (in Angstrom), charge = 0, multiplicity = 1:

       Center              X                  Y                   Z               Mass       
    ------------   -----------------  -----------------  -----------------  -----------------
         H            1.779409503922     2.759507910256    -0.025560302143     1.007825032230
         N            1.035449503922     2.071657910256    -0.000730302143    14.003074004430
         C           -0.310060496078     2.306047910256     0.029419697857    12.000000000000
         H           -0.721760496078     3.307237910256     0.031509697857     1.007825032230
         N           -1.029210496078     1.191127910256     0.054939697857    14.003074004430
         C           -0.083680496078     0.179407910256     0.038709697857    12.000000000000
         C           -0.185710496078    -1.233852089744     0.029949697857    12.000000000000
         N           -1.363310496078    -1.889762089744     0.103479697857    14.003074004430
         N            0.955579503922    -1.948832089744    -0.006200302143    14.003074004430
         C            2.135359503922    -1.295242089744    -0.033110302143    12.000000000000
         H            3.016209503922    -1.933442089744    -0.061530302143     1.007825032230
         N            2.369039503922     0.023627910256    -0.031930302143    14.003074004430
         C            1.212169503922     0.703747910256     0.000259697857    12.000000000000
         H           -1.324750496078    -2.888612089744    -0.052640302143     1.007825032230
         H           -2.243000496078    -1.392162089744    -0.054260302143     1.007825032230
         O           -3.420979529411    -0.042613956411    -0.177934602143    15.994914619570
         H           -3.823779529411     0.024696043589     0.701955397857     1.007825032230
         H           -2.685719529411     0.611466043589    -0.153374602143     1.007825032230

  Running in c1 symmetry.

  Rotational constants: A =      0.05168  B =      0.03734  C =      0.02175 [cm^-1]
  Rotational constants: A =   1549.20690  B =   1119.39322  C =    651.99643 [MHz]
  Nuclear repulsion =  606.274091235325955

  Charge       = 0
  Multiplicity = 1
  Electrons    = 80
  Nalpha       = 40
  Nbeta        = 40

  ==> Algorithm <==

  SCF Algorithm Type is DF.
  DIIS enabled.
  MOM disabled.
  Fractional occupation disabled.
  Guess Type is SAD.
  Energy threshold   = 1.00e-08
  Density threshold  = 1.00e-08
  Integral threshold = 1.00e-12

  ==> Primary Basis <==

  Basis Set: AUG-CC-PVTZ
    Blend: AUG-CC-PVTZ
    Number of shells: 217
    Number of basis functions: 667
    Number of Cartesian functions: 780
    Spherical Harmonics?: true
    Max angular momentum: 3

   => Loading Basis Set <=

    Name: (AUG-CC-PVTZ AUX)
    Role: JKFIT
    Keyword: DF_BASIS_SCF
    atoms 1, 4, 11, 14-15, 17-18 entry H          line    70 file /opt/anaconda/envs/psi4v1.5/share/psi4/basis/aug-cc-pvtz-jkfit.gbs 
    atoms 2, 5, 8-9, 12          entry N          line   224 file /opt/anaconda/envs/psi4v1.5/share/psi4/basis/aug-cc-pvtz-jkfit.gbs 
    atoms 3, 6-7, 10, 13         entry C          line   162 file /opt/anaconda/envs/psi4v1.5/share/psi4/basis/aug-cc-pvtz-jkfit.gbs 
    atoms 16                     entry O          line   286 file /opt/anaconda/envs/psi4v1.5/share/psi4/basis/aug-cc-pvtz-jkfit.gbs 

  ==> Integral Setup <==

  ==> DiskDFJK: Density-Fitted J/K Matrices <==

    J tasked:                  Yes
    K tasked:                  Yes
    wK tasked:                  No
    OpenMP threads:              8
    Integrals threads:           8
    Memory [MiB]:            35762
    Algorithm:                Core
    Integral Cache:           SAVE
    Schwarz Cutoff:          1E-12
    Fitting Condition:       1E-10

   => Auxiliary Basis Set <=

  Basis Set: (AUG-CC-PVTZ AUX)
    Blend: AUG-CC-PVTZ-JKFIT
    Number of shells: 428
    Number of basis functions: 1466
    Number of Cartesian functions: 1826
    Spherical Harmonics?: true
    Max angular momentum: 4

  Minimum eigenvalue in the overlap matrix is 1.4452427394E-06.
  Reciprocal condition number of the overlap matrix is 7.9923368963E-08.
    Using symmetric orthogonalization.

  ==> Pre-Iterations <==

  SCF Guess: Superposition of Atomic Densities via on-the-fly atomic UHF (no occupation information).

   -------------------------
    Irrep   Nso     Nmo    
   -------------------------
     A        667     667 
   -------------------------
    Total     667     667
   -------------------------

  ==> Iterations <==

                           Total Energy        Delta E     RMS |[F,P]|

   @DF-RHF iter SAD:  -540.21622814348189   -5.40216e+02   0.00000e+00 
   @DF-RHF iter   1:  -540.44698240662399   -2.30754e-01   1.17942e-03 DIIS
   @DF-RHF iter   2:  -540.67956171252558   -2.32579e-01   6.26343e-04 DIIS
   @DF-RHF iter   3:  -540.74236152784056   -6.27998e-02   1.12101e-04 DIIS
   @DF-RHF iter   4:  -540.74588035123338   -3.51882e-03   4.84479e-05 DIIS
   @DF-RHF iter   5:  -540.74643770050943   -5.57349e-04   1.26783e-05 DIIS
   @DF-RHF iter   6:  -540.74650563385967   -6.79334e-05   6.11168e-06 DIIS
   @DF-RHF iter   7:  -540.74652438833266   -1.87545e-05   2.18592e-06 DIIS
   @DF-RHF iter   8:  -540.74652838988061   -4.00155e-06   8.39144e-07 DIIS
   @DF-RHF iter   9:  -540.74652901579350   -6.25913e-07   4.14526e-07 DIIS
   @DF-RHF iter  10:  -540.74652916242997   -1.46636e-07   1.62047e-07 DIIS
   @DF-RHF iter  11:  -540.74652918927870   -2.68487e-08   6.63557e-08 DIIS
   @DF-RHF iter  12:  -540.74652919297114   -3.69243e-09   2.91865e-08 DIIS
   @DF-RHF iter  13:  -540.74652919355083   -5.79689e-10   9.13898e-09 DIIS
  Energy and wave function converged.


  ==> Post-Iterations <==

    Orbital Energies [Eh]
    ---------------------

    Doubly Occupied:                                                      

       1A    -20.547435     2A    -15.644409     3A    -15.586153  
       4A    -15.567687     5A    -15.560553     6A    -15.550789  
       7A    -11.341132     8A    -11.339463     9A    -11.324141  
      10A    -11.314253    11A    -11.261155    12A     -1.376769  
      13A     -1.336009    14A     -1.297563    15A     -1.243395  
      16A     -1.193964    17A     -1.149113    18A     -1.037765  
      19A     -0.897649    20A     -0.878656    21A     -0.858396  
      22A     -0.779124    23A     -0.736443    24A     -0.708324  
      25A     -0.697689    26A     -0.679054    27A     -0.645689  
      28A     -0.637101    29A     -0.616884    30A     -0.599392  
      31A     -0.575883    32A     -0.557969    33A     -0.506289  
      34A     -0.498003    35A     -0.488068    36A     -0.457525  
      37A     -0.432553    38A     -0.413035    39A     -0.375040  
      40A     -0.311845  

    Virtual:                                                              

      41A      0.017532    42A      0.033186    43A      0.034988  
      44A      0.045844    45A      0.050010    46A      0.057858  
      47A      0.071571    48A      0.076514    49A      0.078712  
      50A      0.086394    51A      0.088780    52A      0.096036  
      53A      0.104995    54A      0.112211    55A      0.114893  
      56A      0.115673    57A      0.123919    58A      0.125844  
      59A      0.130893    60A      0.132591    61A      0.135987  
      62A      0.143106    63A      0.144187    64A      0.147896  
      65A      0.152878    66A      0.166786    67A      0.171802  
      68A      0.174215    69A      0.178004    70A      0.190215  
      71A      0.195009    72A      0.201420    73A      0.205166  
      74A      0.206792    75A      0.211611    76A      0.212093  
      77A      0.218796    78A      0.222659    79A      0.225666  
      80A      0.231578    81A      0.235511    82A      0.239723  
      83A      0.242650    84A      0.254272    85A      0.268052  
      86A      0.268565    87A      0.276237    88A      0.281124  
      89A      0.282509    90A      0.298094    91A      0.301626  
      92A      0.306103    93A      0.315789    94A      0.319957  
      95A      0.321976    96A      0.329623    97A      0.334042  
      98A      0.335381    99A      0.340018   100A      0.348440  
     101A      0.354350   102A      0.361264   103A      0.368955  
     104A      0.375988   105A      0.379853   106A      0.384489  
     107A      0.389126   108A      0.398295   109A      0.402205  
     110A      0.413717   111A      0.416213   112A      0.421835  
     113A      0.427095   114A      0.430757   115A      0.434248  
     116A      0.437183   117A      0.440162   118A      0.447195  
     119A      0.448365   120A      0.454006   121A      0.457188  
     122A      0.461174   123A      0.467065   124A      0.475444  
     125A      0.479888   126A      0.483157   127A      0.485426  
     128A      0.489482   129A      0.499280   130A      0.503547  
     131A      0.507925   132A      0.513615   133A      0.514461  
     134A      0.520950   135A      0.527748   136A      0.529328  
     137A      0.537869   138A      0.545446   139A      0.553578  
     140A      0.559937   141A      0.565373   142A      0.572025  
     143A      0.585044   144A      0.590321   145A      0.605244  
     146A      0.606580   147A      0.612208   148A      0.615266  
     149A      0.621349   150A      0.632863   151A      0.636149  
     152A      0.645042   153A      0.652203   154A      0.653580  
     155A      0.657208   156A      0.662542   157A      0.678861  
     158A      0.680790   159A      0.690307   160A      0.693920  
     161A      0.699341   162A      0.705115   163A      0.712224  
     164A      0.716885   165A      0.738641   166A      0.741445  
     167A      0.742489   168A      0.756930   169A      0.761312  
     170A      0.768399   171A      0.779681   172A      0.785791  
     173A      0.790171   174A      0.797740   175A      0.801042  
     176A      0.809039   177A      0.814666   178A      0.821886  
     179A      0.824446   180A      0.835197   181A      0.839947  
     182A      0.843905   183A      0.849808   184A      0.860291  
     185A      0.860474   186A      0.866983   187A      0.877668  
     188A      0.889789   189A      0.891082   190A      0.898754  
     191A      0.910505   192A      0.914124   193A      0.917211  
     194A      0.923548   195A      0.936204   196A      0.951507  
     197A      0.954898   198A      0.959243   199A      0.969132  
     200A      0.971167   201A      0.978351   202A      0.982684  
     203A      0.985712   204A      0.990395   205A      0.998530  
     206A      1.003047   207A      1.007054   208A      1.014060  
     209A      1.022892   210A      1.023719   211A      1.030719  
     212A      1.036892   213A      1.042520   214A      1.054031  
     215A      1.058078   216A      1.063772   217A      1.067864  
     218A      1.081754   219A      1.085049   220A      1.089504  
     221A      1.091096   222A      1.094303   223A      1.099488  
     224A      1.106332   225A      1.116033   226A      1.118610  
     227A      1.127872   228A      1.132733   229A      1.141969  
     230A      1.147907   231A      1.154903   232A      1.167503  
     233A      1.171758   234A      1.179282   235A      1.191600  
     236A      1.196281   237A      1.201632   238A      1.207833  
     239A      1.223403   240A      1.231003   241A      1.236356  
     242A      1.249668   243A      1.250785   244A      1.255547  
     245A      1.265085   246A      1.274960   247A      1.281547  
     248A      1.291653   249A      1.295299   250A      1.305260  
     251A      1.308977   252A      1.315067   253A      1.322139  
     254A      1.328881   255A      1.335420   256A      1.350150  
     257A      1.359385   258A      1.365947   259A      1.369721  
     260A      1.378641   261A      1.394868   262A      1.400708  
     263A      1.410653   264A      1.414624   265A      1.426547  
     266A      1.432157   267A      1.433911   268A      1.439297  
     269A      1.451720   270A      1.457697   271A      1.463598  
     272A      1.477849   273A      1.481476   274A      1.493907  
     275A      1.499487   276A      1.504213   277A      1.517104  
     278A      1.522517   279A      1.531052   280A      1.538012  
     281A      1.547500   282A      1.552254   283A      1.562353  
     284A      1.563253   285A      1.567002   286A      1.586623  
     287A      1.595330   288A      1.601063   289A      1.615016  
     290A      1.625536   291A      1.636856   292A      1.643854  
     293A      1.646422   294A      1.661536   295A      1.668320  
     296A      1.669866   297A      1.680300   298A      1.692450  
     299A      1.695974   300A      1.708907   301A      1.730397  
     302A      1.736148   303A      1.740361   304A      1.747598  
     305A      1.765475   306A      1.769284   307A      1.771847  
     308A      1.795073   309A      1.795871   310A      1.818167  
     311A      1.821391   312A      1.830274   313A      1.844634  
     314A      1.855474   315A      1.863253   316A      1.874353  
     317A      1.890184   318A      1.902853   319A      1.912736  
     320A      1.924050   321A      1.930523   322A      1.951064  
     323A      1.961234   324A      1.968155   325A      1.972339  
     326A      1.997028   327A      2.003327   328A      2.026086  
     329A      2.045462   330A      2.051977   331A      2.058042  
     332A      2.069243   333A      2.090630   334A      2.092935  
     335A      2.096604   336A      2.109909   337A      2.118537  
     338A      2.125723   339A      2.144712   340A      2.152190  
     341A      2.164149   342A      2.172793   343A      2.190360  
     344A      2.206323   345A      2.211207   346A      2.213081  
     347A      2.229828   348A      2.231750   349A      2.251496  
     350A      2.260802   351A      2.268561   352A      2.281007  
     353A      2.290326   354A      2.311283   355A      2.319421  
     356A      2.328169   357A      2.342235   358A      2.346701  
     359A      2.361712   360A      2.365562   361A      2.372535  
     362A      2.389801   363A      2.402229   364A      2.408016  
     365A      2.412522   366A      2.421987   367A      2.434458  
     368A      2.443322   369A      2.447198   370A      2.466270  
     371A      2.477758   372A      2.490980   373A      2.504711  
     374A      2.516731   375A      2.531426   376A      2.535727  
     377A      2.549955   378A      2.575396   379A      2.581252  
     380A      2.603117   381A      2.605781   382A      2.613972  
     383A      2.633059   384A      2.633803   385A      2.644231  
     386A      2.651349   387A      2.674015   388A      2.677908  
     389A      2.696035   390A      2.701291   391A      2.716865  
     392A      2.722544   393A      2.736525   394A      2.742862  
     395A      2.771696   396A      2.772469   397A      2.804037  
     398A      2.815996   399A      2.819762   400A      2.842992  
     401A      2.851961   402A      2.871592   403A      2.889399  
     404A      2.894296   405A      2.906010   406A      2.928221  
     407A      2.958267   408A      2.973731   409A      2.985102  
     410A      2.999899   411A      3.044433   412A      3.065793  
     413A      3.079511   414A      3.082541   415A      3.103582  
     416A      3.114140   417A      3.132669   418A      3.151674  
     419A      3.178702   420A      3.195309   421A      3.209467  
     422A      3.242121   423A      3.275354   424A      3.290175  
     425A      3.302553   426A      3.330062   427A      3.373671  
     428A      3.394738   429A      3.416829   430A      3.429152  
     431A      3.439294   432A      3.459316   433A      3.468839  
     434A      3.485668   435A      3.517591   436A      3.526009  
     437A      3.532429   438A      3.537695   439A      3.560072  
     440A      3.575493   441A      3.596665   442A      3.611076  
     443A      3.635441   444A      3.648005   445A      3.670885  
     446A      3.678998   447A      3.684212   448A      3.697716  
     449A      3.728047   450A      3.743262   451A      3.758413  
     452A      3.775020   453A      3.783882   454A      3.808851  
     455A      3.811752   456A      3.824275   457A      3.839966  
     458A      3.868541   459A      3.894413   460A      3.901280  
     461A      3.909320   462A      3.920518   463A      3.943411  
     464A      3.948540   465A      3.956430   466A      3.964093  
     467A      3.984463   468A      3.993247   469A      4.011665  
     470A      4.023655   471A      4.034659   472A      4.053401  
     473A      4.064550   474A      4.086661   475A      4.099536  
     476A      4.122968   477A      4.129407   478A      4.146498  
     479A      4.156378   480A      4.168357   481A      4.177157  
     482A      4.187218   483A      4.203454   484A      4.214602  
     485A      4.229835   486A      4.234109   487A      4.243862  
     488A      4.251924   489A      4.254099   490A      4.275232  
     491A      4.288543   492A      4.296517   493A      4.312103  
     494A      4.316073   495A      4.327077   496A      4.346321  
     497A      4.351910   498A      4.362309   499A      4.375487  
     500A      4.380113   501A      4.391270   502A      4.402232  
     503A      4.425007   504A      4.437908   505A      4.461061  
     506A      4.473101   507A      4.488965   508A      4.494732  
     509A      4.502153   510A      4.505116   511A      4.527556  
     512A      4.546074   513A      4.562893   514A      4.569191  
     515A      4.590570   516A      4.599828   517A      4.612455  
     518A      4.624629   519A      4.629816   520A      4.652259  
     521A      4.665755   522A      4.674210   523A      4.692478  
     524A      4.698122   525A      4.739130   526A      4.768127  
     527A      4.774103   528A      4.792652   529A      4.815396  
     530A      4.822927   531A      4.852906   532A      4.855684  
     533A      4.870017   534A      4.892036   535A      4.898555  
     536A      4.926513   537A      4.947533   538A      4.974641  
     539A      4.993754   540A      5.002982   541A      5.018954  
     542A      5.040505   543A      5.053570   544A      5.062703  
     545A      5.095033   546A      5.113768   547A      5.129324  
     548A      5.138006   549A      5.147546   550A      5.173680  
     551A      5.198126   552A      5.215722   553A      5.243774  
     554A      5.247119   555A      5.267133   556A      5.304981  
     557A      5.308345   558A      5.321857   559A      5.337747  
     560A      5.354752   561A      5.377691   562A      5.395873  
     563A      5.418841   564A      5.432926   565A      5.442266  
     566A      5.456808   567A      5.464262   568A      5.491683  
     569A      5.513013   570A      5.539439   571A      5.542923  
     572A      5.558957   573A      5.569932   574A      5.576878  
     575A      5.585858   576A      5.610592   577A      5.632075  
     578A      5.637813   579A      5.662578   580A      5.674576  
     581A      5.692580   582A      5.708927   583A      5.710946  
     584A      5.723875   585A      5.724476   586A      5.737657  
     587A      5.749750   588A      5.768165   589A      5.798301  
     590A      5.820341   591A      5.825733   592A      5.862210  
     593A      5.874512   594A      5.899470   595A      5.904694  
     596A      5.907758   597A      5.936402   598A      5.951020  
     599A      5.977271   600A      5.984802   601A      6.012763  
     602A      6.030708   603A      6.045688   604A      6.077411  
     605A      6.097405   606A      6.101954   607A      6.152972  
     608A      6.175102   609A      6.195385   610A      6.206816  
     611A      6.226817   612A      6.248455   613A      6.262997  
     614A      6.287159   615A      6.368483   616A      6.414403  
     617A      6.432919   618A      6.490530   619A      6.526316  
     620A      6.545367   621A      6.570890   622A      6.621848  
     623A      6.643780   624A      6.692913   625A      6.724053  
     626A      6.730918   627A      6.763042   628A      6.795791  
     629A      6.818222   630A      6.878545   631A      6.900390  
     632A      6.921239   633A      6.995201   634A      7.038267  
     635A      7.047964   636A      7.071464   637A      7.106759  
     638A      7.164021   639A      7.215911   640A      7.291291  
     641A      7.339623   642A      7.379374   643A      7.407054  
     644A      7.426314   645A      7.446348   646A      7.486745  
     647A      7.581126   648A      7.623989   649A      7.680812  
     650A      7.690860   651A      7.859164   652A      7.877353  
     653A      8.038485   654A      8.168255   655A      8.301637  
     656A      8.984516   657A     16.146857   658A     16.294191  
     659A     16.369995   660A     17.374574   661A     18.059589  
     662A     18.251573   663A     19.009057   664A     19.375204  
     665A     19.750237   666A     19.929686   667A     20.941810  

    Final Occupation by Irrep:
              A 
    DOCC [    40 ]

  @DF-RHF Final Energy:  -540.74652919355083

   => Energetics <=

    Nuclear Repulsion Energy =            606.2740912353259546
    One-Electron Energy =               -1939.9965243559645387
    Two-Electron Energy =                 792.9759039270876428
    Total Energy =                       -540.7465291935508276

Computation Completed


Properties will be evaluated at   0.000000,   0.000000,   0.000000 [a0]

Properties computed using the SCF density matrix

  Nuclear Dipole Moment: [e a0]
     X:    -5.6501      Y:     0.4595      Z:     0.3608

  Electronic Dipole Moment: [e a0]
     X:     5.6163      Y:     1.0056      Z:     0.0143

  Dipole Moment: [e a0]
     X:    -0.0339      Y:     1.4651      Z:     0.3750     Total:     1.5127

  Dipole Moment: [D]
     X:    -0.0861      Y:     3.7239      Z:     0.9532     Total:     3.8450


*** tstop() called on bme-earth.bme.utexas.edu at Thu Mar 28 03:10:01 2024
Module time:
	user time   =     173.23 seconds =       2.89 minutes
	system time =       1.62 seconds =       0.03 minutes
	total time  =         23 seconds =       0.38 minutes
Total time:
	user time   =     173.23 seconds =       2.89 minutes
	system time =       1.62 seconds =       0.03 minutes
	total time  =         23 seconds =       0.38 minutes

*** tstart() called on bme-earth.bme.utexas.edu
*** at Thu Mar 28 03:10:01 2024


  //>>>>>>>>>>>>>>>>>>>>>>>>>>>>>>>>>>>//
  //               DFMP2               //
  //<<<<<<<<<<<<<<<<<<<<<<<<<<<<<<<<<<<//

   => Loading Basis Set <=

    Name: (AUG-CC-PVTZ AUX)
    Role: RIFIT
    Keyword: DF_BASIS_MP2
    atoms 1, 4, 11, 14-15, 17-18 entry H          line    30 file /opt/anaconda/envs/psi4v1.5/share/psi4/basis/aug-cc-pvtz-ri.gbs 
    atoms 2, 5, 8-9, 12          entry N          line   206 file /opt/anaconda/envs/psi4v1.5/share/psi4/basis/aug-cc-pvtz-ri.gbs 
    atoms 3, 6-7, 10, 13         entry C          line   148 file /opt/anaconda/envs/psi4v1.5/share/psi4/basis/aug-cc-pvtz-ri.gbs 
    atoms 16                     entry O          line   264 file /opt/anaconda/envs/psi4v1.5/share/psi4/basis/aug-cc-pvtz-ri.gbs 

	 --------------------------------------------------------
	                          DF-MP2                         
	      2nd-Order Density-Fitted Moller-Plesset Theory     
	              RMP2 Wavefunction,   8 Threads             
	                                                         
	        Rob Parrish, Justin Turney, Andy Simmonett,      
	           Ed Hohenstein, and C. David Sherrill          
	 --------------------------------------------------------

   => Auxiliary Basis Set <=

  Basis Set: (AUG-CC-PVTZ AUX)
    Blend: AUG-CC-PVTZ-RI
    Number of shells: 406
    Number of basis functions: 1488
    Number of Cartesian functions: 1881
    Spherical Harmonics?: true
    Max angular momentum: 4

	 --------------------------------------------------------
	                 NBF =   667, NAUX =  1488
	 --------------------------------------------------------
	   CLASS    FOCC     OCC    AOCC    AVIR     VIR    FVIR
	   PAIRS      11      40      29     627     627       0
	 --------------------------------------------------------

	 Will save fitting metric to file 97.

	-----------------------------------------------------------
	 ==================> DF-MP2 Energies <==================== 
	-----------------------------------------------------------
	 Reference Energy          =    -540.7465291935508276 [Eh]
	 Singles Energy            =      -0.0000000000000000 [Eh]
	 Same-Spin Energy          =      -0.5496394263893389 [Eh]
	 Opposite-Spin Energy      =      -1.5336397441984666 [Eh]
	 Correlation Energy        =      -2.0832791705878053 [Eh]
	 Total Energy              =    -542.8298083641386711 [Eh]
	-----------------------------------------------------------
	 ================> DF-SCS-MP2 Energies <================== 
	-----------------------------------------------------------
	 SCS Same-Spin Scale       =       0.3333333333333333 [-]
	 SCS Opposite-Spin Scale   =       1.2000000000000000 [-]
	 SCS Same-Spin Energy      =      -0.1832131421297796 [Eh]
	 SCS Opposite-Spin Energy  =      -1.8403676930381598 [Eh]
	 SCS Correlation Energy    =      -2.0235808351679396 [Eh]
	 SCS Total Energy          =    -542.7701100287188183 [Eh]
	-----------------------------------------------------------


*** tstop() called on bme-earth.bme.utexas.edu at Thu Mar 28 03:10:08 2024
Module time:
	user time   =      39.66 seconds =       0.66 minutes
	system time =       0.63 seconds =       0.01 minutes
	total time  =          7 seconds =       0.12 minutes
Total time:
	user time   =     212.90 seconds =       3.55 minutes
	system time =       2.25 seconds =       0.04 minutes
	total time  =         30 seconds =       0.50 minutes

  //>>>>>>>>>>>>>>>>>>>>>>>>>>>>>>>>>>>//
  //            Monomer A HF           //
  //<<<<<<<<<<<<<<<<<<<<<<<<<<<<<<<<<<<//


*** tstart() called on bme-earth.bme.utexas.edu
*** at Thu Mar 28 03:10:08 2024

   => Loading Basis Set <=

    Name: AUG-CC-PVTZ
    Role: ORBITAL
    Keyword: BASIS
    atoms 1, 4, 11, 14-15, 17-18 entry H          line    40 file /opt/anaconda/envs/psi4v1.5/share/psi4/basis/aug-cc-pvtz.gbs 
    atoms 2, 5, 8-9, 12          entry N          line   285 file /opt/anaconda/envs/psi4v1.5/share/psi4/basis/aug-cc-pvtz.gbs 
    atoms 3, 6-7, 10, 13         entry C          line   239 file /opt/anaconda/envs/psi4v1.5/share/psi4/basis/aug-cc-pvtz.gbs 
    atoms 16                     entry O          line   331 file /opt/anaconda/envs/psi4v1.5/share/psi4/basis/aug-cc-pvtz.gbs 


         ---------------------------------------------------------
                                   SCF
               by Justin Turney, Rob Parrish, Andy Simmonett
                          and Daniel G. A. Smith
                              RHF Reference
                        8 Threads,  47683 MiB Core
         ---------------------------------------------------------

  ==> Geometry <==

    Molecular point group: c1
    Full point group: C1

    Geometry (in Angstrom), charge = 0, multiplicity = 1:

       Center              X                  Y                   Z               Mass       
    ------------   -----------------  -----------------  -----------------  -----------------
         H            1.779409503922     2.759507910256    -0.025560302143     1.007825032230
         N            1.035449503922     2.071657910256    -0.000730302143    14.003074004430
         C           -0.310060496078     2.306047910256     0.029419697857    12.000000000000
         H           -0.721760496078     3.307237910256     0.031509697857     1.007825032230
         N           -1.029210496078     1.191127910256     0.054939697857    14.003074004430
         C           -0.083680496078     0.179407910256     0.038709697857    12.000000000000
         C           -0.185710496078    -1.233852089744     0.029949697857    12.000000000000
         N           -1.363310496078    -1.889762089744     0.103479697857    14.003074004430
         N            0.955579503922    -1.948832089744    -0.006200302143    14.003074004430
         C            2.135359503922    -1.295242089744    -0.033110302143    12.000000000000
         H            3.016209503922    -1.933442089744    -0.061530302143     1.007825032230
         N            2.369039503922     0.023627910256    -0.031930302143    14.003074004430
         C            1.212169503922     0.703747910256     0.000259697857    12.000000000000
         H           -1.324750496078    -2.888612089744    -0.052640302143     1.007825032230
         H           -2.243000496078    -1.392162089744    -0.054260302143     1.007825032230
      Gh(O)          -3.420979529411    -0.042613956411    -0.177934602143    15.994914619570
      Gh(H)          -3.823779529411     0.024696043589     0.701955397857     1.007825032230
      Gh(H)          -2.685719529411     0.611466043589    -0.153374602143     1.007825032230

  Running in c1 symmetry.

  Rotational constants: A =      0.05168  B =      0.03734  C =      0.02175 [cm^-1]
  Rotational constants: A =   1549.20690  B =   1119.39322  C =    651.99643 [MHz]
  Nuclear repulsion =  501.213261622343509

  Charge       = 0
  Multiplicity = 1
  Electrons    = 70
  Nalpha       = 35
  Nbeta        = 35

  ==> Algorithm <==

  SCF Algorithm Type is DF.
  DIIS enabled.
  MOM disabled.
  Fractional occupation disabled.
  Guess Type is SAD.
  Energy threshold   = 1.00e-08
  Density threshold  = 1.00e-08
  Integral threshold = 1.00e-12

  ==> Primary Basis <==

  Basis Set: AUG-CC-PVTZ
    Blend: AUG-CC-PVTZ
    Number of shells: 217
    Number of basis functions: 667
    Number of Cartesian functions: 780
    Spherical Harmonics?: true
    Max angular momentum: 3

   => Loading Basis Set <=

    Name: (AUG-CC-PVTZ AUX)
    Role: JKFIT
    Keyword: DF_BASIS_SCF
    atoms 1, 4, 11, 14-15, 17-18 entry H          line    70 file /opt/anaconda/envs/psi4v1.5/share/psi4/basis/aug-cc-pvtz-jkfit.gbs 
    atoms 2, 5, 8-9, 12          entry N          line   224 file /opt/anaconda/envs/psi4v1.5/share/psi4/basis/aug-cc-pvtz-jkfit.gbs 
    atoms 3, 6-7, 10, 13         entry C          line   162 file /opt/anaconda/envs/psi4v1.5/share/psi4/basis/aug-cc-pvtz-jkfit.gbs 
    atoms 16                     entry O          line   286 file /opt/anaconda/envs/psi4v1.5/share/psi4/basis/aug-cc-pvtz-jkfit.gbs 

  ==> Integral Setup <==

  ==> DiskDFJK: Density-Fitted J/K Matrices <==

    J tasked:                  Yes
    K tasked:                  Yes
    wK tasked:                  No
    OpenMP threads:              8
    Integrals threads:           8
    Memory [MiB]:            35762
    Algorithm:                Core
    Integral Cache:           LOAD
    Schwarz Cutoff:          1E-12
    Fitting Condition:       1E-10

   => Auxiliary Basis Set <=

  Basis Set: (AUG-CC-PVTZ AUX)
    Blend: AUG-CC-PVTZ-JKFIT
    Number of shells: 428
    Number of basis functions: 1466
    Number of Cartesian functions: 1826
    Spherical Harmonics?: true
    Max angular momentum: 4

  Minimum eigenvalue in the overlap matrix is 1.4452427394E-06.
  Reciprocal condition number of the overlap matrix is 7.9923368963E-08.
    Using symmetric orthogonalization.

  ==> Pre-Iterations <==

  SCF Guess: Superposition of Atomic Densities via on-the-fly atomic UHF (no occupation information).

   -------------------------
    Irrep   Nso     Nmo    
   -------------------------
     A        667     667 
   -------------------------
    Total     667     667
   -------------------------

  ==> Iterations <==

                           Total Energy        Delta E     RMS |[F,P]|

   @DF-RHF iter SAD:  -464.44284675490570   -4.64443e+02   0.00000e+00 
   @DF-RHF iter   1:  -464.44364548465194   -7.98730e-04   1.00197e-03 DIIS
   @DF-RHF iter   2:  -464.63374345262048   -1.90098e-01   4.93258e-04 DIIS
   @DF-RHF iter   3:  -464.67715311269160   -4.34097e-02   1.12716e-04 DIIS
   @DF-RHF iter   4:  -464.68041761609885   -3.26450e-03   5.27964e-05 DIIS
   @DF-RHF iter   5:  -464.68106104439005   -6.43428e-04   1.05765e-05 DIIS
   @DF-RHF iter   6:  -464.68111599660330   -5.49522e-05   5.07488e-06 DIIS
   @DF-RHF iter   7:  -464.68113035064403   -1.43540e-05   2.06025e-06 DIIS
   @DF-RHF iter   8:  -464.68113361024325   -3.25960e-06   7.77613e-07 DIIS
   @DF-RHF iter   9:  -464.68113410930420   -4.99061e-07   4.13028e-07 DIIS
   @DF-RHF iter  10:  -464.68113423894613   -1.29642e-07   1.54295e-07 DIIS
   @DF-RHF iter  11:  -464.68113426600286   -2.70567e-08   6.34872e-08 DIIS
   @DF-RHF iter  12:  -464.68113426964976   -3.64690e-09   2.49988e-08 DIIS
   @DF-RHF iter  13:  -464.68113427016539   -5.15627e-10   8.41780e-09 DIIS
  Energy and wave function converged.


  ==> Post-Iterations <==

    Orbital Energies [Eh]
    ---------------------

    Doubly Occupied:                                                      

       1A    -15.633584     2A    -15.588827     3A    -15.569816  
       4A    -15.559511     5A    -15.552421     6A    -11.341032  
       7A    -11.325657     8A    -11.317949     9A    -11.312228  
      10A    -11.254836    11A     -1.366039    12A     -1.298125  
      13A     -1.246006    14A     -1.183989    15A     -1.150472  
      16A     -1.031784    17A     -0.894791    18A     -0.874295  
      19A     -0.844793    20A     -0.777877    21A     -0.737351  
      22A     -0.698291    23A     -0.675238    24A     -0.637870  
      25A     -0.632524    26A     -0.612719    27A     -0.589600  
      28A     -0.558872    29A     -0.497669    30A     -0.495499  
      31A     -0.450114    32A     -0.424357    33A     -0.410594  
      34A     -0.373777    35A     -0.308012  

    Virtual:                                                              

      36A      0.021321    37A      0.029637    38A      0.035879  
      39A      0.045685    40A      0.050394    41A      0.053900  
      42A      0.072815    43A      0.074803    44A      0.080535  
      45A      0.085522    46A      0.088605    47A      0.099027  
      48A      0.107635    49A      0.113271    50A      0.114597  
      51A      0.117015    52A      0.121370    53A      0.124143  
      54A      0.128735    55A      0.132298    56A      0.134820  
      57A      0.142124    58A      0.144369    59A      0.149214  
      60A      0.150443    61A      0.157788    62A      0.168026  
      63A      0.173396    64A      0.182245    65A      0.190787  
      66A      0.192144    67A      0.199007    68A      0.204406  
      69A      0.208101    70A      0.209316    71A      0.211487  
      72A      0.217446    73A      0.222099    74A      0.225018  
      75A      0.229939    76A      0.234191    77A      0.238012  
      78A      0.243513    79A      0.247943    80A      0.254765  
      81A      0.267741    82A      0.271647    83A      0.280896  
      84A      0.287330    85A      0.297981    86A      0.301999  
      87A      0.304994    88A      0.312839    89A      0.321484  
      90A      0.324938    91A      0.329032    92A      0.333208  
      93A      0.339251    94A      0.339779    95A      0.343354  
      96A      0.352633    97A      0.360175    98A      0.370988  
      99A      0.371807   100A      0.376150   101A      0.381909  
     102A      0.388238   103A      0.394507   104A      0.401944  
     105A      0.405157   106A      0.410497   107A      0.413042  
     108A      0.423302   109A      0.425316   110A      0.431088  
     111A      0.435465   112A      0.442060   113A      0.446026  
     114A      0.448064   115A      0.454188   116A      0.459015  
     117A      0.464748   118A      0.469972   119A      0.473393  
     120A      0.477658   121A      0.480832   122A      0.485723  
     123A      0.493174   124A      0.499113   125A      0.501041  
     126A      0.504198   127A      0.514332   128A      0.517158  
     129A      0.527202   130A      0.529176   131A      0.535327  
     132A      0.539548   133A      0.550078   134A      0.558073  
     135A      0.560230   136A      0.566457   137A      0.574708  
     138A      0.580781   139A      0.583687   140A      0.596455  
     141A      0.607328   142A      0.609048   143A      0.619318  
     144A      0.628262   145A      0.632697   146A      0.638298  
     147A      0.650928   148A      0.653182   149A      0.655835  
     150A      0.665040   151A      0.673860   152A      0.678812  
     153A      0.683955   154A      0.694480   155A      0.697778  
     156A      0.703871   157A      0.707375   158A      0.713941  
     159A      0.738472   160A      0.747638   161A      0.753622  
     162A      0.757429   163A      0.764623   164A      0.767986  
     165A      0.770906   166A      0.785586   167A      0.790963  
     168A      0.795438   169A      0.801902   170A      0.805621  
     171A      0.811938   172A      0.820159   173A      0.825859  
     174A      0.830423   175A      0.834407   176A      0.846297  
     177A      0.851280   178A      0.856169   179A      0.861113  
     180A      0.864738   181A      0.880168   182A      0.886562  
     183A      0.892498   184A      0.896975   185A      0.901536  
     186A      0.908215   187A      0.917324   188A      0.926066  
     189A      0.929252   190A      0.932087   191A      0.940787  
     192A      0.953938   193A      0.963906   194A      0.965945  
     195A      0.970880   196A      0.973517   197A      0.984533  
     198A      0.988194   199A      0.991390   200A      0.994887  
     201A      1.001736   202A      1.012301   203A      1.019759  
     204A      1.020105   205A      1.027364   206A      1.031222  
     207A      1.036711   208A      1.046530   209A      1.053876  
     210A      1.057382   211A      1.066515   212A      1.074175  
     213A      1.083500   214A      1.088452   215A      1.089474  
     216A      1.091208   217A      1.097167   218A      1.103325  
     219A      1.109281   220A      1.114243   221A      1.122552  
     222A      1.126865   223A      1.136730   224A      1.139034  
     225A      1.149661   226A      1.154874   227A      1.159950  
     228A      1.171269   229A      1.179087   230A      1.188845  
     231A      1.190022   232A      1.201351   233A      1.209336  
     234A      1.215361   235A      1.221047   236A      1.240670  
     237A      1.243389   238A      1.246538   239A      1.258353  
     240A      1.264942   241A      1.272426   242A      1.281914  
     243A      1.292957   244A      1.300359   245A      1.302403  
     246A      1.308793   247A      1.317286   248A      1.325586  
     249A      1.333671   250A      1.344149   251A      1.352258  
     252A      1.356491   253A      1.366562   254A      1.370133  
     255A      1.383632   256A      1.400515   257A      1.402420  
     258A      1.408293   259A      1.420517   260A      1.428853  
     261A      1.433421   262A      1.440827   263A      1.446147  
     264A      1.458473   265A      1.462979   266A      1.471648  
     267A      1.479223   268A      1.486456   269A      1.501308  
     270A      1.510736   271A      1.516160   272A      1.527426  
     273A      1.530639   274A      1.542507   275A      1.553229  
     276A      1.557544   277A      1.558302   278A      1.570506  
     279A      1.574224   280A      1.587516   281A      1.593761  
     282A      1.602391   283A      1.607492   284A      1.618510  
     285A      1.634657   286A      1.643016   287A      1.650472  
     288A      1.661342   289A      1.663712   290A      1.682724  
     291A      1.688194   292A      1.699153   293A      1.702180  
     294A      1.708350   295A      1.731611   296A      1.740135  
     297A      1.743404   298A      1.759858   299A      1.761383  
     300A      1.764041   301A      1.779468   302A      1.794079  
     303A      1.798992   304A      1.802675   305A      1.827113  
     306A      1.837670   307A      1.839999   308A      1.856203  
     309A      1.867511   310A      1.885358   311A      1.891252  
     312A      1.896653   313A      1.911733   314A      1.919658  
     315A      1.923903   316A      1.937530   317A      1.946682  
     318A      1.957538   319A      1.967744   320A      1.974577  
     321A      1.999510   322A      2.006188   323A      2.028682  
     324A      2.045184   325A      2.048620   326A      2.058214  
     327A      2.064554   328A      2.072743   329A      2.086884  
     330A      2.101567   331A      2.115137   332A      2.120295  
     333A      2.130442   334A      2.143317   335A      2.148698  
     336A      2.155541   337A      2.170536   338A      2.180495  
     339A      2.184045   340A      2.208787   341A      2.213623  
     342A      2.227949   343A      2.242623   344A      2.246178  
     345A      2.260807   346A      2.270762   347A      2.284146  
     348A      2.292019   349A      2.310768   350A      2.331598  
     351A      2.339615   352A      2.344197   353A      2.354501  
     354A      2.359155   355A      2.371774   356A      2.381220  
     357A      2.388290   358A      2.394813   359A      2.410141  
     360A      2.416857   361A      2.423690   362A      2.435327  
     363A      2.444666   364A      2.454872   365A      2.471158  
     366A      2.484003   367A      2.494221   368A      2.500052  
     369A      2.509869   370A      2.537344   371A      2.557598  
     372A      2.570836   373A      2.577442   374A      2.601238  
     375A      2.603944   376A      2.619324   377A      2.623925  
     378A      2.634608   379A      2.651589   380A      2.664188  
     381A      2.687966   382A      2.696228   383A      2.702683  
     384A      2.714845   385A      2.722210   386A      2.734915  
     387A      2.744585   388A      2.756803   389A      2.774071  
     390A      2.801564   391A      2.813718   392A      2.825140  
     393A      2.841792   394A      2.852758   395A      2.864324  
     396A      2.875947   397A      2.905084   398A      2.911356  
     399A      2.948456   400A      2.952387   401A      2.968375  
     402A      2.989932   403A      3.009795   404A      3.028079  
     405A      3.078441   406A      3.087309   407A      3.102460  
     408A      3.116137   409A      3.118302   410A      3.146325  
     411A      3.174504   412A      3.177576   413A      3.190112  
     414A      3.201036   415A      3.223974   416A      3.240600  
     417A      3.257179   418A      3.291355   419A      3.326703  
     420A      3.361287   421A      3.378497   422A      3.400233  
     423A      3.424000   424A      3.430432   425A      3.450129  
     426A      3.462125   427A      3.477632   428A      3.481096  
     429A      3.497251   430A      3.518965   431A      3.529458  
     432A      3.539966   433A      3.548333   434A      3.563152  
     435A      3.575712   436A      3.586869   437A      3.604688  
     438A      3.634886   439A      3.643510   440A      3.662660  
     441A      3.668378   442A      3.684083   443A      3.694058  
     444A      3.702372   445A      3.721989   446A      3.736144  
     447A      3.740915   448A      3.753873   449A      3.777839  
     450A      3.789988   451A      3.797970   452A      3.820001  
     453A      3.832387   454A      3.848057   455A      3.864095  
     456A      3.876183   457A      3.891483   458A      3.914068  
     459A      3.922121   460A      3.932116   461A      3.952839  
     462A      3.955545   463A      3.960166   464A      3.978288  
     465A      4.004872   466A      4.022654   467A      4.032148  
     468A      4.041569   469A      4.052417   470A      4.060977  
     471A      4.080387   472A      4.099961   473A      4.117909  
     474A      4.134045   475A      4.140446   476A      4.161604  
     477A      4.187273   478A      4.187918   479A      4.196440  
     480A      4.208949   481A      4.234902   482A      4.242829  
     483A      4.246846   484A      4.248679   485A      4.261265  
     486A      4.277685   487A      4.287330   488A      4.311921  
     489A      4.320942   490A      4.332476   491A      4.342362  
     492A      4.361388   493A      4.367432   494A      4.377119  
     495A      4.381212   496A      4.403806   497A      4.414230  
     498A      4.422171   499A      4.453795   500A      4.457153  
     501A      4.479143   502A      4.482009   503A      4.497262  
     504A      4.509177   505A      4.523676   506A      4.544444  
     507A      4.581280   508A      4.594084   509A      4.596327  
     510A      4.605299   511A      4.614602   512A      4.640409  
     513A      4.658124   514A      4.669365   515A      4.691352  
     516A      4.713295   517A      4.722998   518A      4.731901  
     519A      4.749079   520A      4.781526   521A      4.794709  
     522A      4.808639   523A      4.819278   524A      4.832974  
     525A      4.859190   526A      4.879626   527A      4.889897  
     528A      4.922064   529A      4.923803   530A      4.944547  
     531A      4.978767   532A      5.008555   533A      5.029659  
     534A      5.030398   535A      5.035714   536A      5.057169  
     537A      5.098827   538A      5.104198   539A      5.134802  
     540A      5.139751   541A      5.141588   542A      5.155327  
     543A      5.181273   544A      5.204769   545A      5.241815  
     546A      5.247466   547A      5.260982   548A      5.285501  
     549A      5.307807   550A      5.318182   551A      5.326859  
     552A      5.332642   553A      5.351108   554A      5.376997  
     555A      5.388578   556A      5.407508   557A      5.412221  
     558A      5.440991   559A      5.460967   560A      5.487175  
     561A      5.493896   562A      5.508613   563A      5.530949  
     564A      5.548174   565A      5.552142   566A      5.572420  
     567A      5.578208   568A      5.588805   569A      5.597386  
     570A      5.621864   571A      5.645249   572A      5.670766  
     573A      5.685675   574A      5.690253   575A      5.701668  
     576A      5.720442   577A      5.724146   578A      5.730460  
     579A      5.748199   580A      5.759990   581A      5.778923  
     582A      5.798674   583A      5.819414   584A      5.825013  
     585A      5.853796   586A      5.859917   587A      5.886097  
     588A      5.890938   589A      5.915109   590A      5.925634  
     591A      5.947939   592A      5.977650   593A      5.993489  
     594A      6.012319   595A      6.031436   596A      6.042727  
     597A      6.048095   598A      6.080322   599A      6.102156  
     600A      6.147655   601A      6.160126   602A      6.186866  
     603A      6.199347   604A      6.207381   605A      6.225748  
     606A      6.266223   607A      6.283995   608A      6.301914  
     609A      6.366714   610A      6.417382   611A      6.469154  
     612A      6.510476   613A      6.526326   614A      6.543720  
     615A      6.568024   616A      6.586641   617A      6.632162  
     618A      6.712446   619A      6.723595   620A      6.731430  
     621A      6.759577   622A      6.772758   623A      6.812813  
     624A      6.832527   625A      6.918369   626A      6.994869  
     627A      7.021284   628A      7.057438   629A      7.071263  
     630A      7.080036   631A      7.120051   632A      7.196024  
     633A      7.225173   634A      7.304214   635A      7.390165  
     636A      7.450829   637A      7.518825   638A      7.648451  
     639A      7.816938   640A      7.828810   641A      7.874688  
     642A      8.042421   643A      8.270559   644A      8.318604  
     645A      8.496402   646A      8.840692   647A      9.098639  
     648A      9.956016   649A     10.224420   650A     10.293364  
     651A     10.499181   652A     11.253636   653A     12.092065  
     654A     12.563055   655A     13.750832   656A     14.090046  
     657A     16.155211   658A     16.301221   659A     16.382895  
     660A     18.035442   661A     18.222964   662A     18.977795  
     663A     19.372708   664A     19.646530   665A     19.918553  
     666A     20.946753   667A     68.813077  

    Final Occupation by Irrep:
              A 
    DOCC [    35 ]

  @DF-RHF Final Energy:  -464.68113427016539

   => Energetics <=

    Nuclear Repulsion Energy =            501.2132616223435093
    One-Electron Energy =               -1625.3357571967194417
    Two-Electron Energy =                 659.4413613042106590
    Total Energy =                       -464.6811342701653302

Computation Completed


Properties will be evaluated at   0.000000,   0.000000,   0.000000 [a0]

Properties computed using the SCF density matrix

  Nuclear Dipole Moment: [e a0]
     X:    58.3687      Y:    -0.0984      Z:     2.0141

  Electronic Dipole Moment: [e a0]
     X:   -58.7477      Y:     0.9731      Z:    -2.2083

  Dipole Moment: [e a0]
     X:    -0.3790      Y:     0.8747      Z:    -0.1943     Total:     0.9729

  Dipole Moment: [D]
     X:    -0.9633      Y:     2.2232      Z:    -0.4938     Total:     2.4728


*** tstop() called on bme-earth.bme.utexas.edu at Thu Mar 28 03:10:27 2024
Module time:
	user time   =     149.40 seconds =       2.49 minutes
	system time =       1.09 seconds =       0.02 minutes
	total time  =         19 seconds =       0.32 minutes
Total time:
	user time   =     362.32 seconds =       6.04 minutes
	system time =       3.34 seconds =       0.06 minutes
	total time  =         49 seconds =       0.82 minutes

*** tstart() called on bme-earth.bme.utexas.edu
*** at Thu Mar 28 03:10:27 2024


  //>>>>>>>>>>>>>>>>>>>>>>>>>>>>>>>>>>>//
  //               DFMP2               //
  //<<<<<<<<<<<<<<<<<<<<<<<<<<<<<<<<<<<//

   => Loading Basis Set <=

    Name: (AUG-CC-PVTZ AUX)
    Role: RIFIT
    Keyword: DF_BASIS_MP2
    atoms 1, 4, 11, 14-15, 17-18 entry H          line    30 file /opt/anaconda/envs/psi4v1.5/share/psi4/basis/aug-cc-pvtz-ri.gbs 
    atoms 2, 5, 8-9, 12          entry N          line   206 file /opt/anaconda/envs/psi4v1.5/share/psi4/basis/aug-cc-pvtz-ri.gbs 
    atoms 3, 6-7, 10, 13         entry C          line   148 file /opt/anaconda/envs/psi4v1.5/share/psi4/basis/aug-cc-pvtz-ri.gbs 
    atoms 16                     entry O          line   264 file /opt/anaconda/envs/psi4v1.5/share/psi4/basis/aug-cc-pvtz-ri.gbs 

	 --------------------------------------------------------
	                          DF-MP2                         
	      2nd-Order Density-Fitted Moller-Plesset Theory     
	              RMP2 Wavefunction,   8 Threads             
	                                                         
	        Rob Parrish, Justin Turney, Andy Simmonett,      
	           Ed Hohenstein, and C. David Sherrill          
	 --------------------------------------------------------

   => Auxiliary Basis Set <=

  Basis Set: (AUG-CC-PVTZ AUX)
    Blend: AUG-CC-PVTZ-RI
    Number of shells: 406
    Number of basis functions: 1488
    Number of Cartesian functions: 1881
    Spherical Harmonics?: true
    Max angular momentum: 4

	 --------------------------------------------------------
	                 NBF =   667, NAUX =  1488
	 --------------------------------------------------------
	   CLASS    FOCC     OCC    AOCC    AVIR     VIR    FVIR
	   PAIRS      10      35      25     632     632       0
	 --------------------------------------------------------

	 Will attempt to load fitting metric from file 97.

	-----------------------------------------------------------
	 ==================> DF-MP2 Energies <==================== 
	-----------------------------------------------------------
	 Reference Energy          =    -464.6811342701653871 [Eh]
	 Singles Energy            =      -0.0000000000000000 [Eh]
	 Same-Spin Energy          =      -0.4787989318442151 [Eh]
	 Opposite-Spin Energy      =      -1.3248023411982011 [Eh]
	 Correlation Energy        =      -1.8036012730424162 [Eh]
	 Total Energy              =    -466.4847355432078189 [Eh]
	-----------------------------------------------------------
	 ================> DF-SCS-MP2 Energies <================== 
	-----------------------------------------------------------
	 SCS Same-Spin Scale       =       0.3333333333333333 [-]
	 SCS Opposite-Spin Scale   =       1.2000000000000000 [-]
	 SCS Same-Spin Energy      =      -0.1595996439480717 [Eh]
	 SCS Opposite-Spin Energy  =      -1.5897628094378413 [Eh]
	 SCS Correlation Energy    =      -1.7493624533859129 [Eh]
	 SCS Total Energy          =    -466.4304967235513004 [Eh]
	-----------------------------------------------------------


*** tstop() called on bme-earth.bme.utexas.edu at Thu Mar 28 03:10:33 2024
Module time:
	user time   =      32.96 seconds =       0.55 minutes
	system time =       0.57 seconds =       0.01 minutes
	total time  =          6 seconds =       0.10 minutes
Total time:
	user time   =     395.28 seconds =       6.59 minutes
	system time =       3.91 seconds =       0.07 minutes
	total time  =         55 seconds =       0.92 minutes

  //>>>>>>>>>>>>>>>>>>>>>>>>>>>>>>>>>>>//
  //            Monomer B HF           //
  //<<<<<<<<<<<<<<<<<<<<<<<<<<<<<<<<<<<//


*** tstart() called on bme-earth.bme.utexas.edu
*** at Thu Mar 28 03:10:33 2024

   => Loading Basis Set <=

    Name: AUG-CC-PVTZ
    Role: ORBITAL
    Keyword: BASIS
    atoms 1, 4, 11, 14-15, 17-18 entry H          line    40 file /opt/anaconda/envs/psi4v1.5/share/psi4/basis/aug-cc-pvtz.gbs 
    atoms 2, 5, 8-9, 12          entry N          line   285 file /opt/anaconda/envs/psi4v1.5/share/psi4/basis/aug-cc-pvtz.gbs 
    atoms 3, 6-7, 10, 13         entry C          line   239 file /opt/anaconda/envs/psi4v1.5/share/psi4/basis/aug-cc-pvtz.gbs 
    atoms 16                     entry O          line   331 file /opt/anaconda/envs/psi4v1.5/share/psi4/basis/aug-cc-pvtz.gbs 


         ---------------------------------------------------------
                                   SCF
               by Justin Turney, Rob Parrish, Andy Simmonett
                          and Daniel G. A. Smith
                              RHF Reference
                        8 Threads,  47683 MiB Core
         ---------------------------------------------------------

  ==> Geometry <==

    Molecular point group: c1
    Full point group: C1

    Geometry (in Angstrom), charge = 0, multiplicity = 1:

       Center              X                  Y                   Z               Mass       
    ------------   -----------------  -----------------  -----------------  -----------------
      Gh(H)           1.779409503922     2.759507910256    -0.025560302143     1.007825032230
      Gh(N)           1.035449503922     2.071657910256    -0.000730302143    14.003074004430
      Gh(C)          -0.310060496078     2.306047910256     0.029419697857    12.000000000000
      Gh(H)          -0.721760496078     3.307237910256     0.031509697857     1.007825032230
      Gh(N)          -1.029210496078     1.191127910256     0.054939697857    14.003074004430
      Gh(C)          -0.083680496078     0.179407910256     0.038709697857    12.000000000000
      Gh(C)          -0.185710496078    -1.233852089744     0.029949697857    12.000000000000
      Gh(N)          -1.363310496078    -1.889762089744     0.103479697857    14.003074004430
      Gh(N)           0.955579503922    -1.948832089744    -0.006200302143    14.003074004430
      Gh(C)           2.135359503922    -1.295242089744    -0.033110302143    12.000000000000
      Gh(H)           3.016209503922    -1.933442089744    -0.061530302143     1.007825032230
      Gh(N)           2.369039503922     0.023627910256    -0.031930302143    14.003074004430
      Gh(C)           1.212169503922     0.703747910256     0.000259697857    12.000000000000
      Gh(H)          -1.324750496078    -2.888612089744    -0.052640302143     1.007825032230
      Gh(H)          -2.243000496078    -1.392162089744    -0.054260302143     1.007825032230
         O           -3.420979529411    -0.042613956411    -0.177934602143    15.994914619570
         H           -3.823779529411     0.024696043589     0.701955397857     1.007825032230
         H           -2.685719529411     0.611466043589    -0.153374602143     1.007825032230

  Running in c1 symmetry.

  Rotational constants: A =      0.05168  B =      0.03734  C =      0.02175 [cm^-1]
  Rotational constants: A =   1549.20690  B =   1119.39322  C =    651.99643 [MHz]
  Nuclear repulsion =    9.008344066062275

  Charge       = 0
  Multiplicity = 1
  Electrons    = 10
  Nalpha       = 5
  Nbeta        = 5

  ==> Algorithm <==

  SCF Algorithm Type is DF.
  DIIS enabled.
  MOM disabled.
  Fractional occupation disabled.
  Guess Type is SAD.
  Energy threshold   = 1.00e-08
  Density threshold  = 1.00e-08
  Integral threshold = 1.00e-12

  ==> Primary Basis <==

  Basis Set: AUG-CC-PVTZ
    Blend: AUG-CC-PVTZ
    Number of shells: 217
    Number of basis functions: 667
    Number of Cartesian functions: 780
    Spherical Harmonics?: true
    Max angular momentum: 3

   => Loading Basis Set <=

    Name: (AUG-CC-PVTZ AUX)
    Role: JKFIT
    Keyword: DF_BASIS_SCF
    atoms 1, 4, 11, 14-15, 17-18 entry H          line    70 file /opt/anaconda/envs/psi4v1.5/share/psi4/basis/aug-cc-pvtz-jkfit.gbs 
    atoms 2, 5, 8-9, 12          entry N          line   224 file /opt/anaconda/envs/psi4v1.5/share/psi4/basis/aug-cc-pvtz-jkfit.gbs 
    atoms 3, 6-7, 10, 13         entry C          line   162 file /opt/anaconda/envs/psi4v1.5/share/psi4/basis/aug-cc-pvtz-jkfit.gbs 
    atoms 16                     entry O          line   286 file /opt/anaconda/envs/psi4v1.5/share/psi4/basis/aug-cc-pvtz-jkfit.gbs 

  ==> Integral Setup <==

  ==> DiskDFJK: Density-Fitted J/K Matrices <==

    J tasked:                  Yes
    K tasked:                  Yes
    wK tasked:                  No
    OpenMP threads:              8
    Integrals threads:           8
    Memory [MiB]:            35762
    Algorithm:                Core
    Integral Cache:           LOAD
    Schwarz Cutoff:          1E-12
    Fitting Condition:       1E-10

   => Auxiliary Basis Set <=

  Basis Set: (AUG-CC-PVTZ AUX)
    Blend: AUG-CC-PVTZ-JKFIT
    Number of shells: 428
    Number of basis functions: 1466
    Number of Cartesian functions: 1826
    Spherical Harmonics?: true
    Max angular momentum: 4

  Minimum eigenvalue in the overlap matrix is 1.4452427394E-06.
  Reciprocal condition number of the overlap matrix is 7.9923368963E-08.
    Using symmetric orthogonalization.

  ==> Pre-Iterations <==

  SCF Guess: Superposition of Atomic Densities via on-the-fly atomic UHF (no occupation information).

   -------------------------
    Irrep   Nso     Nmo    
   -------------------------
     A        667     667 
   -------------------------
    Total     667     667
   -------------------------

  ==> Iterations <==

                           Total Energy        Delta E     RMS |[F,P]|

   @DF-RHF iter SAD:   -75.45529737650617   -7.54553e+01   0.00000e+00 
   @DF-RHF iter   1:   -75.97339215231005   -5.18095e-01   7.00364e-04 DIIS
   @DF-RHF iter   2:   -76.02533895979973   -5.19468e-02   4.87288e-04 DIIS
   @DF-RHF iter   3:   -76.05818706555910   -3.28481e-02   3.32288e-05 DIIS
   @DF-RHF iter   4:   -76.05860177033512   -4.14705e-04   8.28289e-06 DIIS
   @DF-RHF iter   5:   -76.05863029005171   -2.85197e-05   1.91524e-06 DIIS
   @DF-RHF iter   6:   -76.05863269296420   -2.40291e-06   4.20825e-07 DIIS
   @DF-RHF iter   7:   -76.05863281921341   -1.26249e-07   7.46437e-08 DIIS
   @DF-RHF iter   8:   -76.05863282266861   -3.45520e-09   1.28168e-08 DIIS
   @DF-RHF iter   9:   -76.05863282275044   -8.18261e-11   3.24621e-09 DIIS
  Energy and wave function converged.


  ==> Post-Iterations <==

    Orbital Energies [Eh]
    ---------------------

    Doubly Occupied:                                                      

       1A    -20.570675     2A     -1.343766     3A     -0.705860  
       4A     -0.582003     5A     -0.508874  

    Virtual:                                                              

       6A      0.014123     7A      0.026145     8A      0.031500  
       9A      0.046069    10A      0.047392    11A      0.052087  
      12A      0.057415    13A      0.072486    14A      0.075922  
      15A      0.076367    16A      0.079795    17A      0.083611  
      18A      0.092308    19A      0.097379    20A      0.113718  
      21A      0.115156    22A      0.116135    23A      0.125033  
      24A      0.127657    25A      0.130481    26A      0.135322  
      27A      0.137180    28A      0.138930    29A      0.149009  
      30A      0.159414    31A      0.167120    32A      0.170624  
      33A      0.177868    34A      0.180470    35A      0.181058  
      36A      0.186317    37A      0.189133    38A      0.196353  
      39A      0.199060    40A      0.203372    41A      0.205499  
      42A      0.210918    43A      0.214857    44A      0.223611  
      45A      0.226227    46A      0.230892    47A      0.238251  
      48A      0.250346    49A      0.259755    50A      0.268425  
      51A      0.270890    52A      0.279546    53A      0.282200  
      54A      0.286494    55A      0.292535    56A      0.296197  
      57A      0.299514    58A      0.309711    59A      0.319845  
      60A      0.323726    61A      0.330217    62A      0.336631  
      63A      0.337700    64A      0.344931    65A      0.349057  
      66A      0.356669    67A      0.365670    68A      0.374292  
      69A      0.383730    70A      0.388538    71A      0.394982  
      72A      0.399813    73A      0.401271    74A      0.407427  
      75A      0.409957    76A      0.416082    77A      0.418255  
      78A      0.422564    79A      0.427956    80A      0.428846  
      81A      0.430309    82A      0.433951    83A      0.442955  
      84A      0.448396    85A      0.449868    86A      0.450910  
      87A      0.463178    88A      0.466927    89A      0.471748  
      90A      0.475330    91A      0.478331    92A      0.483142  
      93A      0.487314    94A      0.494350    95A      0.502570  
      96A      0.509867    97A      0.523647    98A      0.532107  
      99A      0.538607   100A      0.542944   101A      0.549264  
     102A      0.561435   103A      0.576243   104A      0.581116  
     105A      0.592046   106A      0.595569   107A      0.602676  
     108A      0.606114   109A      0.616883   110A      0.623396  
     111A      0.628523   112A      0.635191   113A      0.648133  
     114A      0.650913   115A      0.668641   116A      0.674784  
     117A      0.684596   118A      0.694585   119A      0.702008  
     120A      0.708681   121A      0.709409   122A      0.720629  
     123A      0.734796   124A      0.744333   125A      0.746002  
     126A      0.751954   127A      0.764338   128A      0.768702  
     129A      0.770475   130A      0.775295   131A      0.784680  
     132A      0.785565   133A      0.800651   134A      0.808173  
     135A      0.810956   136A      0.815095   137A      0.822277  
     138A      0.823367   139A      0.826470   140A      0.833472  
     141A      0.841654   142A      0.849114   143A      0.851738  
     144A      0.858168   145A      0.860376   146A      0.860910  
     147A      0.872624   148A      0.875528   149A      0.881488  
     150A      0.889261   151A      0.896065   152A      0.899472  
     153A      0.905921   154A      0.916276   155A      0.922250  
     156A      0.928787   157A      0.934883   158A      0.940242  
     159A      0.950271   160A      0.953580   161A      0.961383  
     162A      0.965236   163A      0.972758   164A      0.987667  
     165A      0.991866   166A      1.003374   167A      1.010133  
     168A      1.020500   169A      1.027278   170A      1.030574  
     171A      1.035078   172A      1.044605   173A      1.050420  
     174A      1.060190   175A      1.061108   176A      1.068080  
     177A      1.072021   178A      1.091820   179A      1.092699  
     180A      1.098075   181A      1.102895   182A      1.115896  
     183A      1.119502   184A      1.125741   185A      1.130528  
     186A      1.153382   187A      1.163505   188A      1.168561  
     189A      1.172749   190A      1.179376   191A      1.185565  
     192A      1.193884   193A      1.204567   194A      1.208657  
     195A      1.228498   196A      1.232929   197A      1.238916  
     198A      1.246718   199A      1.255173   200A      1.256551  
     201A      1.260762   202A      1.274379   203A      1.277226  
     204A      1.282650   205A      1.294232   206A      1.298345  
     207A      1.302815   208A      1.317725   209A      1.323143  
     210A      1.330971   211A      1.335237   212A      1.359197  
     213A      1.364583   214A      1.368870   215A      1.380407  
     216A      1.392547   217A      1.413625   218A      1.417688  
     219A      1.423853   220A      1.437500   221A      1.446595  
     222A      1.454575   223A      1.467937   224A      1.472267  
     225A      1.482561   226A      1.501808   227A      1.509000  
     228A      1.516922   229A      1.530456   230A      1.539425  
     231A      1.543380   232A      1.546629   233A      1.559844  
     234A      1.567330   235A      1.572882   236A      1.577420  
     237A      1.583131   238A      1.600065   239A      1.605160  
     240A      1.611714   241A      1.621263   242A      1.631821  
     243A      1.652449   244A      1.657309   245A      1.662437  
     246A      1.674351   247A      1.677999   248A      1.690305  
     249A      1.692947   250A      1.703041   251A      1.710961  
     252A      1.724169   253A      1.726831   254A      1.738691  
     255A      1.742974   256A      1.749702   257A      1.757535  
     258A      1.760710   259A      1.767394   260A      1.769039  
     261A      1.777339   262A      1.781908   263A      1.790347  
     264A      1.796723   265A      1.801810   266A      1.810127  
     267A      1.812932   268A      1.821302   269A      1.822696  
     270A      1.837424   271A      1.843271   272A      1.861954  
     273A      1.877770   274A      1.887417   275A      1.895369  
     276A      1.910127   277A      1.915164   278A      1.928349  
     279A      1.937463   280A      1.952239   281A      1.956719  
     282A      1.960527   283A      1.989815   284A      1.993290  
     285A      1.999366   286A      2.011947   287A      2.017720  
     288A      2.037842   289A      2.039727   290A      2.049237  
     291A      2.054432   292A      2.062708   293A      2.081674  
     294A      2.090628   295A      2.102795   296A      2.105176  
     297A      2.132595   298A      2.134436   299A      2.148206  
     300A      2.163389   301A      2.170260   302A      2.174390  
     303A      2.197090   304A      2.203336   305A      2.226456  
     306A      2.231627   307A      2.249096   308A      2.254588  
     309A      2.257094   310A      2.264610   311A      2.279432  
     312A      2.301511   313A      2.311720   314A      2.326718  
     315A      2.344821   316A      2.356855   317A      2.376109  
     318A      2.385948   319A      2.398640   320A      2.412928  
     321A      2.422069   322A      2.435079   323A      2.444706  
     324A      2.457416   325A      2.475088   326A      2.491018  
     327A      2.506037   328A      2.524224   329A      2.529256  
     330A      2.531204   331A      2.547462   332A      2.557130  
     333A      2.567067   334A      2.577171   335A      2.581445  
     336A      2.589363   337A      2.596168   338A      2.617309  
     339A      2.629147   340A      2.650310   341A      2.662212  
     342A      2.670913   343A      2.689489   344A      2.698437  
     345A      2.699934   346A      2.709955   347A      2.718149  
     348A      2.739762   349A      2.747770   350A      2.765982  
     351A      2.798768   352A      2.807586   353A      2.812221  
     354A      2.830920   355A      2.846816   356A      2.864154  
     357A      2.874674   358A      2.881381   359A      2.888524  
     360A      2.904216   361A      2.915119   362A      2.917609  
     363A      2.932448   364A      2.948110   365A      2.960654  
     366A      2.974818   367A      2.988079   368A      2.997419  
     369A      3.002785   370A      3.008378   371A      3.023842  
     372A      3.036869   373A      3.050187   374A      3.065882  
     375A      3.078654   376A      3.090246   377A      3.099068  
     378A      3.115513   379A      3.117487   380A      3.129006  
     381A      3.153061   382A      3.162532   383A      3.179181  
     384A      3.195447   385A      3.210212   386A      3.222661  
     387A      3.250607   388A      3.261010   389A      3.278714  
     390A      3.298307   391A      3.315167   392A      3.320725  
     393A      3.349157   394A      3.353483   395A      3.388208  
     396A      3.416522   397A      3.473731   398A      3.492871  
     399A      3.555475   400A      3.571423   401A      3.590699  
     402A      3.621244   403A      3.691376   404A      3.715740  
     405A      3.753776   406A      3.819599   407A      3.863614  
     408A      3.891955   409A      3.930355   410A      3.954443  
     411A      3.969389   412A      4.006752   413A      4.028961  
     414A      4.047805   415A      4.106655   416A      4.110691  
     417A      4.120013   418A      4.135577   419A      4.146293  
     420A      4.160512   421A      4.172759   422A      4.183118  
     423A      4.184753   424A      4.198488   425A      4.218534  
     426A      4.251727   427A      4.259349   428A      4.261899  
     429A      4.279045   430A      4.328233   431A      4.351420  
     432A      4.369338   433A      4.415531   434A      4.431038  
     435A      4.434299   436A      4.465468   437A      4.473174  
     438A      4.508908   439A      4.518325   440A      4.529069  
     441A      4.538960   442A      4.545278   443A      4.561124  
     444A      4.576491   445A      4.587222   446A      4.595710  
     447A      4.614698   448A      4.620111   449A      4.641344  
     450A      4.644320   451A      4.672729   452A      4.694058  
     453A      4.697959   454A      4.722309   455A      4.734422  
     456A      4.744020   457A      4.757861   458A      4.783638  
     459A      4.799266   460A      4.807035   461A      4.819758  
     462A      4.837058   463A      4.861308   464A      4.877052  
     465A      4.889513   466A      4.903375   467A      4.909183  
     468A      4.919211   469A      4.928532   470A      4.946171  
     471A      4.950142   472A      4.965421   473A      4.974052  
     474A      4.995747   475A      5.000853   476A      5.010384  
     477A      5.032138   478A      5.033984   479A      5.039105  
     480A      5.062999   481A      5.072159   482A      5.079613  
     483A      5.102597   484A      5.119660   485A      5.135200  
     486A      5.156040   487A      5.162717   488A      5.171264  
     489A      5.194711   490A      5.214139   491A      5.238974  
     492A      5.241429   493A      5.253267   494A      5.280938  
     495A      5.285834   496A      5.309267   497A      5.326477  
     498A      5.340755   499A      5.358227   500A      5.371199  
     501A      5.385523   502A      5.416743   503A      5.437233  
     504A      5.462389   505A      5.471434   506A      5.482834  
     507A      5.514202   508A      5.518352   509A      5.537268  
     510A      5.545240   511A      5.574448   512A      5.607558  
     513A      5.638027   514A      5.651192   515A      5.668521  
     516A      5.710376   517A      5.758924   518A      5.788667  
     519A      5.801228   520A      5.825149   521A      5.851810  
     522A      5.859494   523A      5.888932   524A      5.901550  
     525A      5.974702   526A      5.983047   527A      5.990020  
     528A      6.027647   529A      6.058139   530A      6.078091  
     531A      6.101722   532A      6.119162   533A      6.179729  
     534A      6.237962   535A      6.277886   536A      6.314047  
     537A      6.346325   538A      6.362030   539A      6.363187  
     540A      6.399536   541A      6.435428   542A      6.442478  
     543A      6.485863   544A      6.495040   545A      6.503546  
     546A      6.523235   547A      6.525506   548A      6.551538  
     549A      6.566594   550A      6.582077   551A      6.596547  
     552A      6.614864   553A      6.652840   554A      6.677059  
     555A      6.696663   556A      6.710445   557A      6.736980  
     558A      6.745865   559A      6.793738   560A      6.818444  
     561A      6.847437   562A      6.882113   563A      6.889368  
     564A      6.900003   565A      6.914999   566A      6.927062  
     567A      6.944239   568A      6.960383   569A      6.964446  
     570A      7.001638   571A      7.065283   572A      7.122906  
     573A      7.184588   574A      7.207817   575A      7.237231  
     576A      7.271380   577A      7.309446   578A      7.354441  
     579A      7.378724   580A      7.394193   581A      7.404836  
     582A      7.422308   583A      7.438576   584A      7.443834  
     585A      7.468678   586A      7.516461   587A      7.522345  
     588A      7.574441   589A      7.582684   590A      7.595410  
     591A      7.613323   592A      7.641790   593A      7.654215  
     594A      7.674383   595A      7.712163   596A      7.729604  
     597A      7.755522   598A      7.772542   599A      7.826677  
     600A      7.843401   601A      7.858333   602A      7.891398  
     603A      7.929531   604A      7.942236   605A      7.969971  
     606A      7.983225   607A      7.991868   608A      8.026085  
     609A      8.067152   610A      8.113565   611A      8.136166  
     612A      8.147281   613A      8.191807   614A      8.283392  
     615A      8.334825   616A      8.364763   617A      8.442787  
     618A      8.464060   619A      8.522540   620A      8.604227  
     621A      8.707348   622A      8.840093   623A      8.853828  
     624A      8.926943   625A      8.990954   626A      9.043553  
     627A      9.065457   628A      9.238963   629A      9.356090  
     630A      9.451638   631A      9.516376   632A      9.577314  
     633A      9.600716   634A      9.702668   635A      9.756627  
     636A      9.820779   637A     10.168319   638A     10.287814  
     639A     10.445938   640A     10.748008   641A     11.010529  
     642A     11.043302   643A     11.259127   644A     11.315402  
     645A     11.542646   646A     11.737419   647A     11.824527  
     648A     11.943451   649A     12.066537   650A     12.122737  
     651A     12.219763   652A     12.326643   653A     12.426458  
     654A     12.550887   655A     12.862263   656A     13.027717  
     657A     17.625104   658A     51.555611   659A     51.997300  
     660A     52.622289   661A     54.143116   662A     56.762730  
     663A     60.306390   664A     61.794332   665A     62.196335  
     666A     62.667120   667A     64.225471  

    Final Occupation by Irrep:
              A 
    DOCC [     5 ]

  @DF-RHF Final Energy:   -76.05863282275044

   => Energetics <=

    Nuclear Repulsion Energy =              9.0083440660622749
    One-Electron Energy =                -122.7115955691465814
    Two-Electron Energy =                  37.6446186803338634
    Total Energy =                        -76.0586328227504396

Computation Completed


Properties will be evaluated at   0.000000,   0.000000,   0.000000 [a0]

Properties computed using the SCF density matrix

  Nuclear Dipole Moment: [e a0]
     X:   -64.0189      Y:     0.5579      Z:    -1.6533

  Electronic Dipole Moment: [e a0]
     X:    64.2350      Y:    -0.0858      Z:     2.2474

  Dipole Moment: [e a0]
     X:     0.2161      Y:     0.4722      Z:     0.5941     Total:     0.7890

  Dipole Moment: [D]
     X:     0.5494      Y:     1.2002      Z:     1.5100     Total:     2.0055


*** tstop() called on bme-earth.bme.utexas.edu at Thu Mar 28 03:10:45 2024
Module time:
	user time   =      82.90 seconds =       1.38 minutes
	system time =       0.74 seconds =       0.01 minutes
	total time  =         12 seconds =       0.20 minutes
Total time:
	user time   =     478.20 seconds =       7.97 minutes
	system time =       4.65 seconds =       0.08 minutes
	total time  =         67 seconds =       1.12 minutes

*** tstart() called on bme-earth.bme.utexas.edu
*** at Thu Mar 28 03:10:45 2024


  //>>>>>>>>>>>>>>>>>>>>>>>>>>>>>>>>>>>//
  //               DFMP2               //
  //<<<<<<<<<<<<<<<<<<<<<<<<<<<<<<<<<<<//

   => Loading Basis Set <=

    Name: (AUG-CC-PVTZ AUX)
    Role: RIFIT
    Keyword: DF_BASIS_MP2
    atoms 1, 4, 11, 14-15, 17-18 entry H          line    30 file /opt/anaconda/envs/psi4v1.5/share/psi4/basis/aug-cc-pvtz-ri.gbs 
    atoms 2, 5, 8-9, 12          entry N          line   206 file /opt/anaconda/envs/psi4v1.5/share/psi4/basis/aug-cc-pvtz-ri.gbs 
    atoms 3, 6-7, 10, 13         entry C          line   148 file /opt/anaconda/envs/psi4v1.5/share/psi4/basis/aug-cc-pvtz-ri.gbs 
    atoms 16                     entry O          line   264 file /opt/anaconda/envs/psi4v1.5/share/psi4/basis/aug-cc-pvtz-ri.gbs 

	 --------------------------------------------------------
	                          DF-MP2                         
	      2nd-Order Density-Fitted Moller-Plesset Theory     
	              RMP2 Wavefunction,   8 Threads             
	                                                         
	        Rob Parrish, Justin Turney, Andy Simmonett,      
	           Ed Hohenstein, and C. David Sherrill          
	 --------------------------------------------------------

   => Auxiliary Basis Set <=

  Basis Set: (AUG-CC-PVTZ AUX)
    Blend: AUG-CC-PVTZ-RI
    Number of shells: 406
    Number of basis functions: 1488
    Number of Cartesian functions: 1881
    Spherical Harmonics?: true
    Max angular momentum: 4

	 --------------------------------------------------------
	                 NBF =   667, NAUX =  1488
	 --------------------------------------------------------
	   CLASS    FOCC     OCC    AOCC    AVIR     VIR    FVIR
	   PAIRS       1       5       4     662     662       0
	 --------------------------------------------------------

	 Will attempt to load fitting metric from file 97.

	-----------------------------------------------------------
	 ==================> DF-MP2 Energies <==================== 
	-----------------------------------------------------------
	 Reference Energy          =     -76.0586328227504396 [Eh]
	 Singles Energy            =      -0.0000000000000000 [Eh]
	 Same-Spin Energy          =      -0.0656067259038036 [Eh]
	 Opposite-Spin Energy      =      -0.2053045720986875 [Eh]
	 Correlation Energy        =      -0.2709112980024911 [Eh]
	 Total Energy              =     -76.3295441207529279 [Eh]
	-----------------------------------------------------------
	 ================> DF-SCS-MP2 Energies <================== 
	-----------------------------------------------------------
	 SCS Same-Spin Scale       =       0.3333333333333333 [-]
	 SCS Opposite-Spin Scale   =       1.2000000000000000 [-]
	 SCS Same-Spin Energy      =      -0.0218689086346012 [Eh]
	 SCS Opposite-Spin Energy  =      -0.2463654865184250 [Eh]
	 SCS Correlation Energy    =      -0.2682343951530262 [Eh]
	 SCS Total Energy          =     -76.3268672179034695 [Eh]
	-----------------------------------------------------------


*** tstop() called on bme-earth.bme.utexas.edu at Thu Mar 28 03:10:49 2024
Module time:
	user time   =      18.59 seconds =       0.31 minutes
	system time =       0.40 seconds =       0.01 minutes
	total time  =          4 seconds =       0.07 minutes
Total time:
	user time   =     496.80 seconds =       8.28 minutes
	system time =       5.05 seconds =       0.08 minutes
	total time  =         71 seconds =       1.18 minutes
  Constructing Basis Sets for SAPT...

   => Loading Basis Set <=

    Name: (AUG-CC-PVTZ AUX)
    Role: RIFIT
    Keyword: DF_BASIS_SAPT
    atoms 1, 4, 11, 14-15, 17-18 entry H          line    30 file /opt/anaconda/envs/psi4v1.5/share/psi4/basis/aug-cc-pvtz-ri.gbs 
    atoms 2, 5, 8-9, 12          entry N          line   206 file /opt/anaconda/envs/psi4v1.5/share/psi4/basis/aug-cc-pvtz-ri.gbs 
    atoms 3, 6-7, 10, 13         entry C          line   148 file /opt/anaconda/envs/psi4v1.5/share/psi4/basis/aug-cc-pvtz-ri.gbs 
    atoms 16                     entry O          line   264 file /opt/anaconda/envs/psi4v1.5/share/psi4/basis/aug-cc-pvtz-ri.gbs 


  //>>>>>>>>>>>>>>>>>>>>>>>>>>>>>>>>>>>//
  //           SAPT2+(3)DMP2           //
  //<<<<<<<<<<<<<<<<<<<<<<<<<<<<<<<<<<<//


*** tstart() called on bme-earth.bme.utexas.edu
*** at Thu Mar 28 03:10:49 2024

      SAPT2+(3)  
    Ed Hohenstein
     6 June 2009

      Orbital Information
  --------------------------
    NSO        =       667
    NMO        =       667
    NRI        =      1488
    NOCC A     =        35
    NOCC B     =         5
    FOCC A     =        10
    FOCC B     =         1
    NVIR A     =       632
    NVIR B     =       662

    Estimated memory usage: 18101.2 MB

    Natural Orbital Cutoff:   1.000E-06
    Disp(T3) Truncation:            Yes
    CCD (vv|vv) Truncation:         Yes
    MBPT T2 Truncation:             Yes

    Monomer A: 140 virtual orbitals dropped
    Monomer B: 575 virtual orbitals dropped

    Elst10,r            =    -0.044613638597 [Eh]
    Exch10 (S^2)        =     0.055343317037 [Eh]
    Exch10              =     0.056125347586 [Eh]
    Ind20,r (A<-B)      =    -0.014495006501 [Eh]
    Ind20,r (B<-A)      =    -0.011460376912 [Eh]
    Ind20,r             =    -0.025955383413 [Eh]
    Exch-Ind20,r (A<-B) =     0.008745056130 [Eh]
    Exch-Ind20,r (B<-A) =     0.006701601792 [Eh]
    Exch-Ind20,r        =     0.015446657922 [Eh]
    Disp20              =    -0.017396734627 [Eh]
    Disp20 (NO)         =    -0.015296349886 [Eh]
    Exch-Disp20         =     0.003784751864 [Eh]
    Elst12,r            =    -0.001159033182 [Eh]
    Exch11              =     0.000744728845 [Eh]
    Exch12              =     0.005794182186 [Eh]
    Ind22               =    -0.003723594218 [Eh]
    Disp21              =     0.001488217767 [Eh]
    Disp22 (SDQ)        =    -0.000382158188 [Eh]

    (i =   1 of   4)        228 seconds
    (i =   2 of   4)        456 seconds
    (i =   3 of   4)        684 seconds
    (i =   4 of   4)        911 seconds

    Disp220 (T)         =    -0.001397933890 [Eh]

    (i =   1 of  25)          3 seconds
    (i =   2 of  25)          6 seconds
    (i =   3 of  25)          9 seconds
    (i =   4 of  25)         12 seconds
    (i =   5 of  25)         15 seconds
    (i =   6 of  25)         18 seconds
    (i =   7 of  25)         21 seconds
    (i =   8 of  25)         25 seconds
    (i =   9 of  25)         28 seconds
    (i =  10 of  25)         31 seconds
    (i =  11 of  25)         34 seconds
    (i =  12 of  25)         37 seconds
    (i =  13 of  25)         40 seconds
    (i =  14 of  25)         43 seconds
    (i =  15 of  25)         46 seconds
    (i =  16 of  25)         49 seconds
    (i =  17 of  25)         52 seconds
    (i =  18 of  25)         55 seconds
    (i =  19 of  25)         58 seconds
    (i =  20 of  25)         61 seconds
    (i =  21 of  25)         64 seconds
    (i =  22 of  25)         67 seconds
    (i =  23 of  25)         70 seconds
    (i =  24 of  25)         73 seconds
    (i =  25 of  25)         76 seconds

    Disp202 (T)         =    -0.001341534841 [Eh]

    Disp22 (T)          =    -0.002739468731 [Eh]

    Est. Disp220 (T)    =    -0.001589888116 [Eh]
    Est. Disp202 (T)    =    -0.001525744756 [Eh]

    Est. Disp22 (T)     =    -0.003115632872 [Eh]
    Elst13,r            =     0.001129870699 [Eh]
    Disp30              =     0.000681444269 [Eh]

    SAPT Results 
  --------------------------------------------------------------------------------------------------------
    Electrostatics                -44.64280108 [mEh]     -28.01378061 [kcal/mol]    -117.20965809 [kJ/mol]
      Elst10,r                    -44.61363860 [mEh]     -27.99548088 [kcal/mol]    -117.13309200 [kJ/mol]
      Elst12,r                     -1.15903318 [mEh]      -0.72730430 [kcal/mol]      -3.04304120 [kJ/mol]
      Elst13,r                      1.12987070 [mEh]       0.70900457 [kcal/mol]       2.96647511 [kJ/mol]

    Exchange                       62.66425862 [mEh]      39.32241595 [kcal/mol]     164.52498833 [kJ/mol]
      Exch10                       56.12534759 [mEh]      35.21918733 [kcal/mol]     147.35707978 [kJ/mol]
      Exch10(S^2)                  55.34331704 [mEh]      34.72845575 [kcal/mol]     145.30385886 [kJ/mol]
      Exch11(S^2)                   0.74472884 [mEh]       0.46732441 [kcal/mol]       1.95528531 [kJ/mol]
      Exch12(S^2)                   5.79418219 [mEh]       3.63590421 [kcal/mol]      15.21262323 [kJ/mol]

    Induction                     -18.80830425 [mEh]     -11.80238910 [kcal/mol]     -49.38119601 [kJ/mol]
      Ind20,r                     -25.95538341 [mEh]     -16.28724899 [kcal/mol]     -68.14584976 [kJ/mol]
      Ind22                        -3.72359422 [mEh]      -2.33659065 [kcal/mol]      -9.77629527 [kJ/mol]
      Exch-Ind20,r                 15.44665792 [mEh]       9.69292418 [kcal/mol]      40.55519479 [kJ/mol]
      Exch-Ind22                    2.21599832 [mEh]       1.39055994 [kcal/mol]       5.81810280 [kJ/mol]
      delta HF,r (2)               -7.76508413 [mEh]      -4.87266386 [kcal/mol]     -20.38722558 [kJ/mol]
      delta MP2,r (2)               0.97310127 [mEh]       0.61063026 [kcal/mol]       2.55487702 [kJ/mol]

    Dispersion                    -14.94011179 [mEh]      -9.37506169 [kcal/mol]     -39.22525809 [kJ/mol]
      Disp20                      -17.39673463 [mEh]     -10.91661579 [kcal/mol]     -45.67512047 [kJ/mol]
      Disp30                        0.68144427 [mEh]       0.42761273 [kcal/mol]       1.78913168 [kJ/mol]
      Disp21                        1.48821777 [mEh]       0.93387075 [kcal/mol]       3.90731521 [kJ/mol]
      Disp22 (SDQ)                 -0.38215819 [mEh]      -0.23980788 [kcal/mol]      -1.00335618 [kJ/mol]
      Disp22 (T)                   -2.73946873 [mEh]      -1.71904258 [kcal/mol]      -7.19247416 [kJ/mol]
      Est. Disp22 (T)              -3.11563287 [mEh]      -1.95508914 [kcal/mol]      -8.18009298 [kJ/mol]
      Exch-Disp20                   3.78475186 [mEh]       2.37496765 [kcal/mol]       9.93686465 [kJ/mol]

  Total HF                         -6.76210064 [mEh]      -4.24328221 [kcal/mol]     -17.75389277 [kJ/mol]
  Total SAPT0                     -20.37408340 [mEh]     -12.78493035 [kcal/mol]     -53.49214859 [kJ/mol]
  Total SAPT2                     -16.50180144 [mEh]     -10.35503674 [kcal/mol]     -43.32547372 [kJ/mol]
  Total SAPT2+                    -18.51137474 [mEh]     -11.61606302 [kcal/mol]     -48.60160768 [kJ/mol]
  Total SAPT2+(3)                 -16.70005977 [mEh]     -10.47944572 [kcal/mol]     -43.84600088 [kJ/mol]
  Total SAPT2+dMP2                -17.53827347 [mEh]     -11.00543276 [kcal/mol]     -46.04673065 [kJ/mol]
  Total SAPT2+(3)dMP2             -15.72695850 [mEh]      -9.86881545 [kcal/mol]     -41.29112386 [kJ/mol]

  Special recipe for scaled SAPT0 (see Manual):
    Electrostatics sSAPT0         -44.61363860 [mEh]     -27.99548088 [kcal/mol]    -117.13309200 [kJ/mol]
    Exchange sSAPT0                56.12534759 [mEh]      35.21918733 [kcal/mol]     147.35707978 [kJ/mol]
    Induction sSAPT0              -17.60970474 [mEh]     -11.05025655 [kcal/mol]     -46.23427341 [kJ/mol]
    Dispersion sSAPT0             -13.44926328 [mEh]      -8.43954012 [kcal/mol]     -35.31103587 [kJ/mol]
  Total sSAPT0                    -19.54725903 [mEh]     -12.26609023 [kcal/mol]     -51.32132150 [kJ/mol]
  --------------------------------------------------------------------------------------------------------

*** tstop() called on bme-earth.bme.utexas.edu at Thu Mar 28 03:57:18 2024
Module time:
	user time   =   20773.72 seconds =     346.23 minutes
	system time =      87.62 seconds =       1.46 minutes
	total time  =       2789 seconds =      46.48 minutes
Total time:
	user time   =   21271.02 seconds =     354.52 minutes
	system time =      92.68 seconds =       1.54 minutes
	total time  =       2860 seconds =      47.67 minutes

    Psi4 stopped on: Thursday, 28 March 2024 03:57AM
    Psi4 wall time for execution: 0:47:40.85

*** Psi4 exiting successfully. Buy a developer a beer!
