
    -----------------------------------------------------------------------
          Psi4: An Open-Source Ab Initio Electronic Structure Package
                               Psi4 1.5 release

                         Git: Rev {HEAD} e9f4d6d 


    D. G. A. Smith, L. A. Burns, A. C. Simmonett, R. M. Parrish,
    M. C. Schieber, R. Galvelis, P. Kraus, H. Kruse, R. Di Remigio,
    A. Alenaizan, A. M. James, S. Lehtola, J. P. Misiewicz, M. Scheurer,
    R. A. Shaw, J. B. Schriber, Y. Xie, Z. L. Glick, D. A. Sirianni,
    J. S. O'Brien, J. M. Waldrop, A. Kumar, E. G. Hohenstein,
    B. P. Pritchard, B. R. Brooks, H. F. Schaefer III, A. Yu. Sokolov,
    K. Patkowski, A. E. DePrince III, U. Bozkaya, R. A. King,
    F. A. Evangelista, J. M. Turney, T. D. Crawford, C. D. Sherrill,
    J. Chem. Phys. 152(18) 184108 (2020). https://doi.org/10.1063/5.0006002

                            Additional Code Authors
    E. T. Seidl, C. L. Janssen, E. F. Valeev, M. L. Leininger,
    J. F. Gonthier, R. M. Richard, H. R. McAlexander, M. Saitow, X. Wang,
    P. Verma, M. H. Lechner, and A. Jiang

             Previous Authors, Complete List of Code Contributors,
                       and Citations for Specific Modules
    https://github.com/psi4/psi4/blob/master/codemeta.json
    https://github.com/psi4/psi4/graphs/contributors
    http://psicode.org/psi4manual/master/introduction.html#citing-psifour

    -----------------------------------------------------------------------


    Psi4 started on: Sunday, 14 April 2024 10:07PM

    Process ID: 3714190
    Host:       node154.bme.utexas.edu
    PSIDATADIR: /opt/anaconda/envs/psi4v1.5/share/psi4
    Memory:     500.0 MiB
    Threads:    8
    
  ==> Input File <==

--------------------------------------------------------------------------
memory 50GB

molecule {
0 1
H -2.43488 0.93263 -0.02649
N -1.41936 1.06992 -0.01468
C -0.6643 2.21111 -0.00045
H -1.11875 3.19394 0.00448
N 0.64678 1.98904 0.0068
C 0.73093 0.61264 -0.0099
C 1.82843 -0.26997 0.00797
N 3.11301 0.17757 -0.03865
N 1.60021 -1.59414 0.00915
C 0.32195 -2.02658 -0.00981
H 0.19538 -3.10698 -0.01104
N -0.80442 -1.3016 -0.02352
C -0.53569 0.01965 -0.01716
H 3.82963 -0.49372 0.20662
H 3.27441 1.1441 0.21418
--
0 1
O -3.61661 -0.64889 -0.05448
H -4.03208 -0.92143 0.77842
H -2.82221 -1.22412 -0.12795
 units angstrom
 no_reorient
 symmetry c1} 
set  {scf_type DF
 basis jun-cc-pvdz
 freeze_core True
 guess SAD}
energy('sapt2+(3)dmp2')
--------------------------------------------------------------------------

  Memory set to  46.566 GiB by Python driver.

Scratch directory: /tmp/
   => Loading Basis Set <=

    Name: JUN-CC-PVDZ
    Role: ORBITAL
    Keyword: BASIS
    atoms 1, 4, 11, 14-15, 17-18 entry H          line    36 file /opt/anaconda/envs/psi4v1.5/share/psi4/basis/jun-cc-pvdz.gbs 
    atoms 2, 5, 8-9, 12          entry N          line   198 file /opt/anaconda/envs/psi4v1.5/share/psi4/basis/jun-cc-pvdz.gbs 
    atoms 3, 6-7, 10, 13         entry C          line   164 file /opt/anaconda/envs/psi4v1.5/share/psi4/basis/jun-cc-pvdz.gbs 
    atoms 16                     entry O          line   232 file /opt/anaconda/envs/psi4v1.5/share/psi4/basis/jun-cc-pvdz.gbs 

   => Loading Basis Set <=

    Name: JUN-CC-PVDZ
    Role: ORBITAL
    Keyword: BASIS
    atoms 1, 4, 11, 14-15, 17-18 entry H          line    36 file /opt/anaconda/envs/psi4v1.5/share/psi4/basis/jun-cc-pvdz.gbs 
    atoms 2, 5, 8-9, 12          entry N          line   198 file /opt/anaconda/envs/psi4v1.5/share/psi4/basis/jun-cc-pvdz.gbs 
    atoms 3, 6-7, 10, 13         entry C          line   164 file /opt/anaconda/envs/psi4v1.5/share/psi4/basis/jun-cc-pvdz.gbs 
    atoms 16                     entry O          line   232 file /opt/anaconda/envs/psi4v1.5/share/psi4/basis/jun-cc-pvdz.gbs 


  //>>>>>>>>>>>>>>>>>>>>>>>>>>>>>>>>>>>//
  //              Dimer HF             //
  //<<<<<<<<<<<<<<<<<<<<<<<<<<<<<<<<<<<//


*** tstart() called on node154.bme.utexas.edu
*** at Sun Apr 14 22:07:25 2024

   => Loading Basis Set <=

    Name: JUN-CC-PVDZ
    Role: ORBITAL
    Keyword: BASIS
    atoms 1, 4, 11, 14-15, 17-18 entry H          line    36 file /opt/anaconda/envs/psi4v1.5/share/psi4/basis/jun-cc-pvdz.gbs 
    atoms 2, 5, 8-9, 12          entry N          line   198 file /opt/anaconda/envs/psi4v1.5/share/psi4/basis/jun-cc-pvdz.gbs 
    atoms 3, 6-7, 10, 13         entry C          line   164 file /opt/anaconda/envs/psi4v1.5/share/psi4/basis/jun-cc-pvdz.gbs 
    atoms 16                     entry O          line   232 file /opt/anaconda/envs/psi4v1.5/share/psi4/basis/jun-cc-pvdz.gbs 


         ---------------------------------------------------------
                                   SCF
               by Justin Turney, Rob Parrish, Andy Simmonett
                          and Daniel G. A. Smith
                              RHF Reference
                        8 Threads,  47683 MiB Core
         ---------------------------------------------------------

  ==> Geometry <==

    Molecular point group: c1
    Full point group: C1

    Geometry (in Angstrom), charge = 0, multiplicity = 1:

       Center              X                  Y                   Z               Mass       
    ------------   -----------------  -----------------  -----------------  -----------------
         H           -2.455213631215     0.929519779979    -0.019760534430     1.007825032230
         N           -1.439693631215     1.066809779979    -0.007950534430    14.003074004430
         C           -0.684633631215     2.207999779979     0.006279465570    12.000000000000
         H           -1.139083631215     3.190829779979     0.011209465570     1.007825032230
         N            0.626446368785     1.985929779979     0.013529465570    14.003074004430
         C            0.710596368785     0.609529779979    -0.003170534430    12.000000000000
         C            1.808096368785    -0.273080220021     0.014699465570    12.000000000000
         N            3.092676368785     0.174459779979    -0.031920534430    14.003074004430
         N            1.579876368785    -1.597250220021     0.015879465570    14.003074004430
         C            0.301616368785    -2.029690220021    -0.003080534430    12.000000000000
         H            0.175046368785    -3.110090220021    -0.004310534430     1.007825032230
         N           -0.824753631215    -1.304710220021    -0.016790534430    14.003074004430
         C           -0.556023631215     0.016539779979    -0.010430534430    12.000000000000
         H            3.809296368785    -0.496830220021     0.213349465570     1.007825032230
         H            3.254076368785     1.140989779979     0.220909465570     1.007825032230
         O           -3.636943631215    -0.652000220021    -0.047750534430    15.994914619570
         H           -4.052413631215    -0.924540220021     0.785149465570     1.007825032230
         H           -2.842543631215    -1.227230220021    -0.121220534430     1.007825032230

  Running in c1 symmetry.

  Rotational constants: A =      0.06089  B =      0.03131  C =      0.02072 [cm^-1]
  Rotational constants: A =   1825.55084  B =    938.59086  C =    621.09389 [MHz]
  Nuclear repulsion =  601.731906057270976

  Charge       = 0
  Multiplicity = 1
  Electrons    = 80
  Nalpha       = 40
  Nbeta        = 40

  ==> Algorithm <==

  SCF Algorithm Type is DF.
  DIIS enabled.
  MOM disabled.
  Fractional occupation disabled.
  Guess Type is SAD.
  Energy threshold   = 1.00e-08
  Density threshold  = 1.00e-08
  Integral threshold = 1.00e-12

  ==> Primary Basis <==

  Basis Set: JUN-CC-PVDZ
    Blend: JUN-CC-PVDZ
    Number of shells: 109
    Number of basis functions: 233
    Number of Cartesian functions: 244
    Spherical Harmonics?: true
    Max angular momentum: 2

   => Loading Basis Set <=

    Name: (JUN-CC-PVDZ AUX)
    Role: JKFIT
    Keyword: DF_BASIS_SCF
    atoms 1, 4, 11, 14-15, 17-18 entry H          line    70 file /opt/anaconda/envs/psi4v1.5/share/psi4/basis/jun-cc-pvdz-jkfit.gbs 
    atoms 2, 5, 8-9, 12          entry N          line   202 file /opt/anaconda/envs/psi4v1.5/share/psi4/basis/jun-cc-pvdz-jkfit.gbs 
    atoms 3, 6-7, 10, 13         entry C          line   146 file /opt/anaconda/envs/psi4v1.5/share/psi4/basis/jun-cc-pvdz-jkfit.gbs 
    atoms 16                     entry O          line   258 file /opt/anaconda/envs/psi4v1.5/share/psi4/basis/jun-cc-pvdz-jkfit.gbs 

  ==> Integral Setup <==

  ==> DiskDFJK: Density-Fitted J/K Matrices <==

    J tasked:                  Yes
    K tasked:                  Yes
    wK tasked:                  No
    OpenMP threads:              8
    Integrals threads:           8
    Memory [MiB]:            35762
    Algorithm:                Core
    Integral Cache:           SAVE
    Schwarz Cutoff:          1E-12
    Fitting Condition:       1E-10

   => Auxiliary Basis Set <=

  Basis Set: (JUN-CC-PVDZ AUX)
    Blend: JUN-CC-PVDZ-JKFIT
    Number of shells: 360
    Number of basis functions: 1030
    Number of Cartesian functions: 1176
    Spherical Harmonics?: true
    Max angular momentum: 3

  Minimum eigenvalue in the overlap matrix is 1.0838857982E-05.
  Reciprocal condition number of the overlap matrix is 8.3232270353E-07.
    Using symmetric orthogonalization.

  ==> Pre-Iterations <==

  SCF Guess: Superposition of Atomic Densities via on-the-fly atomic UHF (no occupation information).

   -------------------------
    Irrep   Nso     Nmo    
   -------------------------
     A        233     233 
   -------------------------
    Total     233     233
   -------------------------

  ==> Iterations <==

                           Total Energy        Delta E     RMS |[F,P]|

   @DF-RHF iter SAD:  -540.06784975433095   -5.40068e+02   0.00000e+00 
   @DF-RHF iter   1:  -540.33154499762861   -2.63695e-01   3.18563e-03 DIIS
   @DF-RHF iter   2:  -540.55474667030182   -2.23202e-01   1.67682e-03 DIIS
   @DF-RHF iter   3:  -540.61626616060460   -6.15195e-02   3.32802e-04 DIIS
   @DF-RHF iter   4:  -540.61984875561927   -3.58260e-03   1.52368e-04 DIIS
   @DF-RHF iter   5:  -540.62053114832463   -6.82393e-04   3.35288e-05 DIIS
   @DF-RHF iter   6:  -540.62058948481126   -5.83365e-05   1.45778e-05 DIIS
   @DF-RHF iter   7:  -540.62060441357687   -1.49288e-05   5.25146e-06 DIIS
   @DF-RHF iter   8:  -540.62060696973742   -2.55616e-06   1.85905e-06 DIIS
   @DF-RHF iter   9:  -540.62060731214876   -3.42411e-07   1.02791e-06 DIIS
   @DF-RHF iter  10:  -540.62060739983849   -8.76897e-08   3.72735e-07 DIIS
   @DF-RHF iter  11:  -540.62060741744108   -1.76026e-08   1.61394e-07 DIIS
   @DF-RHF iter  12:  -540.62060742055303   -3.11195e-09   5.95666e-08 DIIS
   @DF-RHF iter  13:  -540.62060742097231   -4.19277e-10   2.20721e-08 DIIS
   @DF-RHF iter  14:  -540.62060742101744   -4.51337e-11   8.79565e-09 DIIS
  Energy and wave function converged.


  ==> Post-Iterations <==

    Orbital Energies [Eh]
    ---------------------

    Doubly Occupied:                                                      

       1A    -20.577404     2A    -15.633643     3A    -15.596491  
       4A    -15.580710     5A    -15.577504     6A    -15.566720  
       7A    -11.349708     8A    -11.333158     9A    -11.330419  
      10A    -11.327369    11A    -11.262046    12A     -1.373217  
      13A     -1.350968    14A     -1.307248    15A     -1.254525  
      16A     -1.188938    17A     -1.160719    18A     -1.039378  
      19A     -0.899518    20A     -0.882976    21A     -0.850125  
      22A     -0.781905    23A     -0.738597    24A     -0.713763  
      25A     -0.702084    26A     -0.679341    27A     -0.642701  
      28A     -0.635447    29A     -0.616089    30A     -0.595917  
      31A     -0.585701    32A     -0.559480    33A     -0.520479  
      34A     -0.504676    35A     -0.496518    36A     -0.457110  
      37A     -0.425545    38A     -0.419562    39A     -0.378922  
      40A     -0.313684  

    Virtual:                                                              

      41A      0.054203    42A      0.063389    43A      0.068277  
      44A      0.081754    45A      0.086265    46A      0.088952  
      47A      0.093238    48A      0.109068    49A      0.122816  
      50A      0.124420    51A      0.129290    52A      0.133043  
      53A      0.140373    54A      0.149550    55A      0.155528  
      56A      0.162545    57A      0.179967    58A      0.187975  
      59A      0.190388    60A      0.195351    61A      0.208264  
      62A      0.219892    63A      0.225912    64A      0.227129  
      65A      0.238585    66A      0.246851    67A      0.250594  
      68A      0.258335    69A      0.260677    70A      0.266694  
      71A      0.276043    72A      0.277658    73A      0.288051  
      74A      0.290593    75A      0.298690    76A      0.303763  
      77A      0.314415    78A      0.317367    79A      0.329334  
      80A      0.332381    81A      0.338047    82A      0.349303  
      83A      0.361901    84A      0.366368    85A      0.379493  
      86A      0.383888    87A      0.392002    88A      0.393846  
      89A      0.401967    90A      0.417118    91A      0.441195  
      92A      0.446155    93A      0.456590    94A      0.474488  
      95A      0.482721    96A      0.495139    97A      0.510335  
      98A      0.517766    99A      0.544371   100A      0.571076  
     101A      0.599324   102A      0.629120   103A      0.642318  
     104A      0.690559   105A      0.762314   106A      0.832670  
     107A      0.838391   108A      0.843964   109A      0.857829  
     110A      0.862564   111A      0.868263   112A      0.871611  
     113A      0.877421   114A      0.916184   115A      0.934050  
     116A      0.940183   117A      0.962643   118A      0.992846  
     119A      1.002288   120A      1.006800   121A      1.024219  
     122A      1.050476   123A      1.068163   124A      1.079483  
     125A      1.092311   126A      1.106572   127A      1.114262  
     128A      1.139380   129A      1.167874   130A      1.178494  
     131A      1.186052   132A      1.192428   133A      1.209162  
     134A      1.219992   135A      1.229630   136A      1.246658  
     137A      1.261927   138A      1.266737   139A      1.275601  
     140A      1.287878   141A      1.294197   142A      1.298467  
     143A      1.304694   144A      1.312644   145A      1.323852  
     146A      1.333608   147A      1.348740   148A      1.362346  
     149A      1.369406   150A      1.381171   151A      1.403695  
     152A      1.428680   153A      1.464925   154A      1.473686  
     155A      1.492788   156A      1.511033   157A      1.523970  
     158A      1.555557   159A      1.576198   160A      1.589924  
     161A      1.625616   162A      1.694122   163A      1.731600  
     164A      1.771638   165A      1.795857   166A      1.827832  
     167A      1.830360   168A      1.843478   169A      1.856641  
     170A      1.860043   171A      1.890779   172A      1.913413  
     173A      1.937199   174A      1.958941   175A      1.966321  
     176A      1.970317   177A      1.984511   178A      1.990536  
     179A      2.035082   180A      2.046205   181A      2.074927  
     182A      2.080925   183A      2.107674   184A      2.119467  
     185A      2.141818   186A      2.204994   187A      2.264971  
     188A      2.275486   189A      2.285282   190A      2.311431  
     191A      2.342224   192A      2.372728   193A      2.382005  
     194A      2.403667   195A      2.414008   196A      2.478483  
     197A      2.493740   198A      2.501216   199A      2.509660  
     200A      2.520512   201A      2.576493   202A      2.588301  
     203A      2.621847   204A      2.643071   205A      2.703842  
     206A      2.717705   207A      2.730228   208A      2.784485  
     209A      2.801156   210A      2.871343   211A      2.885224  
     212A      2.913425   213A      2.940935   214A      2.965317  
     215A      3.009357   216A      3.018445   217A      3.083570  
     218A      3.098452   219A      3.141691   220A      3.220552  
     221A      3.234415   222A      3.267340   223A      3.290644  
     224A      3.323869   225A      3.346322   226A      3.381310  
     227A      3.420024   228A      3.495727   229A      3.644949  
     230A      3.689682   231A      3.814541   232A      3.912501  
     233A      4.182823  

    Final Occupation by Irrep:
              A 
    DOCC [    40 ]

  @DF-RHF Final Energy:  -540.62060742101744

   => Energetics <=

    Nuclear Repulsion Energy =            601.7319060572709759
    One-Electron Energy =               -1930.2844135782183912
    Two-Electron Energy =                 787.9319000999300897
    Total Energy =                       -540.6206074210174393

Computation Completed


Properties will be evaluated at   0.000000,   0.000000,   0.000000 [a0]

Properties computed using the SCF density matrix

  Nuclear Dipole Moment: [e a0]
     X:    -3.0738      Y:    -0.4703      Z:     1.0173

  Electronic Dipole Moment: [e a0]
     X:     2.8369      Y:     0.7630      Z:    -0.1979

  Dipole Moment: [e a0]
     X:    -0.2370      Y:     0.2927      Z:     0.8194     Total:     0.9018

  Dipole Moment: [D]
     X:    -0.6024      Y:     0.7439      Z:     2.0827     Total:     2.2922


*** tstop() called on node154.bme.utexas.edu at Sun Apr 14 22:07:28 2024
Module time:
	user time   =      17.71 seconds =       0.30 minutes
	system time =       0.45 seconds =       0.01 minutes
	total time  =          3 seconds =       0.05 minutes
Total time:
	user time   =      17.71 seconds =       0.30 minutes
	system time =       0.45 seconds =       0.01 minutes
	total time  =          3 seconds =       0.05 minutes

*** tstart() called on node154.bme.utexas.edu
*** at Sun Apr 14 22:07:28 2024


  //>>>>>>>>>>>>>>>>>>>>>>>>>>>>>>>>>>>//
  //               DFMP2               //
  //<<<<<<<<<<<<<<<<<<<<<<<<<<<<<<<<<<<//

   => Loading Basis Set <=

    Name: (JUN-CC-PVDZ AUX)
    Role: RIFIT
    Keyword: DF_BASIS_MP2
    atoms 1, 4, 11, 14-15, 17-18 entry H          line    30 file /opt/anaconda/envs/psi4v1.5/share/psi4/basis/jun-cc-pvdz-ri.gbs 
    atoms 2, 5, 8-9, 12          entry N          line   144 file /opt/anaconda/envs/psi4v1.5/share/psi4/basis/jun-cc-pvdz-ri.gbs 
    atoms 3, 6-7, 10, 13         entry C          line   100 file /opt/anaconda/envs/psi4v1.5/share/psi4/basis/jun-cc-pvdz-ri.gbs 
    atoms 16                     entry O          line   188 file /opt/anaconda/envs/psi4v1.5/share/psi4/basis/jun-cc-pvdz-ri.gbs 

	 --------------------------------------------------------
	                          DF-MP2                         
	      2nd-Order Density-Fitted Moller-Plesset Theory     
	              RMP2 Wavefunction,   8 Threads             
	                                                         
	        Rob Parrish, Justin Turney, Andy Simmonett,      
	           Ed Hohenstein, and C. David Sherrill          
	 --------------------------------------------------------

   => Auxiliary Basis Set <=

  Basis Set: (JUN-CC-PVDZ AUX)
    Blend: JUN-CC-PVDZ-RI
    Number of shells: 273
    Number of basis functions: 813
    Number of Cartesian functions: 941
    Spherical Harmonics?: true
    Max angular momentum: 3

	 --------------------------------------------------------
	                 NBF =   233, NAUX =   813
	 --------------------------------------------------------
	   CLASS    FOCC     OCC    AOCC    AVIR     VIR    FVIR
	   PAIRS      11      40      29     193     193       0
	 --------------------------------------------------------

	 Will save fitting metric to file 97.

	-----------------------------------------------------------
	 ==================> DF-MP2 Energies <==================== 
	-----------------------------------------------------------
	 Reference Energy          =    -540.6206074210174393 [Eh]
	 Singles Energy            =      -0.0000000000000000 [Eh]
	 Same-Spin Energy          =      -0.4658069011782252 [Eh]
	 Opposite-Spin Energy      =      -1.2118618938354500 [Eh]
	 Correlation Energy        =      -1.6776687950136751 [Eh]
	 Total Energy              =    -542.2982762160311268 [Eh]
	-----------------------------------------------------------
	 ================> DF-SCS-MP2 Energies <================== 
	-----------------------------------------------------------
	 SCS Same-Spin Scale       =       0.3333333333333333 [-]
	 SCS Opposite-Spin Scale   =       1.2000000000000000 [-]
	 SCS Same-Spin Energy      =      -0.1552689670594084 [Eh]
	 SCS Opposite-Spin Energy  =      -1.4542342726025399 [Eh]
	 SCS Correlation Energy    =      -1.6095032396619482 [Eh]
	 SCS Total Energy          =    -542.2301106606794292 [Eh]
	-----------------------------------------------------------


*** tstop() called on node154.bme.utexas.edu at Sun Apr 14 22:07:29 2024
Module time:
	user time   =       6.65 seconds =       0.11 minutes
	system time =       0.16 seconds =       0.00 minutes
	total time  =          1 seconds =       0.02 minutes
Total time:
	user time   =      24.36 seconds =       0.41 minutes
	system time =       0.61 seconds =       0.01 minutes
	total time  =          4 seconds =       0.07 minutes

  //>>>>>>>>>>>>>>>>>>>>>>>>>>>>>>>>>>>//
  //            Monomer A HF           //
  //<<<<<<<<<<<<<<<<<<<<<<<<<<<<<<<<<<<//


*** tstart() called on node154.bme.utexas.edu
*** at Sun Apr 14 22:07:29 2024

   => Loading Basis Set <=

    Name: JUN-CC-PVDZ
    Role: ORBITAL
    Keyword: BASIS
    atoms 1, 4, 11, 14-15, 17-18 entry H          line    36 file /opt/anaconda/envs/psi4v1.5/share/psi4/basis/jun-cc-pvdz.gbs 
    atoms 2, 5, 8-9, 12          entry N          line   198 file /opt/anaconda/envs/psi4v1.5/share/psi4/basis/jun-cc-pvdz.gbs 
    atoms 3, 6-7, 10, 13         entry C          line   164 file /opt/anaconda/envs/psi4v1.5/share/psi4/basis/jun-cc-pvdz.gbs 
    atoms 16                     entry O          line   232 file /opt/anaconda/envs/psi4v1.5/share/psi4/basis/jun-cc-pvdz.gbs 


         ---------------------------------------------------------
                                   SCF
               by Justin Turney, Rob Parrish, Andy Simmonett
                          and Daniel G. A. Smith
                              RHF Reference
                        8 Threads,  47683 MiB Core
         ---------------------------------------------------------

  ==> Geometry <==

    Molecular point group: c1
    Full point group: C1

    Geometry (in Angstrom), charge = 0, multiplicity = 1:

       Center              X                  Y                   Z               Mass       
    ------------   -----------------  -----------------  -----------------  -----------------
         H           -2.455213631215     0.929519779979    -0.019760534430     1.007825032230
         N           -1.439693631215     1.066809779979    -0.007950534430    14.003074004430
         C           -0.684633631215     2.207999779979     0.006279465570    12.000000000000
         H           -1.139083631215     3.190829779979     0.011209465570     1.007825032230
         N            0.626446368785     1.985929779979     0.013529465570    14.003074004430
         C            0.710596368785     0.609529779979    -0.003170534430    12.000000000000
         C            1.808096368785    -0.273080220021     0.014699465570    12.000000000000
         N            3.092676368785     0.174459779979    -0.031920534430    14.003074004430
         N            1.579876368785    -1.597250220021     0.015879465570    14.003074004430
         C            0.301616368785    -2.029690220021    -0.003080534430    12.000000000000
         H            0.175046368785    -3.110090220021    -0.004310534430     1.007825032230
         N           -0.824753631215    -1.304710220021    -0.016790534430    14.003074004430
         C           -0.556023631215     0.016539779979    -0.010430534430    12.000000000000
         H            3.809296368785    -0.496830220021     0.213349465570     1.007825032230
         H            3.254076368785     1.140989779979     0.220909465570     1.007825032230
      Gh(O)          -3.636943631215    -0.652000220021    -0.047750534430    15.994914619570
      Gh(H)          -4.052413631215    -0.924540220021     0.785149465570     1.007825032230
      Gh(H)          -2.842543631215    -1.227230220021    -0.121220534430     1.007825032230

  Running in c1 symmetry.

  Rotational constants: A =      0.06089  B =      0.03131  C =      0.02072 [cm^-1]
  Rotational constants: A =   1825.55084  B =    938.59086  C =    621.09389 [MHz]
  Nuclear repulsion =  501.704360688069414

  Charge       = 0
  Multiplicity = 1
  Electrons    = 70
  Nalpha       = 35
  Nbeta        = 35

  ==> Algorithm <==

  SCF Algorithm Type is DF.
  DIIS enabled.
  MOM disabled.
  Fractional occupation disabled.
  Guess Type is SAD.
  Energy threshold   = 1.00e-08
  Density threshold  = 1.00e-08
  Integral threshold = 1.00e-12

  ==> Primary Basis <==

  Basis Set: JUN-CC-PVDZ
    Blend: JUN-CC-PVDZ
    Number of shells: 109
    Number of basis functions: 233
    Number of Cartesian functions: 244
    Spherical Harmonics?: true
    Max angular momentum: 2

   => Loading Basis Set <=

    Name: (JUN-CC-PVDZ AUX)
    Role: JKFIT
    Keyword: DF_BASIS_SCF
    atoms 1, 4, 11, 14-15, 17-18 entry H          line    70 file /opt/anaconda/envs/psi4v1.5/share/psi4/basis/jun-cc-pvdz-jkfit.gbs 
    atoms 2, 5, 8-9, 12          entry N          line   202 file /opt/anaconda/envs/psi4v1.5/share/psi4/basis/jun-cc-pvdz-jkfit.gbs 
    atoms 3, 6-7, 10, 13         entry C          line   146 file /opt/anaconda/envs/psi4v1.5/share/psi4/basis/jun-cc-pvdz-jkfit.gbs 
    atoms 16                     entry O          line   258 file /opt/anaconda/envs/psi4v1.5/share/psi4/basis/jun-cc-pvdz-jkfit.gbs 

  ==> Integral Setup <==

  ==> DiskDFJK: Density-Fitted J/K Matrices <==

    J tasked:                  Yes
    K tasked:                  Yes
    wK tasked:                  No
    OpenMP threads:              8
    Integrals threads:           8
    Memory [MiB]:            35762
    Algorithm:                Core
    Integral Cache:           LOAD
    Schwarz Cutoff:          1E-12
    Fitting Condition:       1E-10

   => Auxiliary Basis Set <=

  Basis Set: (JUN-CC-PVDZ AUX)
    Blend: JUN-CC-PVDZ-JKFIT
    Number of shells: 360
    Number of basis functions: 1030
    Number of Cartesian functions: 1176
    Spherical Harmonics?: true
    Max angular momentum: 3

  Minimum eigenvalue in the overlap matrix is 1.0838857982E-05.
  Reciprocal condition number of the overlap matrix is 8.3232270353E-07.
    Using symmetric orthogonalization.

  ==> Pre-Iterations <==

  SCF Guess: Superposition of Atomic Densities via on-the-fly atomic UHF (no occupation information).

   -------------------------
    Irrep   Nso     Nmo    
   -------------------------
     A        233     233 
   -------------------------
    Total     233     233
   -------------------------

  ==> Iterations <==

                           Total Energy        Delta E     RMS |[F,P]|

   @DF-RHF iter SAD:  -464.39614008979356   -4.64396e+02   0.00000e+00 
   @DF-RHF iter   1:  -464.33614641140906    5.99937e-02   2.74600e-03 DIIS
   @DF-RHF iter   2:  -464.52311638676849   -1.86970e-01   1.37625e-03 DIIS
   @DF-RHF iter   3:  -464.56792168565516   -4.48053e-02   3.22239e-04 DIIS
   @DF-RHF iter   4:  -464.57124078284238   -3.31910e-03   1.45770e-04 DIIS
   @DF-RHF iter   5:  -464.57187334313528   -6.32560e-04   2.88050e-05 DIIS
   @DF-RHF iter   6:  -464.57192298028428   -4.96371e-05   1.36052e-05 DIIS
   @DF-RHF iter   7:  -464.57193607546083   -1.30952e-05   5.37773e-06 DIIS
   @DF-RHF iter   8:  -464.57193846485507   -2.38939e-06   1.95839e-06 DIIS
   @DF-RHF iter   9:  -464.57193880371472   -3.38860e-07   9.65542e-07 DIIS
   @DF-RHF iter  10:  -464.57193888964412   -8.59294e-08   3.57716e-07 DIIS
   @DF-RHF iter  11:  -464.57193890625285   -1.66087e-08   1.59812e-07 DIIS
   @DF-RHF iter  12:  -464.57193890927158   -3.01873e-09   5.73627e-08 DIIS
   @DF-RHF iter  13:  -464.57193890964163   -3.70051e-10   2.40283e-08 DIIS
   @DF-RHF iter  14:  -464.57193890968551   -4.38831e-11   8.54331e-09 DIIS
  Energy and wave function converged.


  ==> Post-Iterations <==

    Orbital Energies [Eh]
    ---------------------

    Doubly Occupied:                                                      

       1A    -15.646354     2A    -15.593497     3A    -15.581648  
       4A    -15.570159     5A    -15.561603     6A    -11.345838  
       7A    -11.338141     8A    -11.325944     9A    -11.321804  
      10A    -11.261044    11A     -1.375446    12A     -1.303454  
      13A     -1.249276    14A     -1.192423    15A     -1.155928  
      16A     -1.038005    17A     -0.898784    18A     -0.878990  
      19A     -0.853869    20A     -0.779359    21A     -0.737046  
      22A     -0.701358    23A     -0.677140    24A     -0.641564  
      25A     -0.632688    26A     -0.614552    27A     -0.593403  
      28A     -0.559017    29A     -0.500306    30A     -0.498122  
      31A     -0.454962    32A     -0.428290    33A     -0.411595  
      34A     -0.375216    35A     -0.311571  

    Virtual:                                                              

      36A      0.044189    37A      0.063737    38A      0.066682  
      39A      0.080616    40A      0.082961    41A      0.091258  
      42A      0.092008    43A      0.107725    44A      0.119348  
      45A      0.124363    46A      0.127062    47A      0.134368  
      48A      0.135149    49A      0.146304    50A      0.156254  
      51A      0.158405    52A      0.173477    53A      0.174244  
      54A      0.181228    55A      0.196341    56A      0.199534  
      57A      0.208247    58A      0.221002    59A      0.226037  
      60A      0.230667    61A      0.236972    62A      0.247889  
      63A      0.250491    64A      0.254879    65A      0.261145  
      66A      0.266984    67A      0.277019    68A      0.281014  
      69A      0.292921    70A      0.300323    71A      0.304507  
      72A      0.310735    73A      0.319388    74A      0.325333  
      75A      0.337125    76A      0.341808    77A      0.349336  
      78A      0.363574    79A      0.369293    80A      0.377721  
      81A      0.382568    82A      0.394243    83A      0.402649  
      84A      0.413162    85A      0.416356    86A      0.438733  
      87A      0.449872    88A      0.457728    89A      0.473267  
      90A      0.482370    91A      0.490197    92A      0.509663  
      93A      0.516485    94A      0.544379    95A      0.568908  
      96A      0.598857    97A      0.628998    98A      0.641249  
      99A      0.687094   100A      0.763063   101A      0.811099  
     102A      0.822352   103A      0.839708   104A      0.844169  
     105A      0.849240   106A      0.860928   107A      0.867677  
     108A      0.872002   109A      0.880158   110A      0.883762  
     111A      0.902857   112A      0.923188   113A      0.936523  
     114A      0.961055   115A      0.986412   116A      1.003935  
     117A      1.021377   118A      1.027242   119A      1.062913  
     120A      1.066735   121A      1.081582   122A      1.100099  
     123A      1.106674   124A      1.114193   125A      1.136007  
     126A      1.168970   127A      1.175986   128A      1.189361  
     129A      1.194813   130A      1.209661   131A      1.223983  
     132A      1.244681   133A      1.250181   134A      1.268735  
     135A      1.275960   136A      1.286624   137A      1.295828  
     138A      1.306620   139A      1.315379   140A      1.330422  
     141A      1.343539   142A      1.345296   143A      1.360661  
     144A      1.371811   145A      1.383623   146A      1.400251  
     147A      1.429618   148A      1.472500   149A      1.488635  
     150A      1.502880   151A      1.523376   152A      1.556050  
     153A      1.585485   154A      1.628589   155A      1.725346  
     156A      1.771242   157A      1.794588   158A      1.828958  
     159A      1.832386   160A      1.846934   161A      1.850918  
     162A      1.858613   163A      1.880976   164A      1.909392  
     165A      1.913811   166A      1.929682   167A      1.964772  
     168A      1.972377   169A      1.983162   170A      1.992110  
     171A      2.011482   172A      2.045998   173A      2.070770  
     174A      2.075672   175A      2.095723   176A      2.116242  
     177A      2.130619   178A      2.140499   179A      2.184865  
     180A      2.207797   181A      2.223020   182A      2.278816  
     183A      2.304720   184A      2.313294   185A      2.334599  
     186A      2.363143   187A      2.382281   188A      2.397540  
     189A      2.410340   190A      2.432689   191A      2.491021  
     192A      2.507052   193A      2.519851   194A      2.546504  
     195A      2.580844   196A      2.593391   197A      2.642655  
     198A      2.661312   199A      2.686570   200A      2.707780  
     201A      2.722893   202A      2.781451   203A      2.802266  
     204A      2.839431   205A      2.881436   206A      2.913810  
     207A      2.920437   208A      2.945634   209A      2.984483  
     210A      3.007583   211A      3.018565   212A      3.094346  
     213A      3.101585   214A      3.143296   215A      3.219112  
     216A      3.233802   217A      3.275499   218A      3.328606  
     219A      3.344823   220A      3.384362   221A      3.435842  
     222A      3.646930   223A      3.692021   224A      3.809124  
     225A      4.431471   226A      4.515148   227A      4.698712  
     228A      4.862093   229A      5.092569   230A      5.597727  
     231A      6.508325   232A      6.909931   233A     33.518895  

    Final Occupation by Irrep:
              A 
    DOCC [    35 ]

  @DF-RHF Final Energy:  -464.57193890968551

   => Energetics <=

    Nuclear Repulsion Energy =            501.7043606880694142
    One-Electron Energy =               -1625.7358059673915704
    Two-Electron Energy =                 659.4595063696367561
    Total Energy =                       -464.5719389096855139

Computation Completed


Properties will be evaluated at   0.000000,   0.000000,   0.000000 [a0]

Properties computed using the SCF density matrix

  Nuclear Dipole Moment: [e a0]
     X:    64.9384      Y:    13.4527      Z:     0.4845

  Electronic Dipole Moment: [e a0]
     X:   -65.5030      Y:   -12.5814      Z:    -0.1919

  Dipole Moment: [e a0]
     X:    -0.5646      Y:     0.8713      Z:     0.2927     Total:     1.0787

  Dipole Moment: [D]
     X:    -1.4351      Y:     2.2147      Z:     0.7439     Total:     2.7419


*** tstop() called on node154.bme.utexas.edu at Sun Apr 14 22:07:31 2024
Module time:
	user time   =      13.95 seconds =       0.23 minutes
	system time =       0.29 seconds =       0.00 minutes
	total time  =          2 seconds =       0.03 minutes
Total time:
	user time   =      38.34 seconds =       0.64 minutes
	system time =       0.90 seconds =       0.01 minutes
	total time  =          6 seconds =       0.10 minutes

*** tstart() called on node154.bme.utexas.edu
*** at Sun Apr 14 22:07:31 2024


  //>>>>>>>>>>>>>>>>>>>>>>>>>>>>>>>>>>>//
  //               DFMP2               //
  //<<<<<<<<<<<<<<<<<<<<<<<<<<<<<<<<<<<//

   => Loading Basis Set <=

    Name: (JUN-CC-PVDZ AUX)
    Role: RIFIT
    Keyword: DF_BASIS_MP2
    atoms 1, 4, 11, 14-15, 17-18 entry H          line    30 file /opt/anaconda/envs/psi4v1.5/share/psi4/basis/jun-cc-pvdz-ri.gbs 
    atoms 2, 5, 8-9, 12          entry N          line   144 file /opt/anaconda/envs/psi4v1.5/share/psi4/basis/jun-cc-pvdz-ri.gbs 
    atoms 3, 6-7, 10, 13         entry C          line   100 file /opt/anaconda/envs/psi4v1.5/share/psi4/basis/jun-cc-pvdz-ri.gbs 
    atoms 16                     entry O          line   188 file /opt/anaconda/envs/psi4v1.5/share/psi4/basis/jun-cc-pvdz-ri.gbs 

	 --------------------------------------------------------
	                          DF-MP2                         
	      2nd-Order Density-Fitted Moller-Plesset Theory     
	              RMP2 Wavefunction,   8 Threads             
	                                                         
	        Rob Parrish, Justin Turney, Andy Simmonett,      
	           Ed Hohenstein, and C. David Sherrill          
	 --------------------------------------------------------

   => Auxiliary Basis Set <=

  Basis Set: (JUN-CC-PVDZ AUX)
    Blend: JUN-CC-PVDZ-RI
    Number of shells: 273
    Number of basis functions: 813
    Number of Cartesian functions: 941
    Spherical Harmonics?: true
    Max angular momentum: 3

	 --------------------------------------------------------
	                 NBF =   233, NAUX =   813
	 --------------------------------------------------------
	   CLASS    FOCC     OCC    AOCC    AVIR     VIR    FVIR
	   PAIRS      10      35      25     198     198       0
	 --------------------------------------------------------

	 Will attempt to load fitting metric from file 97.

	-----------------------------------------------------------
	 ==================> DF-MP2 Energies <==================== 
	-----------------------------------------------------------
	 Reference Energy          =    -464.5719389096855139 [Eh]
	 Singles Energy            =      -0.0000000000000000 [Eh]
	 Same-Spin Energy          =      -0.4095873998263990 [Eh]
	 Opposite-Spin Energy      =      -1.0537816697843070 [Eh]
	 Correlation Energy        =      -1.4633690696107060 [Eh]
	 Total Energy              =    -466.0353079792961921 [Eh]
	-----------------------------------------------------------
	 ================> DF-SCS-MP2 Energies <================== 
	-----------------------------------------------------------
	 SCS Same-Spin Scale       =       0.3333333333333333 [-]
	 SCS Opposite-Spin Scale   =       1.2000000000000000 [-]
	 SCS Same-Spin Energy      =      -0.1365291332754663 [Eh]
	 SCS Opposite-Spin Energy  =      -1.2645380037411684 [Eh]
	 SCS Correlation Energy    =      -1.4010671370166348 [Eh]
	 SCS Total Energy          =    -465.9730060467021531 [Eh]
	-----------------------------------------------------------


*** tstop() called on node154.bme.utexas.edu at Sun Apr 14 22:07:32 2024
Module time:
	user time   =       5.80 seconds =       0.10 minutes
	system time =       0.14 seconds =       0.00 minutes
	total time  =          1 seconds =       0.02 minutes
Total time:
	user time   =      44.14 seconds =       0.74 minutes
	system time =       1.04 seconds =       0.02 minutes
	total time  =          7 seconds =       0.12 minutes

  //>>>>>>>>>>>>>>>>>>>>>>>>>>>>>>>>>>>//
  //            Monomer B HF           //
  //<<<<<<<<<<<<<<<<<<<<<<<<<<<<<<<<<<<//


*** tstart() called on node154.bme.utexas.edu
*** at Sun Apr 14 22:07:32 2024

   => Loading Basis Set <=

    Name: JUN-CC-PVDZ
    Role: ORBITAL
    Keyword: BASIS
    atoms 1, 4, 11, 14-15, 17-18 entry H          line    36 file /opt/anaconda/envs/psi4v1.5/share/psi4/basis/jun-cc-pvdz.gbs 
    atoms 2, 5, 8-9, 12          entry N          line   198 file /opt/anaconda/envs/psi4v1.5/share/psi4/basis/jun-cc-pvdz.gbs 
    atoms 3, 6-7, 10, 13         entry C          line   164 file /opt/anaconda/envs/psi4v1.5/share/psi4/basis/jun-cc-pvdz.gbs 
    atoms 16                     entry O          line   232 file /opt/anaconda/envs/psi4v1.5/share/psi4/basis/jun-cc-pvdz.gbs 


         ---------------------------------------------------------
                                   SCF
               by Justin Turney, Rob Parrish, Andy Simmonett
                          and Daniel G. A. Smith
                              RHF Reference
                        8 Threads,  47683 MiB Core
         ---------------------------------------------------------

  ==> Geometry <==

    Molecular point group: c1
    Full point group: C1

    Geometry (in Angstrom), charge = 0, multiplicity = 1:

       Center              X                  Y                   Z               Mass       
    ------------   -----------------  -----------------  -----------------  -----------------
      Gh(H)          -2.455213631215     0.929519779979    -0.019760534430     1.007825032230
      Gh(N)          -1.439693631215     1.066809779979    -0.007950534430    14.003074004430
      Gh(C)          -0.684633631215     2.207999779979     0.006279465570    12.000000000000
      Gh(H)          -1.139083631215     3.190829779979     0.011209465570     1.007825032230
      Gh(N)           0.626446368785     1.985929779979     0.013529465570    14.003074004430
      Gh(C)           0.710596368785     0.609529779979    -0.003170534430    12.000000000000
      Gh(C)           1.808096368785    -0.273080220021     0.014699465570    12.000000000000
      Gh(N)           3.092676368785     0.174459779979    -0.031920534430    14.003074004430
      Gh(N)           1.579876368785    -1.597250220021     0.015879465570    14.003074004430
      Gh(C)           0.301616368785    -2.029690220021    -0.003080534430    12.000000000000
      Gh(H)           0.175046368785    -3.110090220021    -0.004310534430     1.007825032230
      Gh(N)          -0.824753631215    -1.304710220021    -0.016790534430    14.003074004430
      Gh(C)          -0.556023631215     0.016539779979    -0.010430534430    12.000000000000
      Gh(H)           3.809296368785    -0.496830220021     0.213349465570     1.007825032230
      Gh(H)           3.254076368785     1.140989779979     0.220909465570     1.007825032230
         O           -3.636943631215    -0.652000220021    -0.047750534430    15.994914619570
         H           -4.052413631215    -0.924540220021     0.785149465570     1.007825032230
         H           -2.842543631215    -1.227230220021    -0.121220534430     1.007825032230

  Running in c1 symmetry.

  Rotational constants: A =      0.06089  B =      0.03131  C =      0.02072 [cm^-1]
  Rotational constants: A =   1825.55084  B =    938.59086  C =    621.09389 [MHz]
  Nuclear repulsion =    9.012493240668849

  Charge       = 0
  Multiplicity = 1
  Electrons    = 10
  Nalpha       = 5
  Nbeta        = 5

  ==> Algorithm <==

  SCF Algorithm Type is DF.
  DIIS enabled.
  MOM disabled.
  Fractional occupation disabled.
  Guess Type is SAD.
  Energy threshold   = 1.00e-08
  Density threshold  = 1.00e-08
  Integral threshold = 1.00e-12

  ==> Primary Basis <==

  Basis Set: JUN-CC-PVDZ
    Blend: JUN-CC-PVDZ
    Number of shells: 109
    Number of basis functions: 233
    Number of Cartesian functions: 244
    Spherical Harmonics?: true
    Max angular momentum: 2

   => Loading Basis Set <=

    Name: (JUN-CC-PVDZ AUX)
    Role: JKFIT
    Keyword: DF_BASIS_SCF
    atoms 1, 4, 11, 14-15, 17-18 entry H          line    70 file /opt/anaconda/envs/psi4v1.5/share/psi4/basis/jun-cc-pvdz-jkfit.gbs 
    atoms 2, 5, 8-9, 12          entry N          line   202 file /opt/anaconda/envs/psi4v1.5/share/psi4/basis/jun-cc-pvdz-jkfit.gbs 
    atoms 3, 6-7, 10, 13         entry C          line   146 file /opt/anaconda/envs/psi4v1.5/share/psi4/basis/jun-cc-pvdz-jkfit.gbs 
    atoms 16                     entry O          line   258 file /opt/anaconda/envs/psi4v1.5/share/psi4/basis/jun-cc-pvdz-jkfit.gbs 

  ==> Integral Setup <==

  ==> DiskDFJK: Density-Fitted J/K Matrices <==

    J tasked:                  Yes
    K tasked:                  Yes
    wK tasked:                  No
    OpenMP threads:              8
    Integrals threads:           8
    Memory [MiB]:            35762
    Algorithm:                Core
    Integral Cache:           LOAD
    Schwarz Cutoff:          1E-12
    Fitting Condition:       1E-10

   => Auxiliary Basis Set <=

  Basis Set: (JUN-CC-PVDZ AUX)
    Blend: JUN-CC-PVDZ-JKFIT
    Number of shells: 360
    Number of basis functions: 1030
    Number of Cartesian functions: 1176
    Spherical Harmonics?: true
    Max angular momentum: 3

  Minimum eigenvalue in the overlap matrix is 1.0838857982E-05.
  Reciprocal condition number of the overlap matrix is 8.3232270353E-07.
    Using symmetric orthogonalization.

  ==> Pre-Iterations <==

  SCF Guess: Superposition of Atomic Densities via on-the-fly atomic UHF (no occupation information).

   -------------------------
    Irrep   Nso     Nmo    
   -------------------------
     A        233     233 
   -------------------------
    Total     233     233
   -------------------------

  ==> Iterations <==

                           Total Energy        Delta E     RMS |[F,P]|

   @DF-RHF iter SAD:   -75.48935992900213   -7.54894e+01   0.00000e+00 
   @DF-RHF iter   1:   -75.95839478189643   -4.69035e-01   1.85456e-03 DIIS
   @DF-RHF iter   2:   -76.00888925015632   -5.04945e-02   1.19930e-03 DIIS
   @DF-RHF iter   3:   -76.03616603206302   -2.72768e-02   9.54766e-05 DIIS
   @DF-RHF iter   4:   -76.03655199784994   -3.85966e-04   2.20854e-05 DIIS
   @DF-RHF iter   5:   -76.03657482369863   -2.28258e-05   4.46498e-06 DIIS
   @DF-RHF iter   6:   -76.03657634748848   -1.52379e-06   9.77276e-07 DIIS
   @DF-RHF iter   7:   -76.03657643031767   -8.28292e-08   1.27226e-07 DIIS
   @DF-RHF iter   8:   -76.03657643153279   -1.21513e-09   2.31514e-08 DIIS
   @DF-RHF iter   9:   -76.03657643157190   -3.91083e-11   6.18424e-09 DIIS
  Energy and wave function converged.


  ==> Post-Iterations <==

    Orbital Energies [Eh]
    ---------------------

    Doubly Occupied:                                                      

       1A    -20.580572     2A     -1.347046     3A     -0.708320  
       4A     -0.581331     5A     -0.507546  

    Virtual:                                                              

       6A      0.027658     7A      0.045786     8A      0.051540  
       9A      0.065939    10A      0.078365    11A      0.085298  
      12A      0.092369    13A      0.099562    14A      0.117114  
      15A      0.118506    16A      0.123251    17A      0.135509  
      18A      0.143705    19A      0.155152    20A      0.157879  
      21A      0.162819    22A      0.169610    23A      0.175883  
      24A      0.182783    25A      0.189388    26A      0.196674  
      27A      0.197768    28A      0.215013    29A      0.219497  
      30A      0.226966    31A      0.231073    32A      0.232996  
      33A      0.241490    34A      0.244999    35A      0.259298  
      36A      0.262465    37A      0.265957    38A      0.266945  
      39A      0.268919    40A      0.281786    41A      0.287046  
      42A      0.306071    43A      0.317093    44A      0.328468  
      45A      0.334258    46A      0.356838    47A      0.359157  
      48A      0.369185    49A      0.384545    50A      0.418347  
      51A      0.442357    52A      0.457497    53A      0.469805  
      54A      0.472194    55A      0.479869    56A      0.492824  
      57A      0.494363    58A      0.521513    59A      0.534682  
      60A      0.548908    61A      0.556741    62A      0.560819  
      63A      0.566062    64A      0.574805    65A      0.585179  
      66A      0.595685    67A      0.632916    68A      0.645919  
      69A      0.666768    70A      0.691857    71A      0.713348  
      72A      0.731365    73A      0.747781    74A      0.754879  
      75A      0.793796    76A      0.794883    77A      0.804522  
      78A      0.823677    79A      0.840875    80A      0.871633  
      81A      0.875754    82A      0.922320    83A      0.940493  
      84A      0.958563    85A      0.989695    86A      1.008032  
      87A      1.033556    88A      1.044558    89A      1.049818  
      90A      1.093897    91A      1.130521    92A      1.173069  
      93A      1.188088    94A      1.228747    95A      1.261325  
      96A      1.279061    97A      1.286724    98A      1.291245  
      99A      1.305961   100A      1.408846   101A      1.456254  
     102A      1.570969   103A      1.620787   104A      1.728134  
     105A      1.754905   106A      1.779553   107A      1.794029  
     108A      1.809812   109A      1.823111   110A      1.846313  
     111A      1.891852   112A      1.898686   113A      1.902290  
     114A      1.910917   115A      1.935083   116A      1.942326  
     117A      1.980222   118A      2.008441   119A      2.026295  
     120A      2.039839   121A      2.052170   122A      2.093754  
     123A      2.100164   124A      2.114817   125A      2.132810  
     126A      2.156203   127A      2.192790   128A      2.200943  
     129A      2.208858   130A      2.216367   131A      2.238613  
     132A      2.270902   133A      2.301745   134A      2.318963  
     135A      2.339265   136A      2.344083   137A      2.367847  
     138A      2.392499   139A      2.399629   140A      2.413172  
     141A      2.439803   142A      2.461984   143A      2.471374  
     144A      2.488472   145A      2.503719   146A      2.517264  
     147A      2.521074   148A      2.559448   149A      2.575042  
     150A      2.586617   151A      2.612465   152A      2.646316  
     153A      2.677227   154A      2.725424   155A      2.729367  
     156A      2.739359   157A      2.765741   158A      2.827836  
     159A      2.840254   160A      2.856493   161A      2.871324  
     162A      2.931138   163A      2.938389   164A      2.975667  
     165A      2.994207   166A      3.037413   167A      3.079478  
     168A      3.143594   169A      3.151390   170A      3.210730  
     171A      3.258192   172A      3.280909   173A      3.285840  
     174A      3.346075   175A      3.354903   176A      3.375410  
     177A      3.393082   178A      3.454376   179A      3.491221  
     180A      3.499103   181A      3.515555   182A      3.548370  
     183A      3.624357   184A      3.628610   185A      3.651676  
     186A      3.701414   187A      3.728904   188A      3.753932  
     189A      3.819291   190A      3.887452   191A      3.918738  
     192A      4.000909   193A      4.011354   194A      4.131044  
     195A      4.146637   196A      4.194077   197A      4.224957  
     198A      4.285590   199A      4.301384   200A      4.308346  
     201A      4.321579   202A      4.347156   203A      4.395197  
     204A      4.565208   205A      4.576819   206A      4.597178  
     207A      4.642705   208A      4.750918   209A      4.814980  
     210A      4.883467   211A      4.934923   212A      5.018865  
     213A      5.118290   214A      5.183054   215A      5.279414  
     216A      5.459160   217A      5.637312   218A      5.827483  
     219A      5.941414   220A      6.033482   221A      6.068230  
     222A      6.077904   223A      6.223725   224A     18.149335  
     225A     18.445911   226A     18.470406   227A     18.511734  
     228A     18.879554   229A     25.284207   230A     25.294820  
     231A     25.314568   232A     25.431344   233A     25.442026  

    Final Occupation by Irrep:
              A 
    DOCC [     5 ]

  @DF-RHF Final Energy:   -76.03657643157190

   => Energetics <=

    Nuclear Repulsion Energy =              9.0124932406688494
    One-Electron Energy =                -122.6485046103020977
    Two-Electron Energy =                  37.5994349380613500
    Total Energy =                        -76.0365764315719019

Computation Completed


Properties will be evaluated at   0.000000,   0.000000,   0.000000 [a0]

Properties computed using the SCF density matrix

  Nuclear Dipole Moment: [e a0]
     X:   -68.0122      Y:   -13.9231      Z:     0.5328

  Electronic Dipole Moment: [e a0]
     X:    68.2803      Y:    13.3271      Z:     0.0076

  Dipole Moment: [e a0]
     X:     0.2681      Y:    -0.5959      Z:     0.5404     Total:     0.8480

  Dipole Moment: [D]
     X:     0.6816      Y:    -1.5148      Z:     1.3736     Total:     2.1554


*** tstop() called on node154.bme.utexas.edu at Sun Apr 14 22:07:33 2024
Module time:
	user time   =       8.13 seconds =       0.14 minutes
	system time =       0.13 seconds =       0.00 minutes
	total time  =          1 seconds =       0.02 minutes
Total time:
	user time   =      52.28 seconds =       0.87 minutes
	system time =       1.17 seconds =       0.02 minutes
	total time  =          8 seconds =       0.13 minutes

*** tstart() called on node154.bme.utexas.edu
*** at Sun Apr 14 22:07:33 2024


  //>>>>>>>>>>>>>>>>>>>>>>>>>>>>>>>>>>>//
  //               DFMP2               //
  //<<<<<<<<<<<<<<<<<<<<<<<<<<<<<<<<<<<//

   => Loading Basis Set <=

    Name: (JUN-CC-PVDZ AUX)
    Role: RIFIT
    Keyword: DF_BASIS_MP2
    atoms 1, 4, 11, 14-15, 17-18 entry H          line    30 file /opt/anaconda/envs/psi4v1.5/share/psi4/basis/jun-cc-pvdz-ri.gbs 
    atoms 2, 5, 8-9, 12          entry N          line   144 file /opt/anaconda/envs/psi4v1.5/share/psi4/basis/jun-cc-pvdz-ri.gbs 
    atoms 3, 6-7, 10, 13         entry C          line   100 file /opt/anaconda/envs/psi4v1.5/share/psi4/basis/jun-cc-pvdz-ri.gbs 
    atoms 16                     entry O          line   188 file /opt/anaconda/envs/psi4v1.5/share/psi4/basis/jun-cc-pvdz-ri.gbs 

	 --------------------------------------------------------
	                          DF-MP2                         
	      2nd-Order Density-Fitted Moller-Plesset Theory     
	              RMP2 Wavefunction,   8 Threads             
	                                                         
	        Rob Parrish, Justin Turney, Andy Simmonett,      
	           Ed Hohenstein, and C. David Sherrill          
	 --------------------------------------------------------

   => Auxiliary Basis Set <=

  Basis Set: (JUN-CC-PVDZ AUX)
    Blend: JUN-CC-PVDZ-RI
    Number of shells: 273
    Number of basis functions: 813
    Number of Cartesian functions: 941
    Spherical Harmonics?: true
    Max angular momentum: 3

	 --------------------------------------------------------
	                 NBF =   233, NAUX =   813
	 --------------------------------------------------------
	   CLASS    FOCC     OCC    AOCC    AVIR     VIR    FVIR
	   PAIRS       1       5       4     228     228       0
	 --------------------------------------------------------

	 Will attempt to load fitting metric from file 97.

	-----------------------------------------------------------
	 ==================> DF-MP2 Energies <==================== 
	-----------------------------------------------------------
	 Reference Energy          =     -76.0365764315719019 [Eh]
	 Singles Energy            =      -0.0000000000000000 [Eh]
	 Same-Spin Energy          =      -0.0536122845885154 [Eh]
	 Opposite-Spin Energy      =      -0.1575184835357953 [Eh]
	 Correlation Energy        =      -0.2111307681243107 [Eh]
	 Total Energy              =     -76.2477071996962081 [Eh]
	-----------------------------------------------------------
	 ================> DF-SCS-MP2 Energies <================== 
	-----------------------------------------------------------
	 SCS Same-Spin Scale       =       0.3333333333333333 [-]
	 SCS Opposite-Spin Scale   =       1.2000000000000000 [-]
	 SCS Same-Spin Energy      =      -0.0178707615295051 [Eh]
	 SCS Opposite-Spin Energy  =      -0.1890221802429543 [Eh]
	 SCS Correlation Energy    =      -0.2068929417724595 [Eh]
	 SCS Total Energy          =     -76.2434693733443680 [Eh]
	-----------------------------------------------------------


*** tstop() called on node154.bme.utexas.edu at Sun Apr 14 22:07:34 2024
Module time:
	user time   =       4.70 seconds =       0.08 minutes
	system time =       0.07 seconds =       0.00 minutes
	total time  =          1 seconds =       0.02 minutes
Total time:
	user time   =      56.98 seconds =       0.95 minutes
	system time =       1.24 seconds =       0.02 minutes
	total time  =          9 seconds =       0.15 minutes
  Constructing Basis Sets for SAPT...

   => Loading Basis Set <=

    Name: (JUN-CC-PVDZ AUX)
    Role: RIFIT
    Keyword: DF_BASIS_SAPT
    atoms 1, 4, 11, 14-15, 17-18 entry H          line    30 file /opt/anaconda/envs/psi4v1.5/share/psi4/basis/jun-cc-pvdz-ri.gbs 
    atoms 2, 5, 8-9, 12          entry N          line   144 file /opt/anaconda/envs/psi4v1.5/share/psi4/basis/jun-cc-pvdz-ri.gbs 
    atoms 3, 6-7, 10, 13         entry C          line   100 file /opt/anaconda/envs/psi4v1.5/share/psi4/basis/jun-cc-pvdz-ri.gbs 
    atoms 16                     entry O          line   188 file /opt/anaconda/envs/psi4v1.5/share/psi4/basis/jun-cc-pvdz-ri.gbs 


  //>>>>>>>>>>>>>>>>>>>>>>>>>>>>>>>>>>>//
  //           SAPT2+(3)DMP2           //
  //<<<<<<<<<<<<<<<<<<<<<<<<<<<<<<<<<<<//


*** tstart() called on node154.bme.utexas.edu
*** at Sun Apr 14 22:07:34 2024

      SAPT2+(3)  
    Ed Hohenstein
     6 June 2009

      Orbital Information
  --------------------------
    NSO        =       233
    NMO        =       233
    NRI        =       813
    NOCC A     =        35
    NOCC B     =         5
    FOCC A     =        10
    FOCC B     =         1
    NVIR A     =       198
    NVIR B     =       228

    Estimated memory usage: 1866.4 MB

    Natural Orbital Cutoff:   1.000E-06
    Disp(T3) Truncation:            Yes
    CCD (vv|vv) Truncation:         Yes
    MBPT T2 Truncation:             Yes

    Monomer A: 21 virtual orbitals dropped
    Monomer B: 197 virtual orbitals dropped

    Elst10,r            =    -0.031847344079 [Eh]
    Exch10 (S^2)        =     0.028813460650 [Eh]
    Exch10              =     0.029047404038 [Eh]
    Ind20,r (A<-B)      =    -0.007032614259 [Eh]
    Ind20,r (B<-A)      =    -0.006999326305 [Eh]
    Ind20,r             =    -0.014031940564 [Eh]
    Exch-Ind20,r (A<-B) =     0.004235178893 [Eh]
    Exch-Ind20,r (B<-A) =     0.004148258714 [Eh]
    Exch-Ind20,r        =     0.008383437607 [Eh]
    Disp20              =    -0.008429444101 [Eh]
    Disp20 (NO)         =    -0.007564679813 [Eh]
    Exch-Disp20         =     0.001793022896 [Eh]
    Elst12,r            =    -0.000969449311 [Eh]
    Exch11              =    -0.000223568341 [Eh]
    Exch12              =     0.005348532238 [Eh]
    Ind22               =    -0.002747766682 [Eh]
    Disp21              =     0.000922758866 [Eh]
    Disp22 (SDQ)        =    -0.000571190412 [Eh]

    (i =   1 of   4)          8 seconds
    (i =   2 of   4)         15 seconds
    (i =   3 of   4)         23 seconds
    (i =   4 of   4)         30 seconds

    Disp220 (T)         =    -0.000681070514 [Eh]

    (i =   1 of  25)          0 seconds
    (i =   2 of  25)          0 seconds
    (i =   3 of  25)          0 seconds
    (i =   4 of  25)          1 seconds
    (i =   5 of  25)          1 seconds
    (i =   6 of  25)          1 seconds
    (i =   7 of  25)          1 seconds
    (i =   8 of  25)          1 seconds
    (i =   9 of  25)          1 seconds
    (i =  10 of  25)          1 seconds
    (i =  11 of  25)          1 seconds
    (i =  12 of  25)          1 seconds
    (i =  13 of  25)          1 seconds
    (i =  14 of  25)          1 seconds
    (i =  15 of  25)          1 seconds
    (i =  16 of  25)          1 seconds
    (i =  17 of  25)          1 seconds
    (i =  18 of  25)          1 seconds
    (i =  19 of  25)          2 seconds
    (i =  20 of  25)          2 seconds
    (i =  21 of  25)          2 seconds
    (i =  22 of  25)          2 seconds
    (i =  23 of  25)          2 seconds
    (i =  24 of  25)          2 seconds
    (i =  25 of  25)          2 seconds

    Disp202 (T)         =    -0.000571168257 [Eh]

    Disp22 (T)          =    -0.001252238770 [Eh]

    Est. Disp220 (T)    =    -0.000758927802 [Eh]
    Est. Disp202 (T)    =    -0.000636461954 [Eh]

    Est. Disp22 (T)     =    -0.001395389756 [Eh]
    Elst13,r            =     0.001029611595 [Eh]
    Disp30              =     0.000110317622 [Eh]

    SAPT Results 
  --------------------------------------------------------------------------------------------------------
    Electrostatics                -31.78718180 [mEh]     -19.94675772 [kcal/mol]     -83.45723431 [kJ/mol]
      Elst10,r                    -31.84734408 [mEh]     -19.98451012 [kcal/mol]     -83.61519036 [kJ/mol]
      Elst12,r                     -0.96944931 [mEh]      -0.60833863 [kcal/mol]      -2.54528881 [kJ/mol]
      Elst13,r                      1.02961159 [mEh]       0.64609103 [kcal/mol]       2.70324487 [kJ/mol]

    Exchange                       34.17236794 [mEh]      21.44348462 [kcal/mol]      89.71953965 [kJ/mol]
      Exch10                       29.04740404 [mEh]      18.22752122 [kcal/mol]      76.26394880 [kJ/mol]
      Exch10(S^2)                  28.81346065 [mEh]      18.08071953 [kcal/mol]      75.64973051 [kJ/mol]
      Exch11(S^2)                  -0.22356834 [mEh]      -0.14029125 [kcal/mol]      -0.58697860 [kJ/mol]
      Exch12(S^2)                   5.34853224 [mEh]       3.35625465 [kcal/mol]      14.04256946 [kJ/mol]

    Induction                      -9.98019038 [mEh]      -6.26266401 [kcal/mol]     -26.20298623 [kJ/mol]
      Ind20,r                     -14.03194056 [mEh]      -8.80517564 [kcal/mol]     -36.84085488 [kJ/mol]
      Ind22                        -2.74776668 [mEh]      -1.72424962 [kcal/mol]      -7.21426043 [kJ/mol]
      Exch-Ind20,r                  8.38343761 [mEh]       5.26068652 [kcal/mol]      22.01071240 [kJ/mol]
      Exch-Ind22                    1.64166392 [mEh]       1.03015966 [kcal/mol]       4.31018803 [kJ/mol]
      delta HF,r (2)               -3.64363676 [mEh]      -2.28641659 [kcal/mol]      -9.56636700 [kJ/mol]
      delta MP2,r (2)               0.41805210 [mEh]       0.26233166 [kcal/mol]       1.09759565 [kJ/mol]

    Dispersion                     -7.56992489 [mEh]      -4.75019958 [kcal/mol]     -19.87483505 [kJ/mol]
      Disp20                       -8.42944410 [mEh]      -5.28955603 [kcal/mol]     -22.13150244 [kJ/mol]
      Disp30                        0.11031762 [mEh]       0.06922535 [kcal/mol]       0.28963888 [kJ/mol]
      Disp21                        0.92275887 [mEh]       0.57903993 [kcal/mol]       2.42270307 [kJ/mol]
      Disp22 (SDQ)                 -0.57119041 [mEh]      -0.35842740 [kcal/mol]      -1.49966022 [kJ/mol]
      Disp22 (T)                   -1.25223877 [mEh]      -0.78579169 [kcal/mol]      -3.28775244 [kJ/mol]
      Est. Disp22 (T)              -1.39538976 [mEh]      -0.87562029 [kcal/mol]      -3.66359530 [kJ/mol]
      Exch-Disp20                   1.79302290 [mEh]       1.12513885 [kcal/mol]       4.70758097 [kJ/mol]

  Total HF                        -12.09207976 [mEh]      -7.58789461 [kcal/mol]     -31.74775104 [kJ/mol]
  Total SAPT0                     -18.72850097 [mEh]     -11.75231179 [kcal/mol]     -49.17167251 [kJ/mol]
  Total SAPT2                     -15.67908914 [mEh]      -9.83877698 [kcal/mol]     -41.16544287 [kJ/mol]
  Total SAPT2+                    -16.72291044 [mEh]     -10.49378473 [kcal/mol]     -43.90599532 [kJ/mol]
  Total SAPT2+(3)                 -15.58298123 [mEh]      -9.77846835 [kcal/mol]     -40.91311158 [kJ/mol]
  Total SAPT2+dMP2                -16.30485834 [mEh]     -10.23145308 [kcal/mol]     -42.80839968 [kJ/mol]
  Total SAPT2+(3)dMP2             -15.16492912 [mEh]      -9.51613669 [kcal/mol]     -39.81551593 [kJ/mol]

  Special recipe for scaled SAPT0 (see Manual):
    Electrostatics sSAPT0         -31.84734408 [mEh]     -19.98451012 [kcal/mol]     -83.61519036 [kJ/mol]
    Exchange sSAPT0                29.04740404 [mEh]      18.22752122 [kcal/mol]      76.26394880 [kJ/mol]
    Induction sSAPT0               -9.08627586 [mEh]      -5.70172418 [kcal/mol]     -23.85601398 [kJ/mol]
    Dispersion sSAPT0              -6.59239170 [mEh]      -4.13678825 [kcal/mol]     -17.30832202 [kJ/mol]
  Total sSAPT0                    -18.47860760 [mEh]     -11.59550133 [kcal/mol]     -48.51557756 [kJ/mol]
  --------------------------------------------------------------------------------------------------------

*** tstop() called on node154.bme.utexas.edu at Sun Apr 14 22:08:55 2024
Module time:
	user time   =     625.35 seconds =      10.42 minutes
	system time =      10.38 seconds =       0.17 minutes
	total time  =         81 seconds =       1.35 minutes
Total time:
	user time   =     682.75 seconds =      11.38 minutes
	system time =      11.63 seconds =       0.19 minutes
	total time  =         90 seconds =       1.50 minutes

    Psi4 stopped on: Sunday, 14 April 2024 10:08PM
    Psi4 wall time for execution: 0:01:30.08

*** Psi4 exiting successfully. Buy a developer a beer!
