
    -----------------------------------------------------------------------
          Psi4: An Open-Source Ab Initio Electronic Structure Package
                               Psi4 1.5 release

                         Git: Rev {HEAD} e9f4d6d 


    D. G. A. Smith, L. A. Burns, A. C. Simmonett, R. M. Parrish,
    M. C. Schieber, R. Galvelis, P. Kraus, H. Kruse, R. Di Remigio,
    A. Alenaizan, A. M. James, S. Lehtola, J. P. Misiewicz, M. Scheurer,
    R. A. Shaw, J. B. Schriber, Y. Xie, Z. L. Glick, D. A. Sirianni,
    J. S. O'Brien, J. M. Waldrop, A. Kumar, E. G. Hohenstein,
    B. P. Pritchard, B. R. Brooks, H. F. Schaefer III, A. Yu. Sokolov,
    K. Patkowski, A. E. DePrince III, U. Bozkaya, R. A. King,
    F. A. Evangelista, J. M. Turney, T. D. Crawford, C. D. Sherrill,
    J. Chem. Phys. 152(18) 184108 (2020). https://doi.org/10.1063/5.0006002

                            Additional Code Authors
    E. T. Seidl, C. L. Janssen, E. F. Valeev, M. L. Leininger,
    J. F. Gonthier, R. M. Richard, H. R. McAlexander, M. Saitow, X. Wang,
    P. Verma, M. H. Lechner, and A. Jiang

             Previous Authors, Complete List of Code Contributors,
                       and Citations for Specific Modules
    https://github.com/psi4/psi4/blob/master/codemeta.json
    https://github.com/psi4/psi4/graphs/contributors
    http://psicode.org/psi4manual/master/introduction.html#citing-psifour

    -----------------------------------------------------------------------


    Psi4 started on: Sunday, 14 April 2024 10:23PM

    Process ID: 1109344
    Host:       node157.bme.utexas.edu
    PSIDATADIR: /opt/anaconda/envs/psi4v1.5/share/psi4
    Memory:     500.0 MiB
    Threads:    8
    
  ==> Input File <==

--------------------------------------------------------------------------
memory 50GB

molecule {
0 1
N -0.77258 0.68648 -0.00769
H -1.7738 0.9216 -0.01445
C -0.49047 -0.69169 -0.00705
O -1.42915 -1.50275 -0.01992
N 0.83213 -1.06141 0.00107
C 1.76855 -0.12824 0.00621
N 3.06469 -0.56296 0.08052
C 1.50458 1.27916 -0.0011
H 2.29568 2.01921 0.01207
C 0.19153 1.63858 -0.01075
H -0.14674 2.67045 -0.01764
H 3.18718 -1.55161 -0.1058
H 3.79671 0.04506 -0.26069
--
0 1
O -4.017185794871795 0.24912012820512822 -0.04641612820512821
H -3.5142857948717947 -0.5961798717948718 -0.11407612820512822
H -4.465405794871796 0.1875701282051282 0.8115738717948717
 units angstrom
 no_reorient
 symmetry c1} 
set  {scf_type DF
 basis aug-cc-pvdz
 freeze_core True
 guess SAD}
energy('sapt2+(3)dmp2')
--------------------------------------------------------------------------

  Memory set to  46.566 GiB by Python driver.

Scratch directory: /tmp/
   => Loading Basis Set <=

    Name: AUG-CC-PVDZ
    Role: ORBITAL
    Keyword: BASIS
    atoms 1, 5, 7            entry N          line   218 file /opt/anaconda/envs/psi4v1.5/share/psi4/basis/aug-cc-pvdz.gbs 
    atoms 2, 9, 11-13, 15-16 entry H          line    40 file /opt/anaconda/envs/psi4v1.5/share/psi4/basis/aug-cc-pvdz.gbs 
    atoms 3, 6, 8, 10        entry C          line   182 file /opt/anaconda/envs/psi4v1.5/share/psi4/basis/aug-cc-pvdz.gbs 
    atoms 4, 14              entry O          line   254 file /opt/anaconda/envs/psi4v1.5/share/psi4/basis/aug-cc-pvdz.gbs 

   => Loading Basis Set <=

    Name: AUG-CC-PVDZ
    Role: ORBITAL
    Keyword: BASIS
    atoms 1, 5, 7            entry N          line   218 file /opt/anaconda/envs/psi4v1.5/share/psi4/basis/aug-cc-pvdz.gbs 
    atoms 2, 9, 11-13, 15-16 entry H          line    40 file /opt/anaconda/envs/psi4v1.5/share/psi4/basis/aug-cc-pvdz.gbs 
    atoms 3, 6, 8, 10        entry C          line   182 file /opt/anaconda/envs/psi4v1.5/share/psi4/basis/aug-cc-pvdz.gbs 
    atoms 4, 14              entry O          line   254 file /opt/anaconda/envs/psi4v1.5/share/psi4/basis/aug-cc-pvdz.gbs 


  //>>>>>>>>>>>>>>>>>>>>>>>>>>>>>>>>>>>//
  //              Dimer HF             //
  //<<<<<<<<<<<<<<<<<<<<<<<<<<<<<<<<<<<//


*** tstart() called on node157.bme.utexas.edu
*** at Sun Apr 14 22:23:21 2024

   => Loading Basis Set <=

    Name: AUG-CC-PVDZ
    Role: ORBITAL
    Keyword: BASIS
    atoms 1, 5, 7            entry N          line   218 file /opt/anaconda/envs/psi4v1.5/share/psi4/basis/aug-cc-pvdz.gbs 
    atoms 2, 9, 11-13, 15-16 entry H          line    40 file /opt/anaconda/envs/psi4v1.5/share/psi4/basis/aug-cc-pvdz.gbs 
    atoms 3, 6, 8, 10        entry C          line   182 file /opt/anaconda/envs/psi4v1.5/share/psi4/basis/aug-cc-pvdz.gbs 
    atoms 4, 14              entry O          line   254 file /opt/anaconda/envs/psi4v1.5/share/psi4/basis/aug-cc-pvdz.gbs 


         ---------------------------------------------------------
                                   SCF
               by Justin Turney, Rob Parrish, Andy Simmonett
                          and Daniel G. A. Smith
                              RHF Reference
                        8 Threads,  47683 MiB Core
         ---------------------------------------------------------

  ==> Geometry <==

    Molecular point group: c1
    Full point group: C1

    Geometry (in Angstrom), charge = 0, multiplicity = 1:

       Center              X                  Y                   Z               Mass       
    ------------   -----------------  -----------------  -----------------  -----------------
         N           -0.708266134894     0.719693300209    -0.008735514871    14.003074004430
         H           -1.709486134894     0.954813300209    -0.015495514871     1.007825032230
         C           -0.426156134894    -0.658476699791    -0.008095514871    12.000000000000
         O           -1.364836134894    -1.469536699791    -0.020965514871    15.994914619570
         N            0.896443865106    -1.028196699791     0.000024485129    14.003074004430
         C            1.832863865106    -0.095026699791     0.005164485129    12.000000000000
         N            3.129003865106    -0.529746699791     0.079474485129    14.003074004430
         C            1.568893865106     1.312373300209    -0.002145514871    12.000000000000
         H            2.359993865106     2.052423300209     0.011024485129     1.007825032230
         C            0.255843865106     1.671793300209    -0.011795514871    12.000000000000
         H           -0.082426134894     2.703663300209    -0.018685514871     1.007825032230
         H            3.251493865106    -1.518396699791    -0.106845514871     1.007825032230
         H            3.861023865106     0.078273300209    -0.261735514871     1.007825032230
         O           -3.952871929765     0.282333428414    -0.047461643077    15.994914619570
         H           -3.449971929765    -0.562966571586    -0.115121643077     1.007825032230
         H           -4.401091929765     0.220783428414     0.810528356923     1.007825032230

  Running in c1 symmetry.

  Rotational constants: A =      0.12267  B =      0.02934  C =      0.02374 [cm^-1]
  Rotational constants: A =   3677.44770  B =    879.58199  C =    711.56668 [MHz]
  Nuclear repulsion =  434.876813486180481

  Charge       = 0
  Multiplicity = 1
  Electrons    = 68
  Nalpha       = 34
  Nbeta        = 34

  ==> Algorithm <==

  SCF Algorithm Type is DF.
  DIIS enabled.
  MOM disabled.
  Fractional occupation disabled.
  Guess Type is SAD.
  Energy threshold   = 1.00e-08
  Density threshold  = 1.00e-08
  Integral threshold = 1.00e-12

  ==> Primary Basis <==

  Basis Set: AUG-CC-PVDZ
    Blend: AUG-CC-PVDZ
    Number of shells: 116
    Number of basis functions: 270
    Number of Cartesian functions: 288
    Spherical Harmonics?: true
    Max angular momentum: 2

   => Loading Basis Set <=

    Name: (AUG-CC-PVDZ AUX)
    Role: JKFIT
    Keyword: DF_BASIS_SCF
    atoms 1, 5, 7            entry N          line   212 file /opt/anaconda/envs/psi4v1.5/share/psi4/basis/aug-cc-pvdz-jkfit.gbs 
    atoms 2, 9, 11-13, 15-16 entry H          line    70 file /opt/anaconda/envs/psi4v1.5/share/psi4/basis/aug-cc-pvdz-jkfit.gbs 
    atoms 3, 6, 8, 10        entry C          line   154 file /opt/anaconda/envs/psi4v1.5/share/psi4/basis/aug-cc-pvdz-jkfit.gbs 
    atoms 4, 14              entry O          line   270 file /opt/anaconda/envs/psi4v1.5/share/psi4/basis/aug-cc-pvdz-jkfit.gbs 

  ==> Integral Setup <==

  ==> DiskDFJK: Density-Fitted J/K Matrices <==

    J tasked:                  Yes
    K tasked:                  Yes
    wK tasked:                  No
    OpenMP threads:              8
    Integrals threads:           8
    Memory [MiB]:            35762
    Algorithm:                Core
    Integral Cache:           SAVE
    Schwarz Cutoff:          1E-12
    Fitting Condition:       1E-10

   => Auxiliary Basis Set <=

  Basis Set: (AUG-CC-PVDZ AUX)
    Blend: AUG-CC-PVDZ-JKFIT
    Number of shells: 336
    Number of basis functions: 998
    Number of Cartesian functions: 1154
    Spherical Harmonics?: true
    Max angular momentum: 3

  Minimum eigenvalue in the overlap matrix is 1.0446109977E-05.
  Reciprocal condition number of the overlap matrix is 7.6027260105E-07.
    Using symmetric orthogonalization.

  ==> Pre-Iterations <==

  SCF Guess: Superposition of Atomic Densities via on-the-fly atomic UHF (no occupation information).

   -------------------------
    Irrep   Nso     Nmo    
   -------------------------
     A        270     270 
   -------------------------
    Total     270     270
   -------------------------

  ==> Iterations <==

                           Total Energy        Delta E     RMS |[F,P]|

   @DF-RHF iter SAD:  -467.54917066122579   -4.67549e+02   0.00000e+00 
   @DF-RHF iter   1:  -468.40931343333187   -8.60143e-01   3.02511e-03 DIIS
   @DF-RHF iter   2:  -468.64306567395113   -2.33752e-01   1.72080e-03 DIIS
   @DF-RHF iter   3:  -468.72255655680397   -7.94909e-02   2.79185e-04 DIIS
   @DF-RHF iter   4:  -468.72608146331248   -3.52491e-03   1.26162e-04 DIIS
   @DF-RHF iter   5:  -468.72676735572554   -6.85892e-04   2.93779e-05 DIIS
   @DF-RHF iter   6:  -468.72684078109074   -7.34254e-05   1.48283e-05 DIIS
   @DF-RHF iter   7:  -468.72686187923307   -2.10981e-05   4.88102e-06 DIIS
   @DF-RHF iter   8:  -468.72686534122789   -3.46199e-06   1.73912e-06 DIIS
   @DF-RHF iter   9:  -468.72686568209656   -3.40869e-07   7.66204e-07 DIIS
   @DF-RHF iter  10:  -468.72686574260354   -6.05070e-08   2.60238e-07 DIIS
   @DF-RHF iter  11:  -468.72686575144360   -8.84006e-09   8.90139e-08 DIIS
   @DF-RHF iter  12:  -468.72686575208263   -6.39034e-10   3.06198e-08 DIIS
   @DF-RHF iter  13:  -468.72686575218950   -1.06866e-10   1.11115e-08 DIIS
   @DF-RHF iter  14:  -468.72686575220496   -1.54614e-11   4.24058e-09 DIIS
  Energy and wave function converged.


  ==> Post-Iterations <==

    Orbital Energies [Eh]
    ---------------------

    Doubly Occupied:                                                      

       1A    -20.568978     2A    -20.518710     3A    -15.633287  
       4A    -15.605632     5A    -15.556541     6A    -11.386284  
       7A    -11.363491     8A    -11.341721     9A    -11.256358  
      10A     -1.388024    11A     -1.337082    12A     -1.302397  
      13A     -1.268313    14A     -1.176299    15A     -1.071561  
      16A     -0.908266    17A     -0.881673    18A     -0.765266  
      19A     -0.761477    20A     -0.719624    21A     -0.696898  
      22A     -0.678556    23A     -0.632808    24A     -0.627620  
      25A     -0.610553    26A     -0.594852    27A     -0.574596  
      28A     -0.538604    29A     -0.500663    30A     -0.491402  
      31A     -0.447954    32A     -0.426240    33A     -0.392193  
      34A     -0.347224  

    Virtual:                                                              

      35A      0.021338    36A      0.031628    37A      0.044747  
      38A      0.053999    39A      0.067736    40A      0.074724  
      41A      0.080783    42A      0.086214    43A      0.097965  
      44A      0.110049    45A      0.115008    46A      0.121435  
      47A      0.125445    48A      0.130375    49A      0.138877  
      50A      0.144250    51A      0.157434    52A      0.159634  
      53A      0.160011    54A      0.169419    55A      0.179644  
      56A      0.181544    57A      0.200329    58A      0.206393  
      59A      0.212918    60A      0.215673    61A      0.222674  
      62A      0.230471    63A      0.243725    64A      0.254339  
      65A      0.264987    66A      0.268514    67A      0.281462  
      68A      0.284516    69A      0.293368    70A      0.298677  
      71A      0.309276    72A      0.313633    73A      0.324964  
      74A      0.328999    75A      0.334280    76A      0.342599  
      77A      0.350411    78A      0.352339    79A      0.357138  
      80A      0.361831    81A      0.374475    82A      0.383065  
      83A      0.387974    84A      0.394291    85A      0.403762  
      86A      0.412191    87A      0.426375    88A      0.432141  
      89A      0.449162    90A      0.459674    91A      0.461449  
      92A      0.472305    93A      0.479464    94A      0.492312  
      95A      0.499966    96A      0.508494    97A      0.510250  
      98A      0.523763    99A      0.527712   100A      0.548843  
     101A      0.555503   102A      0.568311   103A      0.573028  
     104A      0.588328   105A      0.600875   106A      0.609965  
     107A      0.618542   108A      0.624093   109A      0.628875  
     110A      0.638799   111A      0.646823   112A      0.658127  
     113A      0.665425   114A      0.667212   115A      0.680687  
     116A      0.692679   117A      0.698102   118A      0.707991  
     119A      0.714625   120A      0.733779   121A      0.759564  
     122A      0.766978   123A      0.781755   124A      0.791244  
     125A      0.801419   126A      0.805015   127A      0.815285  
     128A      0.834980   129A      0.843118   130A      0.853855  
     131A      0.861560   132A      0.865980   133A      0.876943  
     134A      0.883406   135A      0.892468   136A      0.901963  
     137A      0.917364   138A      0.926784   139A      0.939954  
     140A      0.965103   141A      0.971968   142A      0.997164  
     143A      1.005835   144A      1.031882   145A      1.042962  
     146A      1.051975   147A      1.058161   148A      1.062010  
     149A      1.074229   150A      1.090309   151A      1.097404  
     152A      1.118074   153A      1.131889   154A      1.150811  
     155A      1.165041   156A      1.188986   157A      1.196074  
     158A      1.228838   159A      1.243397   160A      1.270404  
     161A      1.275236   162A      1.284207   163A      1.297808  
     164A      1.299538   165A      1.324842   166A      1.345620  
     167A      1.368165   168A      1.393021   169A      1.427837  
     170A      1.485285   171A      1.494280   172A      1.507259  
     173A      1.538462   174A      1.546844   175A      1.555666  
     176A      1.571297   177A      1.597963   178A      1.607444  
     179A      1.620285   180A      1.636310   181A      1.646673  
     182A      1.663543   183A      1.694771   184A      1.708666  
     185A      1.717177   186A      1.725639   187A      1.750152  
     188A      1.768880   189A      1.812400   190A      1.849004  
     191A      1.864102   192A      1.888872   193A      1.913854  
     194A      1.921919   195A      1.938534   196A      1.950133  
     197A      1.981969   198A      2.001945   199A      2.031999  
     200A      2.038700   201A      2.051816   202A      2.063304  
     203A      2.068716   204A      2.108337   205A      2.123767  
     206A      2.133010   207A      2.162229   208A      2.176059  
     209A      2.183811   210A      2.225273   211A      2.256222  
     212A      2.260691   213A      2.269483   214A      2.285319  
     215A      2.303913   216A      2.330186   217A      2.346622  
     218A      2.374219   219A      2.401975   220A      2.425107  
     221A      2.434035   222A      2.435321   223A      2.458179  
     224A      2.499705   225A      2.508103   226A      2.540215  
     227A      2.554646   228A      2.566172   229A      2.574861  
     230A      2.660073   231A      2.691308   232A      2.709242  
     233A      2.721831   234A      2.743691   235A      2.767576  
     236A      2.785298   237A      2.807455   238A      2.813343  
     239A      2.822876   240A      2.824921   241A      2.868875  
     242A      2.896095   243A      2.942044   244A      2.989927  
     245A      3.009744   246A      3.077280   247A      3.085991  
     248A      3.099340   249A      3.172011   250A      3.188000  
     251A      3.264354   252A      3.309673   253A      3.328258  
     254A      3.406871   255A      3.462317   256A      3.551780  
     257A      3.574833   258A      3.723534   259A      3.774820  
     260A      3.795006   261A      3.803805   262A      3.815378  
     263A      3.845175   264A      3.880540   265A      3.979383  
     266A      4.053121   267A      4.097971   268A      4.156356  
     269A      4.229998   270A      4.345867  

    Final Occupation by Irrep:
              A 
    DOCC [    34 ]

  @DF-RHF Final Energy:  -468.72686575220496

   => Energetics <=

    Nuclear Repulsion Energy =            434.8768134861804810
    One-Electron Energy =               -1502.4650680276179173
    Two-Electron Energy =                 598.8613887892324783
    Total Energy =                       -468.7268657522049580

Computation Completed


Properties will be evaluated at   0.000000,   0.000000,   0.000000 [a0]

Properties computed using the SCF density matrix

  Nuclear Dipole Moment: [e a0]
     X:    -0.1950      Y:     3.6797      Z:     0.2841

  Electronic Dipole Moment: [e a0]
     X:     1.7328      Y:    -1.7656      Z:    -0.0714

  Dipole Moment: [e a0]
     X:     1.5378      Y:     1.9140      Z:     0.2128     Total:     2.4644

  Dipole Moment: [D]
     X:     3.9086      Y:     4.8650      Z:     0.5408     Total:     6.2640


*** tstop() called on node157.bme.utexas.edu at Sun Apr 14 22:23:25 2024
Module time:
	user time   =      27.41 seconds =       0.46 minutes
	system time =       0.80 seconds =       0.01 minutes
	total time  =          4 seconds =       0.07 minutes
Total time:
	user time   =      27.41 seconds =       0.46 minutes
	system time =       0.80 seconds =       0.01 minutes
	total time  =          4 seconds =       0.07 minutes

*** tstart() called on node157.bme.utexas.edu
*** at Sun Apr 14 22:23:25 2024


  //>>>>>>>>>>>>>>>>>>>>>>>>>>>>>>>>>>>//
  //               DFMP2               //
  //<<<<<<<<<<<<<<<<<<<<<<<<<<<<<<<<<<<//

   => Loading Basis Set <=

    Name: (AUG-CC-PVDZ AUX)
    Role: RIFIT
    Keyword: DF_BASIS_MP2
    atoms 1, 5, 7            entry N          line   158 file /opt/anaconda/envs/psi4v1.5/share/psi4/basis/aug-cc-pvdz-ri.gbs 
    atoms 2, 9, 11-13, 15-16 entry H          line    30 file /opt/anaconda/envs/psi4v1.5/share/psi4/basis/aug-cc-pvdz-ri.gbs 
    atoms 3, 6, 8, 10        entry C          line   112 file /opt/anaconda/envs/psi4v1.5/share/psi4/basis/aug-cc-pvdz-ri.gbs 
    atoms 4, 14              entry O          line   204 file /opt/anaconda/envs/psi4v1.5/share/psi4/basis/aug-cc-pvdz-ri.gbs 

	 --------------------------------------------------------
	                          DF-MP2                         
	      2nd-Order Density-Fitted Moller-Plesset Theory     
	              RMP2 Wavefunction,   8 Threads             
	                                                         
	        Rob Parrish, Justin Turney, Andy Simmonett,      
	           Ed Hohenstein, and C. David Sherrill          
	 --------------------------------------------------------

   => Auxiliary Basis Set <=

  Basis Set: (AUG-CC-PVDZ AUX)
    Blend: AUG-CC-PVDZ-RI
    Number of shells: 261
    Number of basis functions: 809
    Number of Cartesian functions: 949
    Spherical Harmonics?: true
    Max angular momentum: 3

	 --------------------------------------------------------
	                 NBF =   270, NAUX =   809
	 --------------------------------------------------------
	   CLASS    FOCC     OCC    AOCC    AVIR     VIR    FVIR
	   PAIRS       9      34      25     236     236       0
	 --------------------------------------------------------

	 Will save fitting metric to file 97.

	-----------------------------------------------------------
	 ==================> DF-MP2 Energies <==================== 
	-----------------------------------------------------------
	 Reference Energy          =    -468.7268657522049580 [Eh]
	 Singles Energy            =      -0.0000000000000000 [Eh]
	 Same-Spin Energy          =      -0.3951389072777945 [Eh]
	 Opposite-Spin Energy      =      -1.0642680401704179 [Eh]
	 Correlation Energy        =      -1.4594069474482123 [Eh]
	 Total Energy              =    -470.1862726996531592 [Eh]
	-----------------------------------------------------------
	 ================> DF-SCS-MP2 Energies <================== 
	-----------------------------------------------------------
	 SCS Same-Spin Scale       =       0.3333333333333333 [-]
	 SCS Opposite-Spin Scale   =       1.2000000000000000 [-]
	 SCS Same-Spin Energy      =      -0.1317129690925982 [Eh]
	 SCS Opposite-Spin Energy  =      -1.2771216482045014 [Eh]
	 SCS Correlation Energy    =      -1.4088346172970996 [Eh]
	 SCS Total Energy          =    -470.1357003695020467 [Eh]
	-----------------------------------------------------------


*** tstop() called on node157.bme.utexas.edu at Sun Apr 14 22:23:26 2024
Module time:
	user time   =       7.35 seconds =       0.12 minutes
	system time =       0.21 seconds =       0.00 minutes
	total time  =          1 seconds =       0.02 minutes
Total time:
	user time   =      34.77 seconds =       0.58 minutes
	system time =       1.01 seconds =       0.02 minutes
	total time  =          5 seconds =       0.08 minutes

  //>>>>>>>>>>>>>>>>>>>>>>>>>>>>>>>>>>>//
  //            Monomer A HF           //
  //<<<<<<<<<<<<<<<<<<<<<<<<<<<<<<<<<<<//


*** tstart() called on node157.bme.utexas.edu
*** at Sun Apr 14 22:23:26 2024

   => Loading Basis Set <=

    Name: AUG-CC-PVDZ
    Role: ORBITAL
    Keyword: BASIS
    atoms 1, 5, 7            entry N          line   218 file /opt/anaconda/envs/psi4v1.5/share/psi4/basis/aug-cc-pvdz.gbs 
    atoms 2, 9, 11-13, 15-16 entry H          line    40 file /opt/anaconda/envs/psi4v1.5/share/psi4/basis/aug-cc-pvdz.gbs 
    atoms 3, 6, 8, 10        entry C          line   182 file /opt/anaconda/envs/psi4v1.5/share/psi4/basis/aug-cc-pvdz.gbs 
    atoms 4, 14              entry O          line   254 file /opt/anaconda/envs/psi4v1.5/share/psi4/basis/aug-cc-pvdz.gbs 


         ---------------------------------------------------------
                                   SCF
               by Justin Turney, Rob Parrish, Andy Simmonett
                          and Daniel G. A. Smith
                              RHF Reference
                        8 Threads,  47683 MiB Core
         ---------------------------------------------------------

  ==> Geometry <==

    Molecular point group: c1
    Full point group: C1

    Geometry (in Angstrom), charge = 0, multiplicity = 1:

       Center              X                  Y                   Z               Mass       
    ------------   -----------------  -----------------  -----------------  -----------------
         N           -0.708266134894     0.719693300209    -0.008735514871    14.003074004430
         H           -1.709486134894     0.954813300209    -0.015495514871     1.007825032230
         C           -0.426156134894    -0.658476699791    -0.008095514871    12.000000000000
         O           -1.364836134894    -1.469536699791    -0.020965514871    15.994914619570
         N            0.896443865106    -1.028196699791     0.000024485129    14.003074004430
         C            1.832863865106    -0.095026699791     0.005164485129    12.000000000000
         N            3.129003865106    -0.529746699791     0.079474485129    14.003074004430
         C            1.568893865106     1.312373300209    -0.002145514871    12.000000000000
         H            2.359993865106     2.052423300209     0.011024485129     1.007825032230
         C            0.255843865106     1.671793300209    -0.011795514871    12.000000000000
         H           -0.082426134894     2.703663300209    -0.018685514871     1.007825032230
         H            3.251493865106    -1.518396699791    -0.106845514871     1.007825032230
         H            3.861023865106     0.078273300209    -0.261735514871     1.007825032230
      Gh(O)          -3.952871929765     0.282333428414    -0.047461643077    15.994914619570
      Gh(H)          -3.449971929765    -0.562966571586    -0.115121643077     1.007825032230
      Gh(H)          -4.401091929765     0.220783428414     0.810528356923     1.007825032230

  Running in c1 symmetry.

  Rotational constants: A =      0.12267  B =      0.02934  C =      0.02374 [cm^-1]
  Rotational constants: A =   3677.44770  B =    879.58199  C =    711.56668 [MHz]
  Nuclear repulsion =  355.569158461879340

  Charge       = 0
  Multiplicity = 1
  Electrons    = 58
  Nalpha       = 29
  Nbeta        = 29

  ==> Algorithm <==

  SCF Algorithm Type is DF.
  DIIS enabled.
  MOM disabled.
  Fractional occupation disabled.
  Guess Type is SAD.
  Energy threshold   = 1.00e-08
  Density threshold  = 1.00e-08
  Integral threshold = 1.00e-12

  ==> Primary Basis <==

  Basis Set: AUG-CC-PVDZ
    Blend: AUG-CC-PVDZ
    Number of shells: 116
    Number of basis functions: 270
    Number of Cartesian functions: 288
    Spherical Harmonics?: true
    Max angular momentum: 2

   => Loading Basis Set <=

    Name: (AUG-CC-PVDZ AUX)
    Role: JKFIT
    Keyword: DF_BASIS_SCF
    atoms 1, 5, 7            entry N          line   212 file /opt/anaconda/envs/psi4v1.5/share/psi4/basis/aug-cc-pvdz-jkfit.gbs 
    atoms 2, 9, 11-13, 15-16 entry H          line    70 file /opt/anaconda/envs/psi4v1.5/share/psi4/basis/aug-cc-pvdz-jkfit.gbs 
    atoms 3, 6, 8, 10        entry C          line   154 file /opt/anaconda/envs/psi4v1.5/share/psi4/basis/aug-cc-pvdz-jkfit.gbs 
    atoms 4, 14              entry O          line   270 file /opt/anaconda/envs/psi4v1.5/share/psi4/basis/aug-cc-pvdz-jkfit.gbs 

  ==> Integral Setup <==

  ==> DiskDFJK: Density-Fitted J/K Matrices <==

    J tasked:                  Yes
    K tasked:                  Yes
    wK tasked:                  No
    OpenMP threads:              8
    Integrals threads:           8
    Memory [MiB]:            35762
    Algorithm:                Core
    Integral Cache:           LOAD
    Schwarz Cutoff:          1E-12
    Fitting Condition:       1E-10

   => Auxiliary Basis Set <=

  Basis Set: (AUG-CC-PVDZ AUX)
    Blend: AUG-CC-PVDZ-JKFIT
    Number of shells: 336
    Number of basis functions: 998
    Number of Cartesian functions: 1154
    Spherical Harmonics?: true
    Max angular momentum: 3

  Minimum eigenvalue in the overlap matrix is 1.0446109977E-05.
  Reciprocal condition number of the overlap matrix is 7.6027260105E-07.
    Using symmetric orthogonalization.

  ==> Pre-Iterations <==

  SCF Guess: Superposition of Atomic Densities via on-the-fly atomic UHF (no occupation information).

   -------------------------
    Irrep   Nso     Nmo    
   -------------------------
     A        270     270 
   -------------------------
    Total     270     270
   -------------------------

  ==> Iterations <==

                           Total Energy        Delta E     RMS |[F,P]|

   @DF-RHF iter SAD:  -392.01608257745079   -3.92016e+02   0.00000e+00 
   @DF-RHF iter   1:  -392.42090850083389   -4.04826e-01   2.61799e-03 DIIS
   @DF-RHF iter   2:  -392.60990214386516   -1.88994e-01   1.47290e-03 DIIS
   @DF-RHF iter   3:  -392.66926672136088   -5.93646e-02   2.90782e-04 DIIS
   @DF-RHF iter   4:  -392.67275567863959   -3.48896e-03   1.25638e-04 DIIS
   @DF-RHF iter   5:  -392.67347250976252   -7.16831e-04   2.53259e-05 DIIS
   @DF-RHF iter   6:  -392.67354390260755   -7.13928e-05   1.36202e-05 DIIS
   @DF-RHF iter   7:  -392.67356237748299   -1.84749e-05   4.91267e-06 DIIS
   @DF-RHF iter   8:  -392.67356559815840   -3.22068e-06   1.75053e-06 DIIS
   @DF-RHF iter   9:  -392.67356590967461   -3.11516e-07   7.41254e-07 DIIS
   @DF-RHF iter  10:  -392.67356597135955   -6.16849e-08   2.42700e-07 DIIS
   @DF-RHF iter  11:  -392.67356597951391   -8.15436e-09   6.61273e-08 DIIS
   @DF-RHF iter  12:  -392.67356598001163   -4.97721e-10   2.38707e-08 DIIS
   @DF-RHF iter  13:  -392.67356598007581   -6.41762e-11   9.74428e-09 DIIS
  Energy and wave function converged.


  ==> Post-Iterations <==

    Orbital Energies [Eh]
    ---------------------

    Doubly Occupied:                                                      

       1A    -20.511147     2A    -15.637215     3A    -15.604752  
       4A    -15.554600     5A    -11.381018     6A    -11.362284  
       7A    -11.343298     8A    -11.257240     9A     -1.382770  
      10A     -1.299271    11A     -1.268600    12A     -1.174883  
      13A     -1.072013    14A     -0.908765    15A     -0.880496  
      16A     -0.767058    17A     -0.760681    18A     -0.717596  
      19A     -0.678149    20A     -0.629674    21A     -0.626784  
      22A     -0.610512    23A     -0.588882    24A     -0.537712  
      25A     -0.487524    26A     -0.442319    27A     -0.421653  
      28A     -0.390928    29A     -0.344595  

    Virtual:                                                              

      30A      0.019178    31A      0.028303    32A      0.042137  
      33A      0.054147    34A      0.067357    35A      0.070780  
      36A      0.077907    37A      0.085383    38A      0.098891  
      39A      0.103472    40A      0.115730    41A      0.120485  
      42A      0.125117    43A      0.129841    44A      0.137588  
      45A      0.139699    46A      0.150249    47A      0.154494  
      48A      0.160811    49A      0.168915    50A      0.170671  
      51A      0.180818    52A      0.183344    53A      0.197583  
      54A      0.206460    55A      0.212147    56A      0.213894  
      57A      0.218028    58A      0.237381    59A      0.241737  
      60A      0.248770    61A      0.266229    62A      0.278383  
      63A      0.282544    64A      0.294511    65A      0.295952  
      66A      0.317615    67A      0.320539    68A      0.324875  
      69A      0.330002    70A      0.339497    71A      0.344157  
      72A      0.350032    73A      0.351799    74A      0.356535  
      75A      0.371959    76A      0.374213    77A      0.388675  
      78A      0.389898    79A      0.392728    80A      0.407022  
      81A      0.421404    82A      0.439082    83A      0.441261  
      84A      0.451438    85A      0.460966    86A      0.468197  
      87A      0.472655    88A      0.486051    89A      0.489192  
      90A      0.498568    91A      0.502138    92A      0.516082  
      93A      0.522980    94A      0.526310    95A      0.545338  
      96A      0.548973    97A      0.568503    98A      0.574873  
      99A      0.575540   100A      0.589531   101A      0.609683  
     102A      0.613542   103A      0.617357   104A      0.626536  
     105A      0.636663   106A      0.642412   107A      0.650763  
     108A      0.663697   109A      0.678762   110A      0.683135  
     111A      0.694968   112A      0.703072   113A      0.708525  
     114A      0.713202   115A      0.718851   116A      0.746476  
     117A      0.765642   118A      0.773631   119A      0.781209  
     120A      0.792307   121A      0.800052   122A      0.806677  
     123A      0.818761   124A      0.839737   125A      0.843717  
     126A      0.861398   127A      0.865820   128A      0.873185  
     129A      0.883330   130A      0.899661   131A      0.909161  
     132A      0.923378   133A      0.936510   134A      0.946075  
     135A      0.968740   136A      0.981369   137A      0.997285  
     138A      1.018854   139A      1.027624   140A      1.046374  
     141A      1.059478   142A      1.060390   143A      1.068324  
     144A      1.079865   145A      1.094326   146A      1.109738  
     147A      1.120485   148A      1.138121   149A      1.160823  
     150A      1.173023   151A      1.181919   152A      1.197715  
     153A      1.234805   154A      1.269749   155A      1.277943  
     156A      1.286375   157A      1.288205   158A      1.303055  
     159A      1.320335   160A      1.333781   161A      1.351061  
     162A      1.372474   163A      1.392546   164A      1.410797  
     165A      1.443358   166A      1.454421   167A      1.486611  
     168A      1.503809   169A      1.513187   170A      1.535478  
     171A      1.551760   172A      1.572766   173A      1.587569  
     174A      1.608215   175A      1.627037   176A      1.640637  
     177A      1.652094   178A      1.679531   179A      1.694984  
     180A      1.709551   181A      1.716551   182A      1.723679  
     183A      1.749077   184A      1.774557   185A      1.814221  
     186A      1.852442   187A      1.875525   188A      1.907975  
     189A      1.918839   190A      1.924300   191A      1.950752  
     192A      1.971718   193A      1.996573   194A      2.033844  
     195A      2.043891   196A      2.061812   197A      2.063853  
     198A      2.109697   199A      2.126075   200A      2.128166  
     201A      2.162244   202A      2.177381   203A      2.189294  
     204A      2.247078   205A      2.258821   206A      2.269129  
     207A      2.280735   208A      2.300756   209A      2.326862  
     210A      2.348799   211A      2.355639   212A      2.375657  
     213A      2.408366   214A      2.421412   215A      2.433388  
     216A      2.452476   217A      2.497713   218A      2.499093  
     219A      2.523245   220A      2.551092   221A      2.559808  
     222A      2.572533   223A      2.579536   224A      2.602692  
     225A      2.661772   226A      2.707968   227A      2.714027  
     228A      2.734065   229A      2.749365   230A      2.779463  
     231A      2.804891   232A      2.813441   233A      2.819589  
     234A      2.823484   235A      2.867041   236A      2.893652  
     237A      2.940671   238A      2.990800   239A      3.009167  
     240A      3.084501   241A      3.089685   242A      3.164168  
     243A      3.184019   244A      3.263241   245A      3.310619  
     246A      3.327369   247A      3.404755   248A      3.463198  
     249A      3.474992   250A      3.553904   251A      3.575020  
     252A      3.801604   253A      3.813020   254A      3.854058  
     255A      3.885703   256A      3.931140   257A      3.990954  
     258A      4.099042   259A      4.128338   260A      4.167450  
     261A      4.242502   262A      4.981315   263A      4.997147  
     264A      5.035662   265A      5.180158   266A      5.474707  
     267A      5.952849   268A      6.528120   269A      6.967720  
     270A     33.562582  

    Final Occupation by Irrep:
              A 
    DOCC [    29 ]

  @DF-RHF Final Energy:  -392.67356598007581

   => Energetics <=

    Nuclear Repulsion Energy =            355.5691584618793399
    One-Electron Energy =               -1239.2006109114788615
    Two-Electron Energy =                 490.9578864695236575
    Total Energy =                       -392.6735659800758071

Computation Completed


Properties will be evaluated at   0.000000,   0.000000,   0.000000 [a0]

Properties computed using the SCF density matrix

  Nuclear Dipole Moment: [e a0]
     X:    74.4001      Y:     0.0580      Z:    -0.3125

  Electronic Dipole Moment: [e a0]
     X:   -72.9423      Y:     2.4501      Z:     0.0164

  Dipole Moment: [e a0]
     X:     1.4578      Y:     2.5081      Z:    -0.2960     Total:     2.9161

  Dipole Moment: [D]
     X:     3.7055      Y:     6.3750      Z:    -0.7524     Total:     7.4119


*** tstop() called on node157.bme.utexas.edu at Sun Apr 14 22:23:29 2024
Module time:
	user time   =      21.11 seconds =       0.35 minutes
	system time =       0.42 seconds =       0.01 minutes
	total time  =          3 seconds =       0.05 minutes
Total time:
	user time   =      55.94 seconds =       0.93 minutes
	system time =       1.43 seconds =       0.02 minutes
	total time  =          8 seconds =       0.13 minutes

*** tstart() called on node157.bme.utexas.edu
*** at Sun Apr 14 22:23:29 2024


  //>>>>>>>>>>>>>>>>>>>>>>>>>>>>>>>>>>>//
  //               DFMP2               //
  //<<<<<<<<<<<<<<<<<<<<<<<<<<<<<<<<<<<//

   => Loading Basis Set <=

    Name: (AUG-CC-PVDZ AUX)
    Role: RIFIT
    Keyword: DF_BASIS_MP2
    atoms 1, 5, 7            entry N          line   158 file /opt/anaconda/envs/psi4v1.5/share/psi4/basis/aug-cc-pvdz-ri.gbs 
    atoms 2, 9, 11-13, 15-16 entry H          line    30 file /opt/anaconda/envs/psi4v1.5/share/psi4/basis/aug-cc-pvdz-ri.gbs 
    atoms 3, 6, 8, 10        entry C          line   112 file /opt/anaconda/envs/psi4v1.5/share/psi4/basis/aug-cc-pvdz-ri.gbs 
    atoms 4, 14              entry O          line   204 file /opt/anaconda/envs/psi4v1.5/share/psi4/basis/aug-cc-pvdz-ri.gbs 

	 --------------------------------------------------------
	                          DF-MP2                         
	      2nd-Order Density-Fitted Moller-Plesset Theory     
	              RMP2 Wavefunction,   8 Threads             
	                                                         
	        Rob Parrish, Justin Turney, Andy Simmonett,      
	           Ed Hohenstein, and C. David Sherrill          
	 --------------------------------------------------------

   => Auxiliary Basis Set <=

  Basis Set: (AUG-CC-PVDZ AUX)
    Blend: AUG-CC-PVDZ-RI
    Number of shells: 261
    Number of basis functions: 809
    Number of Cartesian functions: 949
    Spherical Harmonics?: true
    Max angular momentum: 3

	 --------------------------------------------------------
	                 NBF =   270, NAUX =   809
	 --------------------------------------------------------
	   CLASS    FOCC     OCC    AOCC    AVIR     VIR    FVIR
	   PAIRS       8      29      21     241     241       0
	 --------------------------------------------------------

	 Will attempt to load fitting metric from file 97.

	-----------------------------------------------------------
	 ==================> DF-MP2 Energies <==================== 
	-----------------------------------------------------------
	 Reference Energy          =    -392.6735659800758071 [Eh]
	 Singles Energy            =      -0.0000000000000000 [Eh]
	 Same-Spin Energy          =      -0.3373867873322253 [Eh]
	 Opposite-Spin Energy      =      -0.8989723775476164 [Eh]
	 Correlation Energy        =      -1.2363591648798415 [Eh]
	 Total Energy              =    -393.9099251449556505 [Eh]
	-----------------------------------------------------------
	 ================> DF-SCS-MP2 Energies <================== 
	-----------------------------------------------------------
	 SCS Same-Spin Scale       =       0.3333333333333333 [-]
	 SCS Opposite-Spin Scale   =       1.2000000000000000 [-]
	 SCS Same-Spin Energy      =      -0.1124622624440751 [Eh]
	 SCS Opposite-Spin Energy  =      -1.0787668530571397 [Eh]
	 SCS Correlation Energy    =      -1.1912291155012147 [Eh]
	 SCS Total Energy          =    -393.8647950955769943 [Eh]
	-----------------------------------------------------------


*** tstop() called on node157.bme.utexas.edu at Sun Apr 14 22:23:30 2024
Module time:
	user time   =       6.12 seconds =       0.10 minutes
	system time =       0.18 seconds =       0.00 minutes
	total time  =          1 seconds =       0.02 minutes
Total time:
	user time   =      62.06 seconds =       1.03 minutes
	system time =       1.61 seconds =       0.03 minutes
	total time  =          9 seconds =       0.15 minutes

  //>>>>>>>>>>>>>>>>>>>>>>>>>>>>>>>>>>>//
  //            Monomer B HF           //
  //<<<<<<<<<<<<<<<<<<<<<<<<<<<<<<<<<<<//


*** tstart() called on node157.bme.utexas.edu
*** at Sun Apr 14 22:23:30 2024

   => Loading Basis Set <=

    Name: AUG-CC-PVDZ
    Role: ORBITAL
    Keyword: BASIS
    atoms 1, 5, 7            entry N          line   218 file /opt/anaconda/envs/psi4v1.5/share/psi4/basis/aug-cc-pvdz.gbs 
    atoms 2, 9, 11-13, 15-16 entry H          line    40 file /opt/anaconda/envs/psi4v1.5/share/psi4/basis/aug-cc-pvdz.gbs 
    atoms 3, 6, 8, 10        entry C          line   182 file /opt/anaconda/envs/psi4v1.5/share/psi4/basis/aug-cc-pvdz.gbs 
    atoms 4, 14              entry O          line   254 file /opt/anaconda/envs/psi4v1.5/share/psi4/basis/aug-cc-pvdz.gbs 


         ---------------------------------------------------------
                                   SCF
               by Justin Turney, Rob Parrish, Andy Simmonett
                          and Daniel G. A. Smith
                              RHF Reference
                        8 Threads,  47683 MiB Core
         ---------------------------------------------------------

  ==> Geometry <==

    Molecular point group: c1
    Full point group: C1

    Geometry (in Angstrom), charge = 0, multiplicity = 1:

       Center              X                  Y                   Z               Mass       
    ------------   -----------------  -----------------  -----------------  -----------------
      Gh(N)          -0.708266134894     0.719693300209    -0.008735514871    14.003074004430
      Gh(H)          -1.709486134894     0.954813300209    -0.015495514871     1.007825032230
      Gh(C)          -0.426156134894    -0.658476699791    -0.008095514871    12.000000000000
      Gh(O)          -1.364836134894    -1.469536699791    -0.020965514871    15.994914619570
      Gh(N)           0.896443865106    -1.028196699791     0.000024485129    14.003074004430
      Gh(C)           1.832863865106    -0.095026699791     0.005164485129    12.000000000000
      Gh(N)           3.129003865106    -0.529746699791     0.079474485129    14.003074004430
      Gh(C)           1.568893865106     1.312373300209    -0.002145514871    12.000000000000
      Gh(H)           2.359993865106     2.052423300209     0.011024485129     1.007825032230
      Gh(C)           0.255843865106     1.671793300209    -0.011795514871    12.000000000000
      Gh(H)          -0.082426134894     2.703663300209    -0.018685514871     1.007825032230
      Gh(H)           3.251493865106    -1.518396699791    -0.106845514871     1.007825032230
      Gh(H)           3.861023865106     0.078273300209    -0.261735514871     1.007825032230
         O           -3.952871929765     0.282333428414    -0.047461643077    15.994914619570
         H           -3.449971929765    -0.562966571586    -0.115121643077     1.007825032230
         H           -4.401091929765     0.220783428414     0.810528356923     1.007825032230

  Running in c1 symmetry.

  Rotational constants: A =      0.12267  B =      0.02934  C =      0.02374 [cm^-1]
  Rotational constants: A =   3677.44770  B =    879.58199  C =    711.56668 [MHz]
  Nuclear repulsion =    9.001738346264011

  Charge       = 0
  Multiplicity = 1
  Electrons    = 10
  Nalpha       = 5
  Nbeta        = 5

  ==> Algorithm <==

  SCF Algorithm Type is DF.
  DIIS enabled.
  MOM disabled.
  Fractional occupation disabled.
  Guess Type is SAD.
  Energy threshold   = 1.00e-08
  Density threshold  = 1.00e-08
  Integral threshold = 1.00e-12

  ==> Primary Basis <==

  Basis Set: AUG-CC-PVDZ
    Blend: AUG-CC-PVDZ
    Number of shells: 116
    Number of basis functions: 270
    Number of Cartesian functions: 288
    Spherical Harmonics?: true
    Max angular momentum: 2

   => Loading Basis Set <=

    Name: (AUG-CC-PVDZ AUX)
    Role: JKFIT
    Keyword: DF_BASIS_SCF
    atoms 1, 5, 7            entry N          line   212 file /opt/anaconda/envs/psi4v1.5/share/psi4/basis/aug-cc-pvdz-jkfit.gbs 
    atoms 2, 9, 11-13, 15-16 entry H          line    70 file /opt/anaconda/envs/psi4v1.5/share/psi4/basis/aug-cc-pvdz-jkfit.gbs 
    atoms 3, 6, 8, 10        entry C          line   154 file /opt/anaconda/envs/psi4v1.5/share/psi4/basis/aug-cc-pvdz-jkfit.gbs 
    atoms 4, 14              entry O          line   270 file /opt/anaconda/envs/psi4v1.5/share/psi4/basis/aug-cc-pvdz-jkfit.gbs 

  ==> Integral Setup <==

  ==> DiskDFJK: Density-Fitted J/K Matrices <==

    J tasked:                  Yes
    K tasked:                  Yes
    wK tasked:                  No
    OpenMP threads:              8
    Integrals threads:           8
    Memory [MiB]:            35762
    Algorithm:                Core
    Integral Cache:           LOAD
    Schwarz Cutoff:          1E-12
    Fitting Condition:       1E-10

   => Auxiliary Basis Set <=

  Basis Set: (AUG-CC-PVDZ AUX)
    Blend: AUG-CC-PVDZ-JKFIT
    Number of shells: 336
    Number of basis functions: 998
    Number of Cartesian functions: 1154
    Spherical Harmonics?: true
    Max angular momentum: 3

  Minimum eigenvalue in the overlap matrix is 1.0446109977E-05.
  Reciprocal condition number of the overlap matrix is 7.6027260105E-07.
    Using symmetric orthogonalization.

  ==> Pre-Iterations <==

  SCF Guess: Superposition of Atomic Densities via on-the-fly atomic UHF (no occupation information).

   -------------------------
    Irrep   Nso     Nmo    
   -------------------------
     A        270     270 
   -------------------------
    Total     270     270
   -------------------------

  ==> Iterations <==

                           Total Energy        Delta E     RMS |[F,P]|

   @DF-RHF iter SAD:   -75.44206814723997   -7.54421e+01   0.00000e+00 
   @DF-RHF iter   1:   -75.95446729190878   -5.12399e-01   1.67599e-03 DIIS
   @DF-RHF iter   2:   -76.00711312758149   -5.26458e-02   1.12055e-03 DIIS
   @DF-RHF iter   3:   -76.03920468165006   -3.20916e-02   7.99729e-05 DIIS
   @DF-RHF iter   4:   -76.03960739852263   -4.02717e-04   1.87975e-05 DIIS
   @DF-RHF iter   5:   -76.03963258764873   -2.51891e-05   4.33890e-06 DIIS
   @DF-RHF iter   6:   -76.03963466260214   -2.07495e-06   8.73313e-07 DIIS
   @DF-RHF iter   7:   -76.03963475039373   -8.77916e-08   1.43799e-07 DIIS
   @DF-RHF iter   8:   -76.03963475255935   -2.16562e-09   2.34501e-08 DIIS
   @DF-RHF iter   9:   -76.03963475261105   -5.16991e-11   6.21811e-09 DIIS
  Energy and wave function converged.


  ==> Post-Iterations <==

    Orbital Energies [Eh]
    ---------------------

    Doubly Occupied:                                                      

       1A    -20.581074     2A     -1.346426     3A     -0.706983  
       4A     -0.582403     5A     -0.507791  

    Virtual:                                                              

       6A      0.020941     7A      0.034631     8A      0.041304  
       9A      0.053054    10A      0.058926    11A      0.065892  
      12A      0.076123    13A      0.083194    14A      0.090643  
      15A      0.100441    16A      0.108147    17A      0.119687  
      18A      0.124402    19A      0.128262    20A      0.135511  
      21A      0.140495    22A      0.157543    23A      0.159296  
      24A      0.172386    25A      0.175922    26A      0.178041  
      27A      0.196265    28A      0.198890    29A      0.205023  
      30A      0.208744    31A      0.212966    32A      0.220527  
      33A      0.220784    34A      0.232286    35A      0.233628  
      36A      0.239967    37A      0.256846    38A      0.260389  
      39A      0.268611    40A      0.274282    41A      0.278188  
      42A      0.287908    43A      0.299284    44A      0.305305  
      45A      0.326675    46A      0.342868    47A      0.353386  
      48A      0.360481    49A      0.365331    50A      0.394210  
      51A      0.396169    52A      0.404463    53A      0.416558  
      54A      0.424075    55A      0.437975    56A      0.441696  
      57A      0.445674    58A      0.461057    59A      0.463880  
      60A      0.478759    61A      0.479543    62A      0.485237  
      63A      0.493337    64A      0.498588    65A      0.521085  
      66A      0.529945    67A      0.532445    68A      0.539118  
      69A      0.547741    70A      0.551534    71A      0.560643  
      72A      0.562363    73A      0.569205    74A      0.581519  
      75A      0.589518    76A      0.602982    77A      0.613104  
      78A      0.632600    79A      0.635628    80A      0.645998  
      81A      0.653905    82A      0.657460    83A      0.669413  
      84A      0.677499    85A      0.687461    86A      0.706427  
      87A      0.716204    88A      0.736037    89A      0.759969  
      90A      0.770520    91A      0.784269    92A      0.798951  
      93A      0.806222    94A      0.818819    95A      0.825033  
      96A      0.830150    97A      0.856023    98A      0.881526  
      99A      0.903592   100A      0.910826   101A      0.916477  
     102A      0.929674   103A      0.940815   104A      0.946660  
     105A      0.958839   106A      0.995944   107A      1.016131  
     108A      1.031142   109A      1.041563   110A      1.050438  
     111A      1.055887   112A      1.073258   113A      1.080421  
     114A      1.100123   115A      1.103134   116A      1.122564  
     117A      1.135996   118A      1.145757   119A      1.167323  
     120A      1.174733   121A      1.182677   122A      1.191713  
     123A      1.202343   124A      1.222947   125A      1.226034  
     126A      1.243409   127A      1.249181   128A      1.255768  
     129A      1.263979   130A      1.273911   131A      1.276641  
     132A      1.290943   133A      1.319078   134A      1.334551  
     135A      1.344857   136A      1.371094   137A      1.380236  
     138A      1.398226   139A      1.405021   140A      1.414726  
     141A      1.441132   142A      1.459525   143A      1.481861  
     144A      1.501247   145A      1.516692   146A      1.525902  
     147A      1.555392   148A      1.565265   149A      1.598912  
     150A      1.619134   151A      1.636439   152A      1.660492  
     153A      1.705211   154A      1.738379   155A      1.820696  
     156A      1.896896   157A      1.952837   158A      2.022397  
     159A      2.107737   160A      2.114216   161A      2.135406  
     162A      2.171293   163A      2.192979   164A      2.215311  
     165A      2.234414   166A      2.249030   167A      2.300028  
     168A      2.312380   169A      2.360516   170A      2.379985  
     171A      2.392780   172A      2.429629   173A      2.438119  
     174A      2.454435   175A      2.467588   176A      2.483852  
     177A      2.501685   178A      2.518406   179A      2.535553  
     180A      2.573057   181A      2.584751   182A      2.599566  
     183A      2.623703   184A      2.643775   185A      2.675041  
     186A      2.724369   187A      2.740577   188A      2.750590  
     189A      2.757969   190A      2.769046   191A      2.793394  
     192A      2.828048   193A      2.895807   194A      2.920745  
     195A      2.958034   196A      2.964267   197A      2.979442  
     198A      3.073518   199A      3.089641   200A      3.118678  
     201A      3.150996   202A      3.231982   203A      3.277897  
     204A      3.303667   205A      3.345805   206A      3.370412  
     207A      3.389284   208A      3.435762   209A      3.478019  
     210A      3.486365   211A      3.493911   212A      3.573427  
     213A      3.590023   214A      3.608499   215A      3.642603  
     216A      3.676805   217A      3.703850   218A      3.717691  
     219A      3.742128   220A      3.747410   221A      3.771805  
     222A      3.790046   223A      3.802468   224A      3.820677  
     225A      3.857424   226A      3.906295   227A      3.992272  
     228A      4.058859   229A      4.080276   230A      4.105642  
     231A      4.166096   232A      4.230407   233A      4.316796  
     234A      4.392967   235A      4.498201   236A      4.529799  
     237A      4.630566   238A      4.706462   239A      4.729311  
     240A      4.732933   241A      4.789685   242A      4.919035  
     243A      4.972955   244A      4.994133   245A      5.017543  
     246A      5.057378   247A      5.166023   248A      5.247497  
     249A      5.295761   250A      5.394719   251A      5.584199  
     252A      5.637342   253A      5.670652   254A      5.813587  
     255A      5.948195   256A      5.975040   257A      6.010459  
     258A      6.102812   259A      6.155415   260A      6.261004  
     261A      6.507704   262A      7.013157   263A     18.158782  
     264A     18.756472   265A     18.814131   266A     19.662884  
     267A     25.350948   268A     25.441909   269A     25.469438  
     270A     33.520702  

    Final Occupation by Irrep:
              A 
    DOCC [     5 ]

  @DF-RHF Final Energy:   -76.03963475261105

   => Energetics <=

    Nuclear Repulsion Energy =              9.0017383462640108
    One-Electron Energy =                -122.6333930016878924
    Two-Electron Energy =                  37.5920199028128295
    Total Energy =                        -76.0396347526110503

Computation Completed


Properties will be evaluated at   0.000000,   0.000000,   0.000000 [a0]

Properties computed using the SCF density matrix

  Nuclear Dipole Moment: [e a0]
     X:   -74.5951      Y:     3.6216      Z:     0.5966

  Electronic Dipole Moment: [e a0]
     X:    74.6308      Y:    -4.2183      Z:    -0.0738

  Dipole Moment: [e a0]
     X:     0.0356      Y:    -0.5967      Z:     0.5228     Total:     0.7941

  Dipole Moment: [D]
     X:     0.0906      Y:    -1.5167      Z:     1.3288     Total:     2.0185


*** tstop() called on node157.bme.utexas.edu at Sun Apr 14 22:23:32 2024
Module time:
	user time   =      12.89 seconds =       0.21 minutes
	system time =       0.16 seconds =       0.00 minutes
	total time  =          2 seconds =       0.03 minutes
Total time:
	user time   =      74.97 seconds =       1.25 minutes
	system time =       1.77 seconds =       0.03 minutes
	total time  =         11 seconds =       0.18 minutes

*** tstart() called on node157.bme.utexas.edu
*** at Sun Apr 14 22:23:32 2024


  //>>>>>>>>>>>>>>>>>>>>>>>>>>>>>>>>>>>//
  //               DFMP2               //
  //<<<<<<<<<<<<<<<<<<<<<<<<<<<<<<<<<<<//

   => Loading Basis Set <=

    Name: (AUG-CC-PVDZ AUX)
    Role: RIFIT
    Keyword: DF_BASIS_MP2
    atoms 1, 5, 7            entry N          line   158 file /opt/anaconda/envs/psi4v1.5/share/psi4/basis/aug-cc-pvdz-ri.gbs 
    atoms 2, 9, 11-13, 15-16 entry H          line    30 file /opt/anaconda/envs/psi4v1.5/share/psi4/basis/aug-cc-pvdz-ri.gbs 
    atoms 3, 6, 8, 10        entry C          line   112 file /opt/anaconda/envs/psi4v1.5/share/psi4/basis/aug-cc-pvdz-ri.gbs 
    atoms 4, 14              entry O          line   204 file /opt/anaconda/envs/psi4v1.5/share/psi4/basis/aug-cc-pvdz-ri.gbs 

	 --------------------------------------------------------
	                          DF-MP2                         
	      2nd-Order Density-Fitted Moller-Plesset Theory     
	              RMP2 Wavefunction,   8 Threads             
	                                                         
	        Rob Parrish, Justin Turney, Andy Simmonett,      
	           Ed Hohenstein, and C. David Sherrill          
	 --------------------------------------------------------

   => Auxiliary Basis Set <=

  Basis Set: (AUG-CC-PVDZ AUX)
    Blend: AUG-CC-PVDZ-RI
    Number of shells: 261
    Number of basis functions: 809
    Number of Cartesian functions: 949
    Spherical Harmonics?: true
    Max angular momentum: 3

	 --------------------------------------------------------
	                 NBF =   270, NAUX =   809
	 --------------------------------------------------------
	   CLASS    FOCC     OCC    AOCC    AVIR     VIR    FVIR
	   PAIRS       1       5       4     265     265       0
	 --------------------------------------------------------

	 Will attempt to load fitting metric from file 97.

	-----------------------------------------------------------
	 ==================> DF-MP2 Energies <==================== 
	-----------------------------------------------------------
	 Reference Energy          =     -76.0396347526110503 [Eh]
	 Singles Energy            =      -0.0000000000000000 [Eh]
	 Same-Spin Energy          =      -0.0563981652443683 [Eh]
	 Opposite-Spin Energy      =      -0.1654883600337548 [Eh]
	 Correlation Energy        =      -0.2218865252781231 [Eh]
	 Total Energy              =     -76.2615212778891731 [Eh]
	-----------------------------------------------------------
	 ================> DF-SCS-MP2 Energies <================== 
	-----------------------------------------------------------
	 SCS Same-Spin Scale       =       0.3333333333333333 [-]
	 SCS Opposite-Spin Scale   =       1.2000000000000000 [-]
	 SCS Same-Spin Energy      =      -0.0187993884147894 [Eh]
	 SCS Opposite-Spin Energy  =      -0.1985860320405057 [Eh]
	 SCS Correlation Energy    =      -0.2173854204552952 [Eh]
	 SCS Total Energy          =     -76.2570201730663513 [Eh]
	-----------------------------------------------------------


*** tstop() called on node157.bme.utexas.edu at Sun Apr 14 22:23:33 2024
Module time:
	user time   =       5.09 seconds =       0.08 minutes
	system time =       0.12 seconds =       0.00 minutes
	total time  =          1 seconds =       0.02 minutes
Total time:
	user time   =      80.07 seconds =       1.33 minutes
	system time =       1.89 seconds =       0.03 minutes
	total time  =         12 seconds =       0.20 minutes
  Constructing Basis Sets for SAPT...

   => Loading Basis Set <=

    Name: (AUG-CC-PVDZ AUX)
    Role: RIFIT
    Keyword: DF_BASIS_SAPT
    atoms 1, 5, 7            entry N          line   158 file /opt/anaconda/envs/psi4v1.5/share/psi4/basis/aug-cc-pvdz-ri.gbs 
    atoms 2, 9, 11-13, 15-16 entry H          line    30 file /opt/anaconda/envs/psi4v1.5/share/psi4/basis/aug-cc-pvdz-ri.gbs 
    atoms 3, 6, 8, 10        entry C          line   112 file /opt/anaconda/envs/psi4v1.5/share/psi4/basis/aug-cc-pvdz-ri.gbs 
    atoms 4, 14              entry O          line   204 file /opt/anaconda/envs/psi4v1.5/share/psi4/basis/aug-cc-pvdz-ri.gbs 


  //>>>>>>>>>>>>>>>>>>>>>>>>>>>>>>>>>>>//
  //           SAPT2+(3)DMP2           //
  //<<<<<<<<<<<<<<<<<<<<<<<<<<<<<<<<<<<//


*** tstart() called on node157.bme.utexas.edu
*** at Sun Apr 14 22:23:33 2024

      SAPT2+(3)  
    Ed Hohenstein
     6 June 2009

      Orbital Information
  --------------------------
    NSO        =       270
    NMO        =       270
    NRI        =       809
    NOCC A     =        29
    NOCC B     =         5
    FOCC A     =         8
    FOCC B     =         1
    NVIR A     =       241
    NVIR B     =       265

    Estimated memory usage: 1871.9 MB

    Natural Orbital Cutoff:   1.000E-06
    Disp(T3) Truncation:            Yes
    CCD (vv|vv) Truncation:         Yes
    MBPT T2 Truncation:             Yes

    Monomer A: 48 virtual orbitals dropped
    Monomer B: 224 virtual orbitals dropped

    Elst10,r            =    -0.018245178409 [Eh]
    Exch10 (S^2)        =     0.008257615086 [Eh]
    Exch10              =     0.008286255920 [Eh]
    Ind20,r (A<-B)      =    -0.002249441558 [Eh]
    Ind20,r (B<-A)      =    -0.002453983811 [Eh]
    Ind20,r             =    -0.004703425369 [Eh]
    Exch-Ind20,r (A<-B) =     0.001212656324 [Eh]
    Exch-Ind20,r (B<-A) =     0.000880594521 [Eh]
    Exch-Ind20,r        =     0.002093250845 [Eh]
    Disp20              =    -0.004470904983 [Eh]
    Disp20 (NO)         =    -0.003976602037 [Eh]
    Exch-Disp20         =     0.000637372849 [Eh]
    Elst12,r            =     0.000728280745 [Eh]
    Exch11              =    -0.000021297229 [Eh]
    Exch12              =     0.002427113073 [Eh]
    Ind22               =    -0.000934397640 [Eh]
    Disp21              =     0.000258491041 [Eh]
    Disp22 (SDQ)        =    -0.000284214943 [Eh]

    (i =   1 of   4)         10 seconds
    (i =   2 of   4)         20 seconds
    (i =   3 of   4)         30 seconds
    (i =   4 of   4)         40 seconds

    Disp220 (T)         =    -0.000416159995 [Eh]

    (i =   1 of  21)          0 seconds
    (i =   2 of  21)          0 seconds
    (i =   3 of  21)          0 seconds
    (i =   4 of  21)          1 seconds
    (i =   5 of  21)          1 seconds
    (i =   6 of  21)          1 seconds
    (i =   7 of  21)          1 seconds
    (i =   8 of  21)          1 seconds
    (i =   9 of  21)          1 seconds
    (i =  10 of  21)          1 seconds
    (i =  11 of  21)          1 seconds
    (i =  12 of  21)          1 seconds
    (i =  13 of  21)          2 seconds
    (i =  14 of  21)          2 seconds
    (i =  15 of  21)          2 seconds
    (i =  16 of  21)          2 seconds
    (i =  17 of  21)          2 seconds
    (i =  18 of  21)          2 seconds
    (i =  19 of  21)          2 seconds
    (i =  20 of  21)          2 seconds
    (i =  21 of  21)          2 seconds

    Disp202 (T)         =    -0.000347724011 [Eh]

    Disp22 (T)          =    -0.000763884006 [Eh]

    Est. Disp220 (T)    =    -0.000467889866 [Eh]
    Est. Disp202 (T)    =    -0.000390947094 [Eh]

    Est. Disp22 (T)     =    -0.000858836961 [Eh]
    Elst13,r            =     0.000151019708 [Eh]
    Disp30              =     0.000070853281 [Eh]

    SAPT Results 
  --------------------------------------------------------------------------------------------------------
    Electrostatics                -17.36587796 [mEh]     -10.89725294 [kcal/mol]     -45.59410629 [kJ/mol]
      Elst10,r                    -18.24517841 [mEh]     -11.44902230 [kcal/mol]     -47.90270931 [kJ/mol]
      Elst12,r                      0.72828075 [mEh]       0.45700307 [kcal/mol]       1.91210083 [kJ/mol]
      Elst13,r                      0.15101971 [mEh]       0.09476630 [kcal/mol]       0.39650219 [kJ/mol]

    Exchange                       10.69207176 [mEh]       6.70937633 [kcal/mol]      28.07203055 [kJ/mol]
      Exch10                        8.28625592 [mEh]       5.19970409 [kcal/mol]      21.75556192 [kJ/mol]
      Exch10(S^2)                   8.25761509 [mEh]       5.18173170 [kcal/mol]      21.68036542 [kJ/mol]
      Exch11(S^2)                  -0.02129723 [mEh]      -0.01336421 [kcal/mol]      -0.05591587 [kJ/mol]
      Exch12(S^2)                   2.42711307 [mEh]       1.52303645 [kcal/mol]       6.37238450 [kJ/mol]

    Induction                      -4.16791877 [mEh]      -2.61540852 [kcal/mol]     -10.94286923 [kJ/mol]
      Ind20,r                      -4.70342537 [mEh]      -2.95144398 [kcal/mol]     -12.34884160 [kJ/mol]
      Ind22                        -0.93439764 [mEh]      -0.58634337 [kcal/mol]      -2.45326067 [kJ/mol]
      Exch-Ind20,r                  2.09325085 [mEh]       1.31353474 [kcal/mol]       5.49582934 [kJ/mol]
      Exch-Ind22                    0.41585196 [mEh]       0.26095104 [kcal/mol]       1.09181917 [kJ/mol]
      delta HF,r (2)               -1.09592250 [mEh]      -0.68770175 [kcal/mol]      -2.87734414 [kJ/mol]
      delta MP2,r (2)               0.05672394 [mEh]       0.03559481 [kcal/mol]       0.14892868 [kJ/mol]

    Dispersion                     -4.64723972 [mEh]      -2.91618695 [kcal/mol]     -12.20132620 [kJ/mol]
      Disp20                       -4.47090498 [mEh]      -2.80553523 [kcal/mol]     -11.73835942 [kJ/mol]
      Disp30                        0.07085328 [mEh]       0.04446110 [kcal/mol]       0.18602526 [kJ/mol]
      Disp21                        0.25849104 [mEh]       0.16220558 [kcal/mol]       0.67866813 [kJ/mol]
      Disp22 (SDQ)                 -0.28421494 [mEh]      -0.17834757 [kcal/mol]      -0.74620623 [kJ/mol]
      Disp22 (T)                   -0.76388401 [mEh]      -0.47934445 [kcal/mol]      -2.00557718 [kJ/mol]
      Est. Disp22 (T)              -0.85883696 [mEh]      -0.53892833 [kcal/mol]      -2.25487613 [kJ/mol]
      Exch-Disp20                   0.63737285 [mEh]       0.39995750 [kcal/mol]       1.67342218 [kJ/mol]

  Total HF                        -13.66501952 [mEh]      -8.57492921 [kcal/mol]     -35.87750380 [kJ/mol]
  Total SAPT0                     -17.49855165 [mEh]     -10.98050694 [kcal/mol]     -45.94244103 [kJ/mol]
  Total SAPT2                     -14.88300074 [mEh]      -9.33922397 [kcal/mol]     -39.07531307 [kJ/mol]
  Total SAPT2+                    -15.76756161 [mEh]      -9.89429429 [kcal/mol]     -41.39772730 [kJ/mol]
  Total SAPT2+(3)                 -15.54568862 [mEh]      -9.75506689 [kcal/mol]     -40.81519985 [kJ/mol]
  Total SAPT2+dMP2                -15.71083767 [mEh]      -9.85869948 [kcal/mol]     -41.24879862 [kJ/mol]
  Total SAPT2+(3)dMP2             -15.48896468 [mEh]      -9.71947208 [kcal/mol]     -40.66627117 [kJ/mol]

  Special recipe for scaled SAPT0 (see Manual):
    Electrostatics sSAPT0         -18.24517841 [mEh]     -11.44902230 [kcal/mol]     -47.90270931 [kJ/mol]
    Exchange sSAPT0                 8.28625592 [mEh]       5.19970409 [kcal/mol]      21.75556192 [kJ/mol]
    Induction sSAPT0               -3.68424061 [mEh]      -2.31189589 [kcal/mol]      -9.67297239 [kJ/mol]
    Dispersion sSAPT0              -3.82687708 [mEh]      -2.40140163 [kcal/mol]     -10.04746440 [kJ/mol]
  Total sSAPT0                    -17.47004018 [mEh]     -10.96261572 [kcal/mol]     -45.86758418 [kJ/mol]
  --------------------------------------------------------------------------------------------------------

*** tstop() called on node157.bme.utexas.edu at Sun Apr 14 22:25:22 2024
Module time:
	user time   =     832.95 seconds =      13.88 minutes
	system time =      16.98 seconds =       0.28 minutes
	total time  =        109 seconds =       1.82 minutes
Total time:
	user time   =     913.40 seconds =      15.22 minutes
	system time =      18.88 seconds =       0.31 minutes
	total time  =        121 seconds =       2.02 minutes

    Psi4 stopped on: Sunday, 14 April 2024 10:25PM
    Psi4 wall time for execution: 0:02:00.96

*** Psi4 exiting successfully. Buy a developer a beer!
