
    -----------------------------------------------------------------------
          Psi4: An Open-Source Ab Initio Electronic Structure Package
                               Psi4 1.5 release

                         Git: Rev {HEAD} e9f4d6d 


    D. G. A. Smith, L. A. Burns, A. C. Simmonett, R. M. Parrish,
    M. C. Schieber, R. Galvelis, P. Kraus, H. Kruse, R. Di Remigio,
    A. Alenaizan, A. M. James, S. Lehtola, J. P. Misiewicz, M. Scheurer,
    R. A. Shaw, J. B. Schriber, Y. Xie, Z. L. Glick, D. A. Sirianni,
    J. S. O'Brien, J. M. Waldrop, A. Kumar, E. G. Hohenstein,
    B. P. Pritchard, B. R. Brooks, H. F. Schaefer III, A. Yu. Sokolov,
    K. Patkowski, A. E. DePrince III, U. Bozkaya, R. A. King,
    F. A. Evangelista, J. M. Turney, T. D. Crawford, C. D. Sherrill,
    J. Chem. Phys. 152(18) 184108 (2020). https://doi.org/10.1063/5.0006002

                            Additional Code Authors
    E. T. Seidl, C. L. Janssen, E. F. Valeev, M. L. Leininger,
    J. F. Gonthier, R. M. Richard, H. R. McAlexander, M. Saitow, X. Wang,
    P. Verma, M. H. Lechner, and A. Jiang

             Previous Authors, Complete List of Code Contributors,
                       and Citations for Specific Modules
    https://github.com/psi4/psi4/blob/master/codemeta.json
    https://github.com/psi4/psi4/graphs/contributors
    http://psicode.org/psi4manual/master/introduction.html#citing-psifour

    -----------------------------------------------------------------------


    Psi4 started on: Thursday, 28 March 2024 12:07PM

    Process ID: 3027223
    Host:       node194.bme.utexas.edu
    PSIDATADIR: /opt/anaconda/envs/psi4v1.5/share/psi4
    Memory:     500.0 MiB
    Threads:    8
    
  ==> Input File <==

--------------------------------------------------------------------------
memory 50GB

molecule {
0 1
N -0.77258 0.68648 -0.00769
H -1.7738 0.9216 -0.01445
C -0.49047 -0.69169 -0.00705
O -1.42915 -1.50275 -0.01992
N 0.83213 -1.06141 0.00107
C 1.76855 -0.12824 0.00621
N 3.06469 -0.56296 0.08052
C 1.50458 1.27916 -0.0011
H 2.29568 2.01921 0.01207
C 0.19153 1.63858 -0.01075
H -0.14674 2.67045 -0.01764
H 3.18718 -1.55161 -0.1058
H 3.79671 0.04506 -0.26069
--
0 1
O -3.121874205128205 0.31139987179487183 -0.09070387179487178
H -2.6189742051282052 -0.5339001282051282 -0.1583638717948718
H -3.5700942051282056 0.24984987179487178 0.7672861282051282
 units angstrom
 no_reorient
 symmetry c1} 
set  {scf_type DF
 basis aug-cc-pvtz
 freeze_core True
 guess SAD}
energy('sapt2+(3)dmp2')
--------------------------------------------------------------------------

  Memory set to  46.566 GiB by Python driver.

Scratch directory: /tmp/
   => Loading Basis Set <=

    Name: AUG-CC-PVTZ
    Role: ORBITAL
    Keyword: BASIS
    atoms 1, 5, 7            entry N          line   285 file /opt/anaconda/envs/psi4v1.5/share/psi4/basis/aug-cc-pvtz.gbs 
    atoms 2, 9, 11-13, 15-16 entry H          line    40 file /opt/anaconda/envs/psi4v1.5/share/psi4/basis/aug-cc-pvtz.gbs 
    atoms 3, 6, 8, 10        entry C          line   239 file /opt/anaconda/envs/psi4v1.5/share/psi4/basis/aug-cc-pvtz.gbs 
    atoms 4, 14              entry O          line   331 file /opt/anaconda/envs/psi4v1.5/share/psi4/basis/aug-cc-pvtz.gbs 

   => Loading Basis Set <=

    Name: AUG-CC-PVTZ
    Role: ORBITAL
    Keyword: BASIS
    atoms 1, 5, 7            entry N          line   285 file /opt/anaconda/envs/psi4v1.5/share/psi4/basis/aug-cc-pvtz.gbs 
    atoms 2, 9, 11-13, 15-16 entry H          line    40 file /opt/anaconda/envs/psi4v1.5/share/psi4/basis/aug-cc-pvtz.gbs 
    atoms 3, 6, 8, 10        entry C          line   239 file /opt/anaconda/envs/psi4v1.5/share/psi4/basis/aug-cc-pvtz.gbs 
    atoms 4, 14              entry O          line   331 file /opt/anaconda/envs/psi4v1.5/share/psi4/basis/aug-cc-pvtz.gbs 


  //>>>>>>>>>>>>>>>>>>>>>>>>>>>>>>>>>>>//
  //              Dimer HF             //
  //<<<<<<<<<<<<<<<<<<<<<<<<<<<<<<<<<<<//


*** tstart() called on node194.bme.utexas.edu
*** at Thu Mar 28 12:07:22 2024

   => Loading Basis Set <=

    Name: AUG-CC-PVTZ
    Role: ORBITAL
    Keyword: BASIS
    atoms 1, 5, 7            entry N          line   285 file /opt/anaconda/envs/psi4v1.5/share/psi4/basis/aug-cc-pvtz.gbs 
    atoms 2, 9, 11-13, 15-16 entry H          line    40 file /opt/anaconda/envs/psi4v1.5/share/psi4/basis/aug-cc-pvtz.gbs 
    atoms 3, 6, 8, 10        entry C          line   239 file /opt/anaconda/envs/psi4v1.5/share/psi4/basis/aug-cc-pvtz.gbs 
    atoms 4, 14              entry O          line   331 file /opt/anaconda/envs/psi4v1.5/share/psi4/basis/aug-cc-pvtz.gbs 


         ---------------------------------------------------------
                                   SCF
               by Justin Turney, Rob Parrish, Andy Simmonett
                          and Daniel G. A. Smith
                              RHF Reference
                        8 Threads,  47683 MiB Core
         ---------------------------------------------------------

  ==> Geometry <==

    Molecular point group: c1
    Full point group: C1

    Geometry (in Angstrom), charge = 0, multiplicity = 1:

       Center              X                  Y                   Z               Mass       
    ------------   -----------------  -----------------  -----------------  -----------------
         N           -0.833214520691     0.711001629601    -0.002554781666    14.003074004430
         H           -1.834434520691     0.946121629601    -0.009314781666     1.007825032230
         C           -0.551104520691    -0.667168370399    -0.001914781666    12.000000000000
         O           -1.489784520691    -1.478228370399    -0.014784781666    15.994914619570
         N            0.771495479309    -1.036888370399     0.006205218334    14.003074004430
         C            1.707915479309    -0.103718370399     0.011345218334    12.000000000000
         N            3.004055479309    -0.538438370399     0.085655218334    14.003074004430
         C            1.443945479309     1.303681629601     0.004035218334    12.000000000000
         H            2.235045479309     2.043731629601     0.017205218334     1.007825032230
         C            0.130895479309     1.663101629601    -0.005614781666    12.000000000000
         H           -0.207374520691     2.694971629601    -0.012504781666     1.007825032230
         H            3.126545479309    -1.527088370399    -0.100664781666     1.007825032230
         H            3.736075479309     0.069581629601    -0.255554781666     1.007825032230
         O           -3.182508725819     0.335921501396    -0.085568653461    15.994914619570
         H           -2.679608725819    -0.509378498604    -0.153228653461     1.007825032230
         H           -3.630728725819     0.274371501396     0.772421346539     1.007825032230

  Running in c1 symmetry.

  Rotational constants: A =      0.12216  B =      0.03668  C =      0.02829 [cm^-1]
  Rotational constants: A =   3662.32550  B =   1099.49915  C =    848.09356 [MHz]
  Nuclear repulsion =  453.393182075800382

  Charge       = 0
  Multiplicity = 1
  Electrons    = 68
  Nalpha       = 34
  Nbeta        = 34

  ==> Algorithm <==

  SCF Algorithm Type is DF.
  DIIS enabled.
  MOM disabled.
  Fractional occupation disabled.
  Guess Type is SAD.
  Energy threshold   = 1.00e-08
  Density threshold  = 1.00e-08
  Integral threshold = 1.00e-12

  ==> Primary Basis <==

  Basis Set: AUG-CC-PVTZ
    Blend: AUG-CC-PVTZ
    Number of shells: 189
    Number of basis functions: 575
    Number of Cartesian functions: 670
    Spherical Harmonics?: true
    Max angular momentum: 3

   => Loading Basis Set <=

    Name: (AUG-CC-PVTZ AUX)
    Role: JKFIT
    Keyword: DF_BASIS_SCF
    atoms 1, 5, 7            entry N          line   224 file /opt/anaconda/envs/psi4v1.5/share/psi4/basis/aug-cc-pvtz-jkfit.gbs 
    atoms 2, 9, 11-13, 15-16 entry H          line    70 file /opt/anaconda/envs/psi4v1.5/share/psi4/basis/aug-cc-pvtz-jkfit.gbs 
    atoms 3, 6, 8, 10        entry C          line   162 file /opt/anaconda/envs/psi4v1.5/share/psi4/basis/aug-cc-pvtz-jkfit.gbs 
    atoms 4, 14              entry O          line   286 file /opt/anaconda/envs/psi4v1.5/share/psi4/basis/aug-cc-pvtz-jkfit.gbs 

  ==> Integral Setup <==

  ==> DiskDFJK: Density-Fitted J/K Matrices <==

    J tasked:                  Yes
    K tasked:                  Yes
    wK tasked:                  No
    OpenMP threads:              8
    Integrals threads:           8
    Memory [MiB]:            35762
    Algorithm:                Core
    Integral Cache:           SAVE
    Schwarz Cutoff:          1E-12
    Fitting Condition:       1E-10

   => Auxiliary Basis Set <=

  Basis Set: (AUG-CC-PVTZ AUX)
    Blend: AUG-CC-PVTZ-JKFIT
    Number of shells: 368
    Number of basis functions: 1258
    Number of Cartesian functions: 1564
    Spherical Harmonics?: true
    Max angular momentum: 4

  Minimum eigenvalue in the overlap matrix is 2.5083657382E-06.
  Reciprocal condition number of the overlap matrix is 1.4751834457E-07.
    Using symmetric orthogonalization.

  ==> Pre-Iterations <==

  SCF Guess: Superposition of Atomic Densities via on-the-fly atomic UHF (no occupation information).

   -------------------------
    Irrep   Nso     Nmo    
   -------------------------
     A        575     575 
   -------------------------
    Total     575     575
   -------------------------

  ==> Iterations <==

                           Total Energy        Delta E     RMS |[F,P]|

   @DF-RHF iter SAD:  -468.10340868774711   -4.68103e+02   0.00000e+00 
   @DF-RHF iter   1:  -468.51854406819928   -4.15135e-01   1.41830e-03 DIIS
   @DF-RHF iter   2:  -468.74688114240428   -2.28337e-01   7.61853e-04 DIIS
   @DF-RHF iter   3:  -468.81024324178827   -6.33621e-02   1.23346e-04 DIIS
   @DF-RHF iter   4:  -468.81343110217347   -3.18786e-03   5.57258e-05 DIIS
   @DF-RHF iter   5:  -468.81400190663101   -5.70804e-04   1.30742e-05 DIIS
   @DF-RHF iter   6:  -468.81406930649916   -6.73999e-05   6.62923e-06 DIIS
   @DF-RHF iter   7:  -468.81408563227717   -1.63258e-05   2.21813e-06 DIIS
   @DF-RHF iter   8:  -468.81408872873988   -3.09646e-06   8.07051e-07 DIIS
   @DF-RHF iter   9:  -468.81408906768434   -3.38944e-07   3.38982e-07 DIIS
   @DF-RHF iter  10:  -468.81408912034493   -5.26606e-08   1.26072e-07 DIIS
   @DF-RHF iter  11:  -468.81408912903720   -8.69227e-09   3.92752e-08 DIIS
   @DF-RHF iter  12:  -468.81408912967521   -6.38011e-10   1.44868e-08 DIIS
   @DF-RHF iter  13:  -468.81408912975888   -8.36735e-11   4.91335e-09 DIIS
  Energy and wave function converged.


  ==> Post-Iterations <==

    Orbital Energies [Eh]
    ---------------------

    Doubly Occupied:                                                      

       1A    -20.546115     2A    -20.520020     3A    -15.601534  
       4A    -15.596161     5A    -15.548296     6A    -11.382661  
       7A    -11.355144     8A    -11.327323     9A    -11.245000  
      10A     -1.404392    11A     -1.343723    12A     -1.301833  
      13A     -1.259172    14A     -1.172120    15A     -1.064929  
      16A     -0.903084    17A     -0.878917    18A     -0.772018  
      19A     -0.762527    20A     -0.728821    21A     -0.700521  
      22A     -0.672245    23A     -0.644787    24A     -0.627319  
      25A     -0.611596    26A     -0.598420    27A     -0.577462  
      28A     -0.538687    29A     -0.494771    30A     -0.491883  
      31A     -0.453702    32A     -0.425648    33A     -0.392894  
      34A     -0.348103  

    Virtual:                                                              

      35A      0.017632    36A      0.026599    37A      0.037284  
      38A      0.047020    39A      0.056534    40A      0.060904  
      41A      0.070392    42A      0.077661    43A      0.086472  
      44A      0.093718    45A      0.096799    46A      0.102064  
      47A      0.103236    48A      0.107171    49A      0.120435  
      50A      0.121674    51A      0.126603    52A      0.132569  
      53A      0.137108    54A      0.142444    55A      0.155418  
      56A      0.159657    57A      0.161263    58A      0.171458  
      59A      0.176961    60A      0.178123    61A      0.187602  
      62A      0.189202    63A      0.202137    64A      0.217759  
      65A      0.222022    66A      0.225066    67A      0.230532  
      68A      0.232304    69A      0.242243    70A      0.253591  
      71A      0.259372    72A      0.261344    73A      0.262696  
      74A      0.270174    75A      0.278045    76A      0.283447  
      77A      0.292821    78A      0.296627    79A      0.298366  
      80A      0.308403    81A      0.311952    82A      0.315492  
      83A      0.323369    84A      0.331033    85A      0.341653  
      86A      0.351991    87A      0.353330    88A      0.364298  
      89A      0.369413    90A      0.375741    91A      0.384326  
      92A      0.389675    93A      0.390822    94A      0.398481  
      95A      0.402679    96A      0.413136    97A      0.415659  
      98A      0.420303    99A      0.432991   100A      0.436424  
     101A      0.440769   102A      0.450384   103A      0.454423  
     104A      0.458563   105A      0.464726   106A      0.471510  
     107A      0.474648   108A      0.475518   109A      0.481777  
     110A      0.487783   111A      0.498606   112A      0.504694  
     113A      0.505971   114A      0.515765   115A      0.525944  
     116A      0.526965   117A      0.533248   118A      0.537938  
     119A      0.556108   120A      0.563019   121A      0.567090  
     122A      0.579886   123A      0.585439   124A      0.591679  
     125A      0.595683   126A      0.598650   127A      0.601637  
     128A      0.615750   129A      0.628804   130A      0.641400  
     131A      0.643982   132A      0.647060   133A      0.658457  
     134A      0.663966   135A      0.685657   136A      0.688849  
     137A      0.694962   138A      0.702370   139A      0.709320  
     140A      0.718971   141A      0.728403   142A      0.731064  
     143A      0.733548   144A      0.743472   145A      0.753669  
     146A      0.754860   147A      0.760939   148A      0.774711  
     149A      0.784813   150A      0.792229   151A      0.795734  
     152A      0.801558   153A      0.810479   154A      0.814691  
     155A      0.835745   156A      0.838935   157A      0.847563  
     158A      0.853190   159A      0.877628   160A      0.879921  
     161A      0.886403   162A      0.897217   163A      0.902648  
     164A      0.907481   165A      0.924148   166A      0.926531  
     167A      0.928735   168A      0.946007   169A      0.948619  
     170A      0.953489   171A      0.964683   172A      0.968946  
     173A      0.971069   174A      0.984424   175A      0.987745  
     176A      1.000123   177A      1.004600   178A      1.017372  
     179A      1.023683   180A      1.025010   181A      1.028238  
     182A      1.039875   183A      1.054348   184A      1.058175  
     185A      1.069155   186A      1.071484   187A      1.079178  
     188A      1.083411   189A      1.093277   190A      1.096743  
     191A      1.101059   192A      1.105604   193A      1.116539  
     194A      1.125804   195A      1.130396   196A      1.141381  
     197A      1.147356   198A      1.156732   199A      1.165091  
     200A      1.169459   201A      1.170328   202A      1.180212  
     203A      1.180461   204A      1.191019   205A      1.199857  
     206A      1.210075   207A      1.221259   208A      1.225300  
     209A      1.231358   210A      1.235857   211A      1.249270  
     212A      1.264846   213A      1.269509   214A      1.277567  
     215A      1.287316   216A      1.299669   217A      1.306338  
     218A      1.316695   219A      1.332112   220A      1.343208  
     221A      1.346716   222A      1.355525   223A      1.367717  
     224A      1.373804   225A      1.382214   226A      1.390992  
     227A      1.400202   228A      1.408396   229A      1.417436  
     230A      1.424698   231A      1.434873   232A      1.450191  
     233A      1.461638   234A      1.471203   235A      1.483004  
     236A      1.493361   237A      1.497962   238A      1.503229  
     239A      1.510962   240A      1.530658   241A      1.535302  
     242A      1.546170   243A      1.561804   244A      1.566474  
     245A      1.571101   246A      1.580026   247A      1.594544  
     248A      1.614134   249A      1.620870   250A      1.624793  
     251A      1.637457   252A      1.655681   253A      1.665089  
     254A      1.679984   255A      1.683495   256A      1.712028  
     257A      1.715077   258A      1.729088   259A      1.742867  
     260A      1.750300   261A      1.761319   262A      1.777620  
     263A      1.784020   264A      1.796232   265A      1.809031  
     266A      1.817603   267A      1.827218   268A      1.844715  
     269A      1.859131   270A      1.864636   271A      1.869359  
     272A      1.875033   273A      1.898031   274A      1.910187  
     275A      1.940402   276A      1.946340   277A      1.955331  
     278A      1.966871   279A      1.975374   280A      1.991639  
     281A      2.005294   282A      2.034379   283A      2.044176  
     284A      2.047201   285A      2.070072   286A      2.080125  
     287A      2.087030   288A      2.092343   289A      2.110237  
     290A      2.120991   291A      2.129473   292A      2.154786  
     293A      2.159740   294A      2.174169   295A      2.192910  
     296A      2.193733   297A      2.217300   298A      2.220879  
     299A      2.243740   300A      2.255131   301A      2.283323  
     302A      2.296292   303A      2.301470   304A      2.329150  
     305A      2.335297   306A      2.355937   307A      2.358705  
     308A      2.363942   309A      2.381778   310A      2.398071  
     311A      2.399262   312A      2.436867   313A      2.447590  
     314A      2.461255   315A      2.469217   316A      2.486549  
     317A      2.497128   318A      2.498781   319A      2.526565  
     320A      2.537598   321A      2.545189   322A      2.551375  
     323A      2.561074   324A      2.575390   325A      2.582181  
     326A      2.600910   327A      2.621701   328A      2.639891  
     329A      2.672848   330A      2.682592   331A      2.703685  
     332A      2.710910   333A      2.719431   334A      2.731312  
     335A      2.742595   336A      2.749471   337A      2.765102  
     338A      2.769999   339A      2.806552   340A      2.822115  
     341A      2.840827   342A      2.855720   343A      2.875401  
     344A      2.891699   345A      2.895965   346A      2.913446  
     347A      2.949108   348A      2.969118   349A      2.985388  
     350A      2.986353   351A      3.011515   352A      3.033076  
     353A      3.049173   354A      3.053203   355A      3.061644  
     356A      3.091741   357A      3.121528   358A      3.156823  
     359A      3.164638   360A      3.194432   361A      3.207093  
     362A      3.217437   363A      3.252084   364A      3.283753  
     365A      3.294148   366A      3.315483   367A      3.336574  
     368A      3.382116   369A      3.394656   370A      3.405230  
     371A      3.443711   372A      3.460785   373A      3.471701  
     374A      3.503001   375A      3.508975   376A      3.524787  
     377A      3.566501   378A      3.585805   379A      3.606859  
     380A      3.611976   381A      3.629386   382A      3.630420  
     383A      3.676354   384A      3.681327   385A      3.694844  
     386A      3.730634   387A      3.740197   388A      3.775100  
     389A      3.786894   390A      3.799949   391A      3.810976  
     392A      3.821170   393A      3.830575   394A      3.856603  
     395A      3.884840   396A      3.896097   397A      3.909580  
     398A      3.932365   399A      3.960300   400A      3.977552  
     401A      3.994633   402A      4.015180   403A      4.029241  
     404A      4.043090   405A      4.054736   406A      4.068855  
     407A      4.084183   408A      4.122206   409A      4.132384  
     410A      4.137377   411A      4.154129   412A      4.166160  
     413A      4.172152   414A      4.208904   415A      4.213067  
     416A      4.237963   417A      4.245765   418A      4.265328  
     419A      4.272846   420A      4.295791   421A      4.306693  
     422A      4.311726   423A      4.331330   424A      4.340420  
     425A      4.359989   426A      4.374359   427A      4.382601  
     428A      4.393151   429A      4.432891   430A      4.438127  
     431A      4.452055   432A      4.469869   433A      4.476723  
     434A      4.482255   435A      4.517681   436A      4.533587  
     437A      4.550991   438A      4.559643   439A      4.584042  
     440A      4.616863   441A      4.626318   442A      4.631916  
     443A      4.654767   444A      4.667337   445A      4.691892  
     446A      4.709353   447A      4.727997   448A      4.739199  
     449A      4.754876   450A      4.761241   451A      4.781512  
     452A      4.813588   453A      4.827398   454A      4.851471  
     455A      4.869849   456A      4.886885   457A      4.889978  
     458A      4.913636   459A      4.916546   460A      4.933722  
     461A      4.958550   462A      4.980432   463A      5.011864  
     464A      5.030789   465A      5.043133   466A      5.076207  
     467A      5.089600   468A      5.103963   469A      5.113485  
     470A      5.134355   471A      5.165279   472A      5.187076  
     473A      5.222547   474A      5.228516   475A      5.248407  
     476A      5.252673   477A      5.262979   478A      5.275315  
     479A      5.315921   480A      5.322771   481A      5.345095  
     482A      5.370381   483A      5.385923   484A      5.405464  
     485A      5.424916   486A      5.456027   487A      5.471299  
     488A      5.483328   489A      5.531572   490A      5.554131  
     491A      5.573209   492A      5.597586   493A      5.598481  
     494A      5.645595   495A      5.656819   496A      5.679916  
     497A      5.687062   498A      5.740957   499A      5.762180  
     500A      5.799337   501A      5.807796   502A      5.839725  
     503A      5.850901   504A      5.864722   505A      5.893840  
     506A      5.920076   507A      5.948307   508A      5.974520  
     509A      5.999891   510A      6.000490   511A      6.012805  
     512A      6.036607   513A      6.061073   514A      6.098099  
     515A      6.128586   516A      6.164797   517A      6.183784  
     518A      6.206549   519A      6.225724   520A      6.241924  
     521A      6.363094   522A      6.414600   523A      6.473225  
     524A      6.513579   525A      6.533892   526A      6.618552  
     527A      6.673670   528A      6.711839   529A      6.720132  
     530A      6.766433   531A      6.804546   532A      6.874859  
     533A      6.884205   534A      6.892068   535A      6.933277  
     536A      6.989287   537A      7.011275   538A      7.057061  
     539A      7.078513   540A      7.099441   541A      7.111860  
     542A      7.170360   543A      7.192821   544A      7.215799  
     545A      7.307391   546A      7.335612   547A      7.389850  
     548A      7.394163   549A      7.460888   550A      7.477749  
     551A      7.508973   552A      7.558803   553A      7.613506  
     554A      7.666643   555A      7.682355   556A      7.737608  
     557A      7.790035   558A      7.879634   559A      7.920223  
     560A      7.977927   561A      8.055885   562A      8.197544  
     563A      8.247729   564A      8.406572   565A      8.629891  
     566A      9.153510   567A     16.041702   568A     16.321719  
     569A     16.805266   570A     17.719887   571A     18.039724  
     572A     18.298944   573A     19.452840   574A     20.251898  
     575A     20.476486  

    Final Occupation by Irrep:
              A 
    DOCC [    34 ]

  @DF-RHF Final Energy:  -468.81408912975888

   => Energetics <=

    Nuclear Repulsion Energy =            453.3931820758003823
    One-Electron Energy =               -1539.8308861132302354
    Two-Electron Energy =                 617.6236149076707989
    Total Energy =                       -468.8140891297589405

Computation Completed


Properties will be evaluated at   0.000000,   0.000000,   0.000000 [a0]

Properties computed using the SCF density matrix

  Nuclear Dipole Moment: [e a0]
     X:     0.6679      Y:     3.7397      Z:     0.2415

  Electronic Dipole Moment: [e a0]
     X:     0.7694      Y:    -1.9211      Z:    -0.0276

  Dipole Moment: [e a0]
     X:     1.4373      Y:     1.8186      Z:     0.2139     Total:     2.3278

  Dipole Moment: [D]
     X:     3.6532      Y:     4.6225      Z:     0.5437     Total:     5.9168


*** tstop() called on node194.bme.utexas.edu at Thu Mar 28 12:07:38 2024
Module time:
	user time   =     124.84 seconds =       2.08 minutes
	system time =       0.97 seconds =       0.02 minutes
	total time  =         16 seconds =       0.27 minutes
Total time:
	user time   =     124.84 seconds =       2.08 minutes
	system time =       0.97 seconds =       0.02 minutes
	total time  =         16 seconds =       0.27 minutes

*** tstart() called on node194.bme.utexas.edu
*** at Thu Mar 28 12:07:38 2024


  //>>>>>>>>>>>>>>>>>>>>>>>>>>>>>>>>>>>//
  //               DFMP2               //
  //<<<<<<<<<<<<<<<<<<<<<<<<<<<<<<<<<<<//

   => Loading Basis Set <=

    Name: (AUG-CC-PVTZ AUX)
    Role: RIFIT
    Keyword: DF_BASIS_MP2
    atoms 1, 5, 7            entry N          line   206 file /opt/anaconda/envs/psi4v1.5/share/psi4/basis/aug-cc-pvtz-ri.gbs 
    atoms 2, 9, 11-13, 15-16 entry H          line    30 file /opt/anaconda/envs/psi4v1.5/share/psi4/basis/aug-cc-pvtz-ri.gbs 
    atoms 3, 6, 8, 10        entry C          line   148 file /opt/anaconda/envs/psi4v1.5/share/psi4/basis/aug-cc-pvtz-ri.gbs 
    atoms 4, 14              entry O          line   264 file /opt/anaconda/envs/psi4v1.5/share/psi4/basis/aug-cc-pvtz-ri.gbs 

	 --------------------------------------------------------
	                          DF-MP2                         
	      2nd-Order Density-Fitted Moller-Plesset Theory     
	              RMP2 Wavefunction,   8 Threads             
	                                                         
	        Rob Parrish, Justin Turney, Andy Simmonett,      
	           Ed Hohenstein, and C. David Sherrill          
	 --------------------------------------------------------

   => Auxiliary Basis Set <=

  Basis Set: (AUG-CC-PVTZ AUX)
    Blend: AUG-CC-PVTZ-RI
    Number of shells: 350
    Number of basis functions: 1276
    Number of Cartesian functions: 1609
    Spherical Harmonics?: true
    Max angular momentum: 4

	 --------------------------------------------------------
	                 NBF =   575, NAUX =  1276
	 --------------------------------------------------------
	   CLASS    FOCC     OCC    AOCC    AVIR     VIR    FVIR
	   PAIRS       9      34      25     541     541       0
	 --------------------------------------------------------

	 Will save fitting metric to file 97.

	-----------------------------------------------------------
	 ==================> DF-MP2 Energies <==================== 
	-----------------------------------------------------------
	 Reference Energy          =    -468.8140891297588837 [Eh]
	 Singles Energy            =      -0.0000000000000000 [Eh]
	 Same-Spin Energy          =      -0.4584110737456677 [Eh]
	 Opposite-Spin Energy      =      -1.3061179300678805 [Eh]
	 Correlation Energy        =      -1.7645290038135482 [Eh]
	 Total Energy              =    -470.5786181335724336 [Eh]
	-----------------------------------------------------------
	 ================> DF-SCS-MP2 Energies <================== 
	-----------------------------------------------------------
	 SCS Same-Spin Scale       =       0.3333333333333333 [-]
	 SCS Opposite-Spin Scale   =       1.2000000000000000 [-]
	 SCS Same-Spin Energy      =      -0.1528036912485559 [Eh]
	 SCS Opposite-Spin Energy  =      -1.5673415160814566 [Eh]
	 SCS Correlation Energy    =      -1.7201452073300125 [Eh]
	 SCS Total Energy          =    -470.5342343370888898 [Eh]
	-----------------------------------------------------------


*** tstop() called on node194.bme.utexas.edu at Thu Mar 28 12:07:42 2024
Module time:
	user time   =      19.69 seconds =       0.33 minutes
	system time =       0.37 seconds =       0.01 minutes
	total time  =          4 seconds =       0.07 minutes
Total time:
	user time   =     144.53 seconds =       2.41 minutes
	system time =       1.34 seconds =       0.02 minutes
	total time  =         20 seconds =       0.33 minutes

  //>>>>>>>>>>>>>>>>>>>>>>>>>>>>>>>>>>>//
  //            Monomer A HF           //
  //<<<<<<<<<<<<<<<<<<<<<<<<<<<<<<<<<<<//


*** tstart() called on node194.bme.utexas.edu
*** at Thu Mar 28 12:07:42 2024

   => Loading Basis Set <=

    Name: AUG-CC-PVTZ
    Role: ORBITAL
    Keyword: BASIS
    atoms 1, 5, 7            entry N          line   285 file /opt/anaconda/envs/psi4v1.5/share/psi4/basis/aug-cc-pvtz.gbs 
    atoms 2, 9, 11-13, 15-16 entry H          line    40 file /opt/anaconda/envs/psi4v1.5/share/psi4/basis/aug-cc-pvtz.gbs 
    atoms 3, 6, 8, 10        entry C          line   239 file /opt/anaconda/envs/psi4v1.5/share/psi4/basis/aug-cc-pvtz.gbs 
    atoms 4, 14              entry O          line   331 file /opt/anaconda/envs/psi4v1.5/share/psi4/basis/aug-cc-pvtz.gbs 


         ---------------------------------------------------------
                                   SCF
               by Justin Turney, Rob Parrish, Andy Simmonett
                          and Daniel G. A. Smith
                              RHF Reference
                        8 Threads,  47683 MiB Core
         ---------------------------------------------------------

  ==> Geometry <==

    Molecular point group: c1
    Full point group: C1

    Geometry (in Angstrom), charge = 0, multiplicity = 1:

       Center              X                  Y                   Z               Mass       
    ------------   -----------------  -----------------  -----------------  -----------------
         N           -0.833214520691     0.711001629601    -0.002554781666    14.003074004430
         H           -1.834434520691     0.946121629601    -0.009314781666     1.007825032230
         C           -0.551104520691    -0.667168370399    -0.001914781666    12.000000000000
         O           -1.489784520691    -1.478228370399    -0.014784781666    15.994914619570
         N            0.771495479309    -1.036888370399     0.006205218334    14.003074004430
         C            1.707915479309    -0.103718370399     0.011345218334    12.000000000000
         N            3.004055479309    -0.538438370399     0.085655218334    14.003074004430
         C            1.443945479309     1.303681629601     0.004035218334    12.000000000000
         H            2.235045479309     2.043731629601     0.017205218334     1.007825032230
         C            0.130895479309     1.663101629601    -0.005614781666    12.000000000000
         H           -0.207374520691     2.694971629601    -0.012504781666     1.007825032230
         H            3.126545479309    -1.527088370399    -0.100664781666     1.007825032230
         H            3.736075479309     0.069581629601    -0.255554781666     1.007825032230
      Gh(O)          -3.182508725819     0.335921501396    -0.085568653461    15.994914619570
      Gh(H)          -2.679608725819    -0.509378498604    -0.153228653461     1.007825032230
      Gh(H)          -3.630728725819     0.274371501396     0.772421346539     1.007825032230

  Running in c1 symmetry.

  Rotational constants: A =      0.12216  B =      0.03668  C =      0.02829 [cm^-1]
  Rotational constants: A =   3662.32550  B =   1099.49915  C =    848.09356 [MHz]
  Nuclear repulsion =  355.569158461879397

  Charge       = 0
  Multiplicity = 1
  Electrons    = 58
  Nalpha       = 29
  Nbeta        = 29

  ==> Algorithm <==

  SCF Algorithm Type is DF.
  DIIS enabled.
  MOM disabled.
  Fractional occupation disabled.
  Guess Type is SAD.
  Energy threshold   = 1.00e-08
  Density threshold  = 1.00e-08
  Integral threshold = 1.00e-12

  ==> Primary Basis <==

  Basis Set: AUG-CC-PVTZ
    Blend: AUG-CC-PVTZ
    Number of shells: 189
    Number of basis functions: 575
    Number of Cartesian functions: 670
    Spherical Harmonics?: true
    Max angular momentum: 3

   => Loading Basis Set <=

    Name: (AUG-CC-PVTZ AUX)
    Role: JKFIT
    Keyword: DF_BASIS_SCF
    atoms 1, 5, 7            entry N          line   224 file /opt/anaconda/envs/psi4v1.5/share/psi4/basis/aug-cc-pvtz-jkfit.gbs 
    atoms 2, 9, 11-13, 15-16 entry H          line    70 file /opt/anaconda/envs/psi4v1.5/share/psi4/basis/aug-cc-pvtz-jkfit.gbs 
    atoms 3, 6, 8, 10        entry C          line   162 file /opt/anaconda/envs/psi4v1.5/share/psi4/basis/aug-cc-pvtz-jkfit.gbs 
    atoms 4, 14              entry O          line   286 file /opt/anaconda/envs/psi4v1.5/share/psi4/basis/aug-cc-pvtz-jkfit.gbs 

  ==> Integral Setup <==

  ==> DiskDFJK: Density-Fitted J/K Matrices <==

    J tasked:                  Yes
    K tasked:                  Yes
    wK tasked:                  No
    OpenMP threads:              8
    Integrals threads:           8
    Memory [MiB]:            35762
    Algorithm:                Core
    Integral Cache:           LOAD
    Schwarz Cutoff:          1E-12
    Fitting Condition:       1E-10

   => Auxiliary Basis Set <=

  Basis Set: (AUG-CC-PVTZ AUX)
    Blend: AUG-CC-PVTZ-JKFIT
    Number of shells: 368
    Number of basis functions: 1258
    Number of Cartesian functions: 1564
    Spherical Harmonics?: true
    Max angular momentum: 4

  Minimum eigenvalue in the overlap matrix is 2.5083657382E-06.
  Reciprocal condition number of the overlap matrix is 1.4751834457E-07.
    Using symmetric orthogonalization.

  ==> Pre-Iterations <==

  SCF Guess: Superposition of Atomic Densities via on-the-fly atomic UHF (no occupation information).

   -------------------------
    Irrep   Nso     Nmo    
   -------------------------
     A        575     575 
   -------------------------
    Total     575     575
   -------------------------

  ==> Iterations <==

                           Total Energy        Delta E     RMS |[F,P]|

   @DF-RHF iter SAD:  -392.08990888518804   -3.92090e+02   0.00000e+00 
   @DF-RHF iter   1:  -392.50645525462835   -4.16546e-01   1.27412e-03 DIIS
   @DF-RHF iter   2:  -392.69556877102355   -1.89114e-01   7.36440e-04 DIIS
   @DF-RHF iter   3:  -392.75675733111416   -6.11886e-02   1.39666e-04 DIIS
   @DF-RHF iter   4:  -392.76026539291217   -3.50806e-03   6.21472e-05 DIIS
   @DF-RHF iter   5:  -392.76101631251458   -7.50920e-04   1.26791e-05 DIIS
   @DF-RHF iter   6:  -392.76109350034898   -7.71878e-05   6.65047e-06 DIIS
   @DF-RHF iter   7:  -392.76111262940043   -1.91291e-05   2.51386e-06 DIIS
   @DF-RHF iter   8:  -392.76111628712511   -3.65772e-06   8.71088e-07 DIIS
   @DF-RHF iter   9:  -392.76111664375827   -3.56633e-07   3.71804e-07 DIIS
   @DF-RHF iter  10:  -392.76111671009392   -6.63356e-08   1.27378e-07 DIIS
   @DF-RHF iter  11:  -392.76111671986479   -9.77087e-09   3.61406e-08 DIIS
   @DF-RHF iter  12:  -392.76111672054259   -6.77801e-10   1.18577e-08 DIIS
   @DF-RHF iter  13:  -392.76111672060995   -6.73595e-11   5.00177e-09 DIIS
  Energy and wave function converged.


  ==> Post-Iterations <==

    Orbital Energies [Eh]
    ---------------------

    Doubly Occupied:                                                      

       1A    -20.500074     2A    -15.630454     3A    -15.596788  
       4A    -15.545845     5A    -11.372234     6A    -11.355511  
       7A    -11.336784     8A    -11.251237     9A     -1.378257  
      10A     -1.295446    11A     -1.265404    12A     -1.171973  
      13A     -1.069418    14A     -0.906689    15A     -0.877980  
      16A     -0.765668    17A     -0.759165    18A     -0.716329  
      19A     -0.677360    20A     -0.628712    21A     -0.627066  
      22A     -0.609994    23A     -0.587454    24A     -0.538336  
      25A     -0.487699    26A     -0.442410    27A     -0.421954  
      28A     -0.392118    29A     -0.345574  

    Virtual:                                                              

      30A      0.014846    31A      0.022881    32A      0.035166  
      33A      0.047435    34A      0.055369    35A      0.057224  
      36A      0.069785    37A      0.076775    38A      0.083135  
      39A      0.087085    40A      0.096980    41A      0.100531  
      42A      0.102673    43A      0.104992    44A      0.114311  
      45A      0.119696    46A      0.125065    47A      0.129442  
      48A      0.136175    49A      0.139408    50A      0.142334  
      51A      0.156731    52A      0.163651    53A      0.170081  
      54A      0.177788    55A      0.178307    56A      0.180183  
      57A      0.183718    58A      0.200255    59A      0.203878  
      60A      0.222516    61A      0.223307    62A      0.225457  
      63A      0.236358    64A      0.240901    65A      0.252752  
      66A      0.259099    67A      0.261339    68A      0.267786  
      69A      0.268353    70A      0.273964    71A      0.280407  
      72A      0.288372    73A      0.293856    74A      0.296688  
      75A      0.300565    76A      0.312786    77A      0.316424  
      78A      0.320393    79A      0.328164    80A      0.333623  
      81A      0.342806    82A      0.349695    83A      0.356677  
      84A      0.365369    85A      0.372551    86A      0.377341  
      87A      0.384216    88A      0.389293    89A      0.389947  
      90A      0.396051    91A      0.405052    92A      0.409771  
      93A      0.410962    94A      0.416826    95A      0.422700  
      96A      0.431971    97A      0.440730    98A      0.447230  
      99A      0.453237   100A      0.462760   101A      0.468806  
     102A      0.473085   103A      0.475436   104A      0.483072  
     105A      0.485353   106A      0.493359   107A      0.496223  
     108A      0.507017   109A      0.511566   110A      0.514679  
     111A      0.529134   112A      0.534728   113A      0.537356  
     114A      0.545502   115A      0.561667   116A      0.566263  
     117A      0.587174   118A      0.592083   119A      0.595919  
     120A      0.600023   121A      0.602159   122A      0.604846  
     123A      0.608691   124A      0.626406   125A      0.634239  
     126A      0.642820   127A      0.655579   128A      0.661984  
     129A      0.668494   130A      0.677934   131A      0.698663  
     132A      0.701693   133A      0.704355   134A      0.711087  
     135A      0.720691   136A      0.724161   137A      0.732857  
     138A      0.736170   139A      0.743739   140A      0.758646  
     141A      0.764380   142A      0.773894   143A      0.781004  
     144A      0.790969   145A      0.795313   146A      0.801059  
     147A      0.804218   148A      0.822787   149A      0.824545  
     150A      0.832569   151A      0.839376   152A      0.851021  
     153A      0.860499   154A      0.869703   155A      0.887862  
     156A      0.893553   157A      0.896350   158A      0.901179  
     159A      0.907227   160A      0.911807   161A      0.922830  
     162A      0.931351   163A      0.936801   164A      0.942277  
     165A      0.955317   166A      0.956528   167A      0.967183  
     168A      0.973799   169A      0.977717   170A      0.985867  
     171A      0.990800   172A      1.001482   173A      1.012941  
     174A      1.025013   175A      1.028840   176A      1.038767  
     177A      1.045303   178A      1.050508   179A      1.057218  
     180A      1.070049   181A      1.079841   182A      1.083821  
     183A      1.089288   184A      1.097681   185A      1.101718  
     186A      1.106588   187A      1.107438   188A      1.116143  
     189A      1.124893   190A      1.132752   191A      1.137987  
     192A      1.147575   193A      1.152103   194A      1.159911  
     195A      1.166460   196A      1.173769   197A      1.178523  
     198A      1.187896   199A      1.193474   200A      1.204411  
     201A      1.209793   202A      1.218205   203A      1.224781  
     204A      1.235762   205A      1.239370   206A      1.253438  
     207A      1.265290   208A      1.276302   209A      1.282786  
     210A      1.288365   211A      1.291102   212A      1.302376  
     213A      1.316952   214A      1.322540   215A      1.337830  
     216A      1.351486   217A      1.357974   218A      1.367939  
     219A      1.371894   220A      1.379985   221A      1.388878  
     222A      1.402052   223A      1.411576   224A      1.416461  
     225A      1.433520   226A      1.446854   227A      1.453002  
     228A      1.461473   229A      1.476971   230A      1.480454  
     231A      1.488104   232A      1.498922   233A      1.510777  
     234A      1.513762   235A      1.532521   236A      1.538014  
     237A      1.557475   238A      1.570529   239A      1.580848  
     240A      1.585723   241A      1.587720   242A      1.607558  
     243A      1.619130   244A      1.623465   245A      1.636312  
     246A      1.644884   247A      1.657916   248A      1.665415  
     249A      1.694932   250A      1.706539   251A      1.710658  
     252A      1.722034   253A      1.736132   254A      1.744307  
     255A      1.757721   256A      1.779999   257A      1.786940  
     258A      1.792888   259A      1.802245   260A      1.816549  
     261A      1.827617   262A      1.841157   263A      1.848292  
     264A      1.854540   265A      1.865324   266A      1.871829  
     267A      1.882327   268A      1.891133   269A      1.908141  
     270A      1.937722   271A      1.950635   272A      1.959763  
     273A      1.970858   274A      1.975092   275A      1.992326  
     276A      2.000397   277A      2.023592   278A      2.032240  
     279A      2.043117   280A      2.052302   281A      2.075461  
     282A      2.080532   283A      2.089482   284A      2.108932  
     285A      2.121602   286A      2.123134   287A      2.144517  
     288A      2.158775   289A      2.159872   290A      2.185786  
     291A      2.196166   292A      2.206231   293A      2.219702  
     294A      2.232915   295A      2.246202   296A      2.262571  
     297A      2.290758   298A      2.303167   299A      2.312080  
     300A      2.331359   301A      2.343574   302A      2.349440  
     303A      2.364765   304A      2.385056   305A      2.394814  
     306A      2.407019   307A      2.423178   308A      2.446377  
     309A      2.459028   310A      2.467205   311A      2.475920  
     312A      2.502225   313A      2.510156   314A      2.524903  
     315A      2.543719   316A      2.554827   317A      2.568094  
     318A      2.584994   319A      2.593032   320A      2.601104  
     321A      2.629850   322A      2.641047   323A      2.674201  
     324A      2.691545   325A      2.713463   326A      2.720238  
     327A      2.735590   328A      2.753557   329A      2.755871  
     330A      2.765421   331A      2.776832   332A      2.795656  
     333A      2.800477   334A      2.821402   335A      2.828384  
     336A      2.869160   337A      2.887612   338A      2.918028  
     339A      2.953226   340A      2.965215   341A      2.995704  
     342A      3.008601   343A      3.017345   344A      3.043676  
     345A      3.053145   346A      3.063144   347A      3.067586  
     348A      3.098718   349A      3.118468   350A      3.137191  
     351A      3.162097   352A      3.169469   353A      3.194984  
     354A      3.208354   355A      3.221967   356A      3.242281  
     357A      3.264222   358A      3.285330   359A      3.297328  
     360A      3.311238   361A      3.325076   362A      3.343880  
     363A      3.396823   364A      3.415837   365A      3.441499  
     366A      3.451410   367A      3.463145   368A      3.483250  
     369A      3.490476   370A      3.508126   371A      3.512080  
     372A      3.561105   373A      3.571569   374A      3.590305  
     375A      3.602864   376A      3.621656   377A      3.624644  
     378A      3.641310   379A      3.675961   380A      3.685804  
     381A      3.700309   382A      3.730910   383A      3.744449  
     384A      3.755152   385A      3.781574   386A      3.790550  
     387A      3.800704   388A      3.815751   389A      3.820656  
     390A      3.830613   391A      3.845927   392A      3.881227  
     393A      3.896052   394A      3.918590   395A      3.925577  
     396A      3.961553   397A      3.964547   398A      3.994403  
     399A      4.006095   400A      4.028353   401A      4.033819  
     402A      4.054483   403A      4.066926   404A      4.082630  
     405A      4.122874   406A      4.137800   407A      4.153040  
     408A      4.159475   409A      4.178584   410A      4.195048  
     411A      4.210641   412A      4.231648   413A      4.253485  
     414A      4.265682   415A      4.280449   416A      4.292603  
     417A      4.310086   418A      4.336189   419A      4.352122  
     420A      4.362233   421A      4.375302   422A      4.378541  
     423A      4.391999   424A      4.416438   425A      4.426544  
     426A      4.436685   427A      4.467552   428A      4.478562  
     429A      4.502229   430A      4.526193   431A      4.536578  
     432A      4.557866   433A      4.603590   434A      4.617390  
     435A      4.619431   436A      4.644484   437A      4.663115  
     438A      4.677464   439A      4.689790   440A      4.722790  
     441A      4.744376   442A      4.755478   443A      4.760413  
     444A      4.767396   445A      4.782740   446A      4.814695  
     447A      4.846524   448A      4.870886   449A      4.884381  
     450A      4.892425   451A      4.903110   452A      4.916061  
     453A      4.942036   454A      4.956385   455A      4.986984  
     456A      5.011017   457A      5.033414   458A      5.055789  
     459A      5.059807   460A      5.086454   461A      5.105964  
     462A      5.116432   463A      5.121844   464A      5.159616  
     465A      5.186193   466A      5.217713   467A      5.232633  
     468A      5.251172   469A      5.261370   470A      5.266193  
     471A      5.313141   472A      5.321124   473A      5.327975  
     474A      5.374749   475A      5.376193   476A      5.398169  
     477A      5.436277   478A      5.448192   479A      5.465911  
     480A      5.483369   481A      5.496598   482A      5.502853  
     483A      5.557153   484A      5.564763   485A      5.581885  
     486A      5.608692   487A      5.634262   488A      5.651386  
     489A      5.681493   490A      5.714441   491A      5.743867  
     492A      5.758841   493A      5.778002   494A      5.800176  
     495A      5.813484   496A      5.831867   497A      5.862940  
     498A      5.875926   499A      5.899229   500A      5.915758  
     501A      5.943407   502A      5.967683   503A      5.996403  
     504A      6.004725   505A      6.060237   506A      6.088329  
     507A      6.099973   508A      6.118614   509A      6.161178  
     510A      6.175818   511A      6.207204   512A      6.221809  
     513A      6.248177   514A      6.285245   515A      6.354363  
     516A      6.422166   517A      6.486634   518A      6.511836  
     519A      6.586745   520A      6.610386   521A      6.656249  
     522A      6.696783   523A      6.732050   524A      6.761118  
     525A      6.791221   526A      6.818187   527A      6.889908  
     528A      6.909892   529A      6.943985   530A      6.964857  
     531A      7.019088   532A      7.063612   533A      7.080786  
     534A      7.109977   535A      7.139596   536A      7.182544  
     537A      7.218807   538A      7.299847   539A      7.337054  
     540A      7.390212   541A      7.471011   542A      7.499154  
     543A      7.539083   544A      7.705197   545A      7.720817  
     546A      7.739420   547A      7.868018   548A      7.949502  
     549A      7.967882   550A      8.044246   551A      8.104191  
     552A      8.283254   553A      8.377836   554A      8.394844  
     555A      8.765615   556A      8.931448   557A      9.096074  
     558A      9.991441   559A     10.242434   560A     10.429783  
     561A     10.778872   562A     11.361570   563A     12.408200  
     564A     12.710081   565A     13.903122   566A     14.115082  
     567A     16.052322   568A     16.338886   569A     16.821152  
     570A     17.817840   571A     18.290853   572A     19.439652  
     573A     20.257977   574A     20.474862   575A     69.363868  

    Final Occupation by Irrep:
              A 
    DOCC [    29 ]

  @DF-RHF Final Energy:  -392.76111672060995

   => Energetics <=

    Nuclear Repulsion Energy =            355.5691584618793968
    One-Electron Energy =               -1239.5526845245824461
    Two-Electron Energy =                 491.2224093420931013
    Total Energy =                       -392.7611167206099481

Computation Completed


Properties will be evaluated at   0.000000,   0.000000,   0.000000 [a0]

Properties computed using the SCF density matrix

  Nuclear Dipole Moment: [e a0]
     X:    60.7053      Y:    -0.8946      Z:     0.3650

  Electronic Dipole Moment: [e a0]
     X:   -59.2462      Y:     3.3951      Z:    -0.6603

  Dipole Moment: [e a0]
     X:     1.4591      Y:     2.5005      Z:    -0.2953     Total:     2.9100

  Dipole Moment: [D]
     X:     3.7086      Y:     6.3555      Z:    -0.7507     Total:     7.3966


*** tstop() called on node194.bme.utexas.edu at Thu Mar 28 12:07:56 2024
Module time:
	user time   =     104.66 seconds =       1.74 minutes
	system time =       0.56 seconds =       0.01 minutes
	total time  =         14 seconds =       0.23 minutes
Total time:
	user time   =     249.21 seconds =       4.15 minutes
	system time =       1.90 seconds =       0.03 minutes
	total time  =         34 seconds =       0.57 minutes

*** tstart() called on node194.bme.utexas.edu
*** at Thu Mar 28 12:07:56 2024


  //>>>>>>>>>>>>>>>>>>>>>>>>>>>>>>>>>>>//
  //               DFMP2               //
  //<<<<<<<<<<<<<<<<<<<<<<<<<<<<<<<<<<<//

   => Loading Basis Set <=

    Name: (AUG-CC-PVTZ AUX)
    Role: RIFIT
    Keyword: DF_BASIS_MP2
    atoms 1, 5, 7            entry N          line   206 file /opt/anaconda/envs/psi4v1.5/share/psi4/basis/aug-cc-pvtz-ri.gbs 
    atoms 2, 9, 11-13, 15-16 entry H          line    30 file /opt/anaconda/envs/psi4v1.5/share/psi4/basis/aug-cc-pvtz-ri.gbs 
    atoms 3, 6, 8, 10        entry C          line   148 file /opt/anaconda/envs/psi4v1.5/share/psi4/basis/aug-cc-pvtz-ri.gbs 
    atoms 4, 14              entry O          line   264 file /opt/anaconda/envs/psi4v1.5/share/psi4/basis/aug-cc-pvtz-ri.gbs 

	 --------------------------------------------------------
	                          DF-MP2                         
	      2nd-Order Density-Fitted Moller-Plesset Theory     
	              RMP2 Wavefunction,   8 Threads             
	                                                         
	        Rob Parrish, Justin Turney, Andy Simmonett,      
	           Ed Hohenstein, and C. David Sherrill          
	 --------------------------------------------------------

   => Auxiliary Basis Set <=

  Basis Set: (AUG-CC-PVTZ AUX)
    Blend: AUG-CC-PVTZ-RI
    Number of shells: 350
    Number of basis functions: 1276
    Number of Cartesian functions: 1609
    Spherical Harmonics?: true
    Max angular momentum: 4

	 --------------------------------------------------------
	                 NBF =   575, NAUX =  1276
	 --------------------------------------------------------
	   CLASS    FOCC     OCC    AOCC    AVIR     VIR    FVIR
	   PAIRS       8      29      21     546     546       0
	 --------------------------------------------------------

	 Will attempt to load fitting metric from file 97.

	-----------------------------------------------------------
	 ==================> DF-MP2 Energies <==================== 
	-----------------------------------------------------------
	 Reference Energy          =    -392.7611167206099481 [Eh]
	 Singles Energy            =      -0.0000000000000000 [Eh]
	 Same-Spin Energy          =      -0.3850119521268632 [Eh]
	 Opposite-Spin Energy      =      -1.0978166817034039 [Eh]
	 Correlation Energy        =      -1.4828286338302670 [Eh]
	 Total Energy              =    -394.2439453544401999 [Eh]
	-----------------------------------------------------------
	 ================> DF-SCS-MP2 Energies <================== 
	-----------------------------------------------------------
	 SCS Same-Spin Scale       =       0.3333333333333333 [-]
	 SCS Opposite-Spin Scale   =       1.2000000000000000 [-]
	 SCS Same-Spin Energy      =      -0.1283373173756211 [Eh]
	 SCS Opposite-Spin Energy  =      -1.3173800180440847 [Eh]
	 SCS Correlation Energy    =      -1.4457173354197057 [Eh]
	 SCS Total Energy          =    -394.2068340560296633 [Eh]
	-----------------------------------------------------------


*** tstop() called on node194.bme.utexas.edu at Thu Mar 28 12:07:58 2024
Module time:
	user time   =      16.61 seconds =       0.28 minutes
	system time =       0.35 seconds =       0.01 minutes
	total time  =          2 seconds =       0.03 minutes
Total time:
	user time   =     265.82 seconds =       4.43 minutes
	system time =       2.25 seconds =       0.04 minutes
	total time  =         36 seconds =       0.60 minutes

  //>>>>>>>>>>>>>>>>>>>>>>>>>>>>>>>>>>>//
  //            Monomer B HF           //
  //<<<<<<<<<<<<<<<<<<<<<<<<<<<<<<<<<<<//


*** tstart() called on node194.bme.utexas.edu
*** at Thu Mar 28 12:07:58 2024

   => Loading Basis Set <=

    Name: AUG-CC-PVTZ
    Role: ORBITAL
    Keyword: BASIS
    atoms 1, 5, 7            entry N          line   285 file /opt/anaconda/envs/psi4v1.5/share/psi4/basis/aug-cc-pvtz.gbs 
    atoms 2, 9, 11-13, 15-16 entry H          line    40 file /opt/anaconda/envs/psi4v1.5/share/psi4/basis/aug-cc-pvtz.gbs 
    atoms 3, 6, 8, 10        entry C          line   239 file /opt/anaconda/envs/psi4v1.5/share/psi4/basis/aug-cc-pvtz.gbs 
    atoms 4, 14              entry O          line   331 file /opt/anaconda/envs/psi4v1.5/share/psi4/basis/aug-cc-pvtz.gbs 


         ---------------------------------------------------------
                                   SCF
               by Justin Turney, Rob Parrish, Andy Simmonett
                          and Daniel G. A. Smith
                              RHF Reference
                        8 Threads,  47683 MiB Core
         ---------------------------------------------------------

  ==> Geometry <==

    Molecular point group: c1
    Full point group: C1

    Geometry (in Angstrom), charge = 0, multiplicity = 1:

       Center              X                  Y                   Z               Mass       
    ------------   -----------------  -----------------  -----------------  -----------------
      Gh(N)          -0.833214520691     0.711001629601    -0.002554781666    14.003074004430
      Gh(H)          -1.834434520691     0.946121629601    -0.009314781666     1.007825032230
      Gh(C)          -0.551104520691    -0.667168370399    -0.001914781666    12.000000000000
      Gh(O)          -1.489784520691    -1.478228370399    -0.014784781666    15.994914619570
      Gh(N)           0.771495479309    -1.036888370399     0.006205218334    14.003074004430
      Gh(C)           1.707915479309    -0.103718370399     0.011345218334    12.000000000000
      Gh(N)           3.004055479309    -0.538438370399     0.085655218334    14.003074004430
      Gh(C)           1.443945479309     1.303681629601     0.004035218334    12.000000000000
      Gh(H)           2.235045479309     2.043731629601     0.017205218334     1.007825032230
      Gh(C)           0.130895479309     1.663101629601    -0.005614781666    12.000000000000
      Gh(H)          -0.207374520691     2.694971629601    -0.012504781666     1.007825032230
      Gh(H)           3.126545479309    -1.527088370399    -0.100664781666     1.007825032230
      Gh(H)           3.736075479309     0.069581629601    -0.255554781666     1.007825032230
         O           -3.182508725819     0.335921501396    -0.085568653461    15.994914619570
         H           -2.679608725819    -0.509378498604    -0.153228653461     1.007825032230
         H           -3.630728725819     0.274371501396     0.772421346539     1.007825032230

  Running in c1 symmetry.

  Rotational constants: A =      0.12216  B =      0.03668  C =      0.02829 [cm^-1]
  Rotational constants: A =   3662.32550  B =   1099.49915  C =    848.09356 [MHz]
  Nuclear repulsion =    9.001738346264011

  Charge       = 0
  Multiplicity = 1
  Electrons    = 10
  Nalpha       = 5
  Nbeta        = 5

  ==> Algorithm <==

  SCF Algorithm Type is DF.
  DIIS enabled.
  MOM disabled.
  Fractional occupation disabled.
  Guess Type is SAD.
  Energy threshold   = 1.00e-08
  Density threshold  = 1.00e-08
  Integral threshold = 1.00e-12

  ==> Primary Basis <==

  Basis Set: AUG-CC-PVTZ
    Blend: AUG-CC-PVTZ
    Number of shells: 189
    Number of basis functions: 575
    Number of Cartesian functions: 670
    Spherical Harmonics?: true
    Max angular momentum: 3

   => Loading Basis Set <=

    Name: (AUG-CC-PVTZ AUX)
    Role: JKFIT
    Keyword: DF_BASIS_SCF
    atoms 1, 5, 7            entry N          line   224 file /opt/anaconda/envs/psi4v1.5/share/psi4/basis/aug-cc-pvtz-jkfit.gbs 
    atoms 2, 9, 11-13, 15-16 entry H          line    70 file /opt/anaconda/envs/psi4v1.5/share/psi4/basis/aug-cc-pvtz-jkfit.gbs 
    atoms 3, 6, 8, 10        entry C          line   162 file /opt/anaconda/envs/psi4v1.5/share/psi4/basis/aug-cc-pvtz-jkfit.gbs 
    atoms 4, 14              entry O          line   286 file /opt/anaconda/envs/psi4v1.5/share/psi4/basis/aug-cc-pvtz-jkfit.gbs 

  ==> Integral Setup <==

  ==> DiskDFJK: Density-Fitted J/K Matrices <==

    J tasked:                  Yes
    K tasked:                  Yes
    wK tasked:                  No
    OpenMP threads:              8
    Integrals threads:           8
    Memory [MiB]:            35762
    Algorithm:                Core
    Integral Cache:           LOAD
    Schwarz Cutoff:          1E-12
    Fitting Condition:       1E-10

   => Auxiliary Basis Set <=

  Basis Set: (AUG-CC-PVTZ AUX)
    Blend: AUG-CC-PVTZ-JKFIT
    Number of shells: 368
    Number of basis functions: 1258
    Number of Cartesian functions: 1564
    Spherical Harmonics?: true
    Max angular momentum: 4

  Minimum eigenvalue in the overlap matrix is 2.5083657382E-06.
  Reciprocal condition number of the overlap matrix is 1.4751834457E-07.
    Using symmetric orthogonalization.

  ==> Pre-Iterations <==

  SCF Guess: Superposition of Atomic Densities via on-the-fly atomic UHF (no occupation information).

   -------------------------
    Irrep   Nso     Nmo    
   -------------------------
     A        575     575 
   -------------------------
    Total     575     575
   -------------------------

  ==> Iterations <==

                           Total Energy        Delta E     RMS |[F,P]|

   @DF-RHF iter SAD:   -75.45440112344617   -7.54544e+01   0.00000e+00 
   @DF-RHF iter   1:   -75.97327282157990   -5.18872e-01   8.12336e-04 DIIS
   @DF-RHF iter   2:   -76.02519769340904   -5.19249e-02   5.65601e-04 DIIS
   @DF-RHF iter   3:   -76.05809465956968   -3.28970e-02   3.85805e-05 DIIS
   @DF-RHF iter   4:   -76.05851060135190   -4.15942e-04   9.63398e-06 DIIS
   @DF-RHF iter   5:   -76.05853933116167   -2.87298e-05   2.22878e-06 DIIS
   @DF-RHF iter   6:   -76.05854175266113   -2.42150e-06   4.90036e-07 DIIS
   @DF-RHF iter   7:   -76.05854188002961   -1.27368e-07   8.69052e-08 DIIS
   @DF-RHF iter   8:   -76.05854188351390   -3.48429e-09   1.49361e-08 DIIS
   @DF-RHF iter   9:   -76.05854188359659   -8.26930e-11   3.78970e-09 DIIS
  Energy and wave function converged.


  ==> Post-Iterations <==

    Orbital Energies [Eh]
    ---------------------

    Doubly Occupied:                                                      

       1A    -20.570708     2A     -1.343381     3A     -0.705534  
       4A     -0.581785     5A     -0.508803  

    Virtual:                                                              

       6A      0.016914     7A      0.029232     8A      0.034813  
       9A      0.047259    10A      0.049652    11A      0.054963  
      12A      0.065349    13A      0.074001    14A      0.077156  
      15A      0.082677    16A      0.092328    17A      0.099474  
      18A      0.102784    19A      0.107400    20A      0.119231  
      21A      0.120848    22A      0.131093    23A      0.133829  
      24A      0.139131    25A      0.144141    26A      0.152144  
      27A      0.164854    28A      0.165956    29A      0.167867  
      30A      0.175644    31A      0.178098    32A      0.184018  
      33A      0.187221    34A      0.195804    35A      0.198514  
      36A      0.202464    37A      0.211345    38A      0.220848  
      39A      0.230803    40A      0.233499    41A      0.238264  
      42A      0.241211    43A      0.251323    44A      0.257201  
      45A      0.278772    46A      0.281535    47A      0.289085  
      48A      0.294927    49A      0.301027    50A      0.303732  
      51A      0.310508    52A      0.322709    53A      0.329890  
      54A      0.334522    55A      0.337492    56A      0.350028  
      57A      0.357890    58A      0.365721    59A      0.372709  
      60A      0.372769    61A      0.378615    62A      0.381572  
      63A      0.386383    64A      0.390154    65A      0.396952  
      66A      0.400557    67A      0.411153    68A      0.419425  
      69A      0.423625    70A      0.429355    71A      0.432275  
      72A      0.442460    73A      0.443482    74A      0.449995  
      75A      0.453318    76A      0.457589    77A      0.460822  
      78A      0.471047    79A      0.479157    80A      0.480557  
      81A      0.495228    82A      0.499711    83A      0.504732  
      84A      0.515585    85A      0.521516    86A      0.532376  
      87A      0.545990    88A      0.556413    89A      0.569432  
      90A      0.580485    91A      0.584237    92A      0.588840  
      93A      0.599598    94A      0.604490    95A      0.609904  
      96A      0.628564    97A      0.635572    98A      0.649180  
      99A      0.668528   100A      0.669848   101A      0.682145  
     102A      0.687647   103A      0.694514   104A      0.704481  
     105A      0.707092   106A      0.714573   107A      0.728712  
     108A      0.736897   109A      0.741661   110A      0.748757  
     111A      0.756138   112A      0.769946   113A      0.772510  
     114A      0.775041   115A      0.782980   116A      0.787377  
     117A      0.792507   118A      0.803157   119A      0.812104  
     120A      0.815049   121A      0.819845   122A      0.835782  
     123A      0.837047   124A      0.847998   125A      0.853851  
     126A      0.857831   127A      0.864824   128A      0.874187  
     129A      0.882608   130A      0.894113   131A      0.906935  
     132A      0.911968   133A      0.915229   134A      0.922128  
     135A      0.927948   136A      0.941259   137A      0.955095  
     138A      0.962673   139A      0.966237   140A      0.976868  
     141A      0.980162   142A      0.999432   143A      1.007149  
     144A      1.017494   145A      1.022489   146A      1.027519  
     147A      1.030869   148A      1.041223   149A      1.052556  
     150A      1.057675   151A      1.058697   152A      1.062975  
     153A      1.082639   154A      1.090379   155A      1.097302  
     156A      1.100027   157A      1.105718   158A      1.113413  
     159A      1.120985   160A      1.132858   161A      1.144479  
     162A      1.155520   163A      1.162872   164A      1.169062  
     165A      1.175761   166A      1.184843   167A      1.190937  
     168A      1.198400   169A      1.211169   170A      1.213573  
     171A      1.218195   172A      1.231392   173A      1.243098  
     174A      1.268781   175A      1.274026   176A      1.276660  
     177A      1.287213   178A      1.288689   179A      1.308193  
     180A      1.310572   181A      1.315117   182A      1.325558  
     183A      1.333875   184A      1.340725   185A      1.350335  
     186A      1.367932   187A      1.382942   188A      1.391025  
     189A      1.405150   190A      1.419264   191A      1.436844  
     192A      1.445751   193A      1.457161   194A      1.469417  
     195A      1.471639   196A      1.477867   197A      1.488433  
     198A      1.500790   199A      1.506235   200A      1.517856  
     201A      1.527821   202A      1.542018   203A      1.555531  
     204A      1.561779   205A      1.573616   206A      1.585884  
     207A      1.599203   208A      1.602619   209A      1.620103  
     210A      1.631911   211A      1.639410   212A      1.643632  
     213A      1.648932   214A      1.660579   215A      1.671970  
     216A      1.673666   217A      1.690902   218A      1.701979  
     219A      1.708098   220A      1.713387   221A      1.728085  
     222A      1.730314   223A      1.745276   224A      1.750653  
     225A      1.755336   226A      1.769789   227A      1.771190  
     228A      1.793483   229A      1.804319   230A      1.811444  
     231A      1.820698   232A      1.826654   233A      1.840716  
     234A      1.854124   235A      1.868269   236A      1.884105  
     237A      1.889989   238A      1.900380   239A      1.910390  
     240A      1.916450   241A      1.941088   242A      1.948083  
     243A      1.951594   244A      1.971246   245A      1.985573  
     246A      1.990346   247A      1.997101   248A      2.023989  
     249A      2.035016   250A      2.055923   251A      2.066773  
     252A      2.076920   253A      2.082626   254A      2.116654  
     255A      2.125327   256A      2.150908   257A      2.160346  
     258A      2.182813   259A      2.186492   260A      2.198986  
     261A      2.211548   262A      2.225347   263A      2.227156  
     264A      2.258821   265A      2.272351   266A      2.294898  
     267A      2.304429   268A      2.318009   269A      2.321355  
     270A      2.334219   271A      2.341082   272A      2.377877  
     273A      2.386300   274A      2.400062   275A      2.408457  
     276A      2.427663   277A      2.445806   278A      2.452288  
     279A      2.477406   280A      2.485626   281A      2.518269  
     282A      2.535480   283A      2.546934   284A      2.558073  
     285A      2.581922   286A      2.586522   287A      2.593800  
     288A      2.606300   289A      2.620335   290A      2.637952  
     291A      2.656745   292A      2.665982   293A      2.679841  
     294A      2.689242   295A      2.714917   296A      2.720850  
     297A      2.735947   298A      2.746109   299A      2.758381  
     300A      2.775062   301A      2.777767   302A      2.805718  
     303A      2.809129   304A      2.817367   305A      2.842370  
     306A      2.856416   307A      2.871705   308A      2.875074  
     309A      2.895974   310A      2.904562   311A      2.905080  
     312A      2.919567   313A      2.937857   314A      2.944320  
     315A      2.949399   316A      2.961380   317A      2.985803  
     318A      3.011852   319A      3.012614   320A      3.024098  
     321A      3.035699   322A      3.048456   323A      3.051492  
     324A      3.081102   325A      3.101790   326A      3.111518  
     327A      3.137338   328A      3.164914   329A      3.176296  
     330A      3.217906   331A      3.238378   332A      3.249626  
     333A      3.279890   334A      3.298691   335A      3.309607  
     336A      3.332859   337A      3.349093   338A      3.369527  
     339A      3.387010   340A      3.395995   341A      3.420258  
     342A      3.479956   343A      3.507307   344A      3.569627  
     345A      3.627301   346A      3.632746   347A      3.657344  
     348A      3.675997   349A      3.723877   350A      3.761027  
     351A      3.855912   352A      3.874399   353A      3.916330  
     354A      3.933865   355A      3.976294   356A      4.033776  
     357A      4.048404   358A      4.062775   359A      4.071492  
     360A      4.074507   361A      4.124782   362A      4.160934  
     363A      4.168421   364A      4.174783   365A      4.187807  
     366A      4.221045   367A      4.259953   368A      4.281600  
     369A      4.292370   370A      4.316094   371A      4.325147  
     372A      4.348542   373A      4.395028   374A      4.418219  
     375A      4.436956   376A      4.448405   377A      4.479539  
     378A      4.509187   379A      4.525077   380A      4.535714  
     381A      4.544925   382A      4.558735   383A      4.564629  
     384A      4.589850   385A      4.593604   386A      4.618856  
     387A      4.634814   388A      4.647254   389A      4.667613  
     390A      4.671850   391A      4.679856   392A      4.700731  
     393A      4.736746   394A      4.767667   395A      4.772168  
     396A      4.781348   397A      4.804801   398A      4.825915  
     399A      4.842500   400A      4.867474   401A      4.882912  
     402A      4.925842   403A      4.931892   404A      4.938777  
     405A      4.947141   406A      4.963975   407A      4.978392  
     408A      4.992157   409A      4.999281   410A      5.009130  
     411A      5.025180   412A      5.052164   413A      5.058117  
     414A      5.088969   415A      5.108264   416A      5.114813  
     417A      5.137663   418A      5.160541   419A      5.169675  
     420A      5.185670   421A      5.215708   422A      5.231315  
     423A      5.252654   424A      5.262036   425A      5.286223  
     426A      5.305209   427A      5.321550   428A      5.336055  
     429A      5.363523   430A      5.366859   431A      5.397288  
     432A      5.414976   433A      5.428047   434A      5.447816  
     435A      5.457286   436A      5.500825   437A      5.510865  
     438A      5.547327   439A      5.564791   440A      5.578978  
     441A      5.601518   442A      5.640289   443A      5.657035  
     444A      5.686511   445A      5.700722   446A      5.734133  
     447A      5.750850   448A      5.803808   449A      5.817168  
     450A      5.857664   451A      5.894243   452A      5.905851  
     453A      5.922076   454A      5.953258   455A      5.995156  
     456A      6.030224   457A      6.041116   458A      6.052911  
     459A      6.080952   460A      6.112496   461A      6.180780  
     462A      6.196708   463A      6.225857   464A      6.242630  
     465A      6.283304   466A      6.366328   467A      6.383253  
     468A      6.431570   469A      6.457174   470A      6.515609  
     471A      6.533578   472A      6.563050   473A      6.575140  
     474A      6.596798   475A      6.631400   476A      6.688668  
     477A      6.731907   478A      6.765932   479A      6.780643  
     480A      6.802258   481A      6.844687   482A      6.859250  
     483A      6.893723   484A      6.918907   485A      6.928824  
     486A      6.960042   487A      6.978394   488A      7.041735  
     489A      7.114479   490A      7.128572   491A      7.178777  
     492A      7.245111   493A      7.276180   494A      7.361147  
     495A      7.378428   496A      7.409596   497A      7.443022  
     498A      7.468308   499A      7.515448   500A      7.521958  
     501A      7.534825   502A      7.549789   503A      7.590170  
     504A      7.643927   505A      7.662011   506A      7.697467  
     507A      7.743008   508A      7.749065   509A      7.792618  
     510A      7.806462   511A      7.817531   512A      7.847746  
     513A      7.876630   514A      7.897198   515A      7.917518  
     516A      7.941686   517A      7.964636   518A      8.000878  
     519A      8.036776   520A      8.068189   521A      8.103948  
     522A      8.161868   523A      8.184897   524A      8.193006  
     525A      8.223385   526A      8.243712   527A      8.306218  
     528A      8.318104   529A      8.377181   530A      8.468995  
     531A      8.657009   532A      8.681588   533A      8.822409  
     534A      8.879135   535A      8.890551   536A      8.992884  
     537A      9.131656   538A      9.266411   539A      9.321831  
     540A      9.371988   541A      9.579969   542A      9.601339  
     543A      9.629485   544A      9.717125   545A      9.789815  
     546A      9.973996   547A     10.116696   548A     10.198226  
     549A     10.226138   550A     10.477590   551A     10.781021  
     552A     10.911633   553A     10.975971   554A     11.109985  
     555A     11.378749   556A     11.590879   557A     11.681581  
     558A     11.786927   559A     11.918456   560A     12.117179  
     561A     12.355743   562A     12.723459   563A     12.787998  
     564A     12.927379   565A     13.548561   566A     14.102565  
     567A     17.956993   568A     51.415397   569A     51.720455  
     570A     53.516444   571A     55.363782   572A     60.366986  
     573A     62.099420   574A     63.671489   575A     69.632911  

    Final Occupation by Irrep:
              A 
    DOCC [     5 ]

  @DF-RHF Final Energy:   -76.05854188359659

   => Energetics <=

    Nuclear Repulsion Energy =              9.0017383462640108
    One-Electron Energy =                -122.7001331286976722
    Two-Electron Energy =                  37.6398528988370771
    Total Energy =                        -76.0585418835965896

Computation Completed


Properties will be evaluated at   0.000000,   0.000000,   0.000000 [a0]

Properties computed using the SCF density matrix

  Nuclear Dipole Moment: [e a0]
     X:   -60.0374      Y:     4.6343      Z:    -0.1235

  Electronic Dipole Moment: [e a0]
     X:    60.0714      Y:    -5.2273      Z:     0.6428

  Dipole Moment: [e a0]
     X:     0.0341      Y:    -0.5930      Z:     0.5193     Total:     0.7890

  Dipole Moment: [D]
     X:     0.0866      Y:    -1.5072      Z:     1.3200     Total:     2.0054


*** tstop() called on node194.bme.utexas.edu at Thu Mar 28 12:08:08 2024
Module time:
	user time   =      68.70 seconds =       1.14 minutes
	system time =       0.41 seconds =       0.01 minutes
	total time  =         10 seconds =       0.17 minutes
Total time:
	user time   =     334.54 seconds =       5.58 minutes
	system time =       2.66 seconds =       0.04 minutes
	total time  =         46 seconds =       0.77 minutes

*** tstart() called on node194.bme.utexas.edu
*** at Thu Mar 28 12:08:08 2024


  //>>>>>>>>>>>>>>>>>>>>>>>>>>>>>>>>>>>//
  //               DFMP2               //
  //<<<<<<<<<<<<<<<<<<<<<<<<<<<<<<<<<<<//

   => Loading Basis Set <=

    Name: (AUG-CC-PVTZ AUX)
    Role: RIFIT
    Keyword: DF_BASIS_MP2
    atoms 1, 5, 7            entry N          line   206 file /opt/anaconda/envs/psi4v1.5/share/psi4/basis/aug-cc-pvtz-ri.gbs 
    atoms 2, 9, 11-13, 15-16 entry H          line    30 file /opt/anaconda/envs/psi4v1.5/share/psi4/basis/aug-cc-pvtz-ri.gbs 
    atoms 3, 6, 8, 10        entry C          line   148 file /opt/anaconda/envs/psi4v1.5/share/psi4/basis/aug-cc-pvtz-ri.gbs 
    atoms 4, 14              entry O          line   264 file /opt/anaconda/envs/psi4v1.5/share/psi4/basis/aug-cc-pvtz-ri.gbs 

	 --------------------------------------------------------
	                          DF-MP2                         
	      2nd-Order Density-Fitted Moller-Plesset Theory     
	              RMP2 Wavefunction,   8 Threads             
	                                                         
	        Rob Parrish, Justin Turney, Andy Simmonett,      
	           Ed Hohenstein, and C. David Sherrill          
	 --------------------------------------------------------

   => Auxiliary Basis Set <=

  Basis Set: (AUG-CC-PVTZ AUX)
    Blend: AUG-CC-PVTZ-RI
    Number of shells: 350
    Number of basis functions: 1276
    Number of Cartesian functions: 1609
    Spherical Harmonics?: true
    Max angular momentum: 4

	 --------------------------------------------------------
	                 NBF =   575, NAUX =  1276
	 --------------------------------------------------------
	   CLASS    FOCC     OCC    AOCC    AVIR     VIR    FVIR
	   PAIRS       1       5       4     570     570       0
	 --------------------------------------------------------

	 Will attempt to load fitting metric from file 97.

	-----------------------------------------------------------
	 ==================> DF-MP2 Energies <==================== 
	-----------------------------------------------------------
	 Reference Energy          =     -76.0585418835965896 [Eh]
	 Singles Energy            =      -0.0000000000000000 [Eh]
	 Same-Spin Energy          =      -0.0656492967791670 [Eh]
	 Opposite-Spin Energy      =      -0.2056590481948282 [Eh]
	 Correlation Energy        =      -0.2713083449739953 [Eh]
	 Total Energy              =     -76.3298502285705780 [Eh]
	-----------------------------------------------------------
	 ================> DF-SCS-MP2 Energies <================== 
	-----------------------------------------------------------
	 SCS Same-Spin Scale       =       0.3333333333333333 [-]
	 SCS Opposite-Spin Scale   =       1.2000000000000000 [-]
	 SCS Same-Spin Energy      =      -0.0218830989263890 [Eh]
	 SCS Opposite-Spin Energy  =      -0.2467908578337939 [Eh]
	 SCS Correlation Energy    =      -0.2686739567601829 [Eh]
	 SCS Total Energy          =     -76.3272158403567715 [Eh]
	-----------------------------------------------------------


*** tstop() called on node194.bme.utexas.edu at Thu Mar 28 12:08:10 2024
Module time:
	user time   =      11.11 seconds =       0.19 minutes
	system time =       0.22 seconds =       0.00 minutes
	total time  =          2 seconds =       0.03 minutes
Total time:
	user time   =     345.65 seconds =       5.76 minutes
	system time =       2.88 seconds =       0.05 minutes
	total time  =         48 seconds =       0.80 minutes
  Constructing Basis Sets for SAPT...

   => Loading Basis Set <=

    Name: (AUG-CC-PVTZ AUX)
    Role: RIFIT
    Keyword: DF_BASIS_SAPT
    atoms 1, 5, 7            entry N          line   206 file /opt/anaconda/envs/psi4v1.5/share/psi4/basis/aug-cc-pvtz-ri.gbs 
    atoms 2, 9, 11-13, 15-16 entry H          line    30 file /opt/anaconda/envs/psi4v1.5/share/psi4/basis/aug-cc-pvtz-ri.gbs 
    atoms 3, 6, 8, 10        entry C          line   148 file /opt/anaconda/envs/psi4v1.5/share/psi4/basis/aug-cc-pvtz-ri.gbs 
    atoms 4, 14              entry O          line   264 file /opt/anaconda/envs/psi4v1.5/share/psi4/basis/aug-cc-pvtz-ri.gbs 


  //>>>>>>>>>>>>>>>>>>>>>>>>>>>>>>>>>>>//
  //           SAPT2+(3)DMP2           //
  //<<<<<<<<<<<<<<<<<<<<<<<<<<<<<<<<<<<//


*** tstart() called on node194.bme.utexas.edu
*** at Thu Mar 28 12:08:10 2024

      SAPT2+(3)  
    Ed Hohenstein
     6 June 2009

      Orbital Information
  --------------------------
    NSO        =       575
    NMO        =       575
    NRI        =      1276
    NOCC A     =        29
    NOCC B     =         5
    FOCC A     =         8
    FOCC B     =         1
    NVIR A     =       546
    NVIR B     =       570

    Estimated memory usage: 9874.4 MB

    Natural Orbital Cutoff:   1.000E-06
    Disp(T3) Truncation:            Yes
    CCD (vv|vv) Truncation:         Yes
    MBPT T2 Truncation:             Yes

    Monomer A: 126 virtual orbitals dropped
    Monomer B: 480 virtual orbitals dropped

    Elst10,r            =    -0.082646683736 [Eh]
    Exch10 (S^2)        =     0.126082659810 [Eh]
    Exch10              =     0.130452474871 [Eh]
    Ind20,r (A<-B)      =    -0.032701122428 [Eh]
    Ind20,r (B<-A)      =    -0.035706819165 [Eh]
    Ind20,r             =    -0.068407941593 [Eh]
    Exch-Ind20,r (A<-B) =     0.021651096528 [Eh]
    Exch-Ind20,r (B<-A) =     0.021769050329 [Eh]
    Exch-Ind20,r        =     0.043420146857 [Eh]
    Disp20              =    -0.029992302057 [Eh]
    Disp20 (NO)         =    -0.026771311545 [Eh]
    Exch-Disp20         =     0.007652911894 [Eh]
    Elst12,r            =    -0.001831547530 [Eh]
    Exch11              =     0.000612233878 [Eh]
    Exch12              =     0.012144193405 [Eh]
    Ind22               =    -0.010309186726 [Eh]
    Disp21              =     0.002812616768 [Eh]
    Disp22 (SDQ)        =    -0.000584634804 [Eh]

    (i =   1 of   4)         96 seconds
    (i =   2 of   4)        192 seconds
    (i =   3 of   4)        289 seconds
    (i =   4 of   4)        385 seconds

    Disp220 (T)         =    -0.002392648386 [Eh]

    (i =   1 of  21)          4 seconds
    (i =   2 of  21)          7 seconds
    (i =   3 of  21)         10 seconds
    (i =   4 of  21)         14 seconds
    (i =   5 of  21)         17 seconds
    (i =   6 of  21)         20 seconds
    (i =   7 of  21)         24 seconds
    (i =   8 of  21)         27 seconds
    (i =   9 of  21)         30 seconds
    (i =  10 of  21)         34 seconds
    (i =  11 of  21)         37 seconds
    (i =  12 of  21)         40 seconds
    (i =  13 of  21)         43 seconds
    (i =  14 of  21)         47 seconds
    (i =  15 of  21)         50 seconds
    (i =  16 of  21)         53 seconds
    (i =  17 of  21)         57 seconds
    (i =  18 of  21)         60 seconds
    (i =  19 of  21)         63 seconds
    (i =  20 of  21)         67 seconds
    (i =  21 of  21)         70 seconds

    Disp202 (T)         =    -0.002101717012 [Eh]

    Disp22 (T)          =    -0.004494365398 [Eh]

    Est. Disp220 (T)    =    -0.002680519891 [Eh]
    Est. Disp202 (T)    =    -0.002354585107 [Eh]

    Est. Disp22 (T)     =    -0.005035104998 [Eh]
    Elst13,r            =     0.001720576671 [Eh]
    Disp30              =     0.001080921385 [Eh]

    SAPT Results 
  --------------------------------------------------------------------------------------------------------
    Electrostatics                -82.75765460 [mEh]     -51.93121229 [kcal/mol]    -217.28019221 [kJ/mol]
      Elst10,r                    -82.64668374 [mEh]     -51.86157702 [kcal/mol]    -216.98883825 [kJ/mol]
      Elst12,r                     -1.83154753 [mEh]      -1.14931343 [kcal/mol]      -4.80872738 [kJ/mol]
      Elst13,r                      1.72057667 [mEh]       1.07967816 [kcal/mol]       4.51737343 [kJ/mol]

    Exchange                      143.20890215 [mEh]      89.86494283 [kcal/mol]     375.99492081 [kJ/mol]
      Exch10                      130.45247487 [mEh]      81.86016386 [kcal/mol]     342.50292559 [kJ/mol]
      Exch10(S^2)                 126.08265981 [mEh]      79.11806351 [kcal/mol]     331.02997773 [kJ/mol]
      Exch11(S^2)                   0.61223388 [mEh]       0.38418256 [kcal/mol]       1.60741983 [kJ/mol]
      Exch12(S^2)                  12.14419341 [mEh]       7.62059641 [kcal/mol]      31.88457539 [kJ/mol]

    Induction                     -41.21383129 [mEh]     -25.86206958 [kcal/mol]    -108.20689914 [kJ/mol]
      Ind20,r                     -68.40794159 [mEh]     -42.92663143 [kcal/mol]    -179.60502591 [kJ/mol]
      Ind22                       -10.30918673 [mEh]      -6.46911234 [kcal/mol]     -27.06676602 [kJ/mol]
      Exch-Ind20,r                 43.42014686 [mEh]      27.24655351 [kcal/mol]     113.99957987 [kJ/mol]
      Exch-Ind22                    6.54348591 [mEh]       4.10609940 [kcal/mol]      17.17991988 [kJ/mol]
      delta HF,r (2)              -17.24852195 [mEh]     -10.82361093 [kcal/mol]     -45.28598815 [kJ/mol]
      delta MP2,r (2)               4.78818622 [mEh]       3.00463222 [kcal/mol]      12.57138119 [kJ/mol]

    Dispersion                    -24.06559181 [mEh]     -15.10138685 [kcal/mol]     -63.18420260 [kJ/mol]
      Disp20                      -29.99230206 [mEh]     -18.82045368 [kcal/mol]     -78.74477820 [kJ/mol]
      Disp30                        1.08092138 [mEh]       0.67828841 [kcal/mol]       2.83795870 [kJ/mol]
      Disp21                        2.81261677 [mEh]       1.76494367 [kcal/mol]       7.38452431 [kJ/mol]
      Disp22 (SDQ)                 -0.58463480 [mEh]      -0.36686388 [kcal/mol]      -1.53495847 [kJ/mol]
      Disp22 (T)                   -4.49436540 [mEh]      -2.82025687 [kcal/mol]     -11.79995473 [kJ/mol]
      Est. Disp22 (T)              -5.03510500 [mEh]      -3.15957609 [kcal/mol]     -13.21966635 [kJ/mol]
      Exch-Disp20                   7.65291189 [mEh]       4.80227472 [kcal/mol]      20.09271741 [kJ/mol]

  Total HF                          5.56947445 [mEh]       3.49489798 [kcal/mol]      14.62265315 [kJ/mol]
  Total SAPT0                     -16.76991572 [mEh]     -10.52328099 [kcal/mol]     -44.02940764 [kJ/mol]
  Total SAPT2                      -9.61073678 [mEh]      -6.03082838 [kcal/mol]     -25.23298595 [kJ/mol]
  Total SAPT2+                    -12.41785982 [mEh]      -7.79232468 [kcal/mol]     -32.60308646 [kJ/mol]
  Total SAPT2+(3)                  -9.61636176 [mEh]      -6.03435811 [kcal/mol]     -25.24775432 [kJ/mol]
  Total SAPT2+dMP2                 -7.62967360 [mEh]      -4.78769246 [kcal/mol]     -20.03170527 [kJ/mol]
  Total SAPT2+(3)dMP2              -4.82817554 [mEh]      -3.02972589 [kcal/mol]     -12.67637313 [kJ/mol]

  Special recipe for scaled SAPT0 (see Manual):
    Electrostatics sSAPT0         -82.64668374 [mEh]     -51.86157702 [kcal/mol]    -216.98883825 [kJ/mol]
    Exchange sSAPT0               130.45247487 [mEh]      81.86016386 [kcal/mol]     342.50292559 [kJ/mol]
    Induction sSAPT0              -37.56343019 [mEh]     -23.57140831 [kcal/mol]     -98.62277237 [kJ/mol]
    Dispersion sSAPT0             -21.51578197 [mEh]     -13.50135702 [kcal/mol]     -56.48967778 [kJ/mol]
  Total sSAPT0                    -11.27342102 [mEh]      -7.07417849 [kcal/mol]     -29.59836281 [kJ/mol]
  --------------------------------------------------------------------------------------------------------

*** tstop() called on node194.bme.utexas.edu at Thu Mar 28 12:29:30 2024
Module time:
	user time   =    9753.59 seconds =     162.56 minutes
	system time =      68.37 seconds =       1.14 minutes
	total time  =       1280 seconds =      21.33 minutes
Total time:
	user time   =   10099.64 seconds =     168.33 minutes
	system time =      71.25 seconds =       1.19 minutes
	total time  =       1328 seconds =      22.13 minutes

    Psi4 stopped on: Thursday, 28 March 2024 12:29PM
    Psi4 wall time for execution: 0:22:07.82

*** Psi4 exiting successfully. Buy a developer a beer!
