
    -----------------------------------------------------------------------
          Psi4: An Open-Source Ab Initio Electronic Structure Package
                               Psi4 1.5 release

                         Git: Rev {HEAD} e9f4d6d 


    D. G. A. Smith, L. A. Burns, A. C. Simmonett, R. M. Parrish,
    M. C. Schieber, R. Galvelis, P. Kraus, H. Kruse, R. Di Remigio,
    A. Alenaizan, A. M. James, S. Lehtola, J. P. Misiewicz, M. Scheurer,
    R. A. Shaw, J. B. Schriber, Y. Xie, Z. L. Glick, D. A. Sirianni,
    J. S. O'Brien, J. M. Waldrop, A. Kumar, E. G. Hohenstein,
    B. P. Pritchard, B. R. Brooks, H. F. Schaefer III, A. Yu. Sokolov,
    K. Patkowski, A. E. DePrince III, U. Bozkaya, R. A. King,
    F. A. Evangelista, J. M. Turney, T. D. Crawford, C. D. Sherrill,
    J. Chem. Phys. 152(18) 184108 (2020). https://doi.org/10.1063/5.0006002

                            Additional Code Authors
    E. T. Seidl, C. L. Janssen, E. F. Valeev, M. L. Leininger,
    J. F. Gonthier, R. M. Richard, H. R. McAlexander, M. Saitow, X. Wang,
    P. Verma, M. H. Lechner, and A. Jiang

             Previous Authors, Complete List of Code Contributors,
                       and Citations for Specific Modules
    https://github.com/psi4/psi4/blob/master/codemeta.json
    https://github.com/psi4/psi4/graphs/contributors
    http://psicode.org/psi4manual/master/introduction.html#citing-psifour

    -----------------------------------------------------------------------


    Psi4 started on: Friday, 29 March 2024 04:47PM

    Process ID: 1519193
    Host:       node108.bme.utexas.edu
    PSIDATADIR: /opt/anaconda/envs/psi4v1.5/share/psi4
    Memory:     500.0 MiB
    Threads:    8
    
  ==> Input File <==

--------------------------------------------------------------------------
memory 50GB

molecule {
0 1
N -0.85368 -2.09481 0.08509
H -0.31837 -2.95091 0.1715
C -2.22205 -1.969 0.013
H -2.87621 -2.83122 0.01776
N -2.61932 -0.7095 -0.06209
C -1.44407 0.0092 -0.03449
C -1.24024 1.43551 -0.06099
O -2.03937 2.36125 -0.12082
N 0.16263 1.70934 0.01098
C 1.18916 0.80169 0.08466
N 2.45589 1.30727 0.21549
N 0.99231 -0.50374 0.10169
C -0.3344 -0.82673 0.06277
H 0.37294 2.70253 0.07805
H 2.64412 2.19335 -0.23666
H 3.18882 0.60208 0.10583
--
0 1
O 3.383446166666667 -1.1454733958333334 -0.08143277083333333
H 2.4154761666666666 -1.2374533958333334 0.05892722916666667
H 3.5124161666666667 -1.3865733958333333 -1.0121027708333334
 units angstrom
 no_reorient
 symmetry c1} 
set  {scf_type DF
 basis aug-cc-pvtz
 freeze_core True
 guess SAD}
energy('sapt2+(3)dmp2')
--------------------------------------------------------------------------

  Memory set to  46.566 GiB by Python driver.

Scratch directory: /tmp/
   => Loading Basis Set <=

    Name: AUG-CC-PVTZ
    Role: ORBITAL
    Keyword: BASIS
    atoms 1, 5, 9, 11-12     entry N          line   285 file /opt/anaconda/envs/psi4v1.5/share/psi4/basis/aug-cc-pvtz.gbs 
    atoms 2, 4, 14-16, 18-19 entry H          line    40 file /opt/anaconda/envs/psi4v1.5/share/psi4/basis/aug-cc-pvtz.gbs 
    atoms 3, 6-7, 10, 13     entry C          line   239 file /opt/anaconda/envs/psi4v1.5/share/psi4/basis/aug-cc-pvtz.gbs 
    atoms 8, 17              entry O          line   331 file /opt/anaconda/envs/psi4v1.5/share/psi4/basis/aug-cc-pvtz.gbs 

   => Loading Basis Set <=

    Name: AUG-CC-PVTZ
    Role: ORBITAL
    Keyword: BASIS
    atoms 1, 5, 9, 11-12     entry N          line   285 file /opt/anaconda/envs/psi4v1.5/share/psi4/basis/aug-cc-pvtz.gbs 
    atoms 2, 4, 14-16, 18-19 entry H          line    40 file /opt/anaconda/envs/psi4v1.5/share/psi4/basis/aug-cc-pvtz.gbs 
    atoms 3, 6-7, 10, 13     entry C          line   239 file /opt/anaconda/envs/psi4v1.5/share/psi4/basis/aug-cc-pvtz.gbs 
    atoms 8, 17              entry O          line   331 file /opt/anaconda/envs/psi4v1.5/share/psi4/basis/aug-cc-pvtz.gbs 


  //>>>>>>>>>>>>>>>>>>>>>>>>>>>>>>>>>>>//
  //              Dimer HF             //
  //<<<<<<<<<<<<<<<<<<<<<<<<<<<<<<<<<<<//


*** tstart() called on node108.bme.utexas.edu
*** at Fri Mar 29 16:47:33 2024

   => Loading Basis Set <=

    Name: AUG-CC-PVTZ
    Role: ORBITAL
    Keyword: BASIS
    atoms 1, 5, 9, 11-12     entry N          line   285 file /opt/anaconda/envs/psi4v1.5/share/psi4/basis/aug-cc-pvtz.gbs 
    atoms 2, 4, 14-16, 18-19 entry H          line    40 file /opt/anaconda/envs/psi4v1.5/share/psi4/basis/aug-cc-pvtz.gbs 
    atoms 3, 6-7, 10, 13     entry C          line   239 file /opt/anaconda/envs/psi4v1.5/share/psi4/basis/aug-cc-pvtz.gbs 
    atoms 8, 17              entry O          line   331 file /opt/anaconda/envs/psi4v1.5/share/psi4/basis/aug-cc-pvtz.gbs 


         ---------------------------------------------------------
                                   SCF
               by Justin Turney, Rob Parrish, Andy Simmonett
                          and Daniel G. A. Smith
                              RHF Reference
                        8 Threads,  47683 MiB Core
         ---------------------------------------------------------

  ==> Geometry <==

    Molecular point group: c1
    Full point group: C1

    Geometry (in Angstrom), charge = 0, multiplicity = 1:

       Center              X                  Y                   Z               Mass       
    ------------   -----------------  -----------------  -----------------  -----------------
         N           -0.757964671581    -2.129367402393     0.075397478392    14.003074004430
         H           -0.222654671581    -2.985467402393     0.161807478392     1.007825032230
         C           -2.126334671581    -2.003557402393     0.003307478392    12.000000000000
         H           -2.780494671581    -2.865777402393     0.008067478392     1.007825032230
         N           -2.523604671581    -0.744057402393    -0.071782521608    14.003074004430
         C           -1.348354671581    -0.025357402393    -0.044182521608    12.000000000000
         C           -1.144524671581     1.400952597607    -0.070682521608    12.000000000000
         O           -1.943654671581     2.326692597607    -0.130512521608    15.994914619570
         N            0.258345328419     1.674782597607     0.001287478392    14.003074004430
         C            1.284875328419     0.767132597607     0.074967478392    12.000000000000
         N            2.551605328419     1.272712597607     0.205797478392    14.003074004430
         N            1.088025328419    -0.538297402393     0.091997478392    14.003074004430
         C           -0.238684671581    -0.861287402393     0.053077478392    12.000000000000
         H            0.468655328419     2.667972597607     0.068357478392     1.007825032230
         H            2.739835328419     2.158792597607    -0.246352521608     1.007825032230
         H            3.284535328419     0.567522597607     0.096137478392     1.007825032230
         O            3.479161495085    -1.180030798227    -0.091125292441    15.994914619570
         H            2.511191495085    -1.272010798227     0.049234707559     1.007825032230
         H            3.608131495085    -1.421130798227    -1.021795292441     1.007825032230

  Running in c1 symmetry.

  Rotational constants: A =      0.04568  B =      0.02714  C =      0.01711 [cm^-1]
  Rotational constants: A =   1369.48526  B =    813.53461  C =    512.93704 [MHz]
  Nuclear repulsion =  707.756589819450596

  Charge       = 0
  Multiplicity = 1
  Electrons    = 88
  Nalpha       = 44
  Nbeta        = 44

  ==> Algorithm <==

  SCF Algorithm Type is DF.
  DIIS enabled.
  MOM disabled.
  Fractional occupation disabled.
  Guess Type is SAD.
  Energy threshold   = 1.00e-08
  Density threshold  = 1.00e-08
  Integral threshold = 1.00e-12

  ==> Primary Basis <==

  Basis Set: AUG-CC-PVTZ
    Blend: AUG-CC-PVTZ
    Number of shells: 231
    Number of basis functions: 713
    Number of Cartesian functions: 835
    Spherical Harmonics?: true
    Max angular momentum: 3

   => Loading Basis Set <=

    Name: (AUG-CC-PVTZ AUX)
    Role: JKFIT
    Keyword: DF_BASIS_SCF
    atoms 1, 5, 9, 11-12     entry N          line   224 file /opt/anaconda/envs/psi4v1.5/share/psi4/basis/aug-cc-pvtz-jkfit.gbs 
    atoms 2, 4, 14-16, 18-19 entry H          line    70 file /opt/anaconda/envs/psi4v1.5/share/psi4/basis/aug-cc-pvtz-jkfit.gbs 
    atoms 3, 6-7, 10, 13     entry C          line   162 file /opt/anaconda/envs/psi4v1.5/share/psi4/basis/aug-cc-pvtz-jkfit.gbs 
    atoms 8, 17              entry O          line   286 file /opt/anaconda/envs/psi4v1.5/share/psi4/basis/aug-cc-pvtz-jkfit.gbs 

  ==> Integral Setup <==

  ==> DiskDFJK: Density-Fitted J/K Matrices <==

    J tasked:                  Yes
    K tasked:                  Yes
    wK tasked:                  No
    OpenMP threads:              8
    Integrals threads:           8
    Memory [MiB]:            35762
    Algorithm:                Core
    Integral Cache:           SAVE
    Schwarz Cutoff:          1E-12
    Fitting Condition:       1E-10

   => Auxiliary Basis Set <=

  Basis Set: (AUG-CC-PVTZ AUX)
    Blend: AUG-CC-PVTZ-JKFIT
    Number of shells: 458
    Number of basis functions: 1570
    Number of Cartesian functions: 1957
    Spherical Harmonics?: true
    Max angular momentum: 4

  Minimum eigenvalue in the overlap matrix is 1.3570476130E-06.
  Reciprocal condition number of the overlap matrix is 7.3924728836E-08.
    Using symmetric orthogonalization.

  ==> Pre-Iterations <==

  SCF Guess: Superposition of Atomic Densities via on-the-fly atomic UHF (no occupation information).

   -------------------------
    Irrep   Nso     Nmo    
   -------------------------
     A        713     713 
   -------------------------
    Total     713     713
   -------------------------

  ==> Iterations <==

                           Total Energy        Delta E     RMS |[F,P]|

   @DF-RHF iter SAD:  -615.17704327571414   -6.15177e+02   0.00000e+00 
   @DF-RHF iter   1:  -615.26682409125294   -8.97808e-02   1.26819e-03 DIIS
   @DF-RHF iter   2:  -615.52946897992274   -2.62645e-01   7.75819e-04 DIIS
   @DF-RHF iter   3:  -615.63438187802774   -1.04913e-01   1.42230e-04 DIIS
   @DF-RHF iter   4:  -615.63987914603433   -5.49727e-03   6.33791e-05 DIIS
   @DF-RHF iter   5:  -615.64102296943520   -1.14382e-03   1.37377e-05 DIIS
   @DF-RHF iter   6:  -615.64113745032114   -1.14481e-04   6.81800e-06 DIIS
   @DF-RHF iter   7:  -615.64116853073767   -3.10804e-05   2.50601e-06 DIIS
   @DF-RHF iter   8:  -615.64117358164322   -5.05091e-06   8.48718e-07 DIIS
   @DF-RHF iter   9:  -615.64117412276369   -5.41120e-07   3.54465e-07 DIIS
   @DF-RHF iter  10:  -615.64117421616311   -9.33994e-08   1.50574e-07 DIIS
   @DF-RHF iter  11:  -615.64117423147491   -1.53118e-08   6.56903e-08 DIIS
   @DF-RHF iter  12:  -615.64117423405855   -2.58365e-09   2.00005e-08 DIIS
   @DF-RHF iter  13:  -615.64117423438802   -3.29464e-10   8.40797e-09 DIIS
  Energy and wave function converged.


  ==> Post-Iterations <==

    Orbital Energies [Eh]
    ---------------------

    Doubly Occupied:                                                      

       1A    -20.547965     2A    -20.530683     3A    -15.643672  
       4A    -15.636597     5A    -15.598892     6A    -15.581652  
       7A    -15.571150     8A    -11.408549     9A    -11.373826  
      10A    -11.336596    11A    -11.319619    12A    -11.256932  
      13A     -1.400316    14A     -1.368592    15A     -1.351482  
      16A     -1.333077    17A     -1.226567    18A     -1.218371  
      19A     -1.184988    20A     -1.037945    21A     -0.913712  
      22A     -0.891184    23A     -0.852672    24A     -0.810319  
      25A     -0.748658    26A     -0.736743    27A     -0.715614  
      28A     -0.707566    29A     -0.676287    30A     -0.664822  
      31A     -0.640518    32A     -0.623131    33A     -0.607073  
      34A     -0.604370    35A     -0.586478    36A     -0.553649  
      37A     -0.509177    38A     -0.491680    39A     -0.459376  
      40A     -0.448248    41A     -0.439610    42A     -0.436889  
      43A     -0.419543    44A     -0.308932  

    Virtual:                                                              

      45A      0.016103    46A      0.021613    47A      0.034415  
      48A      0.042666    49A      0.050165    50A      0.054983  
      51A      0.069510    52A      0.073561    53A      0.079723  
      54A      0.085188    55A      0.087531    56A      0.095952  
      57A      0.102669    58A      0.109290    59A      0.110645  
      60A      0.114835    61A      0.118380    62A      0.120088  
      63A      0.126164    64A      0.128446    65A      0.135989  
      66A      0.136872    67A      0.143019    68A      0.146146  
      69A      0.152253    70A      0.158191    71A      0.161574  
      72A      0.169799    73A      0.174604    74A      0.177375  
      75A      0.184776    76A      0.186435    77A      0.193866  
      78A      0.198001    79A      0.203296    80A      0.206763  
      81A      0.209565    82A      0.215447    83A      0.222653  
      84A      0.224423    85A      0.231029    86A      0.235710  
      87A      0.241402    88A      0.250021    89A      0.252726  
      90A      0.259024    91A      0.266463    92A      0.270110  
      93A      0.277229    94A      0.283130    95A      0.291332  
      96A      0.292967    97A      0.302889    98A      0.306614  
      99A      0.310746   100A      0.314884   101A      0.320045  
     102A      0.325080   103A      0.327488   104A      0.329061  
     105A      0.335853   106A      0.336784   107A      0.351354  
     108A      0.355171   109A      0.360039   110A      0.362100  
     111A      0.363301   112A      0.366374   113A      0.373545  
     114A      0.374680   115A      0.383268   116A      0.387221  
     117A      0.395256   118A      0.399008   119A      0.402480  
     120A      0.409388   121A      0.417192   122A      0.425711  
     123A      0.429926   124A      0.436095   125A      0.445385  
     126A      0.446824   127A      0.449710   128A      0.451268  
     129A      0.456683   130A      0.463652   131A      0.465713  
     132A      0.470596   133A      0.474598   134A      0.479129  
     135A      0.485146   136A      0.489948   137A      0.492796  
     138A      0.495838   139A      0.504632   140A      0.505567  
     141A      0.509561   142A      0.523261   143A      0.526236  
     144A      0.529244   145A      0.533283   146A      0.542128  
     147A      0.544502   148A      0.553887   149A      0.558605  
     150A      0.562436   151A      0.565731   152A      0.580150  
     153A      0.584363   154A      0.601009   155A      0.605471  
     156A      0.615438   157A      0.619409   158A      0.624017  
     159A      0.631449   160A      0.639842   161A      0.644436  
     162A      0.647841   163A      0.651991   164A      0.660690  
     165A      0.665723   166A      0.669721   167A      0.676234  
     168A      0.682051   169A      0.683500   170A      0.692333  
     171A      0.703313   172A      0.708729   173A      0.727501  
     174A      0.732306   175A      0.742875   176A      0.746530  
     177A      0.752181   178A      0.752998   179A      0.755410  
     180A      0.757161   181A      0.770789   182A      0.775379  
     183A      0.787680   184A      0.788310   185A      0.791861  
     186A      0.800094   187A      0.808057   188A      0.815013  
     189A      0.819593   190A      0.822413   191A      0.831537  
     192A      0.839150   193A      0.853060   194A      0.858067  
     195A      0.866804   196A      0.868729   197A      0.874036  
     198A      0.886034   199A      0.891123   200A      0.895634  
     201A      0.902954   202A      0.908614   203A      0.912398  
     204A      0.923408   205A      0.932208   206A      0.933423  
     207A      0.936568   208A      0.944335   209A      0.949724  
     210A      0.959146   211A      0.960057   212A      0.964951  
     213A      0.968965   214A      0.976189   215A      0.981943  
     216A      0.994600   217A      0.999631   218A      1.005237  
     219A      1.008819   220A      1.020749   221A      1.026070  
     222A      1.028563   223A      1.035913   224A      1.043863  
     225A      1.046770   226A      1.050321   227A      1.051451  
     228A      1.055393   229A      1.067016   230A      1.068481  
     231A      1.072744   232A      1.082569   233A      1.092950  
     234A      1.098612   235A      1.100708   236A      1.106161  
     237A      1.119683   238A      1.122466   239A      1.129691  
     240A      1.141206   241A      1.149710   242A      1.155372  
     243A      1.160237   244A      1.162503   245A      1.169250  
     246A      1.177796   247A      1.179832   248A      1.184432  
     249A      1.193093   250A      1.206043   251A      1.216307  
     252A      1.217825   253A      1.223679   254A      1.233183  
     255A      1.234874   256A      1.245989   257A      1.258725  
     258A      1.268134   259A      1.271340   260A      1.278217  
     261A      1.283403   262A      1.286134   263A      1.294764  
     264A      1.300635   265A      1.305132   266A      1.314487  
     267A      1.317701   268A      1.330660   269A      1.341176  
     270A      1.349348   271A      1.364359   272A      1.368335  
     273A      1.373195   274A      1.375619   275A      1.384072  
     276A      1.395390   277A      1.397629   278A      1.402333  
     279A      1.410042   280A      1.420170   281A      1.425123  
     282A      1.427400   283A      1.437608   284A      1.444362  
     285A      1.445696   286A      1.454851   287A      1.464581  
     288A      1.469228   289A      1.479978   290A      1.488980  
     291A      1.496605   292A      1.506155   293A      1.518694  
     294A      1.523849   295A      1.525324   296A      1.532372  
     297A      1.541956   298A      1.561828   299A      1.565747  
     300A      1.567354   301A      1.575169   302A      1.581327  
     303A      1.586349   304A      1.595836   305A      1.603659  
     306A      1.617813   307A      1.631211   308A      1.634115  
     309A      1.643469   310A      1.651395   311A      1.656078  
     312A      1.658819   313A      1.670559   314A      1.677809  
     315A      1.695807   316A      1.705003   317A      1.717191  
     318A      1.718525   319A      1.725525   320A      1.729900  
     321A      1.745303   322A      1.748986   323A      1.767729  
     324A      1.775939   325A      1.790150   326A      1.800368  
     327A      1.811343   328A      1.820982   329A      1.832759  
     330A      1.846797   331A      1.847562   332A      1.855220  
     333A      1.860873   334A      1.879569   335A      1.901898  
     336A      1.904845   337A      1.929531   338A      1.935221  
     339A      1.953015   340A      1.958141   341A      1.966078  
     342A      1.973442   343A      1.985954   344A      2.001838  
     345A      2.018144   346A      2.024077   347A      2.038714  
     348A      2.055652   349A      2.059130   350A      2.070138  
     351A      2.079136   352A      2.084654   353A      2.096867  
     354A      2.099255   355A      2.104733   356A      2.109767  
     357A      2.128408   358A      2.134847   359A      2.147638  
     360A      2.179191   361A      2.181794   362A      2.193206  
     363A      2.198100   364A      2.209000   365A      2.218000  
     366A      2.228483   367A      2.245721   368A      2.260456  
     369A      2.280734   370A      2.292984   371A      2.303133  
     372A      2.307983   373A      2.317562   374A      2.321459  
     375A      2.329897   376A      2.333548   377A      2.344914  
     378A      2.357600   379A      2.369687   380A      2.374224  
     381A      2.382069   382A      2.395280   383A      2.409106  
     384A      2.413043   385A      2.424003   386A      2.429252  
     387A      2.435296   388A      2.459283   389A      2.472027  
     390A      2.487155   391A      2.505578   392A      2.506500  
     393A      2.514911   394A      2.523588   395A      2.527916  
     396A      2.535822   397A      2.544352   398A      2.559828  
     399A      2.578227   400A      2.580067   401A      2.592270  
     402A      2.602934   403A      2.607540   404A      2.616414  
     405A      2.636724   406A      2.643352   407A      2.661008  
     408A      2.668631   409A      2.675710   410A      2.686801  
     411A      2.696479   412A      2.701999   413A      2.718068  
     414A      2.724342   415A      2.731631   416A      2.745773  
     417A      2.756205   418A      2.762860   419A      2.767726  
     420A      2.791064   421A      2.797003   422A      2.808324  
     423A      2.827465   424A      2.832904   425A      2.838832  
     426A      2.862014   427A      2.868638   428A      2.871018  
     429A      2.893832   430A      2.920309   431A      2.925467  
     432A      2.946138   433A      2.959638   434A      2.980710  
     435A      2.989794   436A      3.001500   437A      3.021227  
     438A      3.037003   439A      3.071046   440A      3.098955  
     441A      3.104825   442A      3.123898   443A      3.135609  
     444A      3.148918   445A      3.152171   446A      3.194999  
     447A      3.212723   448A      3.223767   449A      3.240283  
     450A      3.250768   451A      3.255251   452A      3.302712  
     453A      3.320220   454A      3.352128   455A      3.365396  
     456A      3.378597   457A      3.411515   458A      3.414431  
     459A      3.425127   460A      3.440970   461A      3.482673  
     462A      3.511611   463A      3.521012   464A      3.530714  
     465A      3.549488   466A      3.572812   467A      3.593738  
     468A      3.608371   469A      3.617706   470A      3.654086  
     471A      3.660897   472A      3.672018   473A      3.687633  
     474A      3.688870   475A      3.706634   476A      3.709556  
     477A      3.737263   478A      3.747463   479A      3.756102  
     480A      3.768025   481A      3.807575   482A      3.814421  
     483A      3.822570   484A      3.853487   485A      3.856735  
     486A      3.867912   487A      3.880855   488A      3.891186  
     489A      3.896336   490A      3.920672   491A      3.944666  
     492A      3.949048   493A      3.971600   494A      3.986645  
     495A      3.991406   496A      4.008488   497A      4.024871  
     498A      4.035100   499A      4.054327   500A      4.064092  
     501A      4.066655   502A      4.085164   503A      4.097554  
     504A      4.117231   505A      4.133288   506A      4.143639  
     507A      4.150253   508A      4.156419   509A      4.171957  
     510A      4.172371   511A      4.181519   512A      4.200270  
     513A      4.204317   514A      4.229054   515A      4.238450  
     516A      4.256121   517A      4.261746   518A      4.269818  
     519A      4.279164   520A      4.286355   521A      4.295819  
     522A      4.305059   523A      4.321639   524A      4.324290  
     525A      4.341129   526A      4.352807   527A      4.365682  
     528A      4.375094   529A      4.385212   530A      4.413028  
     531A      4.421145   532A      4.431039   533A      4.436366  
     534A      4.468965   535A      4.481164   536A      4.491190  
     537A      4.496276   538A      4.504442   539A      4.518224  
     540A      4.519810   541A      4.544737   542A      4.555729  
     543A      4.568489   544A      4.575417   545A      4.604030  
     546A      4.610180   547A      4.633512   548A      4.651610  
     549A      4.663171   550A      4.666111   551A      4.672045  
     552A      4.709134   553A      4.718054   554A      4.736678  
     555A      4.742853   556A      4.748426   557A      4.784423  
     558A      4.786586   559A      4.811814   560A      4.828636  
     561A      4.857220   562A      4.863577   563A      4.880084  
     564A      4.889839   565A      4.900776   566A      4.914521  
     567A      4.927286   568A      4.952423   569A      4.978512  
     570A      4.987893   571A      5.009471   572A      5.020229  
     573A      5.031582   574A      5.049451   575A      5.080052  
     576A      5.085111   577A      5.103399   578A      5.127631  
     579A      5.160595   580A      5.187175   581A      5.197211  
     582A      5.217599   583A      5.222566   584A      5.246005  
     585A      5.258951   586A      5.271772   587A      5.292798  
     588A      5.307151   589A      5.324312   590A      5.331824  
     591A      5.353268   592A      5.359432   593A      5.372506  
     594A      5.417703   595A      5.444450   596A      5.452445  
     597A      5.467303   598A      5.487627   599A      5.490486  
     600A      5.502693   601A      5.509966   602A      5.525466  
     603A      5.560151   604A      5.576406   605A      5.584032  
     606A      5.600937   607A      5.608229   608A      5.620378  
     609A      5.631172   610A      5.647282   611A      5.654602  
     612A      5.676576   613A      5.686754   614A      5.688731  
     615A      5.707653   616A      5.727230   617A      5.737209  
     618A      5.744408   619A      5.798193   620A      5.807595  
     621A      5.821173   622A      5.847388   623A      5.857944  
     624A      5.875185   625A      5.880693   626A      5.892147  
     627A      5.909559   628A      5.935697   629A      5.952330  
     630A      5.960866   631A      5.985439   632A      6.015356  
     633A      6.049883   634A      6.059103   635A      6.080603  
     636A      6.121858   637A      6.135489   638A      6.143374  
     639A      6.157062   640A      6.194433   641A      6.207255  
     642A      6.211173   643A      6.234170   644A      6.247127  
     645A      6.262401   646A      6.275587   647A      6.333445  
     648A      6.376632   649A      6.446190   650A      6.490227  
     651A      6.527235   652A      6.549769   653A      6.568688  
     654A      6.632972   655A      6.669163   656A      6.691698  
     657A      6.694214   658A      6.706183   659A      6.738483  
     660A      6.748114   661A      6.775530   662A      6.791930  
     663A      6.830695   664A      6.852599   665A      6.863507  
     666A      6.942219   667A      6.962840   668A      7.001184  
     669A      7.010868   670A      7.030284   671A      7.054588  
     672A      7.064895   673A      7.136125   674A      7.149419  
     675A      7.203938   676A      7.234721   677A      7.252552  
     678A      7.324104   679A      7.354740   680A      7.399423  
     681A      7.412589   682A      7.416040   683A      7.424060  
     684A      7.445191   685A      7.450702   686A      7.485738  
     687A      7.627680   688A      7.654912   689A      7.709077  
     690A      7.727102   691A      7.778675   692A      7.820217  
     693A      7.850884   694A      7.858540   695A      7.939409  
     696A      8.004013   697A      8.026637   698A      8.043380  
     699A      8.157763   700A      8.247451   701A      8.989389  
     702A     16.256123   703A     16.361656   704A     16.546434  
     705A     17.408342   706A     17.429478   707A     18.105257  
     708A     18.435894   709A     19.146057   710A     19.384363  
     711A     20.146980   712A     20.927188   713A     21.369134  

    Final Occupation by Irrep:
              A 
    DOCC [    44 ]

  @DF-RHF Final Energy:  -615.64117423438802

   => Energetics <=

    Nuclear Repulsion Energy =            707.7565898194505962
    One-Electron Energy =               -2245.2480874134294027
    Two-Electron Energy =                 921.8503233595906750
    Total Energy =                       -615.6411742343880178

Computation Completed


Properties will be evaluated at   0.000000,   0.000000,   0.000000 [a0]

Properties computed using the SCF density matrix

  Nuclear Dipole Moment: [e a0]
     X:     9.0139      Y:    -2.9463      Z:    -0.8312

  Electronic Dipole Moment: [e a0]
     X:    -7.1852      Y:     1.7771      Z:     0.2509

  Dipole Moment: [e a0]
     X:     1.8288      Y:    -1.1692      Z:    -0.5803     Total:     2.2468

  Dipole Moment: [D]
     X:     4.6482      Y:    -2.9717      Z:    -1.4750     Total:     5.7107


*** tstop() called on node108.bme.utexas.edu at Fri Mar 29 16:48:10 2024
Module time:
	user time   =     263.78 seconds =       4.40 minutes
	system time =       2.31 seconds =       0.04 minutes
	total time  =         37 seconds =       0.62 minutes
Total time:
	user time   =     263.78 seconds =       4.40 minutes
	system time =       2.31 seconds =       0.04 minutes
	total time  =         37 seconds =       0.62 minutes

*** tstart() called on node108.bme.utexas.edu
*** at Fri Mar 29 16:48:10 2024


  //>>>>>>>>>>>>>>>>>>>>>>>>>>>>>>>>>>>//
  //               DFMP2               //
  //<<<<<<<<<<<<<<<<<<<<<<<<<<<<<<<<<<<//

   => Loading Basis Set <=

    Name: (AUG-CC-PVTZ AUX)
    Role: RIFIT
    Keyword: DF_BASIS_MP2
    atoms 1, 5, 9, 11-12     entry N          line   206 file /opt/anaconda/envs/psi4v1.5/share/psi4/basis/aug-cc-pvtz-ri.gbs 
    atoms 2, 4, 14-16, 18-19 entry H          line    30 file /opt/anaconda/envs/psi4v1.5/share/psi4/basis/aug-cc-pvtz-ri.gbs 
    atoms 3, 6-7, 10, 13     entry C          line   148 file /opt/anaconda/envs/psi4v1.5/share/psi4/basis/aug-cc-pvtz-ri.gbs 
    atoms 8, 17              entry O          line   264 file /opt/anaconda/envs/psi4v1.5/share/psi4/basis/aug-cc-pvtz-ri.gbs 

	 --------------------------------------------------------
	                          DF-MP2                         
	      2nd-Order Density-Fitted Moller-Plesset Theory     
	              RMP2 Wavefunction,   8 Threads             
	                                                         
	        Rob Parrish, Justin Turney, Andy Simmonett,      
	           Ed Hohenstein, and C. David Sherrill          
	 --------------------------------------------------------

   => Auxiliary Basis Set <=

  Basis Set: (AUG-CC-PVTZ AUX)
    Blend: AUG-CC-PVTZ-RI
    Number of shells: 434
    Number of basis functions: 1594
    Number of Cartesian functions: 2017
    Spherical Harmonics?: true
    Max angular momentum: 4

	 --------------------------------------------------------
	                 NBF =   713, NAUX =  1594
	 --------------------------------------------------------
	   CLASS    FOCC     OCC    AOCC    AVIR     VIR    FVIR
	   PAIRS      12      44      32     669     669       0
	 --------------------------------------------------------

	 Will save fitting metric to file 97.

	-----------------------------------------------------------
	 ==================> DF-MP2 Energies <==================== 
	-----------------------------------------------------------
	 Reference Energy          =    -615.6411742343880178 [Eh]
	 Singles Energy            =      -0.0000000000000000 [Eh]
	 Same-Spin Energy          =      -0.6141279759520394 [Eh]
	 Opposite-Spin Energy      =      -1.7074348899534240 [Eh]
	 Correlation Energy        =      -2.3215628659054635 [Eh]
	 Total Energy              =    -617.9627371002934524 [Eh]
	-----------------------------------------------------------
	 ================> DF-SCS-MP2 Energies <================== 
	-----------------------------------------------------------
	 SCS Same-Spin Scale       =       0.3333333333333333 [-]
	 SCS Opposite-Spin Scale   =       1.2000000000000000 [-]
	 SCS Same-Spin Energy      =      -0.2047093253173465 [Eh]
	 SCS Opposite-Spin Energy  =      -2.0489218679441086 [Eh]
	 SCS Correlation Energy    =      -2.2536311932614552 [Eh]
	 SCS Total Energy          =    -617.8948054276494304 [Eh]
	-----------------------------------------------------------


*** tstop() called on node108.bme.utexas.edu at Fri Mar 29 16:48:20 2024
Module time:
	user time   =      58.61 seconds =       0.98 minutes
	system time =       1.00 seconds =       0.02 minutes
	total time  =         10 seconds =       0.17 minutes
Total time:
	user time   =     322.40 seconds =       5.37 minutes
	system time =       3.31 seconds =       0.06 minutes
	total time  =         47 seconds =       0.78 minutes

  //>>>>>>>>>>>>>>>>>>>>>>>>>>>>>>>>>>>//
  //            Monomer A HF           //
  //<<<<<<<<<<<<<<<<<<<<<<<<<<<<<<<<<<<//


*** tstart() called on node108.bme.utexas.edu
*** at Fri Mar 29 16:48:20 2024

   => Loading Basis Set <=

    Name: AUG-CC-PVTZ
    Role: ORBITAL
    Keyword: BASIS
    atoms 1, 5, 9, 11-12     entry N          line   285 file /opt/anaconda/envs/psi4v1.5/share/psi4/basis/aug-cc-pvtz.gbs 
    atoms 2, 4, 14-16, 18-19 entry H          line    40 file /opt/anaconda/envs/psi4v1.5/share/psi4/basis/aug-cc-pvtz.gbs 
    atoms 3, 6-7, 10, 13     entry C          line   239 file /opt/anaconda/envs/psi4v1.5/share/psi4/basis/aug-cc-pvtz.gbs 
    atoms 8, 17              entry O          line   331 file /opt/anaconda/envs/psi4v1.5/share/psi4/basis/aug-cc-pvtz.gbs 


         ---------------------------------------------------------
                                   SCF
               by Justin Turney, Rob Parrish, Andy Simmonett
                          and Daniel G. A. Smith
                              RHF Reference
                        8 Threads,  47683 MiB Core
         ---------------------------------------------------------

  ==> Geometry <==

    Molecular point group: c1
    Full point group: C1

    Geometry (in Angstrom), charge = 0, multiplicity = 1:

       Center              X                  Y                   Z               Mass       
    ------------   -----------------  -----------------  -----------------  -----------------
         N           -0.757964671581    -2.129367402393     0.075397478392    14.003074004430
         H           -0.222654671581    -2.985467402393     0.161807478392     1.007825032230
         C           -2.126334671581    -2.003557402393     0.003307478392    12.000000000000
         H           -2.780494671581    -2.865777402393     0.008067478392     1.007825032230
         N           -2.523604671581    -0.744057402393    -0.071782521608    14.003074004430
         C           -1.348354671581    -0.025357402393    -0.044182521608    12.000000000000
         C           -1.144524671581     1.400952597607    -0.070682521608    12.000000000000
         O           -1.943654671581     2.326692597607    -0.130512521608    15.994914619570
         N            0.258345328419     1.674782597607     0.001287478392    14.003074004430
         C            1.284875328419     0.767132597607     0.074967478392    12.000000000000
         N            2.551605328419     1.272712597607     0.205797478392    14.003074004430
         N            1.088025328419    -0.538297402393     0.091997478392    14.003074004430
         C           -0.238684671581    -0.861287402393     0.053077478392    12.000000000000
         H            0.468655328419     2.667972597607     0.068357478392     1.007825032230
         H            2.739835328419     2.158792597607    -0.246352521608     1.007825032230
         H            3.284535328419     0.567522597607     0.096137478392     1.007825032230
      Gh(O)           3.479161495085    -1.180030798227    -0.091125292441    15.994914619570
      Gh(H)           2.511191495085    -1.272010798227     0.049234707559     1.007825032230
      Gh(H)           3.608131495085    -1.421130798227    -1.021795292441     1.007825032230

  Running in c1 symmetry.

  Rotational constants: A =      0.04568  B =      0.02714  C =      0.01711 [cm^-1]
  Rotational constants: A =   1369.48526  B =    813.53461  C =    512.93704 [MHz]
  Nuclear repulsion =  593.520118902926697

  Charge       = 0
  Multiplicity = 1
  Electrons    = 78
  Nalpha       = 39
  Nbeta        = 39

  ==> Algorithm <==

  SCF Algorithm Type is DF.
  DIIS enabled.
  MOM disabled.
  Fractional occupation disabled.
  Guess Type is SAD.
  Energy threshold   = 1.00e-08
  Density threshold  = 1.00e-08
  Integral threshold = 1.00e-12

  ==> Primary Basis <==

  Basis Set: AUG-CC-PVTZ
    Blend: AUG-CC-PVTZ
    Number of shells: 231
    Number of basis functions: 713
    Number of Cartesian functions: 835
    Spherical Harmonics?: true
    Max angular momentum: 3

   => Loading Basis Set <=

    Name: (AUG-CC-PVTZ AUX)
    Role: JKFIT
    Keyword: DF_BASIS_SCF
    atoms 1, 5, 9, 11-12     entry N          line   224 file /opt/anaconda/envs/psi4v1.5/share/psi4/basis/aug-cc-pvtz-jkfit.gbs 
    atoms 2, 4, 14-16, 18-19 entry H          line    70 file /opt/anaconda/envs/psi4v1.5/share/psi4/basis/aug-cc-pvtz-jkfit.gbs 
    atoms 3, 6-7, 10, 13     entry C          line   162 file /opt/anaconda/envs/psi4v1.5/share/psi4/basis/aug-cc-pvtz-jkfit.gbs 
    atoms 8, 17              entry O          line   286 file /opt/anaconda/envs/psi4v1.5/share/psi4/basis/aug-cc-pvtz-jkfit.gbs 

  ==> Integral Setup <==

  ==> DiskDFJK: Density-Fitted J/K Matrices <==

    J tasked:                  Yes
    K tasked:                  Yes
    wK tasked:                  No
    OpenMP threads:              8
    Integrals threads:           8
    Memory [MiB]:            35762
    Algorithm:                Core
    Integral Cache:           LOAD
    Schwarz Cutoff:          1E-12
    Fitting Condition:       1E-10

   => Auxiliary Basis Set <=

  Basis Set: (AUG-CC-PVTZ AUX)
    Blend: AUG-CC-PVTZ-JKFIT
    Number of shells: 458
    Number of basis functions: 1570
    Number of Cartesian functions: 1957
    Spherical Harmonics?: true
    Max angular momentum: 4

  Minimum eigenvalue in the overlap matrix is 1.3570476130E-06.
  Reciprocal condition number of the overlap matrix is 7.3924728836E-08.
    Using symmetric orthogonalization.

  ==> Pre-Iterations <==

  SCF Guess: Superposition of Atomic Densities via on-the-fly atomic UHF (no occupation information).

   -------------------------
    Irrep   Nso     Nmo    
   -------------------------
     A        713     713 
   -------------------------
    Total     713     713
   -------------------------

  ==> Iterations <==

                           Total Energy        Delta E     RMS |[F,P]|

   @DF-RHF iter SAD:  -539.30181732444430   -5.39302e+02   0.00000e+00 
   @DF-RHF iter   1:  -539.27999770064753    2.18196e-02   1.11224e-03 DIIS
   @DF-RHF iter   2:  -539.50394328000129   -2.23946e-01   6.54672e-04 DIIS
   @DF-RHF iter   3:  -539.58155432974229   -7.76110e-02   1.36107e-04 DIIS
   @DF-RHF iter   4:  -539.58654670809165   -4.99238e-03   5.64641e-05 DIIS
   @DF-RHF iter   5:  -539.58750494500725   -9.58237e-04   1.18069e-05 DIIS
   @DF-RHF iter   6:  -539.58760494997000   -1.00005e-04   6.21914e-06 DIIS
   @DF-RHF iter   7:  -539.58763110637835   -2.61564e-05   2.59531e-06 DIIS
   @DF-RHF iter   8:  -539.58763616065767   -5.05428e-06   9.04524e-07 DIIS
   @DF-RHF iter   9:  -539.58763674158615   -5.80928e-07   3.50041e-07 DIIS
   @DF-RHF iter  10:  -539.58763684093879   -9.93526e-08   1.42073e-07 DIIS
   @DF-RHF iter  11:  -539.58763685556664   -1.46279e-08   5.36355e-08 DIIS
   @DF-RHF iter  12:  -539.58763685748818   -1.92153e-09   1.99008e-08 DIIS
   @DF-RHF iter  13:  -539.58763685776125   -2.73076e-10   8.73422e-09 DIIS
  Energy and wave function converged.


  ==> Post-Iterations <==

    Orbital Energies [Eh]
    ---------------------

    Doubly Occupied:                                                      

       1A    -20.523356     2A    -15.634013     3A    -15.631208  
       4A    -15.616322     5A    -15.569419     6A    -15.563473  
       7A    -11.399812     8A    -11.367063     9A    -11.326131  
      10A    -11.312304    11A    -11.248481    12A     -1.392528  
      13A     -1.358957    14A     -1.335615    15A     -1.222741  
      16A     -1.214404    17A     -1.175722    18A     -1.029850  
      19A     -0.905321    20A     -0.885966    21A     -0.842538  
      22A     -0.799845    23A     -0.739428    24A     -0.734712  
      25A     -0.703066    26A     -0.672934    27A     -0.656209  
      28A     -0.633088    29A     -0.613378    30A     -0.600103  
      31A     -0.597487    32A     -0.548407    33A     -0.495767  
      34A     -0.458933    35A     -0.441630    36A     -0.431621  
      37A     -0.431045    38A     -0.410337    39A     -0.299622  

    Virtual:                                                              

      40A      0.014126    41A      0.022537    42A      0.033146  
      43A      0.042814    44A      0.044891    45A      0.053713  
      46A      0.069605    47A      0.074718    48A      0.080139  
      49A      0.085702    50A      0.087104    51A      0.096794  
      52A      0.102953    53A      0.109954    54A      0.113405  
      55A      0.117164    56A      0.118288    57A      0.122043  
      58A      0.124760    59A      0.128970    60A      0.133083  
      61A      0.137474    62A      0.140155    63A      0.146733  
      64A      0.153066    65A      0.157478    66A      0.160109  
      67A      0.165033    68A      0.170431    69A      0.178837  
      70A      0.182290    71A      0.188393    72A      0.193528  
      73A      0.195796    74A      0.199889    75A      0.207960  
      76A      0.210740    77A      0.217841    78A      0.221631  
      79A      0.226005    80A      0.226798    81A      0.232076  
      82A      0.238255    83A      0.248179    84A      0.256323  
      85A      0.260185    86A      0.270977    87A      0.273383  
      88A      0.276365    89A      0.281075    90A      0.289957  
      91A      0.296626    92A      0.298642    93A      0.304757  
      94A      0.310299    95A      0.312833    96A      0.317651  
      97A      0.325923    98A      0.330624    99A      0.332451  
     100A      0.336448   101A      0.341287   102A      0.351164  
     103A      0.356442   104A      0.359311   105A      0.362339  
     106A      0.363422   107A      0.364999   108A      0.371579  
     109A      0.374561   110A      0.380859   111A      0.385119  
     112A      0.392144   113A      0.396111   114A      0.404608  
     115A      0.406731   116A      0.416447   117A      0.420966  
     118A      0.423572   119A      0.429906   120A      0.440877  
     121A      0.444000   122A      0.446934   123A      0.453600  
     124A      0.455423   125A      0.464080   126A      0.465958  
     127A      0.467957   128A      0.473332   129A      0.477514  
     130A      0.487950   131A      0.489813   132A      0.496214  
     133A      0.498572   134A      0.502221   135A      0.507996  
     136A      0.515941   137A      0.517528   138A      0.526542  
     139A      0.532075   140A      0.537905   141A      0.544726  
     142A      0.550794   143A      0.554153   144A      0.563509  
     145A      0.565258   146A      0.567315   147A      0.583286  
     148A      0.590337   149A      0.599426   150A      0.606161  
     151A      0.617485   152A      0.621146   153A      0.629730  
     154A      0.638472   155A      0.646439   156A      0.650394  
     157A      0.654256   158A      0.659115   159A      0.662391  
     160A      0.674344   161A      0.676859   162A      0.678951  
     163A      0.685277   164A      0.695759   165A      0.700460  
     166A      0.707927   167A      0.724587   168A      0.731036  
     169A      0.742705   170A      0.749159   171A      0.751904  
     172A      0.759920   173A      0.761078   174A      0.765409  
     175A      0.772170   176A      0.777785   177A      0.780908  
     178A      0.783221   179A      0.797944   180A      0.800953  
     181A      0.811395   182A      0.814972   183A      0.821204  
     184A      0.828302   185A      0.829604   186A      0.838648  
     187A      0.843259   188A      0.857854   189A      0.866115  
     190A      0.869498   191A      0.876953   192A      0.884027  
     193A      0.887470   194A      0.892940   195A      0.895314  
     196A      0.902125   197A      0.904719   198A      0.911540  
     199A      0.921970   200A      0.929581   201A      0.934907  
     202A      0.939286   203A      0.943595   204A      0.949514  
     205A      0.954912   206A      0.964265   207A      0.965704  
     208A      0.970346   209A      0.977590   210A      0.985651  
     211A      0.995712   212A      1.001429   213A      1.004114  
     214A      1.009988   215A      1.021177   216A      1.024173  
     217A      1.027066   218A      1.033081   219A      1.043643  
     220A      1.049708   221A      1.056777   222A      1.060403  
     223A      1.063945   224A      1.068390   225A      1.073141  
     226A      1.076736   227A      1.092044   228A      1.099168  
     229A      1.103419   230A      1.107415   231A      1.113006  
     232A      1.116328   233A      1.120441   234A      1.129777  
     235A      1.138563   236A      1.145289   237A      1.150697  
     238A      1.164958   239A      1.172760   240A      1.174683  
     241A      1.181936   242A      1.183227   243A      1.189456  
     244A      1.194950   245A      1.198946   246A      1.215897  
     247A      1.222449   248A      1.223387   249A      1.230930  
     250A      1.236783   251A      1.244733   252A      1.248922  
     253A      1.265287   254A      1.274494   255A      1.281744  
     256A      1.285588   257A      1.292908   258A      1.303794  
     259A      1.308321   260A      1.320612   261A      1.323725  
     262A      1.333603   263A      1.340292   264A      1.344440  
     265A      1.351237   266A      1.363199   267A      1.365851  
     268A      1.376401   269A      1.381288   270A      1.387892  
     271A      1.399333   272A      1.401437   273A      1.402920  
     274A      1.416628   275A      1.426056   276A      1.430657  
     277A      1.431437   278A      1.437950   279A      1.450472  
     280A      1.460450   281A      1.463130   282A      1.467749  
     283A      1.477175   284A      1.479382   285A      1.488082  
     286A      1.505532   287A      1.517854   288A      1.529678  
     289A      1.533349   290A      1.549823   291A      1.551007  
     292A      1.555453   293A      1.561472   294A      1.568656  
     295A      1.578344   296A      1.586627   297A      1.591034  
     298A      1.599358   299A      1.606094   300A      1.613276  
     301A      1.626276   302A      1.634432   303A      1.636920  
     304A      1.663201   305A      1.664467   306A      1.667366  
     307A      1.679533   308A      1.684759   309A      1.695248  
     310A      1.700539   311A      1.704591   312A      1.723769  
     313A      1.739521   314A      1.742992   315A      1.744910  
     316A      1.762765   317A      1.772744   318A      1.777178  
     319A      1.788568   320A      1.801116   321A      1.818293  
     322A      1.829699   323A      1.840716   324A      1.847208  
     325A      1.851685   326A      1.854893   327A      1.866659  
     328A      1.868263   329A      1.875905   330A      1.889929  
     331A      1.919465   332A      1.932146   333A      1.942719  
     334A      1.948687   335A      1.960308   336A      1.967332  
     337A      1.991004   338A      1.993219   339A      2.007895  
     340A      2.017344   341A      2.023701   342A      2.040682  
     343A      2.048237   344A      2.064785   345A      2.071644  
     346A      2.074381   347A      2.088572   348A      2.098878  
     349A      2.103849   350A      2.107472   351A      2.119728  
     352A      2.121265   353A      2.134481   354A      2.144885  
     355A      2.170555   356A      2.189356   357A      2.197106  
     358A      2.206714   359A      2.214418   360A      2.226074  
     361A      2.233196   362A      2.241025   363A      2.256132  
     364A      2.275035   365A      2.284964   366A      2.302820  
     367A      2.310825   368A      2.323065   369A      2.326073  
     370A      2.330625   371A      2.338773   372A      2.352941  
     373A      2.354372   374A      2.360125   375A      2.375656  
     376A      2.384022   377A      2.395345   378A      2.408807  
     379A      2.424584   380A      2.425561   381A      2.436811  
     382A      2.455056   383A      2.466674   384A      2.475769  
     385A      2.491291   386A      2.504310   387A      2.510768  
     388A      2.523300   389A      2.524126   390A      2.536054  
     391A      2.547093   392A      2.554244   393A      2.576299  
     394A      2.585611   395A      2.592319   396A      2.599201  
     397A      2.609592   398A      2.616270   399A      2.639632  
     400A      2.644419   401A      2.666588   402A      2.672864  
     403A      2.688408   404A      2.702100   405A      2.709480  
     406A      2.724160   407A      2.728493   408A      2.737296  
     409A      2.747239   410A      2.760555   411A      2.765272  
     412A      2.780304   413A      2.797887   414A      2.800920  
     415A      2.823883   416A      2.828844   417A      2.832878  
     418A      2.850219   419A      2.853505   420A      2.860173  
     421A      2.882136   422A      2.917808   423A      2.924897  
     424A      2.949230   425A      2.967230   426A      2.984647  
     427A      2.991810   428A      3.012853   429A      3.033611  
     430A      3.038869   431A      3.045931   432A      3.060368  
     433A      3.076527   434A      3.108817   435A      3.129541  
     436A      3.130088   437A      3.149926   438A      3.163043  
     439A      3.197067   440A      3.207362   441A      3.212561  
     442A      3.230097   443A      3.247212   444A      3.275622  
     445A      3.305517   446A      3.323058   447A      3.339812  
     448A      3.358514   449A      3.369707   450A      3.380237  
     451A      3.412853   452A      3.418324   453A      3.432077  
     454A      3.448565   455A      3.461621   456A      3.498371  
     457A      3.519835   458A      3.527536   459A      3.533132  
     460A      3.544804   461A      3.564652   462A      3.594006  
     463A      3.606772   464A      3.618072   465A      3.645694  
     466A      3.652198   467A      3.667571   468A      3.672398  
     469A      3.685465   470A      3.694466   471A      3.700608  
     472A      3.717605   473A      3.722781   474A      3.749830  
     475A      3.761837   476A      3.771772   477A      3.776639  
     478A      3.791826   479A      3.818851   480A      3.830705  
     481A      3.854188   482A      3.859698   483A      3.867415  
     484A      3.880270   485A      3.892424   486A      3.904894  
     487A      3.909657   488A      3.923538   489A      3.962247  
     490A      3.973637   491A      3.988366   492A      3.992577  
     493A      4.000388   494A      4.029597   495A      4.046237  
     496A      4.049682   497A      4.072368   498A      4.073660  
     499A      4.077858   500A      4.097798   501A      4.128332  
     502A      4.132319   503A      4.149116   504A      4.159405  
     505A      4.171700   506A      4.181382   507A      4.191804  
     508A      4.199101   509A      4.207824   510A      4.224286  
     511A      4.233563   512A      4.252666   513A      4.265782  
     514A      4.278813   515A      4.296241   516A      4.308639  
     517A      4.316194   518A      4.321799   519A      4.330292  
     520A      4.341822   521A      4.347787   522A      4.360768  
     523A      4.380946   524A      4.400014   525A      4.418965  
     526A      4.426689   527A      4.440389   528A      4.445722  
     529A      4.472052   530A      4.493502   531A      4.502139  
     532A      4.508714   533A      4.519831   534A      4.528313  
     535A      4.544130   536A      4.547717   537A      4.580890  
     538A      4.593990   539A      4.607708   540A      4.614512  
     541A      4.624642   542A      4.652445   543A      4.663062  
     544A      4.687826   545A      4.706795   546A      4.717137  
     547A      4.723433   548A      4.746065   549A      4.758749  
     550A      4.782762   551A      4.790257   552A      4.808371  
     553A      4.851226   554A      4.861106   555A      4.866307  
     556A      4.890858   557A      4.899224   558A      4.907228  
     559A      4.913451   560A      4.933465   561A      4.948452  
     562A      4.968960   563A      5.001700   564A      5.012121  
     565A      5.025663   566A      5.035122   567A      5.055964  
     568A      5.087052   569A      5.095210   570A      5.113583  
     571A      5.153235   572A      5.166966   573A      5.189485  
     574A      5.210056   575A      5.221540   576A      5.223971  
     577A      5.236333   578A      5.260987   579A      5.268516  
     580A      5.292461   581A      5.316290   582A      5.324052  
     583A      5.360360   584A      5.369378   585A      5.389439  
     586A      5.395253   587A      5.427517   588A      5.434519  
     589A      5.465749   590A      5.476997   591A      5.487981  
     592A      5.505385   593A      5.510340   594A      5.522020  
     595A      5.525378   596A      5.529699   597A      5.583742  
     598A      5.590349   599A      5.603158   600A      5.624048  
     601A      5.636815   602A      5.641942   603A      5.654923  
     604A      5.662286   605A      5.685554   606A      5.697487  
     607A      5.708436   608A      5.727891   609A      5.736163  
     610A      5.757725   611A      5.764726   612A      5.813418  
     613A      5.820011   614A      5.825604   615A      5.848063  
     616A      5.853217   617A      5.865087   618A      5.890231  
     619A      5.905830   620A      5.915170   621A      5.922419  
     622A      5.945191   623A      5.964622   624A      5.974914  
     625A      6.018149   626A      6.032467   627A      6.070794  
     628A      6.085748   629A      6.092568   630A      6.128015  
     631A      6.136313   632A      6.156416   633A      6.167342  
     634A      6.207278   635A      6.216350   636A      6.225657  
     637A      6.236829   638A      6.269658   639A      6.283673  
     640A      6.290305   641A      6.350934   642A      6.376987  
     643A      6.465027   644A      6.516738   645A      6.533570  
     646A      6.553934   647A      6.581278   648A      6.615115  
     649A      6.626679   650A      6.688460   651A      6.698444  
     652A      6.709443   653A      6.739012   654A      6.755188  
     655A      6.772383   656A      6.783010   657A      6.815554  
     658A      6.836375   659A      6.862545   660A      6.951666  
     661A      6.976647   662A      7.008591   663A      7.032913  
     664A      7.070746   665A      7.073709   666A      7.115801  
     667A      7.167703   668A      7.208795   669A      7.226875  
     670A      7.240811   671A      7.284137   672A      7.379520  
     673A      7.415851   674A      7.425116   675A      7.432745  
     676A      7.462365   677A      7.496016   678A      7.680347  
     679A      7.732639   680A      7.777663   681A      7.828718  
     682A      7.851865   683A      7.860315   684A      7.933008  
     685A      8.004972   686A      8.020473   687A      8.051401  
     688A      8.250523   689A      8.304147   690A      8.581009  
     691A      8.842679   692A      9.069680   693A      9.930167  
     694A     10.238863   695A     10.295669   696A     10.455928  
     697A     11.258644   698A     12.187769   699A     12.559732  
     700A     13.735817   701A     14.100037   702A     16.267477  
     703A     16.375124   704A     16.605618   705A     17.424279  
     706A     18.099316   707A     18.445665   708A     19.154232  
     709A     19.390650   710A     20.151756   711A     20.940340  
     712A     21.363301   713A     68.306192  

    Final Occupation by Irrep:
              A 
    DOCC [    39 ]

  @DF-RHF Final Energy:  -539.58763685776125

   => Energetics <=

    Nuclear Repulsion Energy =            593.5201189029266970
    One-Electron Energy =               -1912.5698377857468131
    Two-Electron Energy =                 779.4620820250588622
    Total Energy =                       -539.5876368577612539

Computation Completed


Properties will be evaluated at   0.000000,   0.000000,   0.000000 [a0]

Properties computed using the SCF density matrix

  Nuclear Dipole Moment: [e a0]
     X:   -55.1472      Y:    19.9825      Z:     2.3843

  Electronic Dipole Moment: [e a0]
     X:    57.7714      Y:   -21.0288      Z:    -2.4904

  Dipole Moment: [e a0]
     X:     2.6242      Y:    -1.0463      Z:    -0.1061     Total:     2.8271

  Dipole Moment: [D]
     X:     6.6701      Y:    -2.6594      Z:    -0.2698     Total:     7.1858


*** tstop() called on node108.bme.utexas.edu at Fri Mar 29 16:48:53 2024
Module time:
	user time   =     245.29 seconds =       4.09 minutes
	system time =       1.72 seconds =       0.03 minutes
	total time  =         33 seconds =       0.55 minutes
Total time:
	user time   =     567.71 seconds =       9.46 minutes
	system time =       5.03 seconds =       0.08 minutes
	total time  =         80 seconds =       1.33 minutes

*** tstart() called on node108.bme.utexas.edu
*** at Fri Mar 29 16:48:53 2024


  //>>>>>>>>>>>>>>>>>>>>>>>>>>>>>>>>>>>//
  //               DFMP2               //
  //<<<<<<<<<<<<<<<<<<<<<<<<<<<<<<<<<<<//

   => Loading Basis Set <=

    Name: (AUG-CC-PVTZ AUX)
    Role: RIFIT
    Keyword: DF_BASIS_MP2
    atoms 1, 5, 9, 11-12     entry N          line   206 file /opt/anaconda/envs/psi4v1.5/share/psi4/basis/aug-cc-pvtz-ri.gbs 
    atoms 2, 4, 14-16, 18-19 entry H          line    30 file /opt/anaconda/envs/psi4v1.5/share/psi4/basis/aug-cc-pvtz-ri.gbs 
    atoms 3, 6-7, 10, 13     entry C          line   148 file /opt/anaconda/envs/psi4v1.5/share/psi4/basis/aug-cc-pvtz-ri.gbs 
    atoms 8, 17              entry O          line   264 file /opt/anaconda/envs/psi4v1.5/share/psi4/basis/aug-cc-pvtz-ri.gbs 

	 --------------------------------------------------------
	                          DF-MP2                         
	      2nd-Order Density-Fitted Moller-Plesset Theory     
	              RMP2 Wavefunction,   8 Threads             
	                                                         
	        Rob Parrish, Justin Turney, Andy Simmonett,      
	           Ed Hohenstein, and C. David Sherrill          
	 --------------------------------------------------------

   => Auxiliary Basis Set <=

  Basis Set: (AUG-CC-PVTZ AUX)
    Blend: AUG-CC-PVTZ-RI
    Number of shells: 434
    Number of basis functions: 1594
    Number of Cartesian functions: 2017
    Spherical Harmonics?: true
    Max angular momentum: 4

	 --------------------------------------------------------
	                 NBF =   713, NAUX =  1594
	 --------------------------------------------------------
	   CLASS    FOCC     OCC    AOCC    AVIR     VIR    FVIR
	   PAIRS      11      39      28     674     674       0
	 --------------------------------------------------------

	 Will attempt to load fitting metric from file 97.

	-----------------------------------------------------------
	 ==================> DF-MP2 Energies <==================== 
	-----------------------------------------------------------
	 Reference Energy          =    -539.5876368577612539 [Eh]
	 Singles Energy            =      -0.0000000000000000 [Eh]
	 Same-Spin Energy          =      -0.5421697813092390 [Eh]
	 Opposite-Spin Energy      =      -1.4980074923229094 [Eh]
	 Correlation Energy        =      -2.0401772736321484 [Eh]
	 Total Energy              =    -541.6278141313933929 [Eh]
	-----------------------------------------------------------
	 ================> DF-SCS-MP2 Energies <================== 
	-----------------------------------------------------------
	 SCS Same-Spin Scale       =       0.3333333333333333 [-]
	 SCS Opposite-Spin Scale   =       1.2000000000000000 [-]
	 SCS Same-Spin Energy      =      -0.1807232604364130 [Eh]
	 SCS Opposite-Spin Energy  =      -1.7976089907874913 [Eh]
	 SCS Correlation Energy    =      -1.9783322512239043 [Eh]
	 SCS Total Energy          =    -541.5659691089852004 [Eh]
	-----------------------------------------------------------


*** tstop() called on node108.bme.utexas.edu at Fri Mar 29 16:49:02 2024
Module time:
	user time   =      49.89 seconds =       0.83 minutes
	system time =       0.91 seconds =       0.02 minutes
	total time  =          9 seconds =       0.15 minutes
Total time:
	user time   =     617.60 seconds =      10.29 minutes
	system time =       5.94 seconds =       0.10 minutes
	total time  =         89 seconds =       1.48 minutes

  //>>>>>>>>>>>>>>>>>>>>>>>>>>>>>>>>>>>//
  //            Monomer B HF           //
  //<<<<<<<<<<<<<<<<<<<<<<<<<<<<<<<<<<<//


*** tstart() called on node108.bme.utexas.edu
*** at Fri Mar 29 16:49:02 2024

   => Loading Basis Set <=

    Name: AUG-CC-PVTZ
    Role: ORBITAL
    Keyword: BASIS
    atoms 1, 5, 9, 11-12     entry N          line   285 file /opt/anaconda/envs/psi4v1.5/share/psi4/basis/aug-cc-pvtz.gbs 
    atoms 2, 4, 14-16, 18-19 entry H          line    40 file /opt/anaconda/envs/psi4v1.5/share/psi4/basis/aug-cc-pvtz.gbs 
    atoms 3, 6-7, 10, 13     entry C          line   239 file /opt/anaconda/envs/psi4v1.5/share/psi4/basis/aug-cc-pvtz.gbs 
    atoms 8, 17              entry O          line   331 file /opt/anaconda/envs/psi4v1.5/share/psi4/basis/aug-cc-pvtz.gbs 


         ---------------------------------------------------------
                                   SCF
               by Justin Turney, Rob Parrish, Andy Simmonett
                          and Daniel G. A. Smith
                              RHF Reference
                        8 Threads,  47683 MiB Core
         ---------------------------------------------------------

  ==> Geometry <==

    Molecular point group: c1
    Full point group: C1

    Geometry (in Angstrom), charge = 0, multiplicity = 1:

       Center              X                  Y                   Z               Mass       
    ------------   -----------------  -----------------  -----------------  -----------------
      Gh(N)          -0.757964671581    -2.129367402393     0.075397478392    14.003074004430
      Gh(H)          -0.222654671581    -2.985467402393     0.161807478392     1.007825032230
      Gh(C)          -2.126334671581    -2.003557402393     0.003307478392    12.000000000000
      Gh(H)          -2.780494671581    -2.865777402393     0.008067478392     1.007825032230
      Gh(N)          -2.523604671581    -0.744057402393    -0.071782521608    14.003074004430
      Gh(C)          -1.348354671581    -0.025357402393    -0.044182521608    12.000000000000
      Gh(C)          -1.144524671581     1.400952597607    -0.070682521608    12.000000000000
      Gh(O)          -1.943654671581     2.326692597607    -0.130512521608    15.994914619570
      Gh(N)           0.258345328419     1.674782597607     0.001287478392    14.003074004430
      Gh(C)           1.284875328419     0.767132597607     0.074967478392    12.000000000000
      Gh(N)           2.551605328419     1.272712597607     0.205797478392    14.003074004430
      Gh(N)           1.088025328419    -0.538297402393     0.091997478392    14.003074004430
      Gh(C)          -0.238684671581    -0.861287402393     0.053077478392    12.000000000000
      Gh(H)           0.468655328419     2.667972597607     0.068357478392     1.007825032230
      Gh(H)           2.739835328419     2.158792597607    -0.246352521608     1.007825032230
      Gh(H)           3.284535328419     0.567522597607     0.096137478392     1.007825032230
         O            3.479161495085    -1.180030798227    -0.091125292441    15.994914619570
         H            2.511191495085    -1.272010798227     0.049234707559     1.007825032230
         H            3.608131495085    -1.421130798227    -1.021795292441     1.007825032230

  Running in c1 symmetry.

  Rotational constants: A =      0.04568  B =      0.02714  C =      0.01711 [cm^-1]
  Rotational constants: A =   1369.48526  B =    813.53461  C =    512.93704 [MHz]
  Nuclear repulsion =    9.017096520584765

  Charge       = 0
  Multiplicity = 1
  Electrons    = 10
  Nalpha       = 5
  Nbeta        = 5

  ==> Algorithm <==

  SCF Algorithm Type is DF.
  DIIS enabled.
  MOM disabled.
  Fractional occupation disabled.
  Guess Type is SAD.
  Energy threshold   = 1.00e-08
  Density threshold  = 1.00e-08
  Integral threshold = 1.00e-12

  ==> Primary Basis <==

  Basis Set: AUG-CC-PVTZ
    Blend: AUG-CC-PVTZ
    Number of shells: 231
    Number of basis functions: 713
    Number of Cartesian functions: 835
    Spherical Harmonics?: true
    Max angular momentum: 3

   => Loading Basis Set <=

    Name: (AUG-CC-PVTZ AUX)
    Role: JKFIT
    Keyword: DF_BASIS_SCF
    atoms 1, 5, 9, 11-12     entry N          line   224 file /opt/anaconda/envs/psi4v1.5/share/psi4/basis/aug-cc-pvtz-jkfit.gbs 
    atoms 2, 4, 14-16, 18-19 entry H          line    70 file /opt/anaconda/envs/psi4v1.5/share/psi4/basis/aug-cc-pvtz-jkfit.gbs 
    atoms 3, 6-7, 10, 13     entry C          line   162 file /opt/anaconda/envs/psi4v1.5/share/psi4/basis/aug-cc-pvtz-jkfit.gbs 
    atoms 8, 17              entry O          line   286 file /opt/anaconda/envs/psi4v1.5/share/psi4/basis/aug-cc-pvtz-jkfit.gbs 

  ==> Integral Setup <==

  ==> DiskDFJK: Density-Fitted J/K Matrices <==

    J tasked:                  Yes
    K tasked:                  Yes
    wK tasked:                  No
    OpenMP threads:              8
    Integrals threads:           8
    Memory [MiB]:            35762
    Algorithm:                Core
    Integral Cache:           LOAD
    Schwarz Cutoff:          1E-12
    Fitting Condition:       1E-10

   => Auxiliary Basis Set <=

  Basis Set: (AUG-CC-PVTZ AUX)
    Blend: AUG-CC-PVTZ-JKFIT
    Number of shells: 458
    Number of basis functions: 1570
    Number of Cartesian functions: 1957
    Spherical Harmonics?: true
    Max angular momentum: 4

  Minimum eigenvalue in the overlap matrix is 1.3570476130E-06.
  Reciprocal condition number of the overlap matrix is 7.3924728836E-08.
    Using symmetric orthogonalization.

  ==> Pre-Iterations <==

  SCF Guess: Superposition of Atomic Densities via on-the-fly atomic UHF (no occupation information).

   -------------------------
    Irrep   Nso     Nmo    
   -------------------------
     A        713     713 
   -------------------------
    Total     713     713
   -------------------------

  ==> Iterations <==

                           Total Energy        Delta E     RMS |[F,P]|

   @DF-RHF iter SAD:   -75.45629729417871   -7.54563e+01   0.00000e+00 
   @DF-RHF iter   1:   -75.97363940178087   -5.17342e-01   6.55243e-04 DIIS
   @DF-RHF iter   2:   -76.02560920491473   -5.19698e-02   4.55269e-04 DIIS
   @DF-RHF iter   3:   -76.05835554518364   -3.27463e-02   3.10412e-05 DIIS
   @DF-RHF iter   4:   -76.05876879296143   -4.13248e-04   7.71907e-06 DIIS
   @DF-RHF iter   5:   -76.05879703552476   -2.82426e-05   1.78224e-06 DIIS
   @DF-RHF iter   6:   -76.05879941077171   -2.37525e-06   3.91768e-07 DIIS
   @DF-RHF iter   7:   -76.05879953585699   -1.25085e-07   6.97404e-08 DIIS
   @DF-RHF iter   8:   -76.05879953930867   -3.45167e-09   1.19561e-08 DIIS
   @DF-RHF iter   9:   -76.05879953938971   -8.10445e-11   3.02630e-09 DIIS
  Energy and wave function converged.


  ==> Post-Iterations <==

    Orbital Energies [Eh]
    ---------------------

    Doubly Occupied:                                                      

       1A    -20.570418     2A     -1.344122     3A     -0.706780  
       4A     -0.581818     5A     -0.508892  

    Virtual:                                                              

       6A      0.013583     7A      0.028572     8A      0.031970  
       9A      0.044301    10A      0.048463    11A      0.053918  
      12A      0.058183    13A      0.068896    14A      0.071666  
      15A      0.076968    16A      0.079368    17A      0.086894  
      18A      0.092619    19A      0.096917    20A      0.102028  
      21A      0.107380    22A      0.115549    23A      0.122574  
      24A      0.124774    25A      0.133231    26A      0.134219  
      27A      0.135958    28A      0.140665    29A      0.147545  
      30A      0.155487    31A      0.158761    32A      0.162226  
      33A      0.170506    34A      0.172934    35A      0.179546  
      36A      0.180529    37A      0.188521    38A      0.190479  
      39A      0.193864    40A      0.197452    41A      0.203509  
      42A      0.205138    43A      0.212654    44A      0.217202  
      45A      0.225175    46A      0.227956    47A      0.230027  
      48A      0.240268    49A      0.248665    50A      0.250064  
      51A      0.256730    52A      0.265766    53A      0.271334  
      54A      0.275506    55A      0.281830    56A      0.283216  
      57A      0.287529    58A      0.303227    59A      0.306711  
      60A      0.308816    61A      0.315837    62A      0.317511  
      63A      0.321409    64A      0.325956    65A      0.334942  
      66A      0.344239    67A      0.347266    68A      0.357019  
      69A      0.357963    70A      0.362736    71A      0.372500  
      72A      0.377124    73A      0.386184    74A      0.389179  
      75A      0.397922    76A      0.401385    77A      0.404977  
      78A      0.408062    79A      0.410056    80A      0.412864  
      81A      0.415387    82A      0.421292    83A      0.423559  
      84A      0.427720    85A      0.434254    86A      0.435509  
      87A      0.441120    88A      0.444085    89A      0.450455  
      90A      0.461670    91A      0.469686    92A      0.475515  
      93A      0.476857    94A      0.483022    95A      0.492698  
      96A      0.494471    97A      0.496964    98A      0.500964  
      99A      0.506486   100A      0.512755   101A      0.517032  
     102A      0.526967   103A      0.530636   104A      0.545231  
     105A      0.550747   106A      0.569958   107A      0.575660  
     108A      0.579496   109A      0.582551   110A      0.589883  
     111A      0.597221   112A      0.602631   113A      0.607150  
     114A      0.623828   115A      0.626918   116A      0.634063  
     117A      0.644315   118A      0.653835   119A      0.664483  
     120A      0.673977   121A      0.678719   122A      0.683615  
     123A      0.693193   124A      0.697531   125A      0.703730  
     126A      0.708193   127A      0.720514   128A      0.735529  
     129A      0.744796   130A      0.752339   131A      0.755864  
     132A      0.764599   133A      0.769584   134A      0.776598  
     135A      0.780888   136A      0.788461   137A      0.796505  
     138A      0.801431   139A      0.804079   140A      0.808495  
     141A      0.818585   142A      0.821349   143A      0.827671  
     144A      0.828340   145A      0.834699   146A      0.839964  
     147A      0.841512   148A      0.843381   149A      0.848569  
     150A      0.854356   151A      0.866130   152A      0.869118  
     153A      0.873144   154A      0.878605   155A      0.885926  
     156A      0.893143   157A      0.895522   158A      0.910165  
     159A      0.912481   160A      0.917520   161A      0.923413  
     162A      0.930852   163A      0.933019   164A      0.941833  
     165A      0.946893   166A      0.948113   167A      0.955487  
     168A      0.961912   169A      0.973983   170A      0.980103  
     171A      0.986990   172A      0.994058   173A      0.996018  
     174A      1.001654   175A      1.011405   176A      1.018456  
     177A      1.026236   178A      1.029964   179A      1.041122  
     180A      1.046221   181A      1.049219   182A      1.060595  
     183A      1.067333   184A      1.071240   185A      1.079938  
     186A      1.086672   187A      1.091555   188A      1.097376  
     189A      1.107218   190A      1.114267   191A      1.120241  
     192A      1.124899   193A      1.143972   194A      1.146738  
     195A      1.154099   196A      1.161474   197A      1.172481  
     198A      1.176517   199A      1.179603   200A      1.184437  
     201A      1.197736   202A      1.199155   203A      1.205377  
     204A      1.213851   205A      1.221060   206A      1.231668  
     207A      1.234095   208A      1.241325   209A      1.247773  
     210A      1.251851   211A      1.282408   212A      1.288459  
     213A      1.294248   214A      1.301074   215A      1.307734  
     216A      1.314724   217A      1.326195   218A      1.332943  
     219A      1.346335   220A      1.349916   221A      1.364829  
     222A      1.369099   223A      1.379690   224A      1.382058  
     225A      1.390714   226A      1.397852   227A      1.407907  
     228A      1.424727   229A      1.433438   230A      1.441035  
     231A      1.445020   232A      1.465745   233A      1.469769  
     234A      1.477835   235A      1.481661   236A      1.496037  
     237A      1.507820   238A      1.510509   239A      1.518105  
     240A      1.520123   241A      1.530464   242A      1.538104  
     243A      1.550217   244A      1.558322   245A      1.562503  
     246A      1.575401   247A      1.583590   248A      1.592241  
     249A      1.600243   250A      1.605648   251A      1.619877  
     252A      1.637226   253A      1.638367   254A      1.643508  
     255A      1.659626   256A      1.668785   257A      1.672829  
     258A      1.682148   259A      1.689692   260A      1.690108  
     261A      1.704847   262A      1.708957   263A      1.718531  
     264A      1.719038   265A      1.729349   266A      1.736807  
     267A      1.742381   268A      1.748033   269A      1.757675  
     270A      1.762149   271A      1.768422   272A      1.775698  
     273A      1.778440   274A      1.782146   275A      1.785623  
     276A      1.793934   277A      1.799606   278A      1.804384  
     279A      1.805645   280A      1.818357   281A      1.830515  
     282A      1.837889   283A      1.853645   284A      1.854972  
     285A      1.874308   286A      1.880997   287A      1.892707  
     288A      1.901099   289A      1.903681   290A      1.915808  
     291A      1.924191   292A      1.934512   293A      1.941403  
     294A      1.948111   295A      1.964691   296A      1.968929  
     297A      1.981384   298A      2.001707   299A      2.007335  
     300A      2.029149   301A      2.032894   302A      2.050576  
     303A      2.055238   304A      2.072848   305A      2.076679  
     306A      2.088549   307A      2.096487   308A      2.099093  
     309A      2.104848   310A      2.118577   311A      2.134689  
     312A      2.142365   313A      2.158601   314A      2.170653  
     315A      2.178451   316A      2.184919   317A      2.206418  
     318A      2.225775   319A      2.235942   320A      2.240582  
     321A      2.254659   322A      2.263289   323A      2.265939  
     324A      2.291182   325A      2.300038   326A      2.323285  
     327A      2.331684   328A      2.348378   329A      2.365231  
     330A      2.375765   331A      2.390098   332A      2.402294  
     333A      2.408937   334A      2.419881   335A      2.440763  
     336A      2.451537   337A      2.455619   338A      2.473626  
     339A      2.477899   340A      2.485297   341A      2.502191  
     342A      2.517801   343A      2.528014   344A      2.543283  
     345A      2.548970   346A      2.561313   347A      2.572854  
     348A      2.584549   349A      2.603870   350A      2.613682  
     351A      2.628683   352A      2.632131   353A      2.642507  
     354A      2.653672   355A      2.668396   356A      2.674696  
     357A      2.680075   358A      2.690010   359A      2.693443  
     360A      2.695773   361A      2.718680   362A      2.735761  
     363A      2.737480   364A      2.745988   365A      2.758384  
     366A      2.765960   367A      2.775249   368A      2.778687  
     369A      2.793552   370A      2.804790   371A      2.813412  
     372A      2.816827   373A      2.829067   374A      2.838648  
     375A      2.853743   376A      2.867127   377A      2.874971  
     378A      2.887997   379A      2.897213   380A      2.906036  
     381A      2.916849   382A      2.925235   383A      2.941076  
     384A      2.952213   385A      2.958439   386A      2.981593  
     387A      2.991676   388A      2.997641   389A      3.004728  
     390A      3.010961   391A      3.035800   392A      3.040699  
     393A      3.048514   394A      3.053128   395A      3.066073  
     396A      3.074704   397A      3.083584   398A      3.097965  
     399A      3.111042   400A      3.125989   401A      3.136668  
     402A      3.142730   403A      3.164208   404A      3.177101  
     405A      3.200439   406A      3.206179   407A      3.222359  
     408A      3.225745   409A      3.270210   410A      3.280007  
     411A      3.292088   412A      3.295718   413A      3.334359  
     414A      3.353037   415A      3.364357   416A      3.377904  
     417A      3.405401   418A      3.428576   419A      3.440613  
     420A      3.467968   421A      3.486596   422A      3.490179  
     423A      3.510363   424A      3.545028   425A      3.570416  
     426A      3.628104   427A      3.679529   428A      3.710264  
     429A      3.727987   430A      3.749309   431A      3.787633  
     432A      3.797466   433A      3.839017   434A      3.853197  
     435A      3.886769   436A      3.938431   437A      3.989345  
     438A      4.008618   439A      4.058873   440A      4.068005  
     441A      4.084132   442A      4.126027   443A      4.142039  
     444A      4.160330   445A      4.169665   446A      4.178091  
     447A      4.181872   448A      4.213994   449A      4.223879  
     450A      4.229948   451A      4.260654   452A      4.286123  
     453A      4.301630   454A      4.305279   455A      4.335430  
     456A      4.360242   457A      4.388265   458A      4.427182  
     459A      4.433268   460A      4.439879   461A      4.472769  
     462A      4.484796   463A      4.498347   464A      4.522173  
     465A      4.527229   466A      4.534811   467A      4.550604  
     468A      4.564466   469A      4.589281   470A      4.603184  
     471A      4.625065   472A      4.630922   473A      4.641142  
     474A      4.653072   475A      4.662274   476A      4.676106  
     477A      4.685744   478A      4.691169   479A      4.712011  
     480A      4.720945   481A      4.730947   482A      4.751673  
     483A      4.772244   484A      4.794848   485A      4.819666  
     486A      4.828635   487A      4.834677   488A      4.848177  
     489A      4.851183   490A      4.880393   491A      4.887905  
     492A      4.910906   493A      4.923137   494A      4.931356  
     495A      4.934938   496A      4.956057   497A      4.963816  
     498A      4.973580   499A      4.976883   500A      4.985042  
     501A      4.989266   502A      5.011119   503A      5.013460  
     504A      5.037266   505A      5.054868   506A      5.065133  
     507A      5.069173   508A      5.099976   509A      5.110851  
     510A      5.117623   511A      5.130631   512A      5.159788  
     513A      5.164112   514A      5.177003   515A      5.201264  
     516A      5.211017   517A      5.223136   518A      5.243178  
     519A      5.252620   520A      5.257878   521A      5.293818  
     522A      5.296572   523A      5.308264   524A      5.335401  
     525A      5.345040   526A      5.394941   527A      5.399812  
     528A      5.410806   529A      5.430492   530A      5.449288  
     531A      5.474310   532A      5.489650   533A      5.494503  
     534A      5.508950   535A      5.530612   536A      5.553823  
     537A      5.566892   538A      5.576807   539A      5.607546  
     540A      5.618323   541A      5.658667   542A      5.682526  
     543A      5.716527   544A      5.747415   545A      5.763127  
     546A      5.786794   547A      5.801618   548A      5.823487  
     549A      5.864305   550A      5.912389   551A      5.925613  
     552A      5.935546   553A      5.940706   554A      5.993417  
     555A      6.033400   556A      6.046024   557A      6.089782  
     558A      6.138349   559A      6.158787   560A      6.190291  
     561A      6.197055   562A      6.216825   563A      6.250036  
     564A      6.305708   565A      6.325663   566A      6.363516  
     567A      6.371775   568A      6.393362   569A      6.425669  
     570A      6.435407   571A      6.456393   572A      6.465773  
     573A      6.489649   574A      6.500521   575A      6.521941  
     576A      6.533977   577A      6.542997   578A      6.562062  
     579A      6.572667   580A      6.589668   581A      6.643352  
     582A      6.688466   583A      6.700495   584A      6.730924  
     585A      6.737725   586A      6.762768   587A      6.785771  
     588A      6.801890   589A      6.822750   590A      6.850317  
     591A      6.869041   592A      6.893752   593A      6.913171  
     594A      6.927353   595A      6.945906   596A      6.963797  
     597A      7.011570   598A      7.040444   599A      7.061045  
     600A      7.103549   601A      7.135289   602A      7.216530  
     603A      7.247373   604A      7.281336   605A      7.304443  
     606A      7.331211   607A      7.344176   608A      7.385529  
     609A      7.408982   610A      7.417239   611A      7.444226  
     612A      7.462349   613A      7.489150   614A      7.511471  
     615A      7.541818   616A      7.558832   617A      7.571720  
     618A      7.609937   619A      7.614740   620A      7.625600  
     621A      7.633479   622A      7.650761   623A      7.667118  
     624A      7.681339   625A      7.706753   626A      7.737319  
     627A      7.748839   628A      7.756507   629A      7.770186  
     630A      7.800654   631A      7.824653   632A      7.870441  
     633A      7.905092   634A      7.912695   635A      7.933013  
     636A      7.951123   637A      7.960328   638A      8.009146  
     639A      8.040029   640A      8.054370   641A      8.077389  
     642A      8.090539   643A      8.152848   644A      8.175920  
     645A      8.207215   646A      8.228429   647A      8.274837  
     648A      8.288928   649A      8.304784   650A      8.385173  
     651A      8.476630   652A      8.523744   653A      8.554210  
     654A      8.682237   655A      8.706183   656A      8.733645  
     657A      8.795605   658A      8.830806   659A      8.913293  
     660A      8.984413   661A      9.070223   662A      9.105678  
     663A      9.147341   664A      9.325412   665A      9.357012  
     666A      9.463361   667A      9.514627   668A      9.555203  
     669A      9.645181   670A      9.709450   671A      9.743645  
     672A      9.804516   673A      9.905580   674A      9.964630  
     675A     10.177734   676A     10.186535   677A     10.304530  
     678A     10.436643   679A     10.507576   680A     10.571246  
     681A     10.746854   682A     11.166679   683A     11.216590  
     684A     11.264216   685A     11.436112   686A     11.522011  
     687A     11.659659   688A     11.696876   689A     12.002841  
     690A     12.043153   691A     12.047555   692A     12.051838  
     693A     12.200569   694A     12.305293   695A     12.390944  
     696A     12.650042   697A     12.817629   698A     12.982319  
     699A     13.379423   700A     13.532102   701A     14.242202  
     702A     17.405741   703A     51.897168   704A     52.502773  
     705A     52.967793   706A     54.545569   707A     56.575285  
     708A     60.232830   709A     61.434710   710A     62.121455  
     711A     64.002215   712A     65.913431   713A     69.988902  

    Final Occupation by Irrep:
              A 
    DOCC [     5 ]

  @DF-RHF Final Energy:   -76.05879953938971

   => Energetics <=

    Nuclear Repulsion Energy =              9.0170965205847651
    One-Electron Energy =                -122.7277274903632218
    Two-Electron Energy =                  37.6518314303887607
    Total Energy =                        -76.0587995393896961

Computation Completed


Properties will be evaluated at   0.000000,   0.000000,   0.000000 [a0]

Properties computed using the SCF density matrix

  Nuclear Dipole Moment: [e a0]
     X:    64.1611      Y:   -22.9288      Z:    -3.2155

  Electronic Dipole Moment: [e a0]
     X:   -64.7105      Y:    22.7097      Z:     2.6955

  Dipole Moment: [e a0]
     X:    -0.5494      Y:    -0.2191      Z:    -0.5200     Total:     0.7875

  Dipole Moment: [D]
     X:    -1.3964      Y:    -0.5569      Z:    -1.3217     Total:     2.0017


*** tstop() called on node108.bme.utexas.edu at Fri Mar 29 16:49:21 2024
Module time:
	user time   =     137.49 seconds =       2.29 minutes
	system time =       1.11 seconds =       0.02 minutes
	total time  =         19 seconds =       0.32 minutes
Total time:
	user time   =     755.11 seconds =      12.59 minutes
	system time =       7.05 seconds =       0.12 minutes
	total time  =        108 seconds =       1.80 minutes

*** tstart() called on node108.bme.utexas.edu
*** at Fri Mar 29 16:49:21 2024


  //>>>>>>>>>>>>>>>>>>>>>>>>>>>>>>>>>>>//
  //               DFMP2               //
  //<<<<<<<<<<<<<<<<<<<<<<<<<<<<<<<<<<<//

   => Loading Basis Set <=

    Name: (AUG-CC-PVTZ AUX)
    Role: RIFIT
    Keyword: DF_BASIS_MP2
    atoms 1, 5, 9, 11-12     entry N          line   206 file /opt/anaconda/envs/psi4v1.5/share/psi4/basis/aug-cc-pvtz-ri.gbs 
    atoms 2, 4, 14-16, 18-19 entry H          line    30 file /opt/anaconda/envs/psi4v1.5/share/psi4/basis/aug-cc-pvtz-ri.gbs 
    atoms 3, 6-7, 10, 13     entry C          line   148 file /opt/anaconda/envs/psi4v1.5/share/psi4/basis/aug-cc-pvtz-ri.gbs 
    atoms 8, 17              entry O          line   264 file /opt/anaconda/envs/psi4v1.5/share/psi4/basis/aug-cc-pvtz-ri.gbs 

	 --------------------------------------------------------
	                          DF-MP2                         
	      2nd-Order Density-Fitted Moller-Plesset Theory     
	              RMP2 Wavefunction,   8 Threads             
	                                                         
	        Rob Parrish, Justin Turney, Andy Simmonett,      
	           Ed Hohenstein, and C. David Sherrill          
	 --------------------------------------------------------

   => Auxiliary Basis Set <=

  Basis Set: (AUG-CC-PVTZ AUX)
    Blend: AUG-CC-PVTZ-RI
    Number of shells: 434
    Number of basis functions: 1594
    Number of Cartesian functions: 2017
    Spherical Harmonics?: true
    Max angular momentum: 4

	 --------------------------------------------------------
	                 NBF =   713, NAUX =  1594
	 --------------------------------------------------------
	   CLASS    FOCC     OCC    AOCC    AVIR     VIR    FVIR
	   PAIRS       1       5       4     708     708       0
	 --------------------------------------------------------

	 Will attempt to load fitting metric from file 97.

	-----------------------------------------------------------
	 ==================> DF-MP2 Energies <==================== 
	-----------------------------------------------------------
	 Reference Energy          =     -76.0587995393897103 [Eh]
	 Singles Energy            =      -0.0000000000000000 [Eh]
	 Same-Spin Energy          =      -0.0655912768915595 [Eh]
	 Opposite-Spin Energy      =      -0.2052849764744999 [Eh]
	 Correlation Energy        =      -0.2708762533660594 [Eh]
	 Total Energy              =     -76.3296757927557650 [Eh]
	-----------------------------------------------------------
	 ================> DF-SCS-MP2 Energies <================== 
	-----------------------------------------------------------
	 SCS Same-Spin Scale       =       0.3333333333333333 [-]
	 SCS Opposite-Spin Scale   =       1.2000000000000000 [-]
	 SCS Same-Spin Energy      =      -0.0218637589638532 [Eh]
	 SCS Opposite-Spin Energy  =      -0.2463419717693999 [Eh]
	 SCS Correlation Energy    =      -0.2682057307332530 [Eh]
	 SCS Total Energy          =     -76.3270052701229673 [Eh]
	-----------------------------------------------------------


*** tstop() called on node108.bme.utexas.edu at Fri Mar 29 16:49:27 2024
Module time:
	user time   =      25.02 seconds =       0.42 minutes
	system time =       0.61 seconds =       0.01 minutes
	total time  =          6 seconds =       0.10 minutes
Total time:
	user time   =     780.13 seconds =      13.00 minutes
	system time =       7.66 seconds =       0.13 minutes
	total time  =        114 seconds =       1.90 minutes
  Constructing Basis Sets for SAPT...

   => Loading Basis Set <=

    Name: (AUG-CC-PVTZ AUX)
    Role: RIFIT
    Keyword: DF_BASIS_SAPT
    atoms 1, 5, 9, 11-12     entry N          line   206 file /opt/anaconda/envs/psi4v1.5/share/psi4/basis/aug-cc-pvtz-ri.gbs 
    atoms 2, 4, 14-16, 18-19 entry H          line    30 file /opt/anaconda/envs/psi4v1.5/share/psi4/basis/aug-cc-pvtz-ri.gbs 
    atoms 3, 6-7, 10, 13     entry C          line   148 file /opt/anaconda/envs/psi4v1.5/share/psi4/basis/aug-cc-pvtz-ri.gbs 
    atoms 8, 17              entry O          line   264 file /opt/anaconda/envs/psi4v1.5/share/psi4/basis/aug-cc-pvtz-ri.gbs 


  //>>>>>>>>>>>>>>>>>>>>>>>>>>>>>>>>>>>//
  //           SAPT2+(3)DMP2           //
  //<<<<<<<<<<<<<<<<<<<<<<<<<<<<<<<<<<<//


*** tstart() called on node108.bme.utexas.edu
*** at Fri Mar 29 16:49:27 2024

      SAPT2+(3)  
    Ed Hohenstein
     6 June 2009

      Orbital Information
  --------------------------
    NSO        =       713
    NMO        =       713
    NRI        =      1594
    NOCC A     =        39
    NOCC B     =         5
    FOCC A     =        11
    FOCC B     =         1
    NVIR A     =       674
    NVIR B     =       708

    Estimated memory usage: 24690.3 MB

    Natural Orbital Cutoff:   1.000E-06
    Disp(T3) Truncation:            Yes
    CCD (vv|vv) Truncation:         Yes
    MBPT T2 Truncation:             Yes

    Monomer A: 139 virtual orbitals dropped
    Monomer B: 620 virtual orbitals dropped

    Elst10,r            =    -0.059463045735 [Eh]
    Exch10 (S^2)        =     0.087830812796 [Eh]
    Exch10              =     0.090267319487 [Eh]
    Ind20,r (A<-B)      =    -0.025535133397 [Eh]
    Ind20,r (B<-A)      =    -0.018854218215 [Eh]
    Ind20,r             =    -0.044389351612 [Eh]
    Exch-Ind20,r (A<-B) =     0.015913733585 [Eh]
    Exch-Ind20,r (B<-A) =     0.013223213006 [Eh]
    Exch-Ind20,r        =     0.029136946591 [Eh]
    Disp20              =    -0.023942919584 [Eh]
    Disp20 (NO)         =    -0.021271732789 [Eh]
    Exch-Disp20         =     0.005814463685 [Eh]
    Elst12,r            =    -0.001724079211 [Eh]
    Exch11              =     0.001052677382 [Eh]
    Exch12              =     0.007240394204 [Eh]
    Ind22               =    -0.006329685568 [Eh]
    Disp21              =     0.002310157723 [Eh]
    Disp22 (SDQ)        =    -0.000340517135 [Eh]

    (i =   1 of   4)        424 seconds
    (i =   2 of   4)        848 seconds
    (i =   3 of   4)       1272 seconds
    (i =   4 of   4)       1695 seconds

    Disp220 (T)         =    -0.001864504421 [Eh]

    (i =   1 of  28)          5 seconds
    (i =   2 of  28)         10 seconds
    (i =   3 of  28)         14 seconds
    (i =   4 of  28)         19 seconds
    (i =   5 of  28)         23 seconds
    (i =   6 of  28)         28 seconds
    (i =   7 of  28)         33 seconds
    (i =   8 of  28)         37 seconds
    (i =   9 of  28)         42 seconds
    (i =  10 of  28)         46 seconds
    (i =  11 of  28)         51 seconds
    (i =  12 of  28)         55 seconds
    (i =  13 of  28)         60 seconds
    (i =  14 of  28)         65 seconds
    (i =  15 of  28)         69 seconds
    (i =  16 of  28)         74 seconds
    (i =  17 of  28)         78 seconds
    (i =  18 of  28)         83 seconds
    (i =  19 of  28)         88 seconds
    (i =  20 of  28)         92 seconds
    (i =  21 of  28)         97 seconds
    (i =  22 of  28)        101 seconds
    (i =  23 of  28)        106 seconds
    (i =  24 of  28)        111 seconds
    (i =  25 of  28)        115 seconds
    (i =  26 of  28)        120 seconds
    (i =  27 of  28)        124 seconds
    (i =  28 of  28)        129 seconds

    Disp202 (T)         =    -0.001789072586 [Eh]

    Disp22 (T)          =    -0.003653577007 [Eh]

    Est. Disp220 (T)    =    -0.002098638595 [Eh]
    Est. Disp202 (T)    =    -0.002013734447 [Eh]

    Est. Disp22 (T)     =    -0.004112373041 [Eh]
    Elst13,r            =     0.001502152611 [Eh]
    Disp30              =     0.000923973663 [Eh]

    SAPT Results 
  --------------------------------------------------------------------------------------------------------
    Electrostatics                -59.68497234 [mEh]     -37.45288558 [kcal/mol]    -156.70287328 [kJ/mol]
      Elst10,r                    -59.46304573 [mEh]     -37.31362454 [kcal/mol]    -156.12020507 [kJ/mol]
      Elst12,r                     -1.72407921 [mEh]      -1.08187604 [kcal/mol]      -4.52656935 [kJ/mol]
      Elst13,r                      1.50215261 [mEh]       0.94261499 [kcal/mol]       3.94390114 [kJ/mol]

    Exchange                       98.56039107 [mEh]      61.84757914 [kcal/mol]     258.77027111 [kJ/mol]
      Exch10                       90.26731949 [mEh]      56.64359815 [kcal/mol]     236.99681466 [kJ/mol]
      Exch10(S^2)                  87.83081280 [mEh]      55.11466712 [kcal/mol]     230.59976723 [kJ/mol]
      Exch11(S^2)                   1.05267738 [mEh]       0.66056503 [kcal/mol]       2.76380408 [kJ/mol]
      Exch12(S^2)                   7.24039420 [mEh]       4.54341596 [kcal/mol]      19.00965236 [kJ/mol]

    Induction                     -24.49198637 [mEh]     -15.36895348 [kcal/mol]     -64.30370136 [kJ/mol]
      Ind20,r                     -44.38935161 [mEh]     -27.85473867 [kcal/mol]    -116.54422660 [kJ/mol]
      Ind22                        -6.32968557 [mEh]      -3.97193766 [kcal/mol]     -16.61858717 [kJ/mol]
      Exch-Ind20,r                 29.13694659 [mEh]      18.28371002 [kcal/mol]      76.49904274 [kJ/mol]
      Exch-Ind22                    4.15477369 [mEh]       2.60715985 [kcal/mol]      10.90835683 [kJ/mol]
      delta HF,r (2)              -10.28970597 [mEh]      -6.45688798 [kcal/mol]     -27.01561930 [kJ/mol]
      delta MP2,r (2)               3.22503649 [mEh]       2.02374095 [kcal/mol]       8.46733214 [kJ/mol]

    Dispersion                    -19.34721469 [mEh]     -12.14056051 [kcal/mol]     -50.79610517 [kJ/mol]
      Disp20                      -23.94291958 [mEh]     -15.02440887 [kcal/mol]     -62.86212671 [kJ/mol]
      Disp30                        0.92397366 [mEh]       0.57980223 [kcal/mol]       2.42589252 [kJ/mol]
      Disp21                        2.31015772 [mEh]       1.44964586 [kcal/mol]       6.06531827 [kJ/mol]
      Disp22 (SDQ)                 -0.34051714 [mEh]      -0.21367773 [kcal/mol]      -0.89402762 [kJ/mol]
      Disp22 (T)                   -3.65357701 [mEh]      -2.29265418 [kcal/mol]      -9.59246511 [kJ/mol]
      Est. Disp22 (T)              -4.11237304 [mEh]      -2.58055304 [kcal/mol]     -10.79703393 [kJ/mol]
      Exch-Disp20                   5.81446368 [mEh]       3.64863105 [kcal/mol]      15.26587230 [kJ/mol]

  Total HF                          5.26216276 [mEh]       3.30205699 [kcal/mol]      13.81580643 [kJ/mol]
  Total SAPT0                     -12.86629314 [mEh]      -8.07372084 [kcal/mol]     -33.78044798 [kJ/mol]
  Total SAPT2                      -8.47221264 [mEh]      -5.31639369 [kcal/mol]     -22.24379121 [kJ/mol]
  Total SAPT2+                    -10.61494509 [mEh]      -6.66097861 [kcal/mol]     -27.86953450 [kJ/mol]
  Total SAPT2+(3)                  -8.18881882 [mEh]      -5.13856139 [kcal/mol]     -21.49974084 [kJ/mol]
  Total SAPT2+dMP2                 -7.38990860 [mEh]      -4.63723766 [kcal/mol]     -19.40220235 [kJ/mol]
  Total SAPT2+(3)dMP2              -4.96378232 [mEh]      -3.11482043 [kcal/mol]     -13.03240870 [kJ/mol]

  Special recipe for scaled SAPT0 (see Manual):
    Electrostatics sSAPT0         -59.46304573 [mEh]     -37.31362454 [kcal/mol]    -156.12020507 [kJ/mol]
    Exchange sSAPT0                90.26731949 [mEh]      56.64359815 [kcal/mol]     236.99681466 [kJ/mol]
    Induction sSAPT0              -23.04936499 [mEh]     -14.46369490 [kcal/mol]     -60.51609944 [kJ/mol]
    Dispersion sSAPT0             -17.63101252 [mEh]     -11.06362739 [kcal/mol]     -46.29021700 [kJ/mol]
  Total sSAPT0                     -9.87610376 [mEh]      -6.19734867 [kcal/mol]     -25.92970685 [kJ/mol]
  --------------------------------------------------------------------------------------------------------

*** tstop() called on node108.bme.utexas.edu at Fri Mar 29 18:15:06 2024
Module time:
	user time   =   37850.53 seconds =     630.84 minutes
	system time =     140.01 seconds =       2.33 minutes
	total time  =       5139 seconds =      85.65 minutes
Total time:
	user time   =   38631.18 seconds =     643.85 minutes
	system time =     147.68 seconds =       2.46 minutes
	total time  =       5253 seconds =      87.55 minutes

    Psi4 stopped on: Friday, 29 March 2024 06:15PM
    Psi4 wall time for execution: 1:27:33.67

*** Psi4 exiting successfully. Buy a developer a beer!
