
    -----------------------------------------------------------------------
          Psi4: An Open-Source Ab Initio Electronic Structure Package
                               Psi4 1.5 release

                         Git: Rev {HEAD} e9f4d6d 


    D. G. A. Smith, L. A. Burns, A. C. Simmonett, R. M. Parrish,
    M. C. Schieber, R. Galvelis, P. Kraus, H. Kruse, R. Di Remigio,
    A. Alenaizan, A. M. James, S. Lehtola, J. P. Misiewicz, M. Scheurer,
    R. A. Shaw, J. B. Schriber, Y. Xie, Z. L. Glick, D. A. Sirianni,
    J. S. O'Brien, J. M. Waldrop, A. Kumar, E. G. Hohenstein,
    B. P. Pritchard, B. R. Brooks, H. F. Schaefer III, A. Yu. Sokolov,
    K. Patkowski, A. E. DePrince III, U. Bozkaya, R. A. King,
    F. A. Evangelista, J. M. Turney, T. D. Crawford, C. D. Sherrill,
    J. Chem. Phys. 152(18) 184108 (2020). https://doi.org/10.1063/5.0006002

                            Additional Code Authors
    E. T. Seidl, C. L. Janssen, E. F. Valeev, M. L. Leininger,
    J. F. Gonthier, R. M. Richard, H. R. McAlexander, M. Saitow, X. Wang,
    P. Verma, M. H. Lechner, and A. Jiang

             Previous Authors, Complete List of Code Contributors,
                       and Citations for Specific Modules
    https://github.com/psi4/psi4/blob/master/codemeta.json
    https://github.com/psi4/psi4/graphs/contributors
    http://psicode.org/psi4manual/master/introduction.html#citing-psifour

    -----------------------------------------------------------------------


    Psi4 started on: Friday, 29 March 2024 03:48PM

    Process ID: 268303
    Host:       node150.bme.utexas.edu
    PSIDATADIR: /opt/anaconda/envs/psi4v1.5/share/psi4
    Memory:     500.0 MiB
    Threads:    8
    
  ==> Input File <==

--------------------------------------------------------------------------
memory 50GB

molecule {
0 1
N 1.63335 -1.12327 -0.03993
H 2.5985 -0.77999 -0.05402
C 1.13519 -2.40064 -0.03329
H 1.78392 -3.2669 -0.04417
N -0.19102 -2.44582 -0.01281
C -0.56184 -1.12072 -0.00974
C -1.87569 -0.5308 0.0247
O -2.98967 -1.03682 0.06593
N -1.74634 0.89839 0.01527
C -0.58713 1.6265 -0.02179
N -0.72702 3.00354 0.04493
N 0.60817 1.0862 -0.04401
C 0.55385 -0.28546 -0.02031
H -2.63551 1.3822 0.11841
H -1.4943 3.38575 -0.49841
H 0.14852 3.47524 -0.15709
--
0 1
O 4.582635625 1.30115125 0.0826946875
H 4.891645625 1.56083125 0.9648346875
H 3.692225625 1.70719125 0.007864687499999995
 units angstrom
 no_reorient
 symmetry c1} 
set  {scf_type DF
 basis aug-cc-pvtz
 freeze_core True
 guess SAD}
energy('sapt2+(3)dmp2')
--------------------------------------------------------------------------

  Memory set to  46.566 GiB by Python driver.

Scratch directory: /tmp/
   => Loading Basis Set <=

    Name: AUG-CC-PVTZ
    Role: ORBITAL
    Keyword: BASIS
    atoms 1, 5, 9, 11-12     entry N          line   285 file /opt/anaconda/envs/psi4v1.5/share/psi4/basis/aug-cc-pvtz.gbs 
    atoms 2, 4, 14-16, 18-19 entry H          line    40 file /opt/anaconda/envs/psi4v1.5/share/psi4/basis/aug-cc-pvtz.gbs 
    atoms 3, 6-7, 10, 13     entry C          line   239 file /opt/anaconda/envs/psi4v1.5/share/psi4/basis/aug-cc-pvtz.gbs 
    atoms 8, 17              entry O          line   331 file /opt/anaconda/envs/psi4v1.5/share/psi4/basis/aug-cc-pvtz.gbs 

   => Loading Basis Set <=

    Name: AUG-CC-PVTZ
    Role: ORBITAL
    Keyword: BASIS
    atoms 1, 5, 9, 11-12     entry N          line   285 file /opt/anaconda/envs/psi4v1.5/share/psi4/basis/aug-cc-pvtz.gbs 
    atoms 2, 4, 14-16, 18-19 entry H          line    40 file /opt/anaconda/envs/psi4v1.5/share/psi4/basis/aug-cc-pvtz.gbs 
    atoms 3, 6-7, 10, 13     entry C          line   239 file /opt/anaconda/envs/psi4v1.5/share/psi4/basis/aug-cc-pvtz.gbs 
    atoms 8, 17              entry O          line   331 file /opt/anaconda/envs/psi4v1.5/share/psi4/basis/aug-cc-pvtz.gbs 


  //>>>>>>>>>>>>>>>>>>>>>>>>>>>>>>>>>>>//
  //              Dimer HF             //
  //<<<<<<<<<<<<<<<<<<<<<<<<<<<<<<<<<<<//


*** tstart() called on node150.bme.utexas.edu
*** at Fri Mar 29 15:48:45 2024

   => Loading Basis Set <=

    Name: AUG-CC-PVTZ
    Role: ORBITAL
    Keyword: BASIS
    atoms 1, 5, 9, 11-12     entry N          line   285 file /opt/anaconda/envs/psi4v1.5/share/psi4/basis/aug-cc-pvtz.gbs 
    atoms 2, 4, 14-16, 18-19 entry H          line    40 file /opt/anaconda/envs/psi4v1.5/share/psi4/basis/aug-cc-pvtz.gbs 
    atoms 3, 6-7, 10, 13     entry C          line   239 file /opt/anaconda/envs/psi4v1.5/share/psi4/basis/aug-cc-pvtz.gbs 
    atoms 8, 17              entry O          line   331 file /opt/anaconda/envs/psi4v1.5/share/psi4/basis/aug-cc-pvtz.gbs 


         ---------------------------------------------------------
                                   SCF
               by Justin Turney, Rob Parrish, Andy Simmonett
                          and Daniel G. A. Smith
                              RHF Reference
                        8 Threads,  47683 MiB Core
         ---------------------------------------------------------

  ==> Geometry <==

    Molecular point group: c1
    Full point group: C1

    Geometry (in Angstrom), charge = 0, multiplicity = 1:

       Center              X                  Y                   Z               Mass       
    ------------   -----------------  -----------------  -----------------  -----------------
         N            1.558903765740    -1.117876464195    -0.048686221152    14.003074004430
         H            2.524053765740    -0.774596464195    -0.062776221152     1.007825032230
         C            1.060743765740    -2.395246464195    -0.042046221152    12.000000000000
         H            1.709473765740    -3.261506464195    -0.052926221152     1.007825032230
         N           -0.265466234260    -2.440426464195    -0.021566221152    14.003074004430
         C           -0.636286234260    -1.115326464195    -0.018496221152    12.000000000000
         C           -1.950136234260    -0.525406464195     0.015943778848    12.000000000000
         O           -3.064116234260    -1.031426464195     0.057173778848    15.994914619570
         N           -1.820786234260     0.903783535805     0.006513778848    14.003074004430
         C           -0.661576234260     1.631893535805    -0.030546221152    12.000000000000
         N           -0.801466234260     3.008933535805     0.036173778848    14.003074004430
         N            0.533723765740     1.091593535805    -0.052766221152    14.003074004430
         C            0.479403765740    -0.280066464195    -0.029066221152    12.000000000000
         H           -2.709956234260     1.387593535805     0.109653778848     1.007825032230
         H           -1.568746234260     3.391143535805    -0.507166221152     1.007825032230
         H            0.074073765740     3.480633535805    -0.165846221152     1.007825032230
         O            4.508189390740     1.306544785805     0.073938466348    15.994914619570
         H            4.817199390740     1.566224785805     0.956078466348     1.007825032230
         H            3.617779390740     1.712584785805    -0.000891533652     1.007825032230

  Running in c1 symmetry.

  Rotational constants: A =      0.03727  B =      0.02372  C =      0.01453 [cm^-1]
  Rotational constants: A =   1117.36666  B =    711.00780  C =    435.61057 [MHz]
  Nuclear repulsion =  681.332009987124025

  Charge       = 0
  Multiplicity = 1
  Electrons    = 88
  Nalpha       = 44
  Nbeta        = 44

  ==> Algorithm <==

  SCF Algorithm Type is DF.
  DIIS enabled.
  MOM disabled.
  Fractional occupation disabled.
  Guess Type is SAD.
  Energy threshold   = 1.00e-08
  Density threshold  = 1.00e-08
  Integral threshold = 1.00e-12

  ==> Primary Basis <==

  Basis Set: AUG-CC-PVTZ
    Blend: AUG-CC-PVTZ
    Number of shells: 231
    Number of basis functions: 713
    Number of Cartesian functions: 835
    Spherical Harmonics?: true
    Max angular momentum: 3

   => Loading Basis Set <=

    Name: (AUG-CC-PVTZ AUX)
    Role: JKFIT
    Keyword: DF_BASIS_SCF
    atoms 1, 5, 9, 11-12     entry N          line   224 file /opt/anaconda/envs/psi4v1.5/share/psi4/basis/aug-cc-pvtz-jkfit.gbs 
    atoms 2, 4, 14-16, 18-19 entry H          line    70 file /opt/anaconda/envs/psi4v1.5/share/psi4/basis/aug-cc-pvtz-jkfit.gbs 
    atoms 3, 6-7, 10, 13     entry C          line   162 file /opt/anaconda/envs/psi4v1.5/share/psi4/basis/aug-cc-pvtz-jkfit.gbs 
    atoms 8, 17              entry O          line   286 file /opt/anaconda/envs/psi4v1.5/share/psi4/basis/aug-cc-pvtz-jkfit.gbs 

  ==> Integral Setup <==

  ==> DiskDFJK: Density-Fitted J/K Matrices <==

    J tasked:                  Yes
    K tasked:                  Yes
    wK tasked:                  No
    OpenMP threads:              8
    Integrals threads:           8
    Memory [MiB]:            35762
    Algorithm:                Core
    Integral Cache:           SAVE
    Schwarz Cutoff:          1E-12
    Fitting Condition:       1E-10

   => Auxiliary Basis Set <=

  Basis Set: (AUG-CC-PVTZ AUX)
    Blend: AUG-CC-PVTZ-JKFIT
    Number of shells: 458
    Number of basis functions: 1570
    Number of Cartesian functions: 1957
    Spherical Harmonics?: true
    Max angular momentum: 4

  Minimum eigenvalue in the overlap matrix is 1.6190703876E-06.
  Reciprocal condition number of the overlap matrix is 9.3084862872E-08.
    Using symmetric orthogonalization.

  ==> Pre-Iterations <==

  SCF Guess: Superposition of Atomic Densities via on-the-fly atomic UHF (no occupation information).

   -------------------------
    Irrep   Nso     Nmo    
   -------------------------
     A        713     713 
   -------------------------
    Total     713     713
   -------------------------

  ==> Iterations <==

                           Total Energy        Delta E     RMS |[F,P]|

   @DF-RHF iter SAD:  -614.77740522560146   -6.14777e+02   0.00000e+00 
   @DF-RHF iter   1:  -615.26315776273145   -4.85753e-01   1.28204e-03 DIIS
   @DF-RHF iter   2:  -615.53505313484038   -2.71895e-01   7.90160e-04 DIIS
   @DF-RHF iter   3:  -615.64362728602873   -1.08574e-01   1.34567e-04 DIIS
   @DF-RHF iter   4:  -615.64875758696235   -5.13030e-03   6.20541e-05 DIIS
   @DF-RHF iter   5:  -615.64984456411742   -1.08698e-03   1.42884e-05 DIIS
   @DF-RHF iter   6:  -615.64995886356280   -1.14299e-04   6.94763e-06 DIIS
   @DF-RHF iter   7:  -615.64999116634999   -3.23028e-05   2.59974e-06 DIIS
   @DF-RHF iter   8:  -615.64999689853289   -5.73218e-06   9.34897e-07 DIIS
   @DF-RHF iter   9:  -615.64999756296447   -6.64432e-07   3.88997e-07 DIIS
   @DF-RHF iter  10:  -615.64999767295797   -1.09993e-07   1.52969e-07 DIIS
   @DF-RHF iter  11:  -615.64999769004100   -1.70830e-08   5.88266e-08 DIIS
   @DF-RHF iter  12:  -615.64999769229325   -2.25225e-09   1.87831e-08 DIIS
   @DF-RHF iter  13:  -615.64999769257270   -2.79442e-10   8.35503e-09 DIIS
  Energy and wave function converged.


  ==> Post-Iterations <==

    Orbital Energies [Eh]
    ---------------------

    Doubly Occupied:                                                      

       1A    -20.584468     2A    -20.526803     3A    -15.636392  
       4A    -15.633780     5A    -15.616929     6A    -15.577117  
       7A    -15.565535     8A    -11.401751     9A    -11.370375  
      10A    -11.327563    11A    -11.314783    12A    -11.252418  
      13A     -1.395556    14A     -1.362374    15A     -1.358883  
      16A     -1.338182    17A     -1.223832    18A     -1.218506  
      19A     -1.178238    20A     -1.032277    21A     -0.907150  
      22A     -0.886826    23A     -0.845340    24A     -0.800318  
      25A     -0.741744    26A     -0.733242    27A     -0.721701  
      28A     -0.702680    29A     -0.674338    30A     -0.658419  
      31A     -0.634682    32A     -0.616208    33A     -0.601704  
      34A     -0.597685    35A     -0.596747    36A     -0.550728  
      37A     -0.524688    38A     -0.502059    39A     -0.465138  
      40A     -0.445136    41A     -0.434947    42A     -0.434206  
      43A     -0.412539    44A     -0.303935  

    Virtual:                                                              

      45A      0.012874    46A      0.023328    47A      0.033000  
      48A      0.039969    49A      0.051846    50A      0.054607  
      51A      0.063519    52A      0.075202    53A      0.079408  
      54A      0.084740    55A      0.087897    56A      0.098935  
      57A      0.105814    58A      0.106771    59A      0.111291  
      60A      0.114800    61A      0.118972    62A      0.123985  
      63A      0.126733    64A      0.130268    65A      0.134356  
      66A      0.136020    67A      0.141048    68A      0.147070  
      69A      0.150813    70A      0.156188    71A      0.163575  
      72A      0.168403    73A      0.169172    74A      0.173459  
      75A      0.178094    76A      0.182139    77A      0.188296  
      78A      0.192921    79A      0.198476    80A      0.204923  
      81A      0.208395    82A      0.210970    83A      0.217912  
      84A      0.222439    85A      0.227218    86A      0.228920  
      87A      0.237242    88A      0.240929    89A      0.245866  
      90A      0.255279    91A      0.260423    92A      0.269574  
      93A      0.275356    94A      0.277540    95A      0.281744  
      96A      0.284907    97A      0.291185    98A      0.294812  
      99A      0.297945   100A      0.301380   101A      0.304686  
     102A      0.310628   103A      0.314651   104A      0.317916  
     105A      0.322899   106A      0.330145   107A      0.331794  
     108A      0.337437   109A      0.350182   110A      0.357827  
     111A      0.360561   112A      0.366324   113A      0.369353  
     114A      0.372262   115A      0.372945   116A      0.376201  
     117A      0.382870   118A      0.386302   119A      0.391707  
     120A      0.400501   121A      0.403763   122A      0.406865  
     123A      0.413753   124A      0.420456   125A      0.425208  
     126A      0.429909   127A      0.438638   128A      0.439269  
     129A      0.441971   130A      0.451964   131A      0.456655  
     132A      0.464463   133A      0.465485   134A      0.468914  
     135A      0.470817   136A      0.480196   137A      0.484545  
     138A      0.492921   139A      0.495686   140A      0.502967  
     141A      0.508730   142A      0.509336   143A      0.515866  
     144A      0.527929   145A      0.532435   146A      0.534131  
     147A      0.538057   148A      0.546604   149A      0.552247  
     150A      0.555163   151A      0.560611   152A      0.563762  
     153A      0.571405   154A      0.594941   155A      0.600095  
     156A      0.601488   157A      0.605678   158A      0.612716  
     159A      0.620161   160A      0.624436   161A      0.633050  
     162A      0.638744   163A      0.649459   164A      0.654976  
     165A      0.658002   166A      0.665758   167A      0.670225  
     168A      0.675435   169A      0.676662   170A      0.685835  
     171A      0.692247   172A      0.697808   173A      0.704450  
     174A      0.714704   175A      0.720775   176A      0.723479  
     177A      0.734157   178A      0.737473   179A      0.744504  
     180A      0.749389   181A      0.754620   182A      0.761466  
     183A      0.764644   184A      0.779477   185A      0.784569  
     186A      0.790549   187A      0.795779   188A      0.800096  
     189A      0.807079   190A      0.812343   191A      0.822262  
     192A      0.822455   193A      0.831024   194A      0.836168  
     195A      0.844805   196A      0.849187   197A      0.853368  
     198A      0.854731   199A      0.859828   200A      0.864369  
     201A      0.879661   202A      0.887714   203A      0.893580  
     204A      0.899333   205A      0.900117   206A      0.904479  
     207A      0.908911   208A      0.926677   209A      0.930843  
     210A      0.937794   211A      0.941320   212A      0.944510  
     213A      0.947665   214A      0.953714   215A      0.958085  
     216A      0.964567   217A      0.965980   218A      0.974774  
     219A      0.980655   220A      0.984855   221A      0.990879  
     222A      1.000828   223A      1.003542   224A      1.005420  
     225A      1.010447   226A      1.016157   227A      1.024425  
     228A      1.031528   229A      1.034932   230A      1.040536  
     231A      1.043201   232A      1.058986   233A      1.062392  
     234A      1.065596   235A      1.066449   236A      1.071572  
     237A      1.079037   238A      1.081488   239A      1.095297  
     240A      1.099419   241A      1.102955   242A      1.106832  
     243A      1.116438   244A      1.119433   245A      1.126442  
     246A      1.132887   247A      1.140179   248A      1.152088  
     249A      1.158734   250A      1.159704   251A      1.162840  
     252A      1.175454   253A      1.177241   254A      1.181408  
     255A      1.184374   256A      1.198894   257A      1.203607  
     258A      1.214410   259A      1.232677   260A      1.235310  
     261A      1.244723   262A      1.246552   263A      1.250359  
     264A      1.254909   265A      1.256462   266A      1.269261  
     267A      1.276310   268A      1.281628   269A      1.294083  
     270A      1.303631   271A      1.308227   272A      1.316426  
     273A      1.326605   274A      1.334770   275A      1.337288  
     276A      1.345154   277A      1.356855   278A      1.365384  
     279A      1.370513   280A      1.376435   281A      1.385510  
     282A      1.392158   283A      1.395746   284A      1.403896  
     285A      1.415778   286A      1.422455   287A      1.430439  
     288A      1.438123   289A      1.444839   290A      1.449090  
     291A      1.461711   292A      1.463663   293A      1.472312  
     294A      1.484554   295A      1.485103   296A      1.491306  
     297A      1.507226   298A      1.520947   299A      1.527997  
     300A      1.534870   301A      1.543112   302A      1.551439  
     303A      1.552539   304A      1.565097   305A      1.567724  
     306A      1.578121   307A      1.586466   308A      1.593200  
     309A      1.598783   310A      1.613237   311A      1.619114  
     312A      1.625807   313A      1.642917   314A      1.647041  
     315A      1.655455   316A      1.668768   317A      1.678692  
     318A      1.688652   319A      1.689587   320A      1.698844  
     321A      1.712960   322A      1.716212   323A      1.728842  
     324A      1.739102   325A      1.743395   326A      1.752339  
     327A      1.762327   328A      1.778669   329A      1.780238  
     330A      1.788885   331A      1.832998   332A      1.833256  
     333A      1.838839   334A      1.848354   335A      1.854169  
     336A      1.862283   337A      1.872756   338A      1.876516  
     339A      1.895825   340A      1.913543   341A      1.921405  
     342A      1.931008   343A      1.954429   344A      1.958627  
     345A      1.967510   346A      1.971836   347A      1.992447  
     348A      2.004762   349A      2.019681   350A      2.022097  
     351A      2.049906   352A      2.061383   353A      2.063442  
     354A      2.068628   355A      2.075197   356A      2.086777  
     357A      2.104154   358A      2.108311   359A      2.113532  
     360A      2.118350   361A      2.128125   362A      2.139502  
     363A      2.173329   364A      2.189830   365A      2.191071  
     366A      2.201401   367A      2.209534   368A      2.220196  
     369A      2.231492   370A      2.233581   371A      2.248351  
     372A      2.264907   373A      2.269451   374A      2.292281  
     375A      2.301974   376A      2.313391   377A      2.319084  
     378A      2.320690   379A      2.326430   380A      2.337942  
     381A      2.345789   382A      2.346118   383A      2.353985  
     384A      2.364408   385A      2.374244   386A      2.386144  
     387A      2.402317   388A      2.404270   389A      2.424329  
     390A      2.424685   391A      2.428429   392A      2.438934  
     393A      2.446836   394A      2.460329   395A      2.462373  
     396A      2.474395   397A      2.478966   398A      2.486637  
     399A      2.502926   400A      2.507523   401A      2.512961  
     402A      2.520954   403A      2.527734   404A      2.535590  
     405A      2.541243   406A      2.567334   407A      2.578874  
     408A      2.590160   409A      2.607118   410A      2.617615  
     411A      2.626527   412A      2.640790   413A      2.653387  
     414A      2.655611   415A      2.686748   416A      2.698201  
     417A      2.706105   418A      2.708230   419A      2.718034  
     420A      2.729438   421A      2.734506   422A      2.743044  
     423A      2.754276   424A      2.769500   425A      2.772946  
     426A      2.788469   427A      2.806961   428A      2.813446  
     429A      2.831180   430A      2.832693   431A      2.841264  
     432A      2.857375   433A      2.867487   434A      2.893668  
     435A      2.906068   436A      2.926217   437A      2.944535  
     438A      2.972747   439A      2.991583   440A      3.007189  
     441A      3.019029   442A      3.052791   443A      3.066017  
     444A      3.086059   445A      3.106950   446A      3.115783  
     447A      3.130537   448A      3.158168   449A      3.181929  
     450A      3.211788   451A      3.241731   452A      3.256283  
     453A      3.291511   454A      3.310226   455A      3.332736  
     456A      3.357124   457A      3.380980   458A      3.389744  
     459A      3.407568   460A      3.418210   461A      3.450945  
     462A      3.473623   463A      3.504275   464A      3.518212  
     465A      3.526461   466A      3.541458   467A      3.569412  
     468A      3.604406   469A      3.613621   470A      3.623750  
     471A      3.637744   472A      3.661575   473A      3.668373  
     474A      3.680538   475A      3.689423   476A      3.709559  
     477A      3.719579   478A      3.728934   479A      3.740616  
     480A      3.754096   481A      3.761881   482A      3.769581  
     483A      3.782715   484A      3.800489   485A      3.812706  
     486A      3.814136   487A      3.839880   488A      3.857416  
     489A      3.866496   490A      3.874229   491A      3.880732  
     492A      3.896772   493A      3.900803   494A      3.912997  
     495A      3.959781   496A      3.967130   497A      3.978766  
     498A      3.995933   499A      4.006762   500A      4.025864  
     501A      4.034471   502A      4.048889   503A      4.052647  
     504A      4.059951   505A      4.080783   506A      4.093939  
     507A      4.095006   508A      4.134612   509A      4.143712  
     510A      4.150662   511A      4.158530   512A      4.161185  
     513A      4.182834   514A      4.186842   515A      4.203112  
     516A      4.217762   517A      4.222516   518A      4.234266  
     519A      4.241020   520A      4.252167   521A      4.254600  
     522A      4.263396   523A      4.272873   524A      4.289861  
     525A      4.295619   526A      4.305819   527A      4.319692  
     528A      4.330630   529A      4.338183   530A      4.359853  
     531A      4.364100   532A      4.379733   533A      4.383689  
     534A      4.394017   535A      4.401164   536A      4.411004  
     537A      4.427946   538A      4.445570   539A      4.451849  
     540A      4.462750   541A      4.468978   542A      4.487281  
     543A      4.497744   544A      4.500741   545A      4.513583  
     546A      4.523536   547A      4.536936   548A      4.555055  
     549A      4.569296   550A      4.581148   551A      4.596442  
     552A      4.611126   553A      4.613908   554A      4.627937  
     555A      4.647377   556A      4.668973   557A      4.696008  
     558A      4.709429   559A      4.738665   560A      4.749663  
     561A      4.775274   562A      4.793793   563A      4.796106  
     564A      4.801835   565A      4.829206   566A      4.867539  
     567A      4.873460   568A      4.876332   569A      4.903746  
     570A      4.912171   571A      4.921024   572A      4.930165  
     573A      4.962721   574A      4.999399   575A      5.014674  
     576A      5.031639   577A      5.040677   578A      5.049134  
     579A      5.096047   580A      5.115029   581A      5.133122  
     582A      5.144094   583A      5.151205   584A      5.173739  
     585A      5.193684   586A      5.202960   587A      5.212261  
     588A      5.240870   589A      5.250702   590A      5.269755  
     591A      5.281019   592A      5.286390   593A      5.303374  
     594A      5.310068   595A      5.334244   596A      5.348965  
     597A      5.360251   598A      5.382919   599A      5.419342  
     600A      5.442303   601A      5.484763   602A      5.490870  
     603A      5.496879   604A      5.511247   605A      5.525048  
     606A      5.535271   607A      5.548137   608A      5.575578  
     609A      5.591432   610A      5.612955   611A      5.625821  
     612A      5.643841   613A      5.653744   614A      5.660132  
     615A      5.663407   616A      5.677753   617A      5.682147  
     618A      5.690723   619A      5.736598   620A      5.760596  
     621A      5.764700   622A      5.779122   623A      5.812750  
     624A      5.825786   625A      5.850661   626A      5.858931  
     627A      5.889639   628A      5.907296   629A      5.914079  
     630A      5.922889   631A      5.959092   632A      5.967115  
     633A      5.971121   634A      6.005568   635A      6.018193  
     636A      6.047821   637A      6.071291   638A      6.109918  
     639A      6.122344   640A      6.137713   641A      6.153099  
     642A      6.159427   643A      6.181645   644A      6.205571  
     645A      6.218710   646A      6.235648   647A      6.260279  
     648A      6.304302   649A      6.345748   650A      6.419339  
     651A      6.458851   652A      6.529927   653A      6.548435  
     654A      6.563242   655A      6.574999   656A      6.598220  
     657A      6.664576   658A      6.676537   659A      6.694679  
     660A      6.709107   661A      6.736047   662A      6.750756  
     663A      6.766687   664A      6.797613   665A      6.810362  
     666A      6.849109   667A      6.897186   668A      6.932104  
     669A      6.978576   670A      7.004137   671A      7.015889  
     672A      7.027687   673A      7.081600   674A      7.111566  
     675A      7.144406   676A      7.184153   677A      7.211524  
     678A      7.234068   679A      7.280645   680A      7.283497  
     681A      7.304324   682A      7.325150   683A      7.362590  
     684A      7.372412   685A      7.397237   686A      7.412183  
     687A      7.427882   688A      7.447938   689A      7.461723  
     690A      7.582274   691A      7.654188   692A      7.724066  
     693A      7.758589   694A      7.811435   695A      7.852300  
     696A      7.886975   697A      7.912634   698A      7.946156  
     699A      8.000099   700A      8.042848   701A      8.775382  
     702A     15.517584   703A     16.033135   704A     16.287361  
     705A     16.418065   706A     17.017365   707A     17.717403  
     708A     18.300539   709A     19.107110   710A     19.254073  
     711A     19.894357   712A     20.690156   713A     21.139735  

    Final Occupation by Irrep:
              A 
    DOCC [    44 ]

  @DF-RHF Final Energy:  -615.64999769257270

   => Energetics <=

    Nuclear Repulsion Energy =            681.3320099871240245
    One-Electron Energy =               -2192.5481773636593061
    Two-Electron Energy =                 895.5661696839626984
    Total Energy =                       -615.6499976925726969

Computation Completed


Properties will be evaluated at   0.000000,   0.000000,   0.000000 [a0]

Properties computed using the SCF density matrix

  Nuclear Dipole Moment: [e a0]
     X:     7.9439      Y:     7.0301      Z:     0.2597

  Electronic Dipole Moment: [e a0]
     X:    -6.5306      Y:    -4.5323      Z:    -0.1676

  Dipole Moment: [e a0]
     X:     1.4132      Y:     2.4977      Z:     0.0921     Total:     2.8713

  Dipole Moment: [D]
     X:     3.5921      Y:     6.3486      Z:     0.2341     Total:     7.2982


*** tstop() called on node150.bme.utexas.edu at Fri Mar 29 15:49:35 2024
Module time:
	user time   =     334.52 seconds =       5.58 minutes
	system time =       5.12 seconds =       0.09 minutes
	total time  =         50 seconds =       0.83 minutes
Total time:
	user time   =     334.52 seconds =       5.58 minutes
	system time =       5.12 seconds =       0.09 minutes
	total time  =         50 seconds =       0.83 minutes

*** tstart() called on node150.bme.utexas.edu
*** at Fri Mar 29 15:49:35 2024


  //>>>>>>>>>>>>>>>>>>>>>>>>>>>>>>>>>>>//
  //               DFMP2               //
  //<<<<<<<<<<<<<<<<<<<<<<<<<<<<<<<<<<<//

   => Loading Basis Set <=

    Name: (AUG-CC-PVTZ AUX)
    Role: RIFIT
    Keyword: DF_BASIS_MP2
    atoms 1, 5, 9, 11-12     entry N          line   206 file /opt/anaconda/envs/psi4v1.5/share/psi4/basis/aug-cc-pvtz-ri.gbs 
    atoms 2, 4, 14-16, 18-19 entry H          line    30 file /opt/anaconda/envs/psi4v1.5/share/psi4/basis/aug-cc-pvtz-ri.gbs 
    atoms 3, 6-7, 10, 13     entry C          line   148 file /opt/anaconda/envs/psi4v1.5/share/psi4/basis/aug-cc-pvtz-ri.gbs 
    atoms 8, 17              entry O          line   264 file /opt/anaconda/envs/psi4v1.5/share/psi4/basis/aug-cc-pvtz-ri.gbs 

	 --------------------------------------------------------
	                          DF-MP2                         
	      2nd-Order Density-Fitted Moller-Plesset Theory     
	              RMP2 Wavefunction,   8 Threads             
	                                                         
	        Rob Parrish, Justin Turney, Andy Simmonett,      
	           Ed Hohenstein, and C. David Sherrill          
	 --------------------------------------------------------

   => Auxiliary Basis Set <=

  Basis Set: (AUG-CC-PVTZ AUX)
    Blend: AUG-CC-PVTZ-RI
    Number of shells: 434
    Number of basis functions: 1594
    Number of Cartesian functions: 2017
    Spherical Harmonics?: true
    Max angular momentum: 4

	 --------------------------------------------------------
	                 NBF =   713, NAUX =  1594
	 --------------------------------------------------------
	   CLASS    FOCC     OCC    AOCC    AVIR     VIR    FVIR
	   PAIRS      12      44      32     669     669       0
	 --------------------------------------------------------

	 Will save fitting metric to file 97.

	-----------------------------------------------------------
	 ==================> DF-MP2 Energies <==================== 
	-----------------------------------------------------------
	 Reference Energy          =    -615.6499976925726969 [Eh]
	 Singles Energy            =      -0.0000000000000000 [Eh]
	 Same-Spin Energy          =      -0.6085253425366467 [Eh]
	 Opposite-Spin Energy      =      -1.7030852566780776 [Eh]
	 Correlation Energy        =      -2.3116105992147244 [Eh]
	 Total Energy              =    -617.9616082917874564 [Eh]
	-----------------------------------------------------------
	 ================> DF-SCS-MP2 Energies <================== 
	-----------------------------------------------------------
	 SCS Same-Spin Scale       =       0.3333333333333333 [-]
	 SCS Opposite-Spin Scale   =       1.2000000000000000 [-]
	 SCS Same-Spin Energy      =      -0.2028417808455489 [Eh]
	 SCS Opposite-Spin Energy  =      -2.0437023080136929 [Eh]
	 SCS Correlation Energy    =      -2.2465440888592418 [Eh]
	 SCS Total Energy          =    -617.8965417814318926 [Eh]
	-----------------------------------------------------------


*** tstop() called on node150.bme.utexas.edu at Fri Mar 29 15:49:47 2024
Module time:
	user time   =      67.26 seconds =       1.12 minutes
	system time =       1.95 seconds =       0.03 minutes
	total time  =         12 seconds =       0.20 minutes
Total time:
	user time   =     401.79 seconds =       6.70 minutes
	system time =       7.07 seconds =       0.12 minutes
	total time  =         62 seconds =       1.03 minutes

  //>>>>>>>>>>>>>>>>>>>>>>>>>>>>>>>>>>>//
  //            Monomer A HF           //
  //<<<<<<<<<<<<<<<<<<<<<<<<<<<<<<<<<<<//


*** tstart() called on node150.bme.utexas.edu
*** at Fri Mar 29 15:49:47 2024

   => Loading Basis Set <=

    Name: AUG-CC-PVTZ
    Role: ORBITAL
    Keyword: BASIS
    atoms 1, 5, 9, 11-12     entry N          line   285 file /opt/anaconda/envs/psi4v1.5/share/psi4/basis/aug-cc-pvtz.gbs 
    atoms 2, 4, 14-16, 18-19 entry H          line    40 file /opt/anaconda/envs/psi4v1.5/share/psi4/basis/aug-cc-pvtz.gbs 
    atoms 3, 6-7, 10, 13     entry C          line   239 file /opt/anaconda/envs/psi4v1.5/share/psi4/basis/aug-cc-pvtz.gbs 
    atoms 8, 17              entry O          line   331 file /opt/anaconda/envs/psi4v1.5/share/psi4/basis/aug-cc-pvtz.gbs 


         ---------------------------------------------------------
                                   SCF
               by Justin Turney, Rob Parrish, Andy Simmonett
                          and Daniel G. A. Smith
                              RHF Reference
                        8 Threads,  47683 MiB Core
         ---------------------------------------------------------

  ==> Geometry <==

    Molecular point group: c1
    Full point group: C1

    Geometry (in Angstrom), charge = 0, multiplicity = 1:

       Center              X                  Y                   Z               Mass       
    ------------   -----------------  -----------------  -----------------  -----------------
         N            1.558903765740    -1.117876464195    -0.048686221152    14.003074004430
         H            2.524053765740    -0.774596464195    -0.062776221152     1.007825032230
         C            1.060743765740    -2.395246464195    -0.042046221152    12.000000000000
         H            1.709473765740    -3.261506464195    -0.052926221152     1.007825032230
         N           -0.265466234260    -2.440426464195    -0.021566221152    14.003074004430
         C           -0.636286234260    -1.115326464195    -0.018496221152    12.000000000000
         C           -1.950136234260    -0.525406464195     0.015943778848    12.000000000000
         O           -3.064116234260    -1.031426464195     0.057173778848    15.994914619570
         N           -1.820786234260     0.903783535805     0.006513778848    14.003074004430
         C           -0.661576234260     1.631893535805    -0.030546221152    12.000000000000
         N           -0.801466234260     3.008933535805     0.036173778848    14.003074004430
         N            0.533723765740     1.091593535805    -0.052766221152    14.003074004430
         C            0.479403765740    -0.280066464195    -0.029066221152    12.000000000000
         H           -2.709956234260     1.387593535805     0.109653778848     1.007825032230
         H           -1.568746234260     3.391143535805    -0.507166221152     1.007825032230
         H            0.074073765740     3.480633535805    -0.165846221152     1.007825032230
      Gh(O)           4.508189390740     1.306544785805     0.073938466348    15.994914619570
      Gh(H)           4.817199390740     1.566224785805     0.956078466348     1.007825032230
      Gh(H)           3.617779390740     1.712584785805    -0.000891533652     1.007825032230

  Running in c1 symmetry.

  Rotational constants: A =      0.03727  B =      0.02372  C =      0.01453 [cm^-1]
  Rotational constants: A =   1117.36666  B =    711.00780  C =    435.61057 [MHz]
  Nuclear repulsion =  593.411028235148592

  Charge       = 0
  Multiplicity = 1
  Electrons    = 78
  Nalpha       = 39
  Nbeta        = 39

  ==> Algorithm <==

  SCF Algorithm Type is DF.
  DIIS enabled.
  MOM disabled.
  Fractional occupation disabled.
  Guess Type is SAD.
  Energy threshold   = 1.00e-08
  Density threshold  = 1.00e-08
  Integral threshold = 1.00e-12

  ==> Primary Basis <==

  Basis Set: AUG-CC-PVTZ
    Blend: AUG-CC-PVTZ
    Number of shells: 231
    Number of basis functions: 713
    Number of Cartesian functions: 835
    Spherical Harmonics?: true
    Max angular momentum: 3

   => Loading Basis Set <=

    Name: (AUG-CC-PVTZ AUX)
    Role: JKFIT
    Keyword: DF_BASIS_SCF
    atoms 1, 5, 9, 11-12     entry N          line   224 file /opt/anaconda/envs/psi4v1.5/share/psi4/basis/aug-cc-pvtz-jkfit.gbs 
    atoms 2, 4, 14-16, 18-19 entry H          line    70 file /opt/anaconda/envs/psi4v1.5/share/psi4/basis/aug-cc-pvtz-jkfit.gbs 
    atoms 3, 6-7, 10, 13     entry C          line   162 file /opt/anaconda/envs/psi4v1.5/share/psi4/basis/aug-cc-pvtz-jkfit.gbs 
    atoms 8, 17              entry O          line   286 file /opt/anaconda/envs/psi4v1.5/share/psi4/basis/aug-cc-pvtz-jkfit.gbs 

  ==> Integral Setup <==

  ==> DiskDFJK: Density-Fitted J/K Matrices <==

    J tasked:                  Yes
    K tasked:                  Yes
    wK tasked:                  No
    OpenMP threads:              8
    Integrals threads:           8
    Memory [MiB]:            35762
    Algorithm:                Core
    Integral Cache:           LOAD
    Schwarz Cutoff:          1E-12
    Fitting Condition:       1E-10

   => Auxiliary Basis Set <=

  Basis Set: (AUG-CC-PVTZ AUX)
    Blend: AUG-CC-PVTZ-JKFIT
    Number of shells: 458
    Number of basis functions: 1570
    Number of Cartesian functions: 1957
    Spherical Harmonics?: true
    Max angular momentum: 4

  Minimum eigenvalue in the overlap matrix is 1.6190703876E-06.
  Reciprocal condition number of the overlap matrix is 9.3084862872E-08.
    Using symmetric orthogonalization.

  ==> Pre-Iterations <==

  SCF Guess: Superposition of Atomic Densities via on-the-fly atomic UHF (no occupation information).

   -------------------------
    Irrep   Nso     Nmo    
   -------------------------
     A        713     713 
   -------------------------
    Total     713     713
   -------------------------

  ==> Iterations <==

                           Total Energy        Delta E     RMS |[F,P]|

   @DF-RHF iter SAD:  -539.29440508076436   -5.39294e+02   0.00000e+00 
   @DF-RHF iter   1:  -539.27924988490850    1.51552e-02   1.11130e-03 DIIS
   @DF-RHF iter   2:  -539.50226692778631   -2.23017e-01   6.56160e-04 DIIS
   @DF-RHF iter   3:  -539.58017902535755   -7.79121e-02   1.36813e-04 DIIS
   @DF-RHF iter   4:  -539.58523448974915   -5.05546e-03   5.68053e-05 DIIS
   @DF-RHF iter   5:  -539.58621167338015   -9.77184e-04   1.18108e-05 DIIS
   @DF-RHF iter   6:  -539.58631354430599   -1.01871e-04   6.16912e-06 DIIS
   @DF-RHF iter   7:  -539.58633957671714   -2.60324e-05   2.58450e-06 DIIS
   @DF-RHF iter   8:  -539.58634457294443   -4.99623e-06   9.10138e-07 DIIS
   @DF-RHF iter   9:  -539.58634516400969   -5.91065e-07   3.53785e-07 DIIS
   @DF-RHF iter  10:  -539.58634526567721   -1.01668e-07   1.39952e-07 DIIS
   @DF-RHF iter  11:  -539.58634528014545   -1.44682e-08   4.96410e-08 DIIS
   @DF-RHF iter  12:  -539.58634528191067   -1.76522e-09   1.80750e-08 DIIS
   @DF-RHF iter  13:  -539.58634528214395   -2.33285e-10   7.64346e-09 DIIS
  Energy and wave function converged.


  ==> Post-Iterations <==

    Orbital Energies [Eh]
    ---------------------

    Doubly Occupied:                                                      

       1A    -20.525174     2A    -15.638334     3A    -15.631016  
       4A    -15.612639     5A    -15.572184     6A    -15.566122  
       7A    -11.397780     8A    -11.368790     9A    -11.326691  
      10A    -11.315380    11A    -11.251400    12A     -1.393647  
      13A     -1.361969    14A     -1.335754    15A     -1.220241  
      16A     -1.215667    17A     -1.178327    18A     -1.031092  
      19A     -0.906127    20A     -0.883981    21A     -0.846326  
      22A     -0.797937    23A     -0.740083    24A     -0.730857  
      25A     -0.700167    26A     -0.672688    27A     -0.656419  
      28A     -0.632926    29A     -0.614710    30A     -0.601355  
      31A     -0.597294    32A     -0.548225    33A     -0.498916  
      34A     -0.461606    35A     -0.443275    36A     -0.433275  
      37A     -0.431987    38A     -0.412829    39A     -0.302498  

    Virtual:                                                              

      40A      0.014659    41A      0.020411    42A      0.033189  
      43A      0.041495    44A      0.048110    45A      0.053536  
      46A      0.061113    47A      0.073306    48A      0.078729  
      49A      0.085117    50A      0.087895    51A      0.096248  
      52A      0.099908    53A      0.107322    54A      0.111724  
      55A      0.115155    56A      0.118239    57A      0.122559  
      58A      0.126410    59A      0.131048    60A      0.132230  
      61A      0.132783    62A      0.139696    63A      0.144093  
      64A      0.150236    65A      0.153439    66A      0.159831  
      67A      0.165201    68A      0.168254    69A      0.173704  
      70A      0.177130    71A      0.180691    72A      0.184449  
      73A      0.191837    74A      0.197505    75A      0.200956  
      76A      0.207504    77A      0.212491    78A      0.213512  
      79A      0.221379    80A      0.223013    81A      0.228861  
      82A      0.236256    83A      0.238101    84A      0.245958  
      85A      0.261346    86A      0.263557    87A      0.272059  
      88A      0.276903    89A      0.280443    90A      0.283887  
      91A      0.286913    92A      0.291614    93A      0.297188  
      94A      0.299580    95A      0.303042    96A      0.307406  
      97A      0.312777    98A      0.318690    99A      0.320357  
     100A      0.326158   101A      0.328658   102A      0.331657  
     103A      0.337872   104A      0.343501   105A      0.356478  
     106A      0.362530   107A      0.366253   108A      0.367838  
     109A      0.372535   110A      0.374558   111A      0.375010  
     112A      0.381046   113A      0.385360   114A      0.392526  
     115A      0.396972   116A      0.402771   117A      0.407875  
     118A      0.409200   119A      0.414624   120A      0.424933  
     121A      0.433573   122A      0.434782   123A      0.439065  
     124A      0.443125   125A      0.452979   126A      0.456474  
     127A      0.462641   128A      0.465502   129A      0.469583  
     130A      0.473000   131A      0.483194   132A      0.484685  
     133A      0.486744   134A      0.494960   135A      0.499382  
     136A      0.505604   137A      0.508154   138A      0.512673  
     139A      0.518452   140A      0.528288   141A      0.530715  
     142A      0.536852   143A      0.542854   144A      0.546503  
     145A      0.550922   146A      0.561554   147A      0.563708  
     148A      0.574230   149A      0.582413   150A      0.590528  
     151A      0.602284   152A      0.609790   153A      0.611764  
     154A      0.622628   155A      0.629294   156A      0.637549  
     157A      0.641749   158A      0.647762   159A      0.656236  
     160A      0.658900   161A      0.670058   162A      0.673954  
     163A      0.676933   164A      0.683617   165A      0.695186  
     166A      0.698927   167A      0.710463   168A      0.718557  
     169A      0.724850   170A      0.729035   171A      0.734409  
     172A      0.739888   173A      0.748066   174A      0.754753  
     175A      0.758265   176A      0.761311   177A      0.768714  
     178A      0.781394   179A      0.784128   180A      0.789462  
     181A      0.794480   182A      0.802441   183A      0.807727  
     184A      0.812812   185A      0.815963   186A      0.823980  
     187A      0.827911   188A      0.834884   189A      0.837753  
     190A      0.840796   191A      0.849874   192A      0.852988  
     193A      0.857807   194A      0.859810   195A      0.866383  
     196A      0.876242   197A      0.884479   198A      0.887536  
     199A      0.898519   200A      0.901750   201A      0.906943  
     202A      0.911004   203A      0.916788   204A      0.923055  
     205A      0.935574   206A      0.938484   207A      0.940992  
     208A      0.945328   209A      0.947946   210A      0.959704  
     211A      0.967911   212A      0.968186   213A      0.975574  
     214A      0.980656   215A      0.988552   216A      0.992757  
     217A      1.002804   218A      1.005538   219A      1.007826  
     220A      1.009901   221A      1.016771   222A      1.023130  
     223A      1.027372   224A      1.038505   225A      1.047598  
     226A      1.050973   227A      1.052535   228A      1.062240  
     229A      1.069440   230A      1.070976   231A      1.076963  
     232A      1.083177   233A      1.087732   234A      1.093735  
     235A      1.094870   236A      1.100336   237A      1.110145  
     238A      1.116283   239A      1.121683   240A      1.129571  
     241A      1.136459   242A      1.145776   243A      1.148840  
     244A      1.158414   245A      1.166544   246A      1.169922  
     247A      1.173296   248A      1.176368   249A      1.183454  
     250A      1.193447   251A      1.204164   252A      1.206305  
     253A      1.215328   254A      1.228265   255A      1.240334  
     256A      1.244596   257A      1.249621   258A      1.253036  
     259A      1.258447   260A      1.263637   261A      1.267244  
     262A      1.279850   263A      1.290781   264A      1.300550  
     265A      1.304834   266A      1.313708   267A      1.318247  
     268A      1.326311   269A      1.339983   270A      1.348611  
     271A      1.351821   272A      1.362001   273A      1.368834  
     274A      1.374151   275A      1.384199   276A      1.386119  
     277A      1.391862   278A      1.396067   279A      1.403638  
     280A      1.409596   281A      1.424130   282A      1.431329  
     283A      1.446303   284A      1.450301   285A      1.454431  
     286A      1.464821   287A      1.468304   288A      1.477106  
     289A      1.486210   290A      1.488972   291A      1.503043  
     292A      1.511468   293A      1.522975   294A      1.536996  
     295A      1.541875   296A      1.548653   297A      1.554942  
     298A      1.557383   299A      1.569788   300A      1.575523  
     301A      1.584562   302A      1.595087   303A      1.602056  
     304A      1.611249   305A      1.612216   306A      1.624548  
     307A      1.640756   308A      1.651365   309A      1.671104  
     310A      1.675092   311A      1.678886   312A      1.683858  
     313A      1.695188   314A      1.703556   315A      1.706034  
     316A      1.719653   317A      1.734278   318A      1.735611  
     319A      1.739030   320A      1.752067   321A      1.762521  
     322A      1.769390   323A      1.779590   324A      1.790620  
     325A      1.792372   326A      1.831934   327A      1.838002  
     328A      1.843126   329A      1.845083   330A      1.849466  
     331A      1.861065   332A      1.871012   333A      1.875585  
     334A      1.882671   335A      1.890035   336A      1.913879  
     337A      1.915191   338A      1.935914   339A      1.959337  
     340A      1.961332   341A      1.969519   342A      1.976707  
     343A      1.998511   344A      2.013984   345A      2.020915  
     346A      2.052729   347A      2.056404   348A      2.065607  
     349A      2.068449   350A      2.078766   351A      2.087136  
     352A      2.087737   353A      2.106456   354A      2.110723  
     355A      2.114069   356A      2.119950   357A      2.124661  
     358A      2.147060   359A      2.176394   360A      2.195406  
     361A      2.196772   362A      2.207983   363A      2.213491  
     364A      2.222603   365A      2.234252   366A      2.250509  
     367A      2.260801   368A      2.271603   369A      2.294983  
     370A      2.305252   371A      2.310857   372A      2.322328  
     373A      2.323338   374A      2.334946   375A      2.342262  
     376A      2.347939   377A      2.362712   378A      2.365938  
     379A      2.372544   380A      2.397987   381A      2.404191  
     382A      2.417651   383A      2.425848   384A      2.434367  
     385A      2.436917   386A      2.448265   387A      2.452837  
     388A      2.464895   389A      2.476394   390A      2.487735  
     391A      2.496874   392A      2.501684   393A      2.507447  
     394A      2.510643   395A      2.524356   396A      2.539007  
     397A      2.543235   398A      2.563703   399A      2.565661  
     400A      2.578767   401A      2.589041   402A      2.592536  
     403A      2.610136   404A      2.620372   405A      2.641198  
     406A      2.649470   407A      2.656215   408A      2.658066  
     409A      2.688350   410A      2.695690   411A      2.701730  
     412A      2.714481   413A      2.727215   414A      2.733784  
     415A      2.737584   416A      2.747061   417A      2.769693  
     418A      2.778819   419A      2.782874   420A      2.805495  
     421A      2.820741   422A      2.832194   423A      2.840455  
     424A      2.850050   425A      2.868286   426A      2.889438  
     427A      2.912171   428A      2.917060   429A      2.949020  
     430A      2.970187   431A      2.979206   432A      3.009677  
     433A      3.030168   434A      3.056722   435A      3.067916  
     436A      3.091121   437A      3.108204   438A      3.120265  
     439A      3.130822   440A      3.153183   441A      3.178721  
     442A      3.181645   443A      3.202605   444A      3.213232  
     445A      3.242938   446A      3.251174   447A      3.273004  
     448A      3.292955   449A      3.303160   450A      3.312495  
     451A      3.335598   452A      3.361113   453A      3.382771  
     454A      3.386869   455A      3.409145   456A      3.410689  
     457A      3.424191   458A      3.453163   459A      3.484678  
     460A      3.508721   461A      3.521386   462A      3.526486  
     463A      3.535958   464A      3.545777   465A      3.571784  
     466A      3.606801   467A      3.618004   468A      3.628415  
     469A      3.648352   470A      3.663591   471A      3.671796  
     472A      3.685877   473A      3.694104   474A      3.710528  
     475A      3.730786   476A      3.733042   477A      3.743660  
     478A      3.754231   479A      3.765827   480A      3.770418  
     481A      3.784467   482A      3.799707   483A      3.814136  
     484A      3.842739   485A      3.858611   486A      3.868528  
     487A      3.875319   488A      3.882552   489A      3.898529  
     490A      3.903588   491A      3.915350   492A      3.961661  
     493A      3.970123   494A      3.982971   495A      4.000121  
     496A      4.011491   497A      4.028562   498A      4.040174  
     499A      4.051867   500A      4.062648   501A      4.081428  
     502A      4.096772   503A      4.105348   504A      4.135911  
     505A      4.146720   506A      4.151811   507A      4.160040  
     508A      4.166718   509A      4.186204   510A      4.193897  
     511A      4.217983   512A      4.225151   513A      4.238617  
     514A      4.254542   515A      4.260894   516A      4.262376  
     517A      4.275784   518A      4.290895   519A      4.296769  
     520A      4.316763   521A      4.337375   522A      4.340744  
     523A      4.353320   524A      4.371344   525A      4.374602  
     526A      4.389154   527A      4.397023   528A      4.407953  
     529A      4.420090   530A      4.442725   531A      4.466211  
     532A      4.469121   533A      4.488220   534A      4.492187  
     535A      4.501201   536A      4.505942   537A      4.523535  
     538A      4.538304   539A      4.557657   540A      4.567389  
     541A      4.573310   542A      4.594676   543A      4.605150  
     544A      4.613027   545A      4.620902   546A      4.630981  
     547A      4.642190   548A      4.665507   549A      4.679929  
     550A      4.698605   551A      4.709919   552A      4.723306  
     553A      4.742197   554A      4.759094   555A      4.788852  
     556A      4.800339   557A      4.807857   558A      4.829417  
     559A      4.871322   560A      4.876712   561A      4.892085  
     562A      4.903304   563A      4.909111   564A      4.925267  
     565A      4.931631   566A      4.939676   567A      4.958441  
     568A      4.997694   569A      5.006696   570A      5.018344  
     571A      5.036708   572A      5.046507   573A      5.050776  
     574A      5.095367   575A      5.140703   576A      5.152066  
     577A      5.174779   578A      5.195546   579A      5.205018  
     580A      5.212777   581A      5.220416   582A      5.245881  
     583A      5.257846   584A      5.277152   585A      5.285815  
     586A      5.309793   587A      5.334478   588A      5.351760  
     589A      5.362267   590A      5.381930   591A      5.420289  
     592A      5.451219   593A      5.475866   594A      5.487545  
     595A      5.489926   596A      5.512007   597A      5.522200  
     598A      5.531440   599A      5.540068   600A      5.566386  
     601A      5.582628   602A      5.587903   603A      5.604854  
     604A      5.617674   605A      5.633261   606A      5.645645  
     607A      5.655954   608A      5.662695   609A      5.668942  
     610A      5.681847   611A      5.686959   612A      5.737517  
     613A      5.759749   614A      5.765407   615A      5.781200  
     616A      5.812978   617A      5.825483   618A      5.830556  
     619A      5.851988   620A      5.860956   621A      5.890246  
     622A      5.909109   623A      5.914589   624A      5.925929  
     625A      5.960819   626A      5.968814   627A      5.974597  
     628A      6.007580   629A      6.020870   630A      6.050793  
     631A      6.072276   632A      6.111974   633A      6.124847  
     634A      6.137730   635A      6.154605   636A      6.161796  
     637A      6.182753   638A      6.202616   639A      6.223126  
     640A      6.236773   641A      6.261332   642A      6.306426  
     643A      6.346143   644A      6.356657   645A      6.420933  
     646A      6.460681   647A      6.530560   648A      6.560845  
     649A      6.575456   650A      6.581762   651A      6.602650  
     652A      6.668702   653A      6.679299   654A      6.696269  
     655A      6.711981   656A      6.737990   657A      6.768426  
     658A      6.799696   659A      6.810317   660A      6.849070  
     661A      6.930342   662A      6.980244   663A      6.992616  
     664A      7.005670   665A      7.019045   666A      7.039481  
     667A      7.082173   668A      7.124663   669A      7.187817  
     670A      7.215020   671A      7.235834   672A      7.286876  
     673A      7.366168   674A      7.401106   675A      7.413705  
     676A      7.447948   677A      7.462298   678A      7.655089  
     679A      7.691701   680A      7.725643   681A      7.762702  
     682A      7.803449   683A      7.811071   684A      7.851234  
     685A      7.914519   686A      8.000691   687A      8.038858  
     688A      8.047710   689A      8.148692   690A      8.271675  
     691A      8.673500   692A      8.776728   693A      9.702291  
     694A      9.913547   695A     10.032797   696A     10.216997  
     697A     11.127714   698A     11.757935   699A     11.964435  
     700A     13.451136   701A     13.908039   702A     16.025219  
     703A     16.290033   704A     16.418501   705A     17.020216  
     706A     17.721100   707A     18.299627   708A     19.109293  
     709A     19.253628   710A     19.896371   711A     20.692411  
     712A     21.140402   713A     64.259874  

    Final Occupation by Irrep:
              A 
    DOCC [    39 ]

  @DF-RHF Final Energy:  -539.58634528214395

   => Energetics <=

    Nuclear Repulsion Energy =            593.4110282351485921
    One-Electron Energy =               -1912.2833765215507356
    Two-Electron Energy =                 779.2860030042580775
    Total Energy =                       -539.5863452821439523

Computation Completed


Properties will be evaluated at   0.000000,   0.000000,   0.000000 [a0]

Properties computed using the SCF density matrix

  Nuclear Dipole Moment: [e a0]
     X:   -76.1499      Y:   -18.9181      Z:    -2.6631

  Electronic Dipole Moment: [e a0]
     X:    77.9364      Y:    21.0113      Z:     2.2332

  Dipole Moment: [e a0]
     X:     1.7865      Y:     2.0933      Z:    -0.4299     Total:     2.7854

  Dipole Moment: [D]
     X:     4.5409      Y:     5.3206      Z:    -1.0926     Total:     7.0797


*** tstop() called on node150.bme.utexas.edu at Fri Mar 29 15:50:29 2024
Module time:
	user time   =     287.97 seconds =       4.80 minutes
	system time =       2.54 seconds =       0.04 minutes
	total time  =         42 seconds =       0.70 minutes
Total time:
	user time   =     689.78 seconds =      11.50 minutes
	system time =       9.61 seconds =       0.16 minutes
	total time  =        104 seconds =       1.73 minutes

*** tstart() called on node150.bme.utexas.edu
*** at Fri Mar 29 15:50:29 2024


  //>>>>>>>>>>>>>>>>>>>>>>>>>>>>>>>>>>>//
  //               DFMP2               //
  //<<<<<<<<<<<<<<<<<<<<<<<<<<<<<<<<<<<//

   => Loading Basis Set <=

    Name: (AUG-CC-PVTZ AUX)
    Role: RIFIT
    Keyword: DF_BASIS_MP2
    atoms 1, 5, 9, 11-12     entry N          line   206 file /opt/anaconda/envs/psi4v1.5/share/psi4/basis/aug-cc-pvtz-ri.gbs 
    atoms 2, 4, 14-16, 18-19 entry H          line    30 file /opt/anaconda/envs/psi4v1.5/share/psi4/basis/aug-cc-pvtz-ri.gbs 
    atoms 3, 6-7, 10, 13     entry C          line   148 file /opt/anaconda/envs/psi4v1.5/share/psi4/basis/aug-cc-pvtz-ri.gbs 
    atoms 8, 17              entry O          line   264 file /opt/anaconda/envs/psi4v1.5/share/psi4/basis/aug-cc-pvtz-ri.gbs 

	 --------------------------------------------------------
	                          DF-MP2                         
	      2nd-Order Density-Fitted Moller-Plesset Theory     
	              RMP2 Wavefunction,   8 Threads             
	                                                         
	        Rob Parrish, Justin Turney, Andy Simmonett,      
	           Ed Hohenstein, and C. David Sherrill          
	 --------------------------------------------------------

   => Auxiliary Basis Set <=

  Basis Set: (AUG-CC-PVTZ AUX)
    Blend: AUG-CC-PVTZ-RI
    Number of shells: 434
    Number of basis functions: 1594
    Number of Cartesian functions: 2017
    Spherical Harmonics?: true
    Max angular momentum: 4

	 --------------------------------------------------------
	                 NBF =   713, NAUX =  1594
	 --------------------------------------------------------
	   CLASS    FOCC     OCC    AOCC    AVIR     VIR    FVIR
	   PAIRS      11      39      28     674     674       0
	 --------------------------------------------------------

	 Will attempt to load fitting metric from file 97.

	-----------------------------------------------------------
	 ==================> DF-MP2 Energies <==================== 
	-----------------------------------------------------------
	 Reference Energy          =    -539.5863452821439523 [Eh]
	 Singles Energy            =      -0.0000000000000000 [Eh]
	 Same-Spin Energy          =      -0.5422857374646282 [Eh]
	 Opposite-Spin Energy      =      -1.4979823657837459 [Eh]
	 Correlation Energy        =      -2.0402681032483740 [Eh]
	 Total Energy              =    -541.6266133853923748 [Eh]
	-----------------------------------------------------------
	 ================> DF-SCS-MP2 Energies <================== 
	-----------------------------------------------------------
	 SCS Same-Spin Scale       =       0.3333333333333333 [-]
	 SCS Opposite-Spin Scale   =       1.2000000000000000 [-]
	 SCS Same-Spin Energy      =      -0.1807619124882094 [Eh]
	 SCS Opposite-Spin Energy  =      -1.7975788389404950 [Eh]
	 SCS Correlation Energy    =      -1.9783407514287044 [Eh]
	 SCS Total Energy          =    -541.5646860335726842 [Eh]
	-----------------------------------------------------------


*** tstop() called on node150.bme.utexas.edu at Fri Mar 29 15:50:39 2024
Module time:
	user time   =      54.16 seconds =       0.90 minutes
	system time =       1.54 seconds =       0.03 minutes
	total time  =         10 seconds =       0.17 minutes
Total time:
	user time   =     743.95 seconds =      12.40 minutes
	system time =      11.15 seconds =       0.19 minutes
	total time  =        114 seconds =       1.90 minutes

  //>>>>>>>>>>>>>>>>>>>>>>>>>>>>>>>>>>>//
  //            Monomer B HF           //
  //<<<<<<<<<<<<<<<<<<<<<<<<<<<<<<<<<<<//


*** tstart() called on node150.bme.utexas.edu
*** at Fri Mar 29 15:50:39 2024

   => Loading Basis Set <=

    Name: AUG-CC-PVTZ
    Role: ORBITAL
    Keyword: BASIS
    atoms 1, 5, 9, 11-12     entry N          line   285 file /opt/anaconda/envs/psi4v1.5/share/psi4/basis/aug-cc-pvtz.gbs 
    atoms 2, 4, 14-16, 18-19 entry H          line    40 file /opt/anaconda/envs/psi4v1.5/share/psi4/basis/aug-cc-pvtz.gbs 
    atoms 3, 6-7, 10, 13     entry C          line   239 file /opt/anaconda/envs/psi4v1.5/share/psi4/basis/aug-cc-pvtz.gbs 
    atoms 8, 17              entry O          line   331 file /opt/anaconda/envs/psi4v1.5/share/psi4/basis/aug-cc-pvtz.gbs 


         ---------------------------------------------------------
                                   SCF
               by Justin Turney, Rob Parrish, Andy Simmonett
                          and Daniel G. A. Smith
                              RHF Reference
                        8 Threads,  47683 MiB Core
         ---------------------------------------------------------

  ==> Geometry <==

    Molecular point group: c1
    Full point group: C1

    Geometry (in Angstrom), charge = 0, multiplicity = 1:

       Center              X                  Y                   Z               Mass       
    ------------   -----------------  -----------------  -----------------  -----------------
      Gh(N)           1.558903765740    -1.117876464195    -0.048686221152    14.003074004430
      Gh(H)           2.524053765740    -0.774596464195    -0.062776221152     1.007825032230
      Gh(C)           1.060743765740    -2.395246464195    -0.042046221152    12.000000000000
      Gh(H)           1.709473765740    -3.261506464195    -0.052926221152     1.007825032230
      Gh(N)          -0.265466234260    -2.440426464195    -0.021566221152    14.003074004430
      Gh(C)          -0.636286234260    -1.115326464195    -0.018496221152    12.000000000000
      Gh(C)          -1.950136234260    -0.525406464195     0.015943778848    12.000000000000
      Gh(O)          -3.064116234260    -1.031426464195     0.057173778848    15.994914619570
      Gh(N)          -1.820786234260     0.903783535805     0.006513778848    14.003074004430
      Gh(C)          -0.661576234260     1.631893535805    -0.030546221152    12.000000000000
      Gh(N)          -0.801466234260     3.008933535805     0.036173778848    14.003074004430
      Gh(N)           0.533723765740     1.091593535805    -0.052766221152    14.003074004430
      Gh(C)           0.479403765740    -0.280066464195    -0.029066221152    12.000000000000
      Gh(H)          -2.709956234260     1.387593535805     0.109653778848     1.007825032230
      Gh(H)          -1.568746234260     3.391143535805    -0.507166221152     1.007825032230
      Gh(H)           0.074073765740     3.480633535805    -0.165846221152     1.007825032230
         O            4.508189390740     1.306544785805     0.073938466348    15.994914619570
         H            4.817199390740     1.566224785805     0.956078466348     1.007825032230
         H            3.617779390740     1.712584785805    -0.000891533652     1.007825032230

  Running in c1 symmetry.

  Rotational constants: A =      0.03727  B =      0.02372  C =      0.01453 [cm^-1]
  Rotational constants: A =   1117.36666  B =    711.00780  C =    435.61057 [MHz]
  Nuclear repulsion =    9.020530614828122

  Charge       = 0
  Multiplicity = 1
  Electrons    = 10
  Nalpha       = 5
  Nbeta        = 5

  ==> Algorithm <==

  SCF Algorithm Type is DF.
  DIIS enabled.
  MOM disabled.
  Fractional occupation disabled.
  Guess Type is SAD.
  Energy threshold   = 1.00e-08
  Density threshold  = 1.00e-08
  Integral threshold = 1.00e-12

  ==> Primary Basis <==

  Basis Set: AUG-CC-PVTZ
    Blend: AUG-CC-PVTZ
    Number of shells: 231
    Number of basis functions: 713
    Number of Cartesian functions: 835
    Spherical Harmonics?: true
    Max angular momentum: 3

   => Loading Basis Set <=

    Name: (AUG-CC-PVTZ AUX)
    Role: JKFIT
    Keyword: DF_BASIS_SCF
    atoms 1, 5, 9, 11-12     entry N          line   224 file /opt/anaconda/envs/psi4v1.5/share/psi4/basis/aug-cc-pvtz-jkfit.gbs 
    atoms 2, 4, 14-16, 18-19 entry H          line    70 file /opt/anaconda/envs/psi4v1.5/share/psi4/basis/aug-cc-pvtz-jkfit.gbs 
    atoms 3, 6-7, 10, 13     entry C          line   162 file /opt/anaconda/envs/psi4v1.5/share/psi4/basis/aug-cc-pvtz-jkfit.gbs 
    atoms 8, 17              entry O          line   286 file /opt/anaconda/envs/psi4v1.5/share/psi4/basis/aug-cc-pvtz-jkfit.gbs 

  ==> Integral Setup <==

  ==> DiskDFJK: Density-Fitted J/K Matrices <==

    J tasked:                  Yes
    K tasked:                  Yes
    wK tasked:                  No
    OpenMP threads:              8
    Integrals threads:           8
    Memory [MiB]:            35762
    Algorithm:                Core
    Integral Cache:           LOAD
    Schwarz Cutoff:          1E-12
    Fitting Condition:       1E-10

   => Auxiliary Basis Set <=

  Basis Set: (AUG-CC-PVTZ AUX)
    Blend: AUG-CC-PVTZ-JKFIT
    Number of shells: 458
    Number of basis functions: 1570
    Number of Cartesian functions: 1957
    Spherical Harmonics?: true
    Max angular momentum: 4

  Minimum eigenvalue in the overlap matrix is 1.6190703876E-06.
  Reciprocal condition number of the overlap matrix is 9.3084862872E-08.
    Using symmetric orthogonalization.

  ==> Pre-Iterations <==

  SCF Guess: Superposition of Atomic Densities via on-the-fly atomic UHF (no occupation information).

   -------------------------
    Irrep   Nso     Nmo    
   -------------------------
     A        713     713 
   -------------------------
    Total     713     713
   -------------------------

  ==> Iterations <==

                           Total Energy        Delta E     RMS |[F,P]|

   @DF-RHF iter SAD:   -75.45663033079843   -7.54566e+01   0.00000e+00 
   @DF-RHF iter   1:   -75.97365009715732   -5.17020e-01   6.55205e-04 DIIS
   @DF-RHF iter   2:   -76.02561447243126   -5.19644e-02   4.54941e-04 DIIS
   @DF-RHF iter   3:   -76.05831500034756   -3.27005e-02   3.10127e-05 DIIS
   @DF-RHF iter   4:   -76.05872779360212   -4.12793e-04   7.69934e-06 DIIS
   @DF-RHF iter   5:   -76.05875585768244   -2.80641e-05   1.77511e-06 DIIS
   @DF-RHF iter   6:   -76.05875821436499   -2.35668e-06   3.90234e-07 DIIS
   @DF-RHF iter   7:   -76.05875833847165   -1.24107e-07   6.94421e-08 DIIS
   @DF-RHF iter   8:   -76.05875834189172   -3.42007e-09   1.19059e-08 DIIS
   @DF-RHF iter   9:   -76.05875834197205   -8.03340e-11   3.01982e-09 DIIS
  Energy and wave function converged.


  ==> Post-Iterations <==

    Orbital Energies [Eh]
    ---------------------

    Doubly Occupied:                                                      

       1A    -20.570392     2A     -1.344294     3A     -0.707385  
       4A     -0.581645     5A     -0.508902  

    Virtual:                                                              

       6A      0.014442     7A      0.028097     8A      0.030043  
       9A      0.042136    10A      0.051257    11A      0.052487  
      12A      0.055681    13A      0.065977    14A      0.073759  
      15A      0.076819    16A      0.078810    17A      0.089025  
      18A      0.092536    19A      0.094797    20A      0.101243  
      21A      0.102854    22A      0.119047    23A      0.122590  
      24A      0.127741    25A      0.131829    26A      0.133383  
      27A      0.136177    28A      0.142206    29A      0.145015  
      30A      0.157948    31A      0.159169    32A      0.161053  
      33A      0.165298    34A      0.170189    35A      0.171665  
      36A      0.179574    37A      0.184481    38A      0.186705  
      39A      0.187805    40A      0.197128    41A      0.201567  
      42A      0.203863    43A      0.210475    44A      0.214957  
      45A      0.220659    46A      0.225841    47A      0.228463  
      48A      0.234850    49A      0.238873    50A      0.252631  
      51A      0.255534    52A      0.261638    53A      0.263537  
      54A      0.269184    55A      0.276931    56A      0.279824  
      57A      0.284003    58A      0.287942    59A      0.291124  
      60A      0.296231    61A      0.303908    62A      0.308839  
      63A      0.312527    64A      0.316929    65A      0.324968  
      66A      0.326461    67A      0.330078    68A      0.342885  
      69A      0.348749    70A      0.361584    71A      0.362276  
      72A      0.368770    73A      0.378927    74A      0.380814  
      75A      0.391189    76A      0.392280    77A      0.395339  
      78A      0.401118    79A      0.405027    80A      0.407073  
      81A      0.413583    82A      0.418572    83A      0.421598  
      84A      0.423224    85A      0.423565    86A      0.430255  
      87A      0.433093    88A      0.437386    89A      0.444236  
      90A      0.445336    91A      0.450047    92A      0.457675  
      93A      0.461050    94A      0.464760    95A      0.468512  
      96A      0.472771    97A      0.486536    98A      0.488487  
      99A      0.489922   100A      0.506893   101A      0.508957  
     102A      0.513686   103A      0.518389   104A      0.523638  
     105A      0.529370   106A      0.550166   107A      0.559095  
     108A      0.572730   109A      0.580153   110A      0.583414  
     111A      0.589074   112A      0.597432   113A      0.603583  
     114A      0.608191   115A      0.618900   116A      0.625208  
     117A      0.636870   118A      0.644424   119A      0.650663  
     120A      0.654532   121A      0.670886   122A      0.679006  
     123A      0.684323   124A      0.694112   125A      0.696140  
     126A      0.702218   127A      0.711235   128A      0.716993  
     129A      0.718914   130A      0.734350   131A      0.740835  
     132A      0.751511   133A      0.754558   134A      0.756752  
     135A      0.764676   136A      0.772022   137A      0.778386  
     138A      0.781857   139A      0.785046   140A      0.793914  
     141A      0.806239   142A      0.810543   143A      0.812038  
     144A      0.816995   145A      0.823917   146A      0.826668  
     147A      0.830731   148A      0.835596   149A      0.838765  
     150A      0.840684   151A      0.847474   152A      0.851714  
     153A      0.854408   154A      0.856312   155A      0.867194  
     156A      0.871989   157A      0.879588   158A      0.886275  
     159A      0.890449   160A      0.896952   161A      0.901950  
     162A      0.906111   163A      0.907032   164A      0.915989  
     165A      0.919138   166A      0.923022   167A      0.928105  
     168A      0.933601   169A      0.940916   170A      0.945571  
     171A      0.955250   172A      0.962860   173A      0.965580  
     174A      0.970504   175A      0.977468   176A      0.987819  
     177A      0.991058   178A      0.999344   179A      1.001106  
     180A      1.015699   181A      1.018723   182A      1.025616  
     183A      1.027668   184A      1.039784   185A      1.044185  
     186A      1.050370   187A      1.053289   188A      1.058851  
     189A      1.067228   190A      1.072765   191A      1.083223  
     192A      1.088008   193A      1.093675   194A      1.100490  
     195A      1.107995   196A      1.122702   197A      1.125412  
     198A      1.130714   199A      1.141769   200A      1.152083  
     201A      1.160583   202A      1.163163   203A      1.169898  
     204A      1.172304   205A      1.178037   206A      1.182565  
     207A      1.191905   208A      1.197283   209A      1.205362  
     210A      1.211571   211A      1.219905   212A      1.225151  
     213A      1.232943   214A      1.241019   215A      1.246424  
     216A      1.251123   217A      1.254721   218A      1.281314  
     219A      1.291610   220A      1.302938   221A      1.305673  
     222A      1.313533   223A      1.322834   224A      1.335469  
     225A      1.354133   226A      1.359334   227A      1.363981  
     228A      1.374102   229A      1.379001   230A      1.383022  
     231A      1.399100   232A      1.402992   233A      1.414011  
     234A      1.425298   235A      1.445014   236A      1.455632  
     237A      1.469212   238A      1.472661   239A      1.482779  
     240A      1.488743   241A      1.496368   242A      1.505226  
     243A      1.509236   244A      1.522038   245A      1.527802  
     246A      1.534417   247A      1.549907   248A      1.556570  
     249A      1.558306   250A      1.564015   251A      1.576157  
     252A      1.584934   253A      1.599467   254A      1.605709  
     255A      1.616263   256A      1.631763   257A      1.634738  
     258A      1.642237   259A      1.653062   260A      1.661947  
     261A      1.670489   262A      1.679277   263A      1.686658  
     264A      1.695419   265A      1.700312   266A      1.701089  
     267A      1.714929   268A      1.725173   269A      1.725564  
     270A      1.733936   271A      1.737525   272A      1.741609  
     273A      1.747652   274A      1.760324   275A      1.764972  
     276A      1.770257   277A      1.774961   278A      1.786896  
     279A      1.792945   280A      1.797363   281A      1.801222  
     282A      1.807675   283A      1.825938   284A      1.832920  
     285A      1.839355   286A      1.848514   287A      1.854720  
     288A      1.864211   289A      1.869548   290A      1.882276  
     291A      1.888913   292A      1.906592   293A      1.916025  
     294A      1.934391   295A      1.934709   296A      1.940844  
     297A      1.953570   298A      1.967003   299A      1.967883  
     300A      1.985604   301A      1.988087   302A      1.997487  
     303A      2.007623   304A      2.023082   305A      2.033705  
     306A      2.045646   307A      2.054410   308A      2.063170  
     309A      2.077835   310A      2.083179   311A      2.091104  
     312A      2.102484   313A      2.105269   314A      2.110971  
     315A      2.122549   316A      2.144025   317A      2.150514  
     318A      2.166291   319A      2.170749   320A      2.180633  
     321A      2.199269   322A      2.222073   323A      2.236448  
     324A      2.247414   325A      2.253651   326A      2.259567  
     327A      2.289555   328A      2.292153   329A      2.318704  
     330A      2.335361   331A      2.342469   332A      2.344925  
     333A      2.349766   334A      2.375286   335A      2.388695  
     336A      2.393057   337A      2.406118   338A      2.415551  
     339A      2.422172   340A      2.423485   341A      2.439639  
     342A      2.445407   343A      2.457077   344A      2.471939  
     345A      2.478703   346A      2.493360   347A      2.499739  
     348A      2.508364   349A      2.519868   350A      2.539419  
     351A      2.545811   352A      2.552298   353A      2.559354  
     354A      2.576931   355A      2.582933   356A      2.595303  
     357A      2.608008   358A      2.615804   359A      2.635907  
     360A      2.644110   361A      2.653098   362A      2.662447  
     363A      2.671459   364A      2.677801   365A      2.695699  
     366A      2.707644   367A      2.718891   368A      2.726860  
     369A      2.743373   370A      2.751688   371A      2.762844  
     372A      2.764676   373A      2.777549   374A      2.785118  
     375A      2.793430   376A      2.812144   377A      2.818300  
     378A      2.830749   379A      2.847633   380A      2.854965  
     381A      2.858601   382A      2.866066   383A      2.876112  
     384A      2.885521   385A      2.902189   386A      2.908379  
     387A      2.918290   388A      2.939772   389A      2.947883  
     390A      2.953280   391A      2.963387   392A      2.984876  
     393A      2.989193   394A      3.011181   395A      3.013458  
     396A      3.023047   397A      3.032395   398A      3.053478  
     399A      3.067097   400A      3.072106   401A      3.078226  
     402A      3.091951   403A      3.106553   404A      3.132263  
     405A      3.137376   406A      3.153481   407A      3.175309  
     408A      3.193201   409A      3.209198   410A      3.218292  
     411A      3.226934   412A      3.257658   413A      3.262373  
     414A      3.275005   415A      3.321347   416A      3.339577  
     417A      3.345195   418A      3.366954   419A      3.391069  
     420A      3.399277   421A      3.437655   422A      3.451867  
     423A      3.482378   424A      3.500052   425A      3.529396  
     426A      3.580614   427A      3.653135   428A      3.658527  
     429A      3.706864   430A      3.721748   431A      3.729899  
     432A      3.763042   433A      3.788571   434A      3.804430  
     435A      3.843562   436A      3.856289   437A      3.883787  
     438A      3.899482   439A      3.966623   440A      3.988227  
     441A      4.041328   442A      4.068890   443A      4.077482  
     444A      4.128161   445A      4.146344   446A      4.157796  
     447A      4.174642   448A      4.184129   449A      4.209645  
     450A      4.211705   451A      4.218911   452A      4.228548  
     453A      4.252376   454A      4.255068   455A      4.269543  
     456A      4.295443   457A      4.332863   458A      4.347357  
     459A      4.361067   460A      4.413519   461A      4.416650  
     462A      4.423093   463A      4.436325   464A      4.445357  
     465A      4.449022   466A      4.471275   467A      4.493059  
     468A      4.504230   469A      4.510276   470A      4.515978  
     471A      4.538824   472A      4.548859   473A      4.558664  
     474A      4.565206   475A      4.596495   476A      4.601108  
     477A      4.608365   478A      4.623165   479A      4.632127  
     480A      4.662613   481A      4.682496   482A      4.687953  
     483A      4.708371   484A      4.732135   485A      4.752002  
     486A      4.767935   487A      4.772984   488A      4.791659  
     489A      4.797595   490A      4.821849   491A      4.831394  
     492A      4.839030   493A      4.874641   494A      4.888635  
     495A      4.895359   496A      4.906756   497A      4.921803  
     498A      4.939885   499A      4.950426   500A      4.953903  
     501A      4.959162   502A      4.967498   503A      4.987010  
     504A      4.996189   505A      5.015535   506A      5.027978  
     507A      5.037397   508A      5.046152   509A      5.057026  
     510A      5.076543   511A      5.082297   512A      5.098316  
     513A      5.113288   514A      5.119069   515A      5.140779  
     516A      5.145736   517A      5.161659   518A      5.170756  
     519A      5.189281   520A      5.191033   521A      5.223116  
     522A      5.242619   523A      5.260604   524A      5.270726  
     525A      5.276503   526A      5.296235   527A      5.309392  
     528A      5.321286   529A      5.337614   530A      5.347750  
     531A      5.378139   532A      5.398776   533A      5.409557  
     534A      5.449575   535A      5.469646   536A      5.510301  
     537A      5.521176   538A      5.530143   539A      5.543242  
     540A      5.554698   541A      5.584510   542A      5.606717  
     543A      5.638501   544A      5.675516   545A      5.681363  
     546A      5.692326   547A      5.747655   548A      5.758253  
     549A      5.769147   550A      5.798778   551A      5.821018  
     552A      5.871466   553A      5.911831   554A      5.938085  
     555A      5.943848   556A      5.995933   557A      6.029390  
     558A      6.078897   559A      6.086352   560A      6.112262  
     561A      6.137627   562A      6.172153   563A      6.197247  
     564A      6.203815   565A      6.216290   566A      6.248137  
     567A      6.251789   568A      6.333825   569A      6.347681  
     570A      6.392374   571A      6.424594   572A      6.454673  
     573A      6.471922   574A      6.494183   575A      6.505147  
     576A      6.513725   577A      6.520702   578A      6.528610  
     579A      6.542389   580A      6.564129   581A      6.574568  
     582A      6.609047   583A      6.658214   584A      6.691359  
     585A      6.703308   586A      6.739892   587A      6.752330  
     588A      6.763784   589A      6.784168   590A      6.810030  
     591A      6.828779   592A      6.855649   593A      6.897190  
     594A      6.906602   595A      6.930910   596A      6.932616  
     597A      6.945652   598A      6.969389   599A      7.005864  
     600A      7.020358   601A      7.104456   602A      7.151690  
     603A      7.202060   604A      7.211910   605A      7.258604  
     606A      7.287491   607A      7.310422   608A      7.313111  
     609A      7.327112   610A      7.332197   611A      7.383800  
     612A      7.396000   613A      7.406068   614A      7.408383  
     615A      7.440262   616A      7.476888   617A      7.487406  
     618A      7.536009   619A      7.555326   620A      7.564927  
     621A      7.579388   622A      7.590201   623A      7.605290  
     624A      7.623892   625A      7.642169   626A      7.646714  
     627A      7.670381   628A      7.703890   629A      7.743854  
     630A      7.750519   631A      7.780283   632A      7.794370  
     633A      7.842797   634A      7.888264   635A      7.892351  
     636A      7.901726   637A      7.930604   638A      7.943679  
     639A      7.948006   640A      7.956729   641A      7.972720  
     642A      8.009148   643A      8.039020   644A      8.060528  
     645A      8.129073   646A      8.164073   647A      8.224980  
     648A      8.253185   649A      8.291918   650A      8.318068  
     651A      8.370410   652A      8.500873   653A      8.524982  
     654A      8.550276   655A      8.689566   656A      8.722178  
     657A      8.786015   658A      8.791856   659A      8.819843  
     660A      8.869776   661A      9.003967   662A      9.046309  
     663A      9.117065   664A      9.254277   665A      9.329081  
     666A      9.386232   667A      9.492575   668A      9.555427  
     669A      9.618078   670A      9.707311   671A      9.753958  
     672A      9.823377   673A      9.906901   674A      9.963937  
     675A     10.122416   676A     10.174837   677A     10.285291  
     678A     10.400619   679A     10.474554   680A     10.571678  
     681A     10.693803   682A     11.063458   683A     11.130878  
     684A     11.246113   685A     11.339584   686A     11.394327  
     687A     11.543804   688A     11.749796   689A     11.952704  
     690A     11.986846   691A     12.037008   692A     12.048587  
     693A     12.162064   694A     12.185193   695A     12.355041  
     696A     12.476886   697A     12.811214   698A     12.937796  
     699A     13.283222   700A     13.493955   701A     14.234747  
     702A     15.551045   703A     51.631224   704A     52.392364  
     705A     52.794802   706A     53.856472   707A     56.108680  
     708A     59.356323   709A     61.303131   710A     61.754575  
     711A     63.441254   712A     65.470775   713A     69.817386  

    Final Occupation by Irrep:
              A 
    DOCC [     5 ]

  @DF-RHF Final Energy:   -76.05875834197205

   => Energetics <=

    Nuclear Repulsion Energy =              9.0205306148281217
    One-Electron Energy =                -122.7333412217843289
    Two-Electron Energy =                  37.6540522649841591
    Total Energy =                        -76.0587583419720517

Computation Completed


Properties will be evaluated at   0.000000,   0.000000,   0.000000 [a0]

Properties computed using the SCF density matrix

  Nuclear Dipole Moment: [e a0]
     X:    84.0937      Y:    25.9481      Z:     2.9228

  Electronic Dipole Moment: [e a0]
     X:   -84.4743      Y:   -25.5105      Z:    -2.3912

  Dipole Moment: [e a0]
     X:    -0.3806      Y:     0.4377      Z:     0.5316     Total:     0.7868

  Dipole Moment: [D]
     X:    -0.9674      Y:     1.1125      Z:     1.3512     Total:     1.9998


*** tstop() called on node150.bme.utexas.edu at Fri Mar 29 15:51:04 2024
Module time:
	user time   =     168.60 seconds =       2.81 minutes
	system time =       1.47 seconds =       0.02 minutes
	total time  =         25 seconds =       0.42 minutes
Total time:
	user time   =     912.57 seconds =      15.21 minutes
	system time =      12.62 seconds =       0.21 minutes
	total time  =        139 seconds =       2.32 minutes

*** tstart() called on node150.bme.utexas.edu
*** at Fri Mar 29 15:51:04 2024


  //>>>>>>>>>>>>>>>>>>>>>>>>>>>>>>>>>>>//
  //               DFMP2               //
  //<<<<<<<<<<<<<<<<<<<<<<<<<<<<<<<<<<<//

   => Loading Basis Set <=

    Name: (AUG-CC-PVTZ AUX)
    Role: RIFIT
    Keyword: DF_BASIS_MP2
    atoms 1, 5, 9, 11-12     entry N          line   206 file /opt/anaconda/envs/psi4v1.5/share/psi4/basis/aug-cc-pvtz-ri.gbs 
    atoms 2, 4, 14-16, 18-19 entry H          line    30 file /opt/anaconda/envs/psi4v1.5/share/psi4/basis/aug-cc-pvtz-ri.gbs 
    atoms 3, 6-7, 10, 13     entry C          line   148 file /opt/anaconda/envs/psi4v1.5/share/psi4/basis/aug-cc-pvtz-ri.gbs 
    atoms 8, 17              entry O          line   264 file /opt/anaconda/envs/psi4v1.5/share/psi4/basis/aug-cc-pvtz-ri.gbs 

	 --------------------------------------------------------
	                          DF-MP2                         
	      2nd-Order Density-Fitted Moller-Plesset Theory     
	              RMP2 Wavefunction,   8 Threads             
	                                                         
	        Rob Parrish, Justin Turney, Andy Simmonett,      
	           Ed Hohenstein, and C. David Sherrill          
	 --------------------------------------------------------

   => Auxiliary Basis Set <=

  Basis Set: (AUG-CC-PVTZ AUX)
    Blend: AUG-CC-PVTZ-RI
    Number of shells: 434
    Number of basis functions: 1594
    Number of Cartesian functions: 2017
    Spherical Harmonics?: true
    Max angular momentum: 4

	 --------------------------------------------------------
	                 NBF =   713, NAUX =  1594
	 --------------------------------------------------------
	   CLASS    FOCC     OCC    AOCC    AVIR     VIR    FVIR
	   PAIRS       1       5       4     708     708       0
	 --------------------------------------------------------

	 Will attempt to load fitting metric from file 97.

	-----------------------------------------------------------
	 ==================> DF-MP2 Energies <==================== 
	-----------------------------------------------------------
	 Reference Energy          =     -76.0587583419720517 [Eh]
	 Singles Energy            =      -0.0000000000000000 [Eh]
	 Same-Spin Energy          =      -0.0655132089763793 [Eh]
	 Opposite-Spin Energy      =      -0.2045463697029993 [Eh]
	 Correlation Energy        =      -0.2700595786793786 [Eh]
	 Total Energy              =     -76.3288179206514315 [Eh]
	-----------------------------------------------------------
	 ================> DF-SCS-MP2 Energies <================== 
	-----------------------------------------------------------
	 SCS Same-Spin Scale       =       0.3333333333333333 [-]
	 SCS Opposite-Spin Scale   =       1.2000000000000000 [-]
	 SCS Same-Spin Energy      =      -0.0218377363254598 [Eh]
	 SCS Opposite-Spin Energy  =      -0.2454556436435991 [Eh]
	 SCS Correlation Energy    =      -0.2672933799690589 [Eh]
	 SCS Total Energy          =     -76.3260517219411128 [Eh]
	-----------------------------------------------------------


*** tstop() called on node150.bme.utexas.edu at Fri Mar 29 15:51:11 2024
Module time:
	user time   =      29.22 seconds =       0.49 minutes
	system time =       0.98 seconds =       0.02 minutes
	total time  =          7 seconds =       0.12 minutes
Total time:
	user time   =     941.79 seconds =      15.70 minutes
	system time =      13.60 seconds =       0.23 minutes
	total time  =        146 seconds =       2.43 minutes
  Constructing Basis Sets for SAPT...

   => Loading Basis Set <=

    Name: (AUG-CC-PVTZ AUX)
    Role: RIFIT
    Keyword: DF_BASIS_SAPT
    atoms 1, 5, 9, 11-12     entry N          line   206 file /opt/anaconda/envs/psi4v1.5/share/psi4/basis/aug-cc-pvtz-ri.gbs 
    atoms 2, 4, 14-16, 18-19 entry H          line    30 file /opt/anaconda/envs/psi4v1.5/share/psi4/basis/aug-cc-pvtz-ri.gbs 
    atoms 3, 6-7, 10, 13     entry C          line   148 file /opt/anaconda/envs/psi4v1.5/share/psi4/basis/aug-cc-pvtz-ri.gbs 
    atoms 8, 17              entry O          line   264 file /opt/anaconda/envs/psi4v1.5/share/psi4/basis/aug-cc-pvtz-ri.gbs 


  //>>>>>>>>>>>>>>>>>>>>>>>>>>>>>>>>>>>//
  //           SAPT2+(3)DMP2           //
  //<<<<<<<<<<<<<<<<<<<<<<<<<<<<<<<<<<<//


*** tstart() called on node150.bme.utexas.edu
*** at Fri Mar 29 15:51:11 2024

      SAPT2+(3)  
    Ed Hohenstein
     6 June 2009

      Orbital Information
  --------------------------
    NSO        =       713
    NMO        =       713
    NRI        =      1594
    NOCC A     =        39
    NOCC B     =         5
    FOCC A     =        11
    FOCC B     =         1
    NVIR A     =       674
    NVIR B     =       708

    Estimated memory usage: 24690.3 MB

    Natural Orbital Cutoff:   1.000E-06
    Disp(T3) Truncation:            Yes
    CCD (vv|vv) Truncation:         Yes
    MBPT T2 Truncation:             Yes

    Monomer A: 148 virtual orbitals dropped
    Monomer B: 628 virtual orbitals dropped

    Elst10,r            =    -0.005161790735 [Eh]
    Exch10 (S^2)        =     0.000834550436 [Eh]
    Exch10              =     0.000834935734 [Eh]
    Ind20,r (A<-B)      =    -0.000312490028 [Eh]
    Ind20,r (B<-A)      =    -0.000324201568 [Eh]
    Ind20,r             =    -0.000636691596 [Eh]
    Exch-Ind20,r (A<-B) =     0.000087725921 [Eh]
    Exch-Ind20,r (B<-A) =     0.000088140003 [Eh]
    Exch-Ind20,r        =     0.000175865924 [Eh]
    Disp20              =    -0.001564495930 [Eh]
    Disp20 (NO)         =    -0.001422185829 [Eh]
    Exch-Disp20         =     0.000086624504 [Eh]
    Elst12,r            =     0.000021091183 [Eh]
    Exch11              =    -0.000001383815 [Eh]
    Exch12              =     0.000260651464 [Eh]
    Ind22               =    -0.000106935732 [Eh]
    Disp21              =     0.000143527643 [Eh]
    Disp22 (SDQ)        =    -0.000056104886 [Eh]

    (i =   1 of   4)        477 seconds
    (i =   2 of   4)        955 seconds
    (i =   3 of   4)       1434 seconds
    (i =   4 of   4)       1872 seconds

    Disp220 (T)         =    -0.000166196791 [Eh]

    (i =   1 of  28)          8 seconds
    (i =   2 of  28)         15 seconds
    (i =   3 of  28)         28 seconds
    (i =   4 of  28)         42 seconds
    (i =   5 of  28)         54 seconds
    (i =   6 of  28)         67 seconds
    (i =   7 of  28)         79 seconds
    (i =   8 of  28)         90 seconds
    (i =   9 of  28)        101 seconds
    (i =  10 of  28)        114 seconds
    (i =  11 of  28)        126 seconds
    (i =  12 of  28)        137 seconds
    (i =  13 of  28)        149 seconds
    (i =  14 of  28)        160 seconds
    (i =  15 of  28)        171 seconds
    (i =  16 of  28)        181 seconds
    (i =  17 of  28)        192 seconds
    (i =  18 of  28)        203 seconds
    (i =  19 of  28)        214 seconds
    (i =  20 of  28)        225 seconds
    (i =  21 of  28)        235 seconds
    (i =  22 of  28)        246 seconds
    (i =  23 of  28)        257 seconds
    (i =  24 of  28)        268 seconds
    (i =  25 of  28)        278 seconds
    (i =  26 of  28)        289 seconds
    (i =  27 of  28)        300 seconds
    (i =  28 of  28)        310 seconds

    Disp202 (T)         =    -0.000145835998 [Eh]

    Disp22 (T)          =    -0.000312032789 [Eh]

    Est. Disp220 (T)    =    -0.000182827165 [Eh]
    Est. Disp202 (T)    =    -0.000160428982 [Eh]

    Est. Disp22 (T)     =    -0.000343256147 [Eh]
    Elst13,r            =     0.000110153783 [Eh]
    Disp30              =     0.000033764430 [Eh]

    SAPT Results 
  --------------------------------------------------------------------------------------------------------
    Electrostatics                 -5.03054577 [mEh]      -3.15671513 [kcal/mol]     -13.20769610 [kJ/mol]
      Elst10,r                     -5.16179074 [mEh]      -3.23907259 [kcal/mol]     -13.55227971 [kJ/mol]
      Elst12,r                      0.02109118 [mEh]       0.01323492 [kcal/mol]       0.05537489 [kJ/mol]
      Elst13,r                      0.11015378 [mEh]       0.06912254 [kcal/mol]       0.28920872 [kJ/mol]

    Exchange                        1.09420338 [mEh]       0.68662299 [kcal/mol]       2.87283059 [kJ/mol]
      Exch10                        0.83493573 [mEh]       0.52393008 [kcal/mol]       2.19212347 [kJ/mol]
      Exch10(S^2)                   0.83455044 [mEh]       0.52368831 [kcal/mol]       2.19111187 [kJ/mol]
      Exch11(S^2)                  -0.00138382 [mEh]      -0.00086836 [kcal/mol]      -0.00363321 [kJ/mol]
      Exch12(S^2)                   0.26065146 [mEh]       0.16356126 [kcal/mol]       0.68434033 [kJ/mol]

    Induction                      -0.65261815 [mEh]      -0.40952407 [kcal/mol]      -1.71344871 [kJ/mol]
      Ind20,r                      -0.63669160 [mEh]      -0.39953001 [kcal/mol]      -1.67163355 [kJ/mol]
      Ind22                        -0.10693573 [mEh]      -0.06710318 [kcal/mol]      -0.28075972 [kJ/mol]
      Exch-Ind20,r                  0.17586592 [mEh]       0.11035753 [kcal/mol]       0.46173592 [kJ/mol]
      Exch-Ind22                    0.02953762 [mEh]       0.01853513 [kcal/mol]       0.07755100 [kJ/mol]
      delta HF,r (2)               -0.10638778 [mEh]      -0.06675934 [kcal/mol]      -0.27932109 [kJ/mol]
      delta MP2,r (2)              -0.00800658 [mEh]      -0.00502420 [kcal/mol]      -0.02102126 [kJ/mol]

    Dispersion                     -1.69994039 [mEh]      -1.06672870 [kcal/mol]      -4.46319287 [kJ/mol]
      Disp20                       -1.56449593 [mEh]      -0.98173602 [kcal/mol]      -4.10758350 [kJ/mol]
      Disp30                        0.03376443 [mEh]       0.02118750 [kcal/mol]       0.08864850 [kJ/mol]
      Disp21                        0.14352764 [mEh]       0.09006496 [kcal/mol]       0.37683178 [kJ/mol]
      Disp22 (SDQ)                 -0.05610489 [mEh]      -0.03520635 [kcal/mol]      -0.14730336 [kJ/mol]
      Disp22 (T)                   -0.31203279 [mEh]      -0.19580353 [kcal/mol]      -0.81924197 [kJ/mol]
      Est. Disp22 (T)              -0.34325615 [mEh]      -0.21539648 [kcal/mol]      -0.90121889 [kJ/mol]
      Exch-Disp20                   0.08662450 [mEh]       0.05435770 [kcal/mol]       0.22743260 [kJ/mol]

  Total HF                         -4.89406846 [mEh]      -3.07107432 [kcal/mol]     -12.84937496 [kJ/mol]
  Total SAPT0                      -6.37193988 [mEh]      -3.99845264 [kcal/mol]     -16.72952586 [kJ/mol]
  Total SAPT2                      -6.16897917 [mEh]      -3.87109287 [kcal/mol]     -16.19665257 [kJ/mol]
  Total SAPT2+                     -6.42481256 [mEh]      -4.03163075 [kcal/mol]     -16.86834304 [kJ/mol]
  Total SAPT2+(3)                  -6.28089434 [mEh]      -3.94132070 [kcal/mol]     -16.49048583 [kJ/mol]
  Total SAPT2+dMP2                 -6.43281913 [mEh]      -4.03665495 [kcal/mol]     -16.88936431 [kJ/mol]
  Total SAPT2+(3)dMP2              -6.28890092 [mEh]      -3.94634491 [kcal/mol]     -16.51150709 [kJ/mol]

  Special recipe for scaled SAPT0 (see Manual):
    Electrostatics sSAPT0          -5.16179074 [mEh]      -3.23907259 [kcal/mol]     -13.55227971 [kJ/mol]
    Exchange sSAPT0                 0.83493573 [mEh]       0.52393008 [kcal/mol]       2.19212347 [kJ/mol]
    Induction sSAPT0               -0.56696976 [mEh]      -0.35577890 [kcal/mol]      -1.48857890 [kJ/mol]
    Dispersion sSAPT0              -1.47775139 [mEh]      -0.92730300 [kcal/mol]      -3.87983575 [kJ/mol]
  Total sSAPT0                     -6.37157615 [mEh]      -3.99822440 [kcal/mol]     -16.72857089 [kJ/mol]
  --------------------------------------------------------------------------------------------------------

*** tstop() called on node150.bme.utexas.edu at Fri Mar 29 17:43:24 2024
Module time:
	user time   =   45540.32 seconds =     759.01 minutes
	system time =     357.53 seconds =       5.96 minutes
	total time  =       6733 seconds =     112.22 minutes
Total time:
	user time   =   46482.65 seconds =     774.71 minutes
	system time =     371.13 seconds =       6.19 minutes
	total time  =       6879 seconds =     114.65 minutes

    Psi4 stopped on: Friday, 29 March 2024 05:43PM
    Psi4 wall time for execution: 1:54:39.62

*** Psi4 exiting successfully. Buy a developer a beer!
