
    -----------------------------------------------------------------------
          Psi4: An Open-Source Ab Initio Electronic Structure Package
                               Psi4 1.5 release

                         Git: Rev {HEAD} e9f4d6d 


    D. G. A. Smith, L. A. Burns, A. C. Simmonett, R. M. Parrish,
    M. C. Schieber, R. Galvelis, P. Kraus, H. Kruse, R. Di Remigio,
    A. Alenaizan, A. M. James, S. Lehtola, J. P. Misiewicz, M. Scheurer,
    R. A. Shaw, J. B. Schriber, Y. Xie, Z. L. Glick, D. A. Sirianni,
    J. S. O'Brien, J. M. Waldrop, A. Kumar, E. G. Hohenstein,
    B. P. Pritchard, B. R. Brooks, H. F. Schaefer III, A. Yu. Sokolov,
    K. Patkowski, A. E. DePrince III, U. Bozkaya, R. A. King,
    F. A. Evangelista, J. M. Turney, T. D. Crawford, C. D. Sherrill,
    J. Chem. Phys. 152(18) 184108 (2020). https://doi.org/10.1063/5.0006002

                            Additional Code Authors
    E. T. Seidl, C. L. Janssen, E. F. Valeev, M. L. Leininger,
    J. F. Gonthier, R. M. Richard, H. R. McAlexander, M. Saitow, X. Wang,
    P. Verma, M. H. Lechner, and A. Jiang

             Previous Authors, Complete List of Code Contributors,
                       and Citations for Specific Modules
    https://github.com/psi4/psi4/blob/master/codemeta.json
    https://github.com/psi4/psi4/graphs/contributors
    http://psicode.org/psi4manual/master/introduction.html#citing-psifour

    -----------------------------------------------------------------------


    Psi4 started on: Monday, 13 May 2024 10:28AM

    Process ID: 2025181
    Host:       bme-earth.bme.utexas.edu
    PSIDATADIR: /opt/anaconda/envs/psi4v1.5/share/psi4
    Memory:     500.0 MiB
    Threads:    8
    
  ==> Input File <==

--------------------------------------------------------------------------
memory 50GB

molecule {
0 1
N -0.03833 2.39519 -0.00199
H 0.45077 3.28326 0.00186
C -1.39524 2.18879 -0.01692
H -2.10321 3.00709 -0.0235
N -1.71481 0.90376 -0.02243
C -0.49969 0.25482 -0.00818
C -0.20611 -1.15484 -0.02685
O -0.9509 -2.13246 -0.05918
N 1.2039 -1.34173 -0.01779
C 2.16556 -0.36069 0.0155
N 3.47664 -0.79549 -0.04963
N 1.90051 0.9236 0.03231
C 0.55833 1.1618 -0.00097
H 1.48524 -2.3148 -0.11699
H 3.6966 -1.61504 0.50662
H 4.1256 -0.03273 0.11538
--
0 1
O -3.453091125 -1.1281551875 0.06908791666666667
H -3.049391125 -0.24420518750000003 0.03557791666666667
H -2.666181125 -1.6954851875 0.019657916666666664
 units angstrom
 no_reorient
 symmetry c1} 
set  {scf_type DF
 basis aug-cc-pvdz
 freeze_core True
 guess SAD}
energy('sapt2+(3)dmp2')
--------------------------------------------------------------------------

  Memory set to  46.566 GiB by Python driver.

Scratch directory: /tmp/
   => Loading Basis Set <=

    Name: AUG-CC-PVDZ
    Role: ORBITAL
    Keyword: BASIS
    atoms 1, 5, 9, 11-12     entry N          line   218 file /opt/anaconda/envs/psi4v1.5/share/psi4/basis/aug-cc-pvdz.gbs 
    atoms 2, 4, 14-16, 18-19 entry H          line    40 file /opt/anaconda/envs/psi4v1.5/share/psi4/basis/aug-cc-pvdz.gbs 
    atoms 3, 6-7, 10, 13     entry C          line   182 file /opt/anaconda/envs/psi4v1.5/share/psi4/basis/aug-cc-pvdz.gbs 
    atoms 8, 17              entry O          line   254 file /opt/anaconda/envs/psi4v1.5/share/psi4/basis/aug-cc-pvdz.gbs 

   => Loading Basis Set <=

    Name: AUG-CC-PVDZ
    Role: ORBITAL
    Keyword: BASIS
    atoms 1, 5, 9, 11-12     entry N          line   218 file /opt/anaconda/envs/psi4v1.5/share/psi4/basis/aug-cc-pvdz.gbs 
    atoms 2, 4, 14-16, 18-19 entry H          line    40 file /opt/anaconda/envs/psi4v1.5/share/psi4/basis/aug-cc-pvdz.gbs 
    atoms 3, 6-7, 10, 13     entry C          line   182 file /opt/anaconda/envs/psi4v1.5/share/psi4/basis/aug-cc-pvdz.gbs 
    atoms 8, 17              entry O          line   254 file /opt/anaconda/envs/psi4v1.5/share/psi4/basis/aug-cc-pvdz.gbs 


  //>>>>>>>>>>>>>>>>>>>>>>>>>>>>>>>>>>>//
  //              Dimer HF             //
  //<<<<<<<<<<<<<<<<<<<<<<<<<<<<<<<<<<<//


*** tstart() called on bme-earth.bme.utexas.edu
*** at Mon May 13 10:28:49 2024

   => Loading Basis Set <=

    Name: AUG-CC-PVDZ
    Role: ORBITAL
    Keyword: BASIS
    atoms 1, 5, 9, 11-12     entry N          line   218 file /opt/anaconda/envs/psi4v1.5/share/psi4/basis/aug-cc-pvdz.gbs 
    atoms 2, 4, 14-16, 18-19 entry H          line    40 file /opt/anaconda/envs/psi4v1.5/share/psi4/basis/aug-cc-pvdz.gbs 
    atoms 3, 6-7, 10, 13     entry C          line   182 file /opt/anaconda/envs/psi4v1.5/share/psi4/basis/aug-cc-pvdz.gbs 
    atoms 8, 17              entry O          line   254 file /opt/anaconda/envs/psi4v1.5/share/psi4/basis/aug-cc-pvdz.gbs 


         ---------------------------------------------------------
                                   SCF
               by Justin Turney, Rob Parrish, Andy Simmonett
                          and Daniel G. A. Smith
                              RHF Reference
                        8 Threads,  47683 MiB Core
         ---------------------------------------------------------

  ==> Geometry <==

    Molecular point group: c1
    Full point group: C1

    Geometry (in Angstrom), charge = 0, multiplicity = 1:

       Center              X                  Y                   Z               Mass       
    ------------   -----------------  -----------------  -----------------  -----------------
         N           -0.077327538250     2.380299099722     0.001448698455    14.003074004430
         H            0.411772461750     3.268369099722     0.005298698455     1.007825032230
         C           -1.434237538250     2.173899099722    -0.013481301545    12.000000000000
         H           -2.142207538250     2.992199099722    -0.020061301545     1.007825032230
         N           -1.753807538250     0.888869099722    -0.018991301545    14.003074004430
         C           -0.538687538250     0.239929099722    -0.004741301545    12.000000000000
         C           -0.245107538250    -1.169730900278    -0.023411301545    12.000000000000
         O           -0.989897538250    -2.147350900278    -0.055741301545    15.994914619570
         N            1.164902461750    -1.356620900278    -0.014351301545    14.003074004430
         C            2.126562461750    -0.375580900278     0.018938698455    12.000000000000
         N            3.437642461750    -0.810380900278    -0.046191301545    14.003074004430
         N            1.861512461750     0.908709099722     0.035748698455    14.003074004430
         C            0.519332461750     1.146909099722     0.002468698455    12.000000000000
         H            1.446242461750    -2.329690900278    -0.113551301545     1.007825032230
         H            3.657602461750    -1.629930900278     0.510058698455     1.007825032230
         H            4.086602461750    -0.047620900278     0.118818698455     1.007825032230
         O           -3.492088663250    -1.143046087778     0.072526615121    15.994914619570
         H           -3.088388663250    -0.259096087778     0.039016615121     1.007825032230
         H           -2.705178663250    -1.710376087778     0.023096615121     1.007825032230

  Running in c1 symmetry.

  Rotational constants: A =      0.04764  B =      0.02682  C =      0.01718 [cm^-1]
  Rotational constants: A =   1428.14168  B =    804.18635  C =    514.99545 [MHz]
  Nuclear repulsion =  707.898926076374551

  Charge       = 0
  Multiplicity = 1
  Electrons    = 88
  Nalpha       = 44
  Nbeta        = 44

  ==> Algorithm <==

  SCF Algorithm Type is DF.
  DIIS enabled.
  MOM disabled.
  Fractional occupation disabled.
  Guess Type is SAD.
  Energy threshold   = 1.00e-08
  Density threshold  = 1.00e-08
  Integral threshold = 1.00e-12

  ==> Primary Basis <==

  Basis Set: AUG-CC-PVDZ
    Blend: AUG-CC-PVDZ
    Number of shells: 143
    Number of basis functions: 339
    Number of Cartesian functions: 363
    Spherical Harmonics?: true
    Max angular momentum: 2

   => Loading Basis Set <=

    Name: (AUG-CC-PVDZ AUX)
    Role: JKFIT
    Keyword: DF_BASIS_SCF
    atoms 1, 5, 9, 11-12     entry N          line   212 file /opt/anaconda/envs/psi4v1.5/share/psi4/basis/aug-cc-pvdz-jkfit.gbs 
    atoms 2, 4, 14-16, 18-19 entry H          line    70 file /opt/anaconda/envs/psi4v1.5/share/psi4/basis/aug-cc-pvdz-jkfit.gbs 
    atoms 3, 6-7, 10, 13     entry C          line   154 file /opt/anaconda/envs/psi4v1.5/share/psi4/basis/aug-cc-pvdz-jkfit.gbs 
    atoms 8, 17              entry O          line   270 file /opt/anaconda/envs/psi4v1.5/share/psi4/basis/aug-cc-pvdz-jkfit.gbs 

  ==> Integral Setup <==

  ==> DiskDFJK: Density-Fitted J/K Matrices <==

    J tasked:                  Yes
    K tasked:                  Yes
    wK tasked:                  No
    OpenMP threads:              8
    Integrals threads:           8
    Memory [MiB]:            35762
    Algorithm:                Core
    Integral Cache:           SAVE
    Schwarz Cutoff:          1E-12
    Fitting Condition:       1E-10

   => Auxiliary Basis Set <=

  Basis Set: (AUG-CC-PVDZ AUX)
    Blend: AUG-CC-PVDZ-JKFIT
    Number of shells: 420
    Number of basis functions: 1256
    Number of Cartesian functions: 1457
    Spherical Harmonics?: true
    Max angular momentum: 3

  Minimum eigenvalue in the overlap matrix is 4.7158527152E-06.
  Reciprocal condition number of the overlap matrix is 3.1268343575E-07.
    Using symmetric orthogonalization.

  ==> Pre-Iterations <==

  SCF Guess: Superposition of Atomic Densities via on-the-fly atomic UHF (no occupation information).

   -------------------------
    Irrep   Nso     Nmo    
   -------------------------
     A        339     339 
   -------------------------
    Total     339     339
   -------------------------

  ==> Iterations <==

                           Total Energy        Delta E     RMS |[F,P]|

   @DF-RHF iter SAD:  -614.99108013328987   -6.14991e+02   0.00000e+00 
   @DF-RHF iter   1:  -615.14000110232769   -1.48921e-01   2.56003e-03 DIIS
   @DF-RHF iter   2:  -615.41488924601867   -2.74888e-01   1.44641e-03 DIIS
   @DF-RHF iter   3:  -615.50479310541732   -8.99039e-02   2.56890e-04 DIIS
   @DF-RHF iter   4:  -615.50950971531529   -4.71661e-03   1.15755e-04 DIIS
   @DF-RHF iter   5:  -615.51039344949879   -8.83734e-04   2.82162e-05 DIIS
   @DF-RHF iter   6:  -615.51050107191406   -1.07622e-04   1.39968e-05 DIIS
   @DF-RHF iter   7:  -615.51053127004036   -3.01981e-05   4.95998e-06 DIIS
   @DF-RHF iter   8:  -615.51053611545490   -4.84541e-06   1.80832e-06 DIIS
   @DF-RHF iter   9:  -615.51053667976691   -5.64312e-07   7.29795e-07 DIIS
   @DF-RHF iter  10:  -615.51053677843424   -9.86673e-08   2.87579e-07 DIIS
   @DF-RHF iter  11:  -615.51053679186350   -1.34293e-08   1.04158e-07 DIIS
   @DF-RHF iter  12:  -615.51053679372717   -1.86367e-09   3.01970e-08 DIIS
   @DF-RHF iter  13:  -615.51053679391111   -1.83945e-10   1.29014e-08 DIIS
   @DF-RHF iter  14:  -615.51053679393772   -2.66027e-11   4.42680e-09 DIIS
  Energy and wave function converged.


  ==> Post-Iterations <==

    Orbital Energies [Eh]
    ---------------------

    Doubly Occupied:                                                      

       1A    -20.555570     2A    -20.472189     3A    -15.661221  
       4A    -15.656484     5A    -15.633121     6A    -15.597265  
       7A    -15.592793     8A    -11.421526     9A    -11.397885  
      10A    -11.352333    11A    -11.342162    12A    -11.276301  
      13A     -1.419318    14A     -1.385624    15A     -1.357532  
      16A     -1.258669    17A     -1.241106    18A     -1.237613  
      19A     -1.200944    20A     -1.053784    21A     -0.928951  
      22A     -0.906221    23A     -0.868380    24A     -0.818970  
      25A     -0.761176    26A     -0.749272    27A     -0.719289  
      28A     -0.692236    29A     -0.674181    30A     -0.653569  
      31A     -0.652926    32A     -0.635168    33A     -0.615433  
      34A     -0.606468    35A     -0.567678    36A     -0.536869  
      37A     -0.496526    38A     -0.476366    39A     -0.460398  
      40A     -0.451510    41A     -0.436362    42A     -0.432291  
      43A     -0.410586    44A     -0.320818  

    Virtual:                                                              

      45A      0.014461    46A      0.022037    47A      0.038119  
      48A      0.048411    49A      0.057223    50A      0.071278  
      51A      0.082212    52A      0.090894    53A      0.094514  
      54A      0.100623    55A      0.106903    56A      0.109555  
      57A      0.115382    58A      0.118775    59A      0.123851  
      60A      0.132405    61A      0.137212    62A      0.140428  
      63A      0.149394    64A      0.151589    65A      0.155541  
      66A      0.161847    67A      0.168572    68A      0.173050  
      69A      0.176408    70A      0.185635    71A      0.197006  
      72A      0.202990    73A      0.208847    74A      0.210829  
      75A      0.217371    76A      0.230641    77A      0.239176  
      78A      0.252492    79A      0.254522    80A      0.256573  
      81A      0.257142    82A      0.268172    83A      0.270770  
      84A      0.272971    85A      0.276053    86A      0.293968  
      87A      0.301850    88A      0.303929    89A      0.305644  
      90A      0.317226    91A      0.321996    92A      0.328616  
      93A      0.330656    94A      0.342616    95A      0.351543  
      96A      0.355937    97A      0.358928    98A      0.362371  
      99A      0.367590   100A      0.377059   101A      0.389504  
     102A      0.392936   103A      0.399828   104A      0.406024  
     105A      0.412777   106A      0.414689   107A      0.419811  
     108A      0.426243   109A      0.429719   110A      0.437678  
     111A      0.451382   112A      0.455168   113A      0.459447  
     114A      0.460029   115A      0.478654   116A      0.488909  
     117A      0.493692   118A      0.498936   119A      0.514871  
     120A      0.521961   121A      0.532024   122A      0.539411  
     123A      0.543355   124A      0.553723   125A      0.563656  
     126A      0.572841   127A      0.579218   128A      0.590421  
     129A      0.598693   130A      0.602342   131A      0.608934  
     132A      0.621503   133A      0.631154   134A      0.634100  
     135A      0.640517   136A      0.644940   137A      0.651621  
     138A      0.663997   139A      0.674641   140A      0.677456  
     141A      0.683073   142A      0.690055   143A      0.692357  
     144A      0.701533   145A      0.713276   146A      0.719454  
     147A      0.728976   148A      0.734244   149A      0.743408  
     150A      0.759578   151A      0.764836   152A      0.777331  
     153A      0.795511   154A      0.800772   155A      0.809287  
     156A      0.817903   157A      0.827664   158A      0.835489  
     159A      0.838590   160A      0.847324   161A      0.854878  
     162A      0.865989   163A      0.876783   164A      0.885597  
     165A      0.889555   166A      0.898408   167A      0.918423  
     168A      0.921119   169A      0.933899   170A      0.946092  
     171A      0.947126   172A      0.962382   173A      0.966597  
     174A      0.986029   175A      0.992005   176A      1.011111  
     177A      1.022709   178A      1.028856   179A      1.041280  
     180A      1.055828   181A      1.058606   182A      1.066293  
     183A      1.080510   184A      1.085996   185A      1.096178  
     186A      1.099617   187A      1.123763   188A      1.131168  
     189A      1.132928   190A      1.148768   191A      1.154418  
     192A      1.169997   193A      1.179935   194A      1.190699  
     195A      1.198604   196A      1.211485   197A      1.238894  
     198A      1.259804   199A      1.264199   200A      1.276686  
     201A      1.282739   202A      1.301828   203A      1.326094  
     204A      1.330974   205A      1.337762   206A      1.365696  
     207A      1.379407   208A      1.388365   209A      1.401698  
     210A      1.418333   211A      1.438671   212A      1.457054  
     213A      1.487446   214A      1.496768   215A      1.514179  
     216A      1.529830   217A      1.553599   218A      1.575942  
     219A      1.582662   220A      1.606472   221A      1.624867  
     222A      1.628235   223A      1.643612   224A      1.653198  
     225A      1.663856   226A      1.683237   227A      1.718753  
     228A      1.729149   229A      1.729910   230A      1.734900  
     231A      1.764450   232A      1.781349   233A      1.782885  
     234A      1.796027   235A      1.814790   236A      1.824598  
     237A      1.839507   238A      1.863429   239A      1.879573  
     240A      1.895260   241A      1.897471   242A      1.916616  
     243A      1.924600   244A      1.945803   245A      1.967300  
     246A      1.977905   247A      1.999117   248A      2.009598  
     249A      2.024844   250A      2.048200   251A      2.079966  
     252A      2.100010   253A      2.104736   254A      2.111203  
     255A      2.125318   256A      2.153185   257A      2.161150  
     258A      2.170533   259A      2.202218   260A      2.205745  
     261A      2.230092   262A      2.263930   263A      2.274443  
     264A      2.282392   265A      2.305518   266A      2.312903  
     267A      2.325977   268A      2.330208   269A      2.364018  
     270A      2.377288   271A      2.386052   272A      2.390152  
     273A      2.398314   274A      2.414732   275A      2.441266  
     276A      2.456201   277A      2.476735   278A      2.496847  
     279A      2.516879   280A      2.543844   281A      2.566686  
     282A      2.585546   283A      2.602648   284A      2.629056  
     285A      2.647537   286A      2.667331   287A      2.692432  
     288A      2.694711   289A      2.729349   290A      2.748005  
     291A      2.758808   292A      2.766158   293A      2.775403  
     294A      2.790838   295A      2.805876   296A      2.816325  
     297A      2.820645   298A      2.842469   299A      2.864027  
     300A      2.887330   301A      2.919432   302A      2.929214  
     303A      2.964637   304A      2.976609   305A      2.999340  
     306A      3.027104   307A      3.059613   308A      3.080022  
     309A      3.114582   310A      3.152441   311A      3.162826  
     312A      3.214502   313A      3.230207   314A      3.245170  
     315A      3.277797   316A      3.306476   317A      3.332272  
     318A      3.362837   319A      3.405915   320A      3.437801  
     321A      3.535355   322A      3.562339   323A      3.595749  
     324A      3.656492   325A      3.751344   326A      3.779074  
     327A      3.799203   328A      3.820661   329A      3.848595  
     330A      3.879565   331A      3.881484   332A      3.939693  
     333A      3.966390   334A      4.051046   335A      4.200917  
     336A      4.212907   337A      4.335030   338A      4.415762  
     339A      4.628196  

    Final Occupation by Irrep:
              A 
    DOCC [    44 ]

  @DF-RHF Final Energy:  -615.51053679393772

   => Energetics <=

    Nuclear Repulsion Energy =            707.8989260763745506
    One-Electron Energy =               -2244.8487626863779951
    Two-Electron Energy =                 921.4392998160656134
    Total Energy =                       -615.5105367939377174

Computation Completed


Properties will be evaluated at   0.000000,   0.000000,   0.000000 [a0]

Properties computed using the SCF density matrix

  Nuclear Dipole Moment: [e a0]
     X:     1.5272      Y:     0.2445      Z:     0.5277

  Electronic Dipole Moment: [e a0]
     X:     2.3410      Y:     1.5698      Z:    -0.1999

  Dipole Moment: [e a0]
     X:     3.8682      Y:     1.8143      Z:     0.3278     Total:     4.2851

  Dipole Moment: [D]
     X:     9.8320      Y:     4.6115      Z:     0.8332     Total:    10.8917


*** tstop() called on bme-earth.bme.utexas.edu at Mon May 13 10:28:55 2024
Module time:
	user time   =      40.92 seconds =       0.68 minutes
	system time =       0.53 seconds =       0.01 minutes
	total time  =          6 seconds =       0.10 minutes
Total time:
	user time   =      40.92 seconds =       0.68 minutes
	system time =       0.53 seconds =       0.01 minutes
	total time  =          6 seconds =       0.10 minutes

*** tstart() called on bme-earth.bme.utexas.edu
*** at Mon May 13 10:28:55 2024


  //>>>>>>>>>>>>>>>>>>>>>>>>>>>>>>>>>>>//
  //               DFMP2               //
  //<<<<<<<<<<<<<<<<<<<<<<<<<<<<<<<<<<<//

   => Loading Basis Set <=

    Name: (AUG-CC-PVDZ AUX)
    Role: RIFIT
    Keyword: DF_BASIS_MP2
    atoms 1, 5, 9, 11-12     entry N          line   158 file /opt/anaconda/envs/psi4v1.5/share/psi4/basis/aug-cc-pvdz-ri.gbs 
    atoms 2, 4, 14-16, 18-19 entry H          line    30 file /opt/anaconda/envs/psi4v1.5/share/psi4/basis/aug-cc-pvdz-ri.gbs 
    atoms 3, 6-7, 10, 13     entry C          line   112 file /opt/anaconda/envs/psi4v1.5/share/psi4/basis/aug-cc-pvdz-ri.gbs 
    atoms 8, 17              entry O          line   204 file /opt/anaconda/envs/psi4v1.5/share/psi4/basis/aug-cc-pvdz-ri.gbs 

	 --------------------------------------------------------
	                          DF-MP2                         
	      2nd-Order Density-Fitted Moller-Plesset Theory     
	              RMP2 Wavefunction,   8 Threads             
	                                                         
	        Rob Parrish, Justin Turney, Andy Simmonett,      
	           Ed Hohenstein, and C. David Sherrill          
	 --------------------------------------------------------

   => Auxiliary Basis Set <=

  Basis Set: (AUG-CC-PVDZ AUX)
    Blend: AUG-CC-PVDZ-RI
    Number of shells: 327
    Number of basis functions: 1025
    Number of Cartesian functions: 1207
    Spherical Harmonics?: true
    Max angular momentum: 3

	 --------------------------------------------------------
	                 NBF =   339, NAUX =  1025
	 --------------------------------------------------------
	   CLASS    FOCC     OCC    AOCC    AVIR     VIR    FVIR
	   PAIRS      12      44      32     295     295       0
	 --------------------------------------------------------

	 Will save fitting metric to file 97.

	-----------------------------------------------------------
	 ==================> DF-MP2 Energies <==================== 
	-----------------------------------------------------------
	 Reference Energy          =    -615.5105367939377174 [Eh]
	 Singles Energy            =      -0.0000000000000000 [Eh]
	 Same-Spin Energy          =      -0.5371220811235604 [Eh]
	 Opposite-Spin Energy      =      -1.3967179619039491 [Eh]
	 Correlation Energy        =      -1.9338400430275096 [Eh]
	 Total Energy              =    -617.4443768369652616 [Eh]
	-----------------------------------------------------------
	 ================> DF-SCS-MP2 Energies <================== 
	-----------------------------------------------------------
	 SCS Same-Spin Scale       =       0.3333333333333333 [-]
	 SCS Opposite-Spin Scale   =       1.2000000000000000 [-]
	 SCS Same-Spin Energy      =      -0.1790406937078535 [Eh]
	 SCS Opposite-Spin Energy  =      -1.6760615542847390 [Eh]
	 SCS Correlation Energy    =      -1.8551022479925925 [Eh]
	 SCS Total Energy          =    -617.3656390419303079 [Eh]
	-----------------------------------------------------------


*** tstop() called on bme-earth.bme.utexas.edu at Mon May 13 10:28:57 2024
Module time:
	user time   =      11.79 seconds =       0.20 minutes
	system time =       0.19 seconds =       0.00 minutes
	total time  =          2 seconds =       0.03 minutes
Total time:
	user time   =      52.71 seconds =       0.88 minutes
	system time =       0.72 seconds =       0.01 minutes
	total time  =          8 seconds =       0.13 minutes

  //>>>>>>>>>>>>>>>>>>>>>>>>>>>>>>>>>>>//
  //            Monomer A HF           //
  //<<<<<<<<<<<<<<<<<<<<<<<<<<<<<<<<<<<//


*** tstart() called on bme-earth.bme.utexas.edu
*** at Mon May 13 10:28:57 2024

   => Loading Basis Set <=

    Name: AUG-CC-PVDZ
    Role: ORBITAL
    Keyword: BASIS
    atoms 1, 5, 9, 11-12     entry N          line   218 file /opt/anaconda/envs/psi4v1.5/share/psi4/basis/aug-cc-pvdz.gbs 
    atoms 2, 4, 14-16, 18-19 entry H          line    40 file /opt/anaconda/envs/psi4v1.5/share/psi4/basis/aug-cc-pvdz.gbs 
    atoms 3, 6-7, 10, 13     entry C          line   182 file /opt/anaconda/envs/psi4v1.5/share/psi4/basis/aug-cc-pvdz.gbs 
    atoms 8, 17              entry O          line   254 file /opt/anaconda/envs/psi4v1.5/share/psi4/basis/aug-cc-pvdz.gbs 


         ---------------------------------------------------------
                                   SCF
               by Justin Turney, Rob Parrish, Andy Simmonett
                          and Daniel G. A. Smith
                              RHF Reference
                        8 Threads,  47683 MiB Core
         ---------------------------------------------------------

  ==> Geometry <==

    Molecular point group: c1
    Full point group: C1

    Geometry (in Angstrom), charge = 0, multiplicity = 1:

       Center              X                  Y                   Z               Mass       
    ------------   -----------------  -----------------  -----------------  -----------------
         N           -0.077327538250     2.380299099722     0.001448698455    14.003074004430
         H            0.411772461750     3.268369099722     0.005298698455     1.007825032230
         C           -1.434237538250     2.173899099722    -0.013481301545    12.000000000000
         H           -2.142207538250     2.992199099722    -0.020061301545     1.007825032230
         N           -1.753807538250     0.888869099722    -0.018991301545    14.003074004430
         C           -0.538687538250     0.239929099722    -0.004741301545    12.000000000000
         C           -0.245107538250    -1.169730900278    -0.023411301545    12.000000000000
         O           -0.989897538250    -2.147350900278    -0.055741301545    15.994914619570
         N            1.164902461750    -1.356620900278    -0.014351301545    14.003074004430
         C            2.126562461750    -0.375580900278     0.018938698455    12.000000000000
         N            3.437642461750    -0.810380900278    -0.046191301545    14.003074004430
         N            1.861512461750     0.908709099722     0.035748698455    14.003074004430
         C            0.519332461750     1.146909099722     0.002468698455    12.000000000000
         H            1.446242461750    -2.329690900278    -0.113551301545     1.007825032230
         H            3.657602461750    -1.629930900278     0.510058698455     1.007825032230
         H            4.086602461750    -0.047620900278     0.118818698455     1.007825032230
      Gh(O)          -3.492088663250    -1.143046087778     0.072526615121    15.994914619570
      Gh(H)          -3.088388663250    -0.259096087778     0.039016615121     1.007825032230
      Gh(H)          -2.705178663250    -1.710376087778     0.023096615121     1.007825032230

  Running in c1 symmetry.

  Rotational constants: A =      0.04764  B =      0.02682  C =      0.01718 [cm^-1]
  Rotational constants: A =   1428.14168  B =    804.18635  C =    514.99545 [MHz]
  Nuclear repulsion =  593.919999721530189

  Charge       = 0
  Multiplicity = 1
  Electrons    = 78
  Nalpha       = 39
  Nbeta        = 39

  ==> Algorithm <==

  SCF Algorithm Type is DF.
  DIIS enabled.
  MOM disabled.
  Fractional occupation disabled.
  Guess Type is SAD.
  Energy threshold   = 1.00e-08
  Density threshold  = 1.00e-08
  Integral threshold = 1.00e-12

  ==> Primary Basis <==

  Basis Set: AUG-CC-PVDZ
    Blend: AUG-CC-PVDZ
    Number of shells: 143
    Number of basis functions: 339
    Number of Cartesian functions: 363
    Spherical Harmonics?: true
    Max angular momentum: 2

   => Loading Basis Set <=

    Name: (AUG-CC-PVDZ AUX)
    Role: JKFIT
    Keyword: DF_BASIS_SCF
    atoms 1, 5, 9, 11-12     entry N          line   212 file /opt/anaconda/envs/psi4v1.5/share/psi4/basis/aug-cc-pvdz-jkfit.gbs 
    atoms 2, 4, 14-16, 18-19 entry H          line    70 file /opt/anaconda/envs/psi4v1.5/share/psi4/basis/aug-cc-pvdz-jkfit.gbs 
    atoms 3, 6-7, 10, 13     entry C          line   154 file /opt/anaconda/envs/psi4v1.5/share/psi4/basis/aug-cc-pvdz-jkfit.gbs 
    atoms 8, 17              entry O          line   270 file /opt/anaconda/envs/psi4v1.5/share/psi4/basis/aug-cc-pvdz-jkfit.gbs 

  ==> Integral Setup <==

  ==> DiskDFJK: Density-Fitted J/K Matrices <==

    J tasked:                  Yes
    K tasked:                  Yes
    wK tasked:                  No
    OpenMP threads:              8
    Integrals threads:           8
    Memory [MiB]:            35762
    Algorithm:                Core
    Integral Cache:           LOAD
    Schwarz Cutoff:          1E-12
    Fitting Condition:       1E-10

   => Auxiliary Basis Set <=

  Basis Set: (AUG-CC-PVDZ AUX)
    Blend: AUG-CC-PVDZ-JKFIT
    Number of shells: 420
    Number of basis functions: 1256
    Number of Cartesian functions: 1457
    Spherical Harmonics?: true
    Max angular momentum: 3

  Minimum eigenvalue in the overlap matrix is 4.7158527152E-06.
  Reciprocal condition number of the overlap matrix is 3.1268343575E-07.
    Using symmetric orthogonalization.

  ==> Pre-Iterations <==

  SCF Guess: Superposition of Atomic Densities via on-the-fly atomic UHF (no occupation information).

   -------------------------
    Irrep   Nso     Nmo    
   -------------------------
     A        339     339 
   -------------------------
    Total     339     339
   -------------------------

  ==> Iterations <==

                           Total Energy        Delta E     RMS |[F,P]|

   @DF-RHF iter SAD:  -539.22015699990641   -5.39220e+02   0.00000e+00 
   @DF-RHF iter   1:  -539.16531086394150    5.48461e-02   2.26625e-03 DIIS
   @DF-RHF iter   2:  -539.38842107900871   -2.23110e-01   1.31594e-03 DIIS
   @DF-RHF iter   3:  -539.46541120995323   -7.69901e-02   2.82458e-04 DIIS
   @DF-RHF iter   4:  -539.47049356842376   -5.08236e-03   1.12664e-04 DIIS
   @DF-RHF iter   5:  -539.47141701130647   -9.23443e-04   2.37499e-05 DIIS
   @DF-RHF iter   6:  -539.47151110162781   -9.40903e-05   1.24635e-05 DIIS
   @DF-RHF iter   7:  -539.47153620643792   -2.51048e-05   5.08322e-06 DIIS
   @DF-RHF iter   8:  -539.47154061268827   -4.40625e-06   1.79806e-06 DIIS
   @DF-RHF iter   9:  -539.47154113147531   -5.18787e-07   6.96551e-07 DIIS
   @DF-RHF iter  10:  -539.47154122306677   -9.15915e-08   2.77785e-07 DIIS
   @DF-RHF iter  11:  -539.47154123535881   -1.22920e-08   1.08520e-07 DIIS
   @DF-RHF iter  12:  -539.47154123709811   -1.73929e-09   3.81931e-08 DIIS
   @DF-RHF iter  13:  -539.47154123731275   -2.14641e-10   1.70668e-08 DIIS
   @DF-RHF iter  14:  -539.47154123734754   -3.47882e-11   5.08828e-09 DIIS
  Energy and wave function converged.


  ==> Post-Iterations <==

    Orbital Energies [Eh]
    ---------------------

    Doubly Occupied:                                                      

       1A    -20.533864     2A    -15.643282     3A    -15.639508  
       4A    -15.621445     5A    -15.582169     6A    -15.573205  
       7A    -11.406495     8A    -11.375220     9A    -11.333209  
      10A    -11.320604    11A    -11.256501    12A     -1.397107  
      13A     -1.364329    14A     -1.339555    15A     -1.224865  
      16A     -1.222226    17A     -1.180973    18A     -1.034777  
      19A     -0.910425    20A     -0.889201    21A     -0.846331  
      22A     -0.802187    23A     -0.742985    24A     -0.733170  
      25A     -0.702427    26A     -0.674332    27A     -0.656928  
      28A     -0.635704    29A     -0.614148    30A     -0.602671  
      31A     -0.597183    32A     -0.547327    33A     -0.499710  
      34A     -0.461422    35A     -0.442048    36A     -0.431860  
      37A     -0.431045    38A     -0.410926    39A     -0.302028  

    Virtual:                                                              

      40A      0.020254    41A      0.027662    42A      0.042935  
      43A      0.052013    44A      0.061766    45A      0.072715  
      46A      0.082560    47A      0.091535    48A      0.094774  
      49A      0.103172    50A      0.114013    51A      0.118840  
      52A      0.122746    53A      0.124787    54A      0.132421  
      55A      0.138926    56A      0.142180    57A      0.147156  
      58A      0.153656    59A      0.157223    60A      0.162313  
      61A      0.168865    62A      0.173231    63A      0.176154  
      64A      0.182395    65A      0.190375    66A      0.198092  
      67A      0.208981    68A      0.211634    69A      0.215669  
      70A      0.219064    71A      0.221721    72A      0.234394  
      73A      0.243066    74A      0.248901    75A      0.257479  
      76A      0.262277    77A      0.263836    78A      0.271219  
      79A      0.273759    80A      0.280091    81A      0.283203  
      82A      0.300724    83A      0.310932    84A      0.311492  
      85A      0.313218    86A      0.323947    87A      0.327787  
      88A      0.334327    89A      0.341404    90A      0.349161  
      91A      0.362009    92A      0.363593    93A      0.371019  
      94A      0.372673    95A      0.384396    96A      0.396628  
      97A      0.398656    98A      0.407465    99A      0.411178  
     100A      0.418124   101A      0.424128   102A      0.431933  
     103A      0.439168   104A      0.439643   105A      0.449603  
     106A      0.454737   107A      0.465990   108A      0.467109  
     109A      0.471521   110A      0.479070   111A      0.497308  
     112A      0.502026   113A      0.510601   114A      0.517541  
     115A      0.532058   116A      0.544533   117A      0.551331  
     118A      0.556376   119A      0.568251   120A      0.578420  
     121A      0.585970   122A      0.591084   123A      0.599028  
     124A      0.604171   125A      0.613768   126A      0.621481  
     127A      0.635230   128A      0.639715   129A      0.643347  
     130A      0.651524   131A      0.655992   132A      0.659744  
     133A      0.671891   134A      0.681592   135A      0.684851  
     136A      0.694119   137A      0.700323   138A      0.704600  
     139A      0.708599   140A      0.719402   141A      0.724318  
     142A      0.738246   143A      0.743113   144A      0.759789  
     145A      0.765127   146A      0.775444   147A      0.792371  
     148A      0.804048   149A      0.811541   150A      0.824921  
     151A      0.829743   152A      0.840242   153A      0.843561  
     154A      0.852439   155A      0.854810   156A      0.869612  
     157A      0.879311   158A      0.885393   159A      0.886613  
     160A      0.896116   161A      0.906737   162A      0.913402  
     163A      0.934951   164A      0.938365   165A      0.947707  
     166A      0.955903   167A      0.966807   168A      0.986226  
     169A      0.988180   170A      1.005142   171A      1.008475  
     172A      1.013037   173A      1.041254   174A      1.050634  
     175A      1.069092   176A      1.071013   177A      1.078223  
     178A      1.080090   179A      1.097849   180A      1.110400  
     181A      1.114970   182A      1.137410   183A      1.145921  
     184A      1.151558   185A      1.165696   186A      1.184092  
     187A      1.195428   188A      1.198112   189A      1.210468  
     190A      1.224300   191A      1.241003   192A      1.252335  
     193A      1.287279   194A      1.290938   195A      1.298445  
     196A      1.309945   197A      1.314514   198A      1.333390  
     199A      1.344461   200A      1.356966   201A      1.376930  
     202A      1.379519   203A      1.419227   204A      1.427238  
     205A      1.441834   206A      1.445864   207A      1.455044  
     208A      1.471154   209A      1.513470   210A      1.517165  
     211A      1.543867   212A      1.552139   213A      1.572866  
     214A      1.584753   215A      1.596277   216A      1.607608  
     217A      1.627067   218A      1.642165   219A      1.653617  
     220A      1.655800   221A      1.680844   222A      1.686279  
     223A      1.701124   224A      1.717251   225A      1.745429  
     226A      1.755492   227A      1.765024   228A      1.775255  
     229A      1.781225   230A      1.796077   231A      1.825525  
     232A      1.832963   233A      1.853164   234A      1.860063  
     235A      1.898398   236A      1.907380   237A      1.929792  
     238A      1.938956   239A      1.948579   240A      1.964971  
     241A      1.985135   242A      2.016610   243A      2.036103  
     244A      2.040550   245A      2.050177   246A      2.068308  
     247A      2.099550   248A      2.118724   249A      2.130774  
     250A      2.153183   251A      2.170479   252A      2.174057  
     253A      2.220306   254A      2.222842   255A      2.263228  
     256A      2.270107   257A      2.286684   258A      2.318858  
     259A      2.324645   260A      2.328992   261A      2.343012  
     262A      2.367826   263A      2.379741   264A      2.384076  
     265A      2.409673   266A      2.423556   267A      2.436187  
     268A      2.446368   269A      2.476192   270A      2.495270  
     271A      2.526518   272A      2.551915   273A      2.560064  
     274A      2.568772   275A      2.600441   276A      2.609848  
     277A      2.614680   278A      2.620647   279A      2.655477  
     280A      2.668123   281A      2.685468   282A      2.686677  
     283A      2.716992   284A      2.746046   285A      2.760297  
     286A      2.772775   287A      2.791555   288A      2.797437  
     289A      2.800139   290A      2.815424   291A      2.831790  
     292A      2.841516   293A      2.879683   294A      2.887791  
     295A      2.922472   296A      2.945645   297A      2.958054  
     298A      2.975899   299A      3.014438   300A      3.042940  
     301A      3.061989   302A      3.111788   303A      3.125134  
     304A      3.132236   305A      3.188080   306A      3.243230  
     307A      3.248513   308A      3.292446   309A      3.307434  
     310A      3.324738   311A      3.385173   312A      3.418579  
     313A      3.438516   314A      3.552782   315A      3.582027  
     316A      3.616242   317A      3.673234   318A      3.746388  
     319A      3.806967   320A      3.818786   321A      3.844468  
     322A      3.873564   323A      3.900671   324A      3.979520  
     325A      4.043092   326A      4.116988   327A      4.223582  
     328A      4.231691   329A      4.359650   330A      4.442511  
     331A      4.969853   332A      5.105666   333A      5.141900  
     334A      5.406683   335A      5.689397   336A      5.831173  
     337A      6.920239   338A      7.271063   339A     33.657640  

    Final Occupation by Irrep:
              A 
    DOCC [    39 ]

  @DF-RHF Final Energy:  -539.47154123734754

   => Energetics <=

    Nuclear Repulsion Energy =            593.9199997215301892
    One-Electron Energy =               -1912.8163048345475090
    Two-Electron Energy =                 779.4247638756696688
    Total Energy =                       -539.4715412373475374

Computation Completed


Properties will be evaluated at   0.000000,   0.000000,   0.000000 [a0]

Properties computed using the SCF density matrix

  Nuclear Dipole Moment: [e a0]
     X:    65.2682      Y:    21.2466      Z:    -0.6861

  Electronic Dipole Moment: [e a0]
     X:   -62.8039      Y:   -19.9283      Z:     1.0845

  Dipole Moment: [e a0]
     X:     2.4644      Y:     1.3183      Z:     0.3983     Total:     2.8231

  Dipole Moment: [D]
     X:     6.2638      Y:     3.3508      Z:     1.0125     Total:     7.1755


*** tstop() called on bme-earth.bme.utexas.edu at Mon May 13 10:29:02 2024
Module time:
	user time   =      32.02 seconds =       0.53 minutes
	system time =       0.39 seconds =       0.01 minutes
	total time  =          5 seconds =       0.08 minutes
Total time:
	user time   =      84.75 seconds =       1.41 minutes
	system time =       1.11 seconds =       0.02 minutes
	total time  =         13 seconds =       0.22 minutes

*** tstart() called on bme-earth.bme.utexas.edu
*** at Mon May 13 10:29:02 2024


  //>>>>>>>>>>>>>>>>>>>>>>>>>>>>>>>>>>>//
  //               DFMP2               //
  //<<<<<<<<<<<<<<<<<<<<<<<<<<<<<<<<<<<//

   => Loading Basis Set <=

    Name: (AUG-CC-PVDZ AUX)
    Role: RIFIT
    Keyword: DF_BASIS_MP2
    atoms 1, 5, 9, 11-12     entry N          line   158 file /opt/anaconda/envs/psi4v1.5/share/psi4/basis/aug-cc-pvdz-ri.gbs 
    atoms 2, 4, 14-16, 18-19 entry H          line    30 file /opt/anaconda/envs/psi4v1.5/share/psi4/basis/aug-cc-pvdz-ri.gbs 
    atoms 3, 6-7, 10, 13     entry C          line   112 file /opt/anaconda/envs/psi4v1.5/share/psi4/basis/aug-cc-pvdz-ri.gbs 
    atoms 8, 17              entry O          line   204 file /opt/anaconda/envs/psi4v1.5/share/psi4/basis/aug-cc-pvdz-ri.gbs 

	 --------------------------------------------------------
	                          DF-MP2                         
	      2nd-Order Density-Fitted Moller-Plesset Theory     
	              RMP2 Wavefunction,   8 Threads             
	                                                         
	        Rob Parrish, Justin Turney, Andy Simmonett,      
	           Ed Hohenstein, and C. David Sherrill          
	 --------------------------------------------------------

   => Auxiliary Basis Set <=

  Basis Set: (AUG-CC-PVDZ AUX)
    Blend: AUG-CC-PVDZ-RI
    Number of shells: 327
    Number of basis functions: 1025
    Number of Cartesian functions: 1207
    Spherical Harmonics?: true
    Max angular momentum: 3

	 --------------------------------------------------------
	                 NBF =   339, NAUX =  1025
	 --------------------------------------------------------
	   CLASS    FOCC     OCC    AOCC    AVIR     VIR    FVIR
	   PAIRS      11      39      28     300     300       0
	 --------------------------------------------------------

	 Will attempt to load fitting metric from file 97.

	-----------------------------------------------------------
	 ==================> DF-MP2 Energies <==================== 
	-----------------------------------------------------------
	 Reference Energy          =    -539.4715412373475374 [Eh]
	 Singles Energy            =      -0.0000000000000000 [Eh]
	 Same-Spin Energy          =      -0.4762943897878119 [Eh]
	 Opposite-Spin Energy      =      -1.2295248925322513 [Eh]
	 Correlation Energy        =      -1.7058192823200633 [Eh]
	 Total Energy              =    -541.1773605196675589 [Eh]
	-----------------------------------------------------------
	 ================> DF-SCS-MP2 Energies <================== 
	-----------------------------------------------------------
	 SCS Same-Spin Scale       =       0.3333333333333333 [-]
	 SCS Opposite-Spin Scale   =       1.2000000000000000 [-]
	 SCS Same-Spin Energy      =      -0.1587647965959373 [Eh]
	 SCS Opposite-Spin Energy  =      -1.4754298710387015 [Eh]
	 SCS Correlation Energy    =      -1.6341946676346388 [Eh]
	 SCS Total Energy          =    -541.1057359049822253 [Eh]
	-----------------------------------------------------------


*** tstop() called on bme-earth.bme.utexas.edu at Mon May 13 10:29:03 2024
Module time:
	user time   =      10.02 seconds =       0.17 minutes
	system time =       0.16 seconds =       0.00 minutes
	total time  =          1 seconds =       0.02 minutes
Total time:
	user time   =      94.78 seconds =       1.58 minutes
	system time =       1.27 seconds =       0.02 minutes
	total time  =         14 seconds =       0.23 minutes

  //>>>>>>>>>>>>>>>>>>>>>>>>>>>>>>>>>>>//
  //            Monomer B HF           //
  //<<<<<<<<<<<<<<<<<<<<<<<<<<<<<<<<<<<//


*** tstart() called on bme-earth.bme.utexas.edu
*** at Mon May 13 10:29:03 2024

   => Loading Basis Set <=

    Name: AUG-CC-PVDZ
    Role: ORBITAL
    Keyword: BASIS
    atoms 1, 5, 9, 11-12     entry N          line   218 file /opt/anaconda/envs/psi4v1.5/share/psi4/basis/aug-cc-pvdz.gbs 
    atoms 2, 4, 14-16, 18-19 entry H          line    40 file /opt/anaconda/envs/psi4v1.5/share/psi4/basis/aug-cc-pvdz.gbs 
    atoms 3, 6-7, 10, 13     entry C          line   182 file /opt/anaconda/envs/psi4v1.5/share/psi4/basis/aug-cc-pvdz.gbs 
    atoms 8, 17              entry O          line   254 file /opt/anaconda/envs/psi4v1.5/share/psi4/basis/aug-cc-pvdz.gbs 


         ---------------------------------------------------------
                                   SCF
               by Justin Turney, Rob Parrish, Andy Simmonett
                          and Daniel G. A. Smith
                              RHF Reference
                        8 Threads,  47683 MiB Core
         ---------------------------------------------------------

  ==> Geometry <==

    Molecular point group: c1
    Full point group: C1

    Geometry (in Angstrom), charge = 0, multiplicity = 1:

       Center              X                  Y                   Z               Mass       
    ------------   -----------------  -----------------  -----------------  -----------------
      Gh(N)          -0.077327538250     2.380299099722     0.001448698455    14.003074004430
      Gh(H)           0.411772461750     3.268369099722     0.005298698455     1.007825032230
      Gh(C)          -1.434237538250     2.173899099722    -0.013481301545    12.000000000000
      Gh(H)          -2.142207538250     2.992199099722    -0.020061301545     1.007825032230
      Gh(N)          -1.753807538250     0.888869099722    -0.018991301545    14.003074004430
      Gh(C)          -0.538687538250     0.239929099722    -0.004741301545    12.000000000000
      Gh(C)          -0.245107538250    -1.169730900278    -0.023411301545    12.000000000000
      Gh(O)          -0.989897538250    -2.147350900278    -0.055741301545    15.994914619570
      Gh(N)           1.164902461750    -1.356620900278    -0.014351301545    14.003074004430
      Gh(C)           2.126562461750    -0.375580900278     0.018938698455    12.000000000000
      Gh(N)           3.437642461750    -0.810380900278    -0.046191301545    14.003074004430
      Gh(N)           1.861512461750     0.908709099722     0.035748698455    14.003074004430
      Gh(C)           0.519332461750     1.146909099722     0.002468698455    12.000000000000
      Gh(H)           1.446242461750    -2.329690900278    -0.113551301545     1.007825032230
      Gh(H)           3.657602461750    -1.629930900278     0.510058698455     1.007825032230
      Gh(H)           4.086602461750    -0.047620900278     0.118818698455     1.007825032230
         O           -3.492088663250    -1.143046087778     0.072526615121    15.994914619570
         H           -3.088388663250    -0.259096087778     0.039016615121     1.007825032230
         H           -2.705178663250    -1.710376087778     0.023096615121     1.007825032230

  Running in c1 symmetry.

  Rotational constants: A =      0.04764  B =      0.02682  C =      0.01718 [cm^-1]
  Rotational constants: A =   1428.14168  B =    804.18635  C =    514.99545 [MHz]
  Nuclear repulsion =    9.064578069446648

  Charge       = 0
  Multiplicity = 1
  Electrons    = 10
  Nalpha       = 5
  Nbeta        = 5

  ==> Algorithm <==

  SCF Algorithm Type is DF.
  DIIS enabled.
  MOM disabled.
  Fractional occupation disabled.
  Guess Type is SAD.
  Energy threshold   = 1.00e-08
  Density threshold  = 1.00e-08
  Integral threshold = 1.00e-12

  ==> Primary Basis <==

  Basis Set: AUG-CC-PVDZ
    Blend: AUG-CC-PVDZ
    Number of shells: 143
    Number of basis functions: 339
    Number of Cartesian functions: 363
    Spherical Harmonics?: true
    Max angular momentum: 2

   => Loading Basis Set <=

    Name: (AUG-CC-PVDZ AUX)
    Role: JKFIT
    Keyword: DF_BASIS_SCF
    atoms 1, 5, 9, 11-12     entry N          line   212 file /opt/anaconda/envs/psi4v1.5/share/psi4/basis/aug-cc-pvdz-jkfit.gbs 
    atoms 2, 4, 14-16, 18-19 entry H          line    70 file /opt/anaconda/envs/psi4v1.5/share/psi4/basis/aug-cc-pvdz-jkfit.gbs 
    atoms 3, 6-7, 10, 13     entry C          line   154 file /opt/anaconda/envs/psi4v1.5/share/psi4/basis/aug-cc-pvdz-jkfit.gbs 
    atoms 8, 17              entry O          line   270 file /opt/anaconda/envs/psi4v1.5/share/psi4/basis/aug-cc-pvdz-jkfit.gbs 

  ==> Integral Setup <==

  ==> DiskDFJK: Density-Fitted J/K Matrices <==

    J tasked:                  Yes
    K tasked:                  Yes
    wK tasked:                  No
    OpenMP threads:              8
    Integrals threads:           8
    Memory [MiB]:            35762
    Algorithm:                Core
    Integral Cache:           LOAD
    Schwarz Cutoff:          1E-12
    Fitting Condition:       1E-10

   => Auxiliary Basis Set <=

  Basis Set: (AUG-CC-PVDZ AUX)
    Blend: AUG-CC-PVDZ-JKFIT
    Number of shells: 420
    Number of basis functions: 1256
    Number of Cartesian functions: 1457
    Spherical Harmonics?: true
    Max angular momentum: 3

  Minimum eigenvalue in the overlap matrix is 4.7158527152E-06.
  Reciprocal condition number of the overlap matrix is 3.1268343575E-07.
    Using symmetric orthogonalization.

  ==> Pre-Iterations <==

  SCF Guess: Superposition of Atomic Densities via on-the-fly atomic UHF (no occupation information).

   -------------------------
    Irrep   Nso     Nmo    
   -------------------------
     A        339     339 
   -------------------------
    Total     339     339
   -------------------------

  ==> Iterations <==

                           Total Energy        Delta E     RMS |[F,P]|

   @DF-RHF iter SAD:   -75.45244572014514   -7.54524e+01   0.00000e+00 
   @DF-RHF iter   1:   -75.95512370597783   -5.02678e-01   1.33778e-03 DIIS
   @DF-RHF iter   2:   -76.00802983455600   -5.29061e-02   8.91372e-04 DIIS
   @DF-RHF iter   3:   -76.03991570774384   -3.18859e-02   6.32759e-05 DIIS
   @DF-RHF iter   4:   -76.04030568809203   -3.89980e-04   1.47457e-05 DIIS
   @DF-RHF iter   5:   -76.04032975863913   -2.40705e-05   3.40999e-06 DIIS
   @DF-RHF iter   6:   -76.04033173128599   -1.97265e-06   6.79039e-07 DIIS
   @DF-RHF iter   7:   -76.04033181203557   -8.07496e-08   1.08702e-07 DIIS
   @DF-RHF iter   8:   -76.04033181393396   -1.89839e-09   1.72245e-08 DIIS
   @DF-RHF iter   9:   -76.04033181397604   -4.20783e-11   4.43264e-09 DIIS
  Energy and wave function converged.


  ==> Post-Iterations <==

    Orbital Energies [Eh]
    ---------------------

    Doubly Occupied:                                                      

       1A    -20.581076     2A     -1.351488     3A     -0.704555  
       4A     -0.589332     5A     -0.508934  

    Virtual:                                                              

       6A      0.014405     7A      0.029543     8A      0.035674  
       9A      0.051779    10A      0.057736    11A      0.058821  
      12A      0.066151    13A      0.077698    14A      0.084309  
      15A      0.091080    16A      0.094520    17A      0.098272  
      18A      0.109196    19A      0.113281    20A      0.120170  
      21A      0.132323    22A      0.143058    23A      0.148523  
      24A      0.150392    25A      0.152375    26A      0.156935  
      27A      0.162688    28A      0.170463    29A      0.175376  
      30A      0.183188    31A      0.188834    32A      0.197331  
      33A      0.198621    34A      0.204343    35A      0.214078  
      36A      0.217944    37A      0.225661    38A      0.227262  
      39A      0.232336    40A      0.239933    41A      0.246703  
      42A      0.250844    43A      0.254876    44A      0.257416  
      45A      0.267573    46A      0.274334    47A      0.276393  
      48A      0.288070    49A      0.293654    50A      0.297019  
      51A      0.304657    52A      0.315131    53A      0.322629  
      54A      0.326792    55A      0.338279    56A      0.344115  
      57A      0.349813    58A      0.369232    59A      0.380288  
      60A      0.388119    61A      0.398944    62A      0.404116  
      63A      0.414334    64A      0.424564    65A      0.428758  
      66A      0.440157    67A      0.445078    68A      0.461925  
      69A      0.472783    70A      0.478268    71A      0.486596  
      72A      0.492592    73A      0.499631    74A      0.504693  
      75A      0.506037    76A      0.515644    77A      0.521603  
      78A      0.527752    79A      0.530057    80A      0.533967  
      81A      0.537890    82A      0.544971    83A      0.553482  
      84A      0.566807    85A      0.571262    86A      0.578298  
      87A      0.586128    88A      0.595370    89A      0.600104  
      90A      0.608091    91A      0.614718    92A      0.616715  
      93A      0.622965    94A      0.624432    95A      0.635780  
      96A      0.644398    97A      0.649821    98A      0.657327  
      99A      0.659921   100A      0.665699   101A      0.686968  
     102A      0.719258   103A      0.722354   104A      0.742897  
     105A      0.746265   106A      0.764242   107A      0.768587  
     108A      0.782574   109A      0.798018   110A      0.812102  
     111A      0.817017   112A      0.826373   113A      0.830892  
     114A      0.844045   115A      0.854487   116A      0.880737  
     117A      0.889072   118A      0.901697   119A      0.907994  
     120A      0.915768   121A      0.932023   122A      0.940855  
     123A      0.965107   124A      0.976185   125A      0.989355  
     126A      0.995371   127A      1.008060   128A      1.016018  
     129A      1.028412   130A      1.034617   131A      1.057053  
     132A      1.065923   133A      1.080484   134A      1.086310  
     135A      1.092429   136A      1.106500   137A      1.115450  
     138A      1.126226   139A      1.132363   140A      1.138237  
     141A      1.145588   142A      1.156586   143A      1.164622  
     144A      1.169134   145A      1.173964   146A      1.185050  
     147A      1.192610   148A      1.192967   149A      1.208377  
     150A      1.213395   151A      1.230534   152A      1.234762  
     153A      1.244109   154A      1.251490   155A      1.258224  
     156A      1.266609   157A      1.274726   158A      1.283831  
     159A      1.289013   160A      1.300058   161A      1.313005  
     162A      1.321512   163A      1.333409   164A      1.343445  
     165A      1.348021   166A      1.355173   167A      1.379423  
     168A      1.396942   169A      1.407355   170A      1.420553  
     171A      1.445875   172A      1.452915   173A      1.455597  
     174A      1.470341   175A      1.486644   176A      1.493973  
     177A      1.515797   178A      1.534090   179A      1.560617  
     180A      1.574210   181A      1.583061   182A      1.598972  
     183A      1.628398   184A      1.648971   185A      1.675454  
     186A      1.683254   187A      1.701190   188A      1.727080  
     189A      1.742628   190A      1.777917   191A      1.784441  
     192A      1.818081   193A      1.860141   194A      1.873350  
     195A      1.952832   196A      2.026677   197A      2.097926  
     198A      2.125161   199A      2.155613   200A      2.171770  
     201A      2.186919   202A      2.199674   203A      2.226206  
     204A      2.241696   205A      2.322208   206A      2.353203  
     207A      2.386595   208A      2.393314   209A      2.399657  
     210A      2.417812   211A      2.435223   212A      2.463481  
     213A      2.464482   214A      2.471674   215A      2.503642  
     216A      2.513560   217A      2.535732   218A      2.552924  
     219A      2.572889   220A      2.586852   221A      2.605027  
     222A      2.617102   223A      2.628894   224A      2.654805  
     225A      2.685928   226A      2.712937   227A      2.731434  
     228A      2.764826   229A      2.786130   230A      2.810972  
     231A      2.828471   232A      2.834359   233A      2.852419  
     234A      2.889178   235A      2.943762   236A      2.946456  
     237A      2.968175   238A      2.989678   239A      3.012114  
     240A      3.089691   241A      3.117170   242A      3.131384  
     243A      3.147778   244A      3.148832   245A      3.194310  
     246A      3.245113   247A      3.271622   248A      3.292474  
     249A      3.322597   250A      3.352765   251A      3.371424  
     252A      3.404115   253A      3.413882   254A      3.428152  
     255A      3.453584   256A      3.473879   257A      3.490793  
     258A      3.508239   259A      3.523279   260A      3.564366  
     261A      3.592589   262A      3.604668   263A      3.624444  
     264A      3.644567   265A      3.682485   266A      3.688172  
     267A      3.699902   268A      3.714464   269A      3.737276  
     270A      3.771678   271A      3.777217   272A      3.788680  
     273A      3.810086   274A      3.815968   275A      3.840410  
     276A      3.855116   277A      3.893742   278A      3.910795  
     279A      3.938389   280A      3.967751   281A      3.985132  
     282A      4.019478   283A      4.060087   284A      4.104429  
     285A      4.184056   286A      4.208680   287A      4.258668  
     288A      4.290668   289A      4.348204   290A      4.454303  
     291A      4.501940   292A      4.567069   293A      4.626864  
     294A      4.692975   295A      4.729649   296A      4.745334  
     297A      4.768090   298A      4.803282   299A      4.855484  
     300A      4.895030   301A      4.941579   302A      5.003145  
     303A      5.015883   304A      5.040538   305A      5.107688  
     306A      5.133884   307A      5.186729   308A      5.267089  
     309A      5.285640   310A      5.372706   311A      5.459691  
     312A      5.596629   313A      5.639339   314A      5.661638  
     315A      5.756325   316A      5.832022   317A      5.836762  
     318A      5.907117   319A      6.013988   320A      6.041185  
     321A      6.066637   322A      6.095893   323A      6.201801  
     324A      6.244481   325A      6.315883   326A      6.350514  
     327A      6.582175   328A      7.166010   329A     18.271872  
     330A     18.624869   331A     18.962219   332A     19.112500  
     333A     19.908572   334A     25.324573   335A     25.366746  
     336A     25.444996   337A     25.469208   338A     25.505195  
     339A     33.513714  

    Final Occupation by Irrep:
              A 
    DOCC [     5 ]

  @DF-RHF Final Energy:   -76.04033181397604

   => Energetics <=

    Nuclear Repulsion Energy =              9.0645780694466485
    One-Electron Energy =                -122.7390503911602622
    Two-Electron Energy =                  37.6341405077375697
    Total Energy =                        -76.0403318139760387

Computation Completed


Properties will be evaluated at   0.000000,   0.000000,   0.000000 [a0]

Properties computed using the SCF density matrix

  Nuclear Dipole Moment: [e a0]
     X:   -63.7410      Y:   -21.0021      Z:     1.2138

  Electronic Dipole Moment: [e a0]
     X:    64.5227      Y:    21.2099      Z:    -1.2682

  Dipole Moment: [e a0]
     X:     0.7817      Y:     0.2077      Z:    -0.0544     Total:     0.8107

  Dipole Moment: [D]
     X:     1.9869      Y:     0.5280      Z:    -0.1383     Total:     2.0605


*** tstop() called on bme-earth.bme.utexas.edu at Mon May 13 10:29:06 2024
Module time:
	user time   =      15.17 seconds =       0.25 minutes
	system time =       0.16 seconds =       0.00 minutes
	total time  =          3 seconds =       0.05 minutes
Total time:
	user time   =     109.97 seconds =       1.83 minutes
	system time =       1.43 seconds =       0.02 minutes
	total time  =         17 seconds =       0.28 minutes

*** tstart() called on bme-earth.bme.utexas.edu
*** at Mon May 13 10:29:06 2024


  //>>>>>>>>>>>>>>>>>>>>>>>>>>>>>>>>>>>//
  //               DFMP2               //
  //<<<<<<<<<<<<<<<<<<<<<<<<<<<<<<<<<<<//

   => Loading Basis Set <=

    Name: (AUG-CC-PVDZ AUX)
    Role: RIFIT
    Keyword: DF_BASIS_MP2
    atoms 1, 5, 9, 11-12     entry N          line   158 file /opt/anaconda/envs/psi4v1.5/share/psi4/basis/aug-cc-pvdz-ri.gbs 
    atoms 2, 4, 14-16, 18-19 entry H          line    30 file /opt/anaconda/envs/psi4v1.5/share/psi4/basis/aug-cc-pvdz-ri.gbs 
    atoms 3, 6-7, 10, 13     entry C          line   112 file /opt/anaconda/envs/psi4v1.5/share/psi4/basis/aug-cc-pvdz-ri.gbs 
    atoms 8, 17              entry O          line   204 file /opt/anaconda/envs/psi4v1.5/share/psi4/basis/aug-cc-pvdz-ri.gbs 

	 --------------------------------------------------------
	                          DF-MP2                         
	      2nd-Order Density-Fitted Moller-Plesset Theory     
	              RMP2 Wavefunction,   8 Threads             
	                                                         
	        Rob Parrish, Justin Turney, Andy Simmonett,      
	           Ed Hohenstein, and C. David Sherrill          
	 --------------------------------------------------------

   => Auxiliary Basis Set <=

  Basis Set: (AUG-CC-PVDZ AUX)
    Blend: AUG-CC-PVDZ-RI
    Number of shells: 327
    Number of basis functions: 1025
    Number of Cartesian functions: 1207
    Spherical Harmonics?: true
    Max angular momentum: 3

	 --------------------------------------------------------
	                 NBF =   339, NAUX =  1025
	 --------------------------------------------------------
	   CLASS    FOCC     OCC    AOCC    AVIR     VIR    FVIR
	   PAIRS       1       5       4     334     334       0
	 --------------------------------------------------------

	 Will attempt to load fitting metric from file 97.

	-----------------------------------------------------------
	 ==================> DF-MP2 Energies <==================== 
	-----------------------------------------------------------
	 Reference Energy          =     -76.0403318139760387 [Eh]
	 Singles Energy            =      -0.0000000000000000 [Eh]
	 Same-Spin Energy          =      -0.0564336767081905 [Eh]
	 Opposite-Spin Energy      =      -0.1656241530272217 [Eh]
	 Correlation Energy        =      -0.2220578297354123 [Eh]
	 Total Energy              =     -76.2623896437114439 [Eh]
	-----------------------------------------------------------
	 ================> DF-SCS-MP2 Energies <================== 
	-----------------------------------------------------------
	 SCS Same-Spin Scale       =       0.3333333333333333 [-]
	 SCS Opposite-Spin Scale   =       1.2000000000000000 [-]
	 SCS Same-Spin Energy      =      -0.0188112255693968 [Eh]
	 SCS Opposite-Spin Energy  =      -0.1987489836326660 [Eh]
	 SCS Correlation Energy    =      -0.2175602092020629 [Eh]
	 SCS Total Energy          =     -76.2578920231781012 [Eh]
	-----------------------------------------------------------


*** tstop() called on bme-earth.bme.utexas.edu at Mon May 13 10:29:07 2024
Module time:
	user time   =       6.71 seconds =       0.11 minutes
	system time =       0.09 seconds =       0.00 minutes
	total time  =          1 seconds =       0.02 minutes
Total time:
	user time   =     116.69 seconds =       1.94 minutes
	system time =       1.52 seconds =       0.03 minutes
	total time  =         18 seconds =       0.30 minutes
  Constructing Basis Sets for SAPT...

   => Loading Basis Set <=

    Name: (AUG-CC-PVDZ AUX)
    Role: RIFIT
    Keyword: DF_BASIS_SAPT
    atoms 1, 5, 9, 11-12     entry N          line   158 file /opt/anaconda/envs/psi4v1.5/share/psi4/basis/aug-cc-pvdz-ri.gbs 
    atoms 2, 4, 14-16, 18-19 entry H          line    30 file /opt/anaconda/envs/psi4v1.5/share/psi4/basis/aug-cc-pvdz-ri.gbs 
    atoms 3, 6-7, 10, 13     entry C          line   112 file /opt/anaconda/envs/psi4v1.5/share/psi4/basis/aug-cc-pvdz-ri.gbs 
    atoms 8, 17              entry O          line   204 file /opt/anaconda/envs/psi4v1.5/share/psi4/basis/aug-cc-pvdz-ri.gbs 


  //>>>>>>>>>>>>>>>>>>>>>>>>>>>>>>>>>>>//
  //           SAPT2+(3)DMP2           //
  //<<<<<<<<<<<<<<<<<<<<<<<<<<<<<<<<<<<//


*** tstart() called on bme-earth.bme.utexas.edu
*** at Mon May 13 10:29:07 2024

      SAPT2+(3)  
    Ed Hohenstein
     6 June 2009

      Orbital Information
  --------------------------
    NSO        =       339
    NMO        =       339
    NRI        =      1025
    NOCC A     =        39
    NOCC B     =         5
    FOCC A     =        11
    FOCC B     =         1
    NVIR A     =       300
    NVIR B     =       334

    Estimated memory usage: 4987.0 MB

    Natural Orbital Cutoff:   1.000E-06
    Disp(T3) Truncation:            Yes
    CCD (vv|vv) Truncation:         Yes
    MBPT T2 Truncation:             Yes

    Monomer A: 41 virtual orbitals dropped
    Monomer B: 290 virtual orbitals dropped

    Elst10,r            =    -0.041680264688 [Eh]
    Exch10 (S^2)        =     0.055881754427 [Eh]
    Exch10              =     0.056657538505 [Eh]
    Ind20,r (A<-B)      =    -0.014956635322 [Eh]
    Ind20,r (B<-A)      =    -0.008846592496 [Eh]
    Ind20,r             =    -0.023803227817 [Eh]
    Exch-Ind20,r (A<-B) =     0.008248746918 [Eh]
    Exch-Ind20,r (B<-A) =     0.007512394720 [Eh]
    Exch-Ind20,r        =     0.015761141638 [Eh]
    Disp20              =    -0.016170600912 [Eh]
    Disp20 (NO)         =    -0.014785643782 [Eh]
    Exch-Disp20         =     0.003535863471 [Eh]
    Elst12,r            =    -0.001009116154 [Eh]
    Exch11              =     0.000090500713 [Eh]
    Exch12              =     0.008881597373 [Eh]
    Ind22               =    -0.004848629470 [Eh]
    Disp21              =     0.002028172305 [Eh]
    Disp22 (SDQ)        =    -0.001235141306 [Eh]

    (i =   1 of   4)         31 seconds
    (i =   2 of   4)         63 seconds
    (i =   3 of   4)         94 seconds
    (i =   4 of   4)        126 seconds

    Disp220 (T)         =    -0.001394246824 [Eh]

    (i =   1 of  28)          0 seconds
    (i =   2 of  28)          0 seconds
    (i =   3 of  28)          0 seconds
    (i =   4 of  28)          1 seconds
    (i =   5 of  28)          1 seconds
    (i =   6 of  28)          1 seconds
    (i =   7 of  28)          1 seconds
    (i =   8 of  28)          1 seconds
    (i =   9 of  28)          2 seconds
    (i =  10 of  28)          2 seconds
    (i =  11 of  28)          2 seconds
    (i =  12 of  28)          2 seconds
    (i =  13 of  28)          2 seconds
    (i =  14 of  28)          3 seconds
    (i =  15 of  28)          3 seconds
    (i =  16 of  28)          3 seconds
    (i =  17 of  28)          3 seconds
    (i =  18 of  28)          3 seconds
    (i =  19 of  28)          4 seconds
    (i =  20 of  28)          4 seconds
    (i =  21 of  28)          4 seconds
    (i =  22 of  28)          4 seconds
    (i =  23 of  28)          4 seconds
    (i =  24 of  28)          5 seconds
    (i =  25 of  28)          5 seconds
    (i =  26 of  28)          5 seconds
    (i =  27 of  28)          5 seconds
    (i =  28 of  28)          5 seconds

    Disp202 (T)         =    -0.001253664899 [Eh]

    Disp22 (T)          =    -0.002647911723 [Eh]

    Est. Disp220 (T)    =    -0.001524844592 [Eh]
    Est. Disp202 (T)    =    -0.001371094493 [Eh]

    Est. Disp22 (T)     =    -0.002895939085 [Eh]
    Elst13,r            =     0.000794593896 [Eh]
    Disp30              =     0.000289702268 [Eh]

    SAPT Results 
  --------------------------------------------------------------------------------------------------------
    Electrostatics                -41.89478695 [mEh]     -26.28937571 [kcal/mol]    -109.99474797 [kJ/mol]
      Elst10,r                    -41.68026469 [mEh]     -26.15476096 [kcal/mol]    -109.43151986 [kJ/mol]
      Elst12,r                     -1.00911615 [mEh]      -0.63322995 [kcal/mol]      -2.64943410 [kJ/mol]
      Elst13,r                      0.79459390 [mEh]       0.49861520 [kcal/mol]       2.08620599 [kJ/mol]

    Exchange                       65.62963659 [mEh]      41.18321872 [kcal/mol]     172.31058713 [kJ/mol]
      Exch10                       56.65753850 [mEh]      35.55314217 [kcal/mol]     148.75434685 [kJ/mol]
      Exch10(S^2)                  55.88175443 [mEh]      35.06633031 [kcal/mol]     146.71752604 [kJ/mol]
      Exch11(S^2)                   0.09050071 [mEh]       0.05679005 [kcal/mol]       0.23760959 [kJ/mol]
      Exch12(S^2)                   8.88159737 [mEh]       5.57328649 [kcal/mol]      23.31863069 [kJ/mol]

    Induction                     -14.93219189 [mEh]      -9.37009188 [kcal/mol]     -39.20446442 [kJ/mol]
      Ind20,r                     -23.80322782 [mEh]     -14.93675096 [kcal/mol]     -62.49536602 [kJ/mol]
      Ind22                        -4.84862947 [mEh]      -3.04256093 [kcal/mol]     -12.73007492 [kJ/mol]
      Exch-Ind20,r                 15.76114164 [mEh]       9.89026570 [kcal/mol]      41.38087167 [kJ/mol]
      Exch-Ind22                    3.21048626 [mEh]       2.01461054 [kcal/mol]       8.42913051 [kJ/mol]
      delta HF,r (2)               -5.59893025 [mEh]      -3.51338178 [kcal/mol]     -14.69998935 [kJ/mol]
      delta MP2,r (2)               0.34696775 [mEh]       0.21772555 [kcal/mol]       0.91096370 [kJ/mol]

    Dispersion                    -14.44794326 [mEh]      -9.06622127 [kcal/mol]     -37.93306980 [kJ/mol]
      Disp20                      -16.17060091 [mEh]     -10.14720527 [kcal/mol]     -42.45590685 [kJ/mol]
      Disp30                        0.28970227 [mEh]       0.18179092 [kcal/mol]       0.76061320 [kJ/mol]
      Disp21                        2.02817231 [mEh]       1.27269734 [kcal/mol]       5.32496565 [kJ/mol]
      Disp22 (SDQ)                 -1.23514131 [mEh]      -0.77506287 [kcal/mol]      -3.24286305 [kJ/mol]
      Disp22 (T)                   -2.64791172 [mEh]      -1.66158969 [kcal/mol]      -6.95209127 [kJ/mol]
      Est. Disp22 (T)              -2.89593909 [mEh]      -1.81722921 [kcal/mol]      -7.60328702 [kJ/mol]
      Exch-Disp20                   3.53586347 [mEh]       2.21878783 [kcal/mol]       9.28340826 [kJ/mol]

  Total HF                          1.33625739 [mEh]       0.83851417 [kcal/mol]       3.50834328 [kJ/mol]
  Total SAPT0                     -11.29848006 [mEh]      -7.08990327 [kcal/mol]     -29.66415530 [kJ/mol]
  Total SAPT2                      -4.97364133 [mEh]      -3.12100706 [kcal/mol]     -13.05829352 [kJ/mol]
  Total SAPT2+                     -7.07654942 [mEh]      -4.44060180 [kcal/mol]     -18.57947794 [kJ/mol]
  Total SAPT2+(3)                  -5.99225326 [mEh]      -3.76019569 [kcal/mol]     -15.73265876 [kJ/mol]
  Total SAPT2+dMP2                 -6.72958167 [mEh]      -4.22287625 [kcal/mol]     -17.66851424 [kJ/mol]
  Total SAPT2+(3)dMP2              -5.64528551 [mEh]      -3.54247014 [kcal/mol]     -14.82169506 [kJ/mol]

  Special recipe for scaled SAPT0 (see Manual):
    Electrostatics sSAPT0         -41.68026469 [mEh]     -26.15476096 [kcal/mol]    -109.43151986 [kJ/mol]
    Exchange sSAPT0                56.65753850 [mEh]      35.55314217 [kcal/mol]     148.75434685 [kJ/mol]
    Induction sSAPT0              -12.97544458 [mEh]      -8.14221440 [kcal/mol]     -34.06702506 [kJ/mol]
    Dispersion sSAPT0             -12.48542267 [mEh]      -7.83472101 [kcal/mol]     -32.78047272 [kJ/mol]
  Total sSAPT0                    -10.48359344 [mEh]      -6.57855420 [kcal/mol]     -27.52467079 [kJ/mol]
  --------------------------------------------------------------------------------------------------------

*** tstop() called on bme-earth.bme.utexas.edu at Mon May 13 10:34:40 2024
Module time:
	user time   =    2602.96 seconds =      43.38 minutes
	system time =      19.93 seconds =       0.33 minutes
	total time  =        333 seconds =       5.55 minutes
Total time:
	user time   =    2720.16 seconds =      45.34 minutes
	system time =      21.46 seconds =       0.36 minutes
	total time  =        351 seconds =       5.85 minutes

    Psi4 stopped on: Monday, 13 May 2024 10:34AM
    Psi4 wall time for execution: 0:05:50.66

*** Psi4 exiting successfully. Buy a developer a beer!
