
    -----------------------------------------------------------------------
          Psi4: An Open-Source Ab Initio Electronic Structure Package
                               Psi4 1.5 release

                         Git: Rev {HEAD} e9f4d6d 


    D. G. A. Smith, L. A. Burns, A. C. Simmonett, R. M. Parrish,
    M. C. Schieber, R. Galvelis, P. Kraus, H. Kruse, R. Di Remigio,
    A. Alenaizan, A. M. James, S. Lehtola, J. P. Misiewicz, M. Scheurer,
    R. A. Shaw, J. B. Schriber, Y. Xie, Z. L. Glick, D. A. Sirianni,
    J. S. O'Brien, J. M. Waldrop, A. Kumar, E. G. Hohenstein,
    B. P. Pritchard, B. R. Brooks, H. F. Schaefer III, A. Yu. Sokolov,
    K. Patkowski, A. E. DePrince III, U. Bozkaya, R. A. King,
    F. A. Evangelista, J. M. Turney, T. D. Crawford, C. D. Sherrill,
    J. Chem. Phys. 152(18) 184108 (2020). https://doi.org/10.1063/5.0006002

                            Additional Code Authors
    E. T. Seidl, C. L. Janssen, E. F. Valeev, M. L. Leininger,
    J. F. Gonthier, R. M. Richard, H. R. McAlexander, M. Saitow, X. Wang,
    P. Verma, M. H. Lechner, and A. Jiang

             Previous Authors, Complete List of Code Contributors,
                       and Citations for Specific Modules
    https://github.com/psi4/psi4/blob/master/codemeta.json
    https://github.com/psi4/psi4/graphs/contributors
    http://psicode.org/psi4manual/master/introduction.html#citing-psifour

    -----------------------------------------------------------------------


    Psi4 started on: Monday, 13 May 2024 10:26AM

    Process ID: 2961414
    Host:       node150.bme.utexas.edu
    PSIDATADIR: /opt/anaconda/envs/psi4v1.5/share/psi4
    Memory:     500.0 MiB
    Threads:    8
    
  ==> Input File <==

--------------------------------------------------------------------------
memory 50GB

molecule {
0 1
N -0.85368 -2.09481 0.08509
H -0.31837 -2.95091 0.1715
C -2.22205 -1.969 0.013
H -2.87621 -2.83122 0.01776
N -2.61932 -0.7095 -0.06209
C -1.44407 0.0092 -0.03449
C -1.24024 1.43551 -0.06099
O -2.03937 2.36125 -0.12082
N 0.16263 1.70934 0.01098
C 1.18916 0.80169 0.08466
N 2.45589 1.30727 0.21549
N 0.99231 -0.50374 0.10169
C -0.3344 -0.82673 0.06277
H 0.37294 2.70253 0.07805
H 2.64412 2.19335 -0.23666
H 3.18882 0.60208 0.10583
--
0 1
O 4.844621500000001 -1.7382598125000002 -0.2467016875
H 3.8766515 -1.8302398125000001 -0.1063416875
H 4.9735914999999995 -1.9793598125 -1.1773716875
 units angstrom
 no_reorient
 symmetry c1} 
set  {scf_type DF
 basis aug-cc-pvdz
 freeze_core True
 guess SAD}
energy('sapt2+(3)dmp2')
--------------------------------------------------------------------------

  Memory set to  46.566 GiB by Python driver.

Scratch directory: /tmp/
   => Loading Basis Set <=

    Name: AUG-CC-PVDZ
    Role: ORBITAL
    Keyword: BASIS
    atoms 1, 5, 9, 11-12     entry N          line   218 file /opt/anaconda/envs/psi4v1.5/share/psi4/basis/aug-cc-pvdz.gbs 
    atoms 2, 4, 14-16, 18-19 entry H          line    40 file /opt/anaconda/envs/psi4v1.5/share/psi4/basis/aug-cc-pvdz.gbs 
    atoms 3, 6-7, 10, 13     entry C          line   182 file /opt/anaconda/envs/psi4v1.5/share/psi4/basis/aug-cc-pvdz.gbs 
    atoms 8, 17              entry O          line   254 file /opt/anaconda/envs/psi4v1.5/share/psi4/basis/aug-cc-pvdz.gbs 

   => Loading Basis Set <=

    Name: AUG-CC-PVDZ
    Role: ORBITAL
    Keyword: BASIS
    atoms 1, 5, 9, 11-12     entry N          line   218 file /opt/anaconda/envs/psi4v1.5/share/psi4/basis/aug-cc-pvdz.gbs 
    atoms 2, 4, 14-16, 18-19 entry H          line    40 file /opt/anaconda/envs/psi4v1.5/share/psi4/basis/aug-cc-pvdz.gbs 
    atoms 3, 6-7, 10, 13     entry C          line   182 file /opt/anaconda/envs/psi4v1.5/share/psi4/basis/aug-cc-pvdz.gbs 
    atoms 8, 17              entry O          line   254 file /opt/anaconda/envs/psi4v1.5/share/psi4/basis/aug-cc-pvdz.gbs 


  //>>>>>>>>>>>>>>>>>>>>>>>>>>>>>>>>>>>//
  //              Dimer HF             //
  //<<<<<<<<<<<<<<<<<<<<<<<<<<<<<<<<<<<//


*** tstart() called on node150.bme.utexas.edu
*** at Mon May 13 10:26:27 2024

   => Loading Basis Set <=

    Name: AUG-CC-PVDZ
    Role: ORBITAL
    Keyword: BASIS
    atoms 1, 5, 9, 11-12     entry N          line   218 file /opt/anaconda/envs/psi4v1.5/share/psi4/basis/aug-cc-pvdz.gbs 
    atoms 2, 4, 14-16, 18-19 entry H          line    40 file /opt/anaconda/envs/psi4v1.5/share/psi4/basis/aug-cc-pvdz.gbs 
    atoms 3, 6-7, 10, 13     entry C          line   182 file /opt/anaconda/envs/psi4v1.5/share/psi4/basis/aug-cc-pvdz.gbs 
    atoms 8, 17              entry O          line   254 file /opt/anaconda/envs/psi4v1.5/share/psi4/basis/aug-cc-pvdz.gbs 


         ---------------------------------------------------------
                                   SCF
               by Justin Turney, Rob Parrish, Andy Simmonett
                          and Daniel G. A. Smith
                              RHF Reference
                        8 Threads,  47683 MiB Core
         ---------------------------------------------------------

  ==> Geometry <==

    Molecular point group: c1
    Full point group: C1

    Geometry (in Angstrom), charge = 0, multiplicity = 1:

       Center              X                  Y                   Z               Mass       
    ------------   -----------------  -----------------  -----------------  -----------------
         N           -0.913628914023    -2.066215741963     0.093004168106    14.003074004430
         H           -0.378318914023    -2.922315741963     0.179414168106     1.007825032230
         C           -2.281998914023    -1.940405741963     0.020914168106    12.000000000000
         H           -2.936158914023    -2.802625741963     0.025674168106     1.007825032230
         N           -2.679268914023    -0.680905741963    -0.054175831894    14.003074004430
         C           -1.504018914023     0.037794258037    -0.026575831894    12.000000000000
         C           -1.300188914023     1.464104258037    -0.053075831894    12.000000000000
         O           -2.099318914023     2.389844258037    -0.112905831894    15.994914619570
         N            0.102681085977     1.737934258037     0.018894168106    14.003074004430
         C            1.129211085977     0.830284258037     0.092574168106    12.000000000000
         N            2.395941085977     1.335864258037     0.223404168106    14.003074004430
         N            0.932361085977    -0.475145741963     0.109604168106    14.003074004430
         C           -0.394348914023    -0.798135741963     0.070684168106    12.000000000000
         H            0.312991085977     2.731124258037     0.085964168106     1.007825032230
         H            2.584171085977     2.221944258037    -0.228745831894     1.007825032230
         H            3.128871085977     0.630674258037     0.113744168106     1.007825032230
         O            4.784672585977    -1.709665554463    -0.238787519394    15.994914619570
         H            3.816702585977    -1.801645554463    -0.098427519394     1.007825032230
         H            4.913642585977    -1.950765554463    -1.169457519394     1.007825032230

  Running in c1 symmetry.

  Rotational constants: A =      0.04319  B =      0.01986  C =      0.01369 [cm^-1]
  Rotational constants: A =   1294.69891  B =    595.53033  C =    410.36272 [MHz]
  Nuclear repulsion =  677.630305210495862

  Charge       = 0
  Multiplicity = 1
  Electrons    = 88
  Nalpha       = 44
  Nbeta        = 44

  ==> Algorithm <==

  SCF Algorithm Type is DF.
  DIIS enabled.
  MOM disabled.
  Fractional occupation disabled.
  Guess Type is SAD.
  Energy threshold   = 1.00e-08
  Density threshold  = 1.00e-08
  Integral threshold = 1.00e-12

  ==> Primary Basis <==

  Basis Set: AUG-CC-PVDZ
    Blend: AUG-CC-PVDZ
    Number of shells: 143
    Number of basis functions: 339
    Number of Cartesian functions: 363
    Spherical Harmonics?: true
    Max angular momentum: 2

   => Loading Basis Set <=

    Name: (AUG-CC-PVDZ AUX)
    Role: JKFIT
    Keyword: DF_BASIS_SCF
    atoms 1, 5, 9, 11-12     entry N          line   212 file /opt/anaconda/envs/psi4v1.5/share/psi4/basis/aug-cc-pvdz-jkfit.gbs 
    atoms 2, 4, 14-16, 18-19 entry H          line    70 file /opt/anaconda/envs/psi4v1.5/share/psi4/basis/aug-cc-pvdz-jkfit.gbs 
    atoms 3, 6-7, 10, 13     entry C          line   154 file /opt/anaconda/envs/psi4v1.5/share/psi4/basis/aug-cc-pvdz-jkfit.gbs 
    atoms 8, 17              entry O          line   270 file /opt/anaconda/envs/psi4v1.5/share/psi4/basis/aug-cc-pvdz-jkfit.gbs 

  ==> Integral Setup <==

  ==> DiskDFJK: Density-Fitted J/K Matrices <==

    J tasked:                  Yes
    K tasked:                  Yes
    wK tasked:                  No
    OpenMP threads:              8
    Integrals threads:           8
    Memory [MiB]:            35762
    Algorithm:                Core
    Integral Cache:           SAVE
    Schwarz Cutoff:          1E-12
    Fitting Condition:       1E-10

   => Auxiliary Basis Set <=

  Basis Set: (AUG-CC-PVDZ AUX)
    Blend: AUG-CC-PVDZ-JKFIT
    Number of shells: 420
    Number of basis functions: 1256
    Number of Cartesian functions: 1457
    Spherical Harmonics?: true
    Max angular momentum: 3

  Minimum eigenvalue in the overlap matrix is 5.5949906392E-06.
  Reciprocal condition number of the overlap matrix is 3.8255255055E-07.
    Using symmetric orthogonalization.

  ==> Pre-Iterations <==

  SCF Guess: Superposition of Atomic Densities via on-the-fly atomic UHF (no occupation information).

   -------------------------
    Irrep   Nso     Nmo    
   -------------------------
     A        339     339 
   -------------------------
    Total     339     339
   -------------------------

  ==> Iterations <==

                           Total Energy        Delta E     RMS |[F,P]|

   @DF-RHF iter SAD:  -614.67524151451983   -6.14675e+02   0.00000e+00 
   @DF-RHF iter   1:  -615.12774712851535   -4.52506e-01   2.61328e-03 DIIS
   @DF-RHF iter   2:  -615.40109650067484   -2.73349e-01   1.56876e-03 DIIS
   @DF-RHF iter   3:  -615.50789656940947   -1.06800e-01   2.77984e-04 DIIS
   @DF-RHF iter   4:  -615.51302333480885   -5.12677e-03   1.23457e-04 DIIS
   @DF-RHF iter   5:  -615.51405161091100   -1.02828e-03   2.82735e-05 DIIS
   @DF-RHF iter   6:  -615.51415819491717   -1.06584e-04   1.39697e-05 DIIS
   @DF-RHF iter   7:  -615.51418932796867   -3.11331e-05   5.13637e-06 DIIS
   @DF-RHF iter   8:  -615.51419443658176   -5.10861e-06   1.84090e-06 DIIS
   @DF-RHF iter   9:  -615.51419500441330   -5.67832e-07   7.67210e-07 DIIS
   @DF-RHF iter  10:  -615.51419510321546   -9.88022e-08   2.97223e-07 DIIS
   @DF-RHF iter  11:  -615.51419511789720   -1.46817e-08   1.17092e-07 DIIS
   @DF-RHF iter  12:  -615.51419511996983   -2.07262e-09   3.66642e-08 DIIS
   @DF-RHF iter  13:  -615.51419512019936   -2.29534e-10   1.85095e-08 DIIS
   @DF-RHF iter  14:  -615.51419512023983   -4.04725e-11   6.14502e-09 DIIS
  Energy and wave function converged.


  ==> Post-Iterations <==

    Orbital Energies [Eh]
    ---------------------

    Doubly Occupied:                                                      

       1A    -20.593553     2A    -20.537606     3A    -15.645317  
       4A    -15.640905     5A    -15.624714     6A    -15.583316  
       7A    -15.575570     8A    -11.410767     9A    -11.378402  
      10A    -11.336046    11A    -11.322556    12A    -11.257683  
      13A     -1.400246    14A     -1.366974    15A     -1.360604  
      16A     -1.342496    17A     -1.227133    18A     -1.221924  
      19A     -1.182743    20A     -1.036310    21A     -0.911393  
      22A     -0.891249    23A     -0.848542    24A     -0.804958  
      25A     -0.744113    26A     -0.738464    27A     -0.721793  
      28A     -0.705645    29A     -0.677042    30A     -0.659423  
      31A     -0.637459    32A     -0.618273    33A     -0.604011  
      34A     -0.600638    35A     -0.596004    36A     -0.551185  
      37A     -0.521860    38A     -0.501568    39A     -0.460382  
      40A     -0.445247    41A     -0.434785    42A     -0.434032  
      43A     -0.413175    44A     -0.302815  

    Virtual:                                                              

      45A      0.018942    46A      0.026136    47A      0.036893  
      48A      0.049417    49A      0.060811    50A      0.066651  
      51A      0.079400    52A      0.083360    53A      0.092986  
      54A      0.103436    55A      0.105241    56A      0.116993  
      57A      0.122374    58A      0.123996    59A      0.129730  
      60A      0.134575    61A      0.138354    62A      0.139171  
      63A      0.148335    64A      0.152558    65A      0.158687  
      66A      0.166498    67A      0.168204    68A      0.179027  
      69A      0.179514    70A      0.181023    71A      0.191589  
      72A      0.193221    73A      0.209155    74A      0.211056  
      75A      0.217983    76A      0.220297    77A      0.223480  
      78A      0.229405    79A      0.234530    80A      0.246449  
      81A      0.258815    82A      0.261707    83A      0.263205  
      84A      0.268480    85A      0.275018    86A      0.281532  
      87A      0.285433    88A      0.291704    89A      0.301367  
      90A      0.302621    91A      0.311293    92A      0.323177  
      93A      0.327495    94A      0.329677    95A      0.334807  
      96A      0.338445    97A      0.354370    98A      0.357204  
      99A      0.370113   100A      0.374038   101A      0.377385  
     102A      0.383759   103A      0.384051   104A      0.390294  
     105A      0.399279   106A      0.403781   107A      0.412982  
     108A      0.418914   109A      0.424480   110A      0.426452  
     111A      0.430839   112A      0.436444   113A      0.446821  
     114A      0.453918   115A      0.455083   116A      0.462032  
     117A      0.468601   118A      0.477411   119A      0.483346  
     120A      0.498932   121A      0.512999   122A      0.517479  
     123A      0.529733   124A      0.539543   125A      0.548825  
     126A      0.556351   127A      0.560505   128A      0.569370  
     129A      0.580217   130A      0.587139   131A      0.602913  
     132A      0.608647   133A      0.618590   134A      0.619264  
     135A      0.626092   136A      0.631933   137A      0.641903  
     138A      0.650492   139A      0.660137   140A      0.665768  
     141A      0.674449   142A      0.680027   143A      0.684174  
     144A      0.695537   145A      0.699083   146A      0.710073  
     147A      0.717410   148A      0.724748   149A      0.734300  
     150A      0.736338   151A      0.760494   152A      0.771901  
     153A      0.778732   154A      0.784869   155A      0.787674  
     156A      0.799657   157A      0.809211   158A      0.821103  
     159A      0.834355   160A      0.851538   161A      0.852493  
     162A      0.853509   163A      0.861787   164A      0.867983  
     165A      0.883613   166A      0.893597   167A      0.896200  
     168A      0.903312   169A      0.917707   170A      0.926997  
     171A      0.929453   172A      0.936808   173A      0.945145  
     174A      0.964882   175A      0.987440   176A      0.992231  
     177A      0.997079   178A      1.007540   179A      1.014298  
     180A      1.029048   181A      1.043365   182A      1.053910  
     183A      1.067669   184A      1.070609   185A      1.083537  
     186A      1.093819   187A      1.100658   188A      1.110642  
     189A      1.121633   190A      1.127818   191A      1.137800  
     192A      1.145914   193A      1.152582   194A      1.168885  
     195A      1.178132   196A      1.195524   197A      1.200751  
     198A      1.208450   199A      1.222124   200A      1.242457  
     201A      1.255705   202A      1.269299   203A      1.285362  
     204A      1.300735   205A      1.305271   206A      1.322253  
     207A      1.340760   208A      1.357623   209A      1.378771  
     210A      1.397214   211A      1.405108   212A      1.410226  
     213A      1.445984   214A      1.481864   215A      1.500612  
     216A      1.517321   217A      1.522287   218A      1.528661  
     219A      1.536410   220A      1.563699   221A      1.573720  
     222A      1.588950   223A      1.596390   224A      1.611989  
     225A      1.639036   226A      1.650018   227A      1.662183  
     228A      1.674588   229A      1.683616   230A      1.696360  
     231A      1.738608   232A      1.743285   233A      1.748016  
     234A      1.767733   235A      1.784199   236A      1.795556  
     237A      1.827293   238A      1.836993   239A      1.852486  
     240A      1.870885   241A      1.895568   242A      1.900319  
     243A      1.917811   244A      1.944164   245A      1.958875  
     246A      1.984339   247A      1.999041   248A      2.007325  
     249A      2.026792   250A      2.034354   251A      2.038893  
     252A      2.055959   253A      2.059021   254A      2.098628  
     255A      2.106406   256A      2.114561   257A      2.121336  
     258A      2.138791   259A      2.172108   260A      2.182121  
     261A      2.204785   262A      2.212336   263A      2.244380  
     264A      2.262130   265A      2.291063   266A      2.303978  
     267A      2.315320   268A      2.320925   269A      2.343402  
     270A      2.359416   271A      2.368235   272A      2.370260  
     273A      2.389661   274A      2.395504   275A      2.404955  
     276A      2.428247   277A      2.458167   278A      2.474612  
     279A      2.504576   280A      2.511005   281A      2.522895  
     282A      2.550966   283A      2.553512   284A      2.591405  
     285A      2.621697   286A      2.624542   287A      2.650278  
     288A      2.669015   289A      2.677958   290A      2.693532  
     291A      2.707029   292A      2.724732   293A      2.731758  
     294A      2.757022   295A      2.779444   296A      2.783304  
     297A      2.793623   298A      2.815939   299A      2.831688  
     300A      2.841883   301A      2.854715   302A      2.863095  
     303A      2.871071   304A      2.926597   305A      2.939420  
     306A      2.977741   307A      2.997202   308A      3.025484  
     309A      3.040674   310A      3.062020   311A      3.088349  
     312A      3.162731   313A      3.181698   314A      3.221971  
     315A      3.245029   316A      3.267162   317A      3.295329  
     318A      3.318630   319A      3.388014   320A      3.412440  
     321A      3.520455   322A      3.533727   323A      3.559955  
     324A      3.660170   325A      3.694596   326A      3.700207  
     327A      3.735102   328A      3.759934   329A      3.789786  
     330A      3.802729   331A      3.836268   332A      3.855924  
     333A      3.936007   334A      4.001970   335A      4.022892  
     336A      4.096561   337A      4.200416   338A      4.293992  
     339A      4.370687  

    Final Occupation by Irrep:
              A 
    DOCC [    44 ]

  @DF-RHF Final Energy:  -615.51419512023983

   => Energetics <=

    Nuclear Repulsion Energy =            677.6303052104958624
    One-Electron Energy =               -2184.5511641763778243
    Two-Electron Energy =                 891.4066638456421288
    Total Energy =                       -615.5141951202398332

Computation Completed


Properties will be evaluated at   0.000000,   0.000000,   0.000000 [a0]

Properties computed using the SCF density matrix

  Nuclear Dipole Moment: [e a0]
     X:    10.7398      Y:    -3.6464      Z:    -1.0264

  Electronic Dipole Moment: [e a0]
     X:    -8.6914      Y:     2.4176      Z:     0.4098

  Dipole Moment: [e a0]
     X:     2.0484      Y:    -1.2288      Z:    -0.6165     Total:     2.4670

  Dipole Moment: [D]
     X:     5.2065      Y:    -3.1234      Z:    -1.5671     Total:     6.2705


*** tstop() called on node150.bme.utexas.edu at Mon May 13 10:26:33 2024
Module time:
	user time   =      40.33 seconds =       0.67 minutes
	system time =       0.88 seconds =       0.01 minutes
	total time  =          6 seconds =       0.10 minutes
Total time:
	user time   =      40.33 seconds =       0.67 minutes
	system time =       0.88 seconds =       0.01 minutes
	total time  =          6 seconds =       0.10 minutes

*** tstart() called on node150.bme.utexas.edu
*** at Mon May 13 10:26:33 2024


  //>>>>>>>>>>>>>>>>>>>>>>>>>>>>>>>>>>>//
  //               DFMP2               //
  //<<<<<<<<<<<<<<<<<<<<<<<<<<<<<<<<<<<//

   => Loading Basis Set <=

    Name: (AUG-CC-PVDZ AUX)
    Role: RIFIT
    Keyword: DF_BASIS_MP2
    atoms 1, 5, 9, 11-12     entry N          line   158 file /opt/anaconda/envs/psi4v1.5/share/psi4/basis/aug-cc-pvdz-ri.gbs 
    atoms 2, 4, 14-16, 18-19 entry H          line    30 file /opt/anaconda/envs/psi4v1.5/share/psi4/basis/aug-cc-pvdz-ri.gbs 
    atoms 3, 6-7, 10, 13     entry C          line   112 file /opt/anaconda/envs/psi4v1.5/share/psi4/basis/aug-cc-pvdz-ri.gbs 
    atoms 8, 17              entry O          line   204 file /opt/anaconda/envs/psi4v1.5/share/psi4/basis/aug-cc-pvdz-ri.gbs 

	 --------------------------------------------------------
	                          DF-MP2                         
	      2nd-Order Density-Fitted Moller-Plesset Theory     
	              RMP2 Wavefunction,   8 Threads             
	                                                         
	        Rob Parrish, Justin Turney, Andy Simmonett,      
	           Ed Hohenstein, and C. David Sherrill          
	 --------------------------------------------------------

   => Auxiliary Basis Set <=

  Basis Set: (AUG-CC-PVDZ AUX)
    Blend: AUG-CC-PVDZ-RI
    Number of shells: 327
    Number of basis functions: 1025
    Number of Cartesian functions: 1207
    Spherical Harmonics?: true
    Max angular momentum: 3

	 --------------------------------------------------------
	                 NBF =   339, NAUX =  1025
	 --------------------------------------------------------
	   CLASS    FOCC     OCC    AOCC    AVIR     VIR    FVIR
	   PAIRS      12      44      32     295     295       0
	 --------------------------------------------------------

	 Will save fitting metric to file 97.

	-----------------------------------------------------------
	 ==================> DF-MP2 Energies <==================== 
	-----------------------------------------------------------
	 Reference Energy          =    -615.5141951202398332 [Eh]
	 Singles Energy            =      -0.0000000000000000 [Eh]
	 Same-Spin Energy          =      -0.5328109837867834 [Eh]
	 Opposite-Spin Energy      =      -1.3937894314513743 [Eh]
	 Correlation Energy        =      -1.9266004152381577 [Eh]
	 Total Energy              =    -617.4407955354779460 [Eh]
	-----------------------------------------------------------
	 ================> DF-SCS-MP2 Energies <================== 
	-----------------------------------------------------------
	 SCS Same-Spin Scale       =       0.3333333333333333 [-]
	 SCS Opposite-Spin Scale   =       1.2000000000000000 [-]
	 SCS Same-Spin Energy      =      -0.1776036612622611 [Eh]
	 SCS Opposite-Spin Energy  =      -1.6725473177416492 [Eh]
	 SCS Correlation Energy    =      -1.8501509790039103 [Eh]
	 SCS Total Energy          =    -617.3643460992437895 [Eh]
	-----------------------------------------------------------


*** tstop() called on node150.bme.utexas.edu at Mon May 13 10:26:35 2024
Module time:
	user time   =      12.77 seconds =       0.21 minutes
	system time =       0.29 seconds =       0.00 minutes
	total time  =          2 seconds =       0.03 minutes
Total time:
	user time   =      53.10 seconds =       0.89 minutes
	system time =       1.17 seconds =       0.02 minutes
	total time  =          8 seconds =       0.13 minutes

  //>>>>>>>>>>>>>>>>>>>>>>>>>>>>>>>>>>>//
  //            Monomer A HF           //
  //<<<<<<<<<<<<<<<<<<<<<<<<<<<<<<<<<<<//


*** tstart() called on node150.bme.utexas.edu
*** at Mon May 13 10:26:35 2024

   => Loading Basis Set <=

    Name: AUG-CC-PVDZ
    Role: ORBITAL
    Keyword: BASIS
    atoms 1, 5, 9, 11-12     entry N          line   218 file /opt/anaconda/envs/psi4v1.5/share/psi4/basis/aug-cc-pvdz.gbs 
    atoms 2, 4, 14-16, 18-19 entry H          line    40 file /opt/anaconda/envs/psi4v1.5/share/psi4/basis/aug-cc-pvdz.gbs 
    atoms 3, 6-7, 10, 13     entry C          line   182 file /opt/anaconda/envs/psi4v1.5/share/psi4/basis/aug-cc-pvdz.gbs 
    atoms 8, 17              entry O          line   254 file /opt/anaconda/envs/psi4v1.5/share/psi4/basis/aug-cc-pvdz.gbs 


         ---------------------------------------------------------
                                   SCF
               by Justin Turney, Rob Parrish, Andy Simmonett
                          and Daniel G. A. Smith
                              RHF Reference
                        8 Threads,  47683 MiB Core
         ---------------------------------------------------------

  ==> Geometry <==

    Molecular point group: c1
    Full point group: C1

    Geometry (in Angstrom), charge = 0, multiplicity = 1:

       Center              X                  Y                   Z               Mass       
    ------------   -----------------  -----------------  -----------------  -----------------
         N           -0.913628914023    -2.066215741963     0.093004168106    14.003074004430
         H           -0.378318914023    -2.922315741963     0.179414168106     1.007825032230
         C           -2.281998914023    -1.940405741963     0.020914168106    12.000000000000
         H           -2.936158914023    -2.802625741963     0.025674168106     1.007825032230
         N           -2.679268914023    -0.680905741963    -0.054175831894    14.003074004430
         C           -1.504018914023     0.037794258037    -0.026575831894    12.000000000000
         C           -1.300188914023     1.464104258037    -0.053075831894    12.000000000000
         O           -2.099318914023     2.389844258037    -0.112905831894    15.994914619570
         N            0.102681085977     1.737934258037     0.018894168106    14.003074004430
         C            1.129211085977     0.830284258037     0.092574168106    12.000000000000
         N            2.395941085977     1.335864258037     0.223404168106    14.003074004430
         N            0.932361085977    -0.475145741963     0.109604168106    14.003074004430
         C           -0.394348914023    -0.798135741963     0.070684168106    12.000000000000
         H            0.312991085977     2.731124258037     0.085964168106     1.007825032230
         H            2.584171085977     2.221944258037    -0.228745831894     1.007825032230
         H            3.128871085977     0.630674258037     0.113744168106     1.007825032230
      Gh(O)           4.784672585977    -1.709665554463    -0.238787519394    15.994914619570
      Gh(H)           3.816702585977    -1.801645554463    -0.098427519394     1.007825032230
      Gh(H)           4.913642585977    -1.950765554463    -1.169457519394     1.007825032230

  Running in c1 symmetry.

  Rotational constants: A =      0.04319  B =      0.01986  C =      0.01369 [cm^-1]
  Rotational constants: A =   1294.69891  B =    595.53033  C =    410.36272 [MHz]
  Nuclear repulsion =  593.520118902926697

  Charge       = 0
  Multiplicity = 1
  Electrons    = 78
  Nalpha       = 39
  Nbeta        = 39

  ==> Algorithm <==

  SCF Algorithm Type is DF.
  DIIS enabled.
  MOM disabled.
  Fractional occupation disabled.
  Guess Type is SAD.
  Energy threshold   = 1.00e-08
  Density threshold  = 1.00e-08
  Integral threshold = 1.00e-12

  ==> Primary Basis <==

  Basis Set: AUG-CC-PVDZ
    Blend: AUG-CC-PVDZ
    Number of shells: 143
    Number of basis functions: 339
    Number of Cartesian functions: 363
    Spherical Harmonics?: true
    Max angular momentum: 2

   => Loading Basis Set <=

    Name: (AUG-CC-PVDZ AUX)
    Role: JKFIT
    Keyword: DF_BASIS_SCF
    atoms 1, 5, 9, 11-12     entry N          line   212 file /opt/anaconda/envs/psi4v1.5/share/psi4/basis/aug-cc-pvdz-jkfit.gbs 
    atoms 2, 4, 14-16, 18-19 entry H          line    70 file /opt/anaconda/envs/psi4v1.5/share/psi4/basis/aug-cc-pvdz-jkfit.gbs 
    atoms 3, 6-7, 10, 13     entry C          line   154 file /opt/anaconda/envs/psi4v1.5/share/psi4/basis/aug-cc-pvdz-jkfit.gbs 
    atoms 8, 17              entry O          line   270 file /opt/anaconda/envs/psi4v1.5/share/psi4/basis/aug-cc-pvdz-jkfit.gbs 

  ==> Integral Setup <==

  ==> DiskDFJK: Density-Fitted J/K Matrices <==

    J tasked:                  Yes
    K tasked:                  Yes
    wK tasked:                  No
    OpenMP threads:              8
    Integrals threads:           8
    Memory [MiB]:            35762
    Algorithm:                Core
    Integral Cache:           LOAD
    Schwarz Cutoff:          1E-12
    Fitting Condition:       1E-10

   => Auxiliary Basis Set <=

  Basis Set: (AUG-CC-PVDZ AUX)
    Blend: AUG-CC-PVDZ-JKFIT
    Number of shells: 420
    Number of basis functions: 1256
    Number of Cartesian functions: 1457
    Spherical Harmonics?: true
    Max angular momentum: 3

  Minimum eigenvalue in the overlap matrix is 5.5949906392E-06.
  Reciprocal condition number of the overlap matrix is 3.8255255055E-07.
    Using symmetric orthogonalization.

  ==> Pre-Iterations <==

  SCF Guess: Superposition of Atomic Densities via on-the-fly atomic UHF (no occupation information).

   -------------------------
    Irrep   Nso     Nmo    
   -------------------------
     A        339     339 
   -------------------------
    Total     339     339
   -------------------------

  ==> Iterations <==

                           Total Energy        Delta E     RMS |[F,P]|

   @DF-RHF iter SAD:  -539.20167227091474   -5.39202e+02   0.00000e+00 
   @DF-RHF iter   1:  -539.16570746264119    3.59648e-02   2.26073e-03 DIIS
   @DF-RHF iter   2:  -539.38937978850061   -2.23672e-01   1.30194e-03 DIIS
   @DF-RHF iter   3:  -539.46487773826516   -7.54979e-02   2.79755e-04 DIIS
   @DF-RHF iter   4:  -539.46986410109503   -4.98636e-03   1.12371e-04 DIIS
   @DF-RHF iter   5:  -539.47077453088286   -9.10430e-04   2.35582e-05 DIIS
   @DF-RHF iter   6:  -539.47086795583277   -9.34249e-05   1.25264e-05 DIIS
   @DF-RHF iter   7:  -539.47089307178123   -2.51159e-05   5.09567e-06 DIIS
   @DF-RHF iter   8:  -539.47089754625210   -4.47447e-06   1.78952e-06 DIIS
   @DF-RHF iter   9:  -539.47089805767803   -5.11426e-07   6.76361e-07 DIIS
   @DF-RHF iter  10:  -539.47089814542562   -8.77476e-08   2.73596e-07 DIIS
   @DF-RHF iter  11:  -539.47089815752997   -1.21044e-08   1.02423e-07 DIIS
   @DF-RHF iter  12:  -539.47089815916081   -1.63084e-09   3.64422e-08 DIIS
   @DF-RHF iter  13:  -539.47089815935715   -1.96337e-10   1.70360e-08 DIIS
   @DF-RHF iter  14:  -539.47089815939444   -3.72893e-11   5.24788e-09 DIIS
  Energy and wave function converged.


  ==> Post-Iterations <==

    Orbital Energies [Eh]
    ---------------------

    Doubly Occupied:                                                      

       1A    -20.534588     2A    -15.641227     3A    -15.638085  
       4A    -15.624429     5A    -15.578073     6A    -15.572189  
       7A    -11.407049     8A    -11.375416     9A    -11.332026  
      10A    -11.319250    11A    -11.254138    12A     -1.397138  
      13A     -1.363355    14A     -1.339470    15A     -1.225503  
      16A     -1.217903    17A     -1.178960    18A     -1.032950  
      19A     -0.907938    20A     -0.888437    21A     -0.844600  
      22A     -0.801743    23A     -0.741072    24A     -0.736186  
      25A     -0.704181    26A     -0.674225    27A     -0.655911  
      28A     -0.634023    29A     -0.615110    30A     -0.600786  
      31A     -0.597358    32A     -0.548469    33A     -0.496257  
      34A     -0.458082    35A     -0.441638    36A     -0.431065  
      37A     -0.430751    38A     -0.409336    39A     -0.299199  

    Virtual:                                                              

      40A      0.017422    41A      0.027794    42A      0.036368  
      43A      0.050927    44A      0.057357    45A      0.062532  
      46A      0.078249    47A      0.083124    48A      0.093209  
      49A      0.103113    50A      0.105192    51A      0.117975  
      52A      0.120608    53A      0.124329    54A      0.130948  
      55A      0.132930    56A      0.139321    57A      0.142135  
      58A      0.145135    59A      0.151494    60A      0.157090  
      61A      0.161170    62A      0.167919    63A      0.176724  
      64A      0.179639    65A      0.181750    66A      0.185359  
      67A      0.188480    68A      0.194163    69A      0.206511  
      70A      0.214867    71A      0.218788    72A      0.225856  
      73A      0.227824    74A      0.231535    75A      0.237504  
      76A      0.253262    77A      0.261109    78A      0.265335  
      79A      0.269740    80A      0.270484    81A      0.284670  
      82A      0.290091    83A      0.296953    84A      0.298344  
      85A      0.309363    86A      0.318635    87A      0.321914  
      88A      0.328363    89A      0.333439    90A      0.336196  
      91A      0.341327    92A      0.358774    93A      0.368545  
      94A      0.373627    95A      0.376059    96A      0.381509  
      97A      0.384553    98A      0.399308    99A      0.405118  
     100A      0.411403   101A      0.415205   102A      0.416140  
     103A      0.424809   104A      0.429526   105A      0.435596  
     106A      0.437919   107A      0.447368   108A      0.450337  
     109A      0.456438   110A      0.459860   111A      0.467984  
     112A      0.472329   113A      0.476701   114A      0.480497  
     115A      0.495893   116A      0.513457   117A      0.516939  
     118A      0.531166   119A      0.534399   120A      0.540909  
     121A      0.550965   122A      0.560820   123A      0.567770  
     124A      0.583217   125A      0.583344   126A      0.596177  
     127A      0.605595   128A      0.614895   129A      0.621371  
     130A      0.622528   131A      0.629253   132A      0.638109  
     133A      0.644479   134A      0.663602   135A      0.668790  
     136A      0.669806   137A      0.683432   138A      0.688362  
     139A      0.692594   140A      0.701647   141A      0.704068  
     142A      0.713141   143A      0.713893   144A      0.734465  
     145A      0.741699   146A      0.753052   147A      0.770435  
     148A      0.777515   149A      0.785829   150A      0.790255  
     151A      0.802371   152A      0.816489   153A      0.822059  
     154A      0.838583   155A      0.848544   156A      0.856415  
     157A      0.857873   158A      0.866966   159A      0.872021  
     160A      0.888772   161A      0.892986   162A      0.903797  
     163A      0.913970   164A      0.928340   165A      0.930967  
     166A      0.938111   167A      0.946544   168A      0.957467  
     169A      0.989605   170A      0.990787   171A      0.998490  
     172A      1.000525   173A      1.005121   174A      1.013547  
     175A      1.034481   176A      1.044970   177A      1.052241  
     178A      1.070354   179A      1.073983   180A      1.088898  
     181A      1.096445   182A      1.107089   183A      1.115101  
     184A      1.123863   185A      1.132256   186A      1.137874  
     187A      1.140782   188A      1.152152   189A      1.174292  
     190A      1.186765   191A      1.194851   192A      1.210142  
     193A      1.237034   194A      1.247924   195A      1.250488  
     196A      1.271595   197A      1.285735   198A      1.295140  
     199A      1.300576   200A      1.304711   201A      1.320607  
     202A      1.338960   203A      1.354453   204A      1.362510  
     205A      1.386655   206A      1.392163   207A      1.401577  
     208A      1.406760   209A      1.414557   210A      1.448307  
     211A      1.470606   212A      1.488942   213A      1.515027  
     214A      1.525864   215A      1.529286   216A      1.543760  
     217A      1.568903   218A      1.588607   219A      1.595559  
     220A      1.620214   221A      1.640992   222A      1.654192  
     223A      1.667428   224A      1.677764   225A      1.698553  
     226A      1.741993   227A      1.746350   228A      1.751007  
     229A      1.770880   230A      1.787394   231A      1.799043  
     232A      1.830227   233A      1.840347   234A      1.855507  
     235A      1.872344   236A      1.898141   237A      1.904074  
     238A      1.920236   239A      1.945897   240A      1.963776  
     241A      1.987839   242A      2.011641   243A      2.029848  
     244A      2.038271   245A      2.043728   246A      2.058754  
     247A      2.060340   248A      2.101869   249A      2.108052  
     250A      2.124874   251A      2.141584   252A      2.169308  
     253A      2.183514   254A      2.205554   255A      2.211295  
     256A      2.246803   257A      2.265032   258A      2.294486  
     259A      2.296267   260A      2.310423   261A      2.318198  
     262A      2.324611   263A      2.345672   264A      2.361737  
     265A      2.370728   266A      2.392958   267A      2.401405  
     268A      2.407556   269A      2.424009   270A      2.429688  
     271A      2.468204   272A      2.477205   273A      2.493813  
     274A      2.515506   275A      2.521150   276A      2.550632  
     277A      2.556342   278A      2.569541   279A      2.596612  
     280A      2.623038   281A      2.651111   282A      2.656412  
     283A      2.679711   284A      2.685337   285A      2.697322  
     286A      2.698752   287A      2.728292   288A      2.758515  
     289A      2.770166   290A      2.783264   291A      2.789569  
     292A      2.807504   293A      2.834675   294A      2.843563  
     295A      2.857822   296A      2.866157   297A      2.873771  
     298A      2.929206   299A      2.943860   300A      2.981160  
     301A      3.003172   302A      3.028494   303A      3.063402  
     304A      3.090906   305A      3.165685   306A      3.184661  
     307A      3.225206   308A      3.248090   309A      3.270320  
     310A      3.297252   311A      3.321395   312A      3.387525  
     313A      3.414203   314A      3.432701   315A      3.524568  
     316A      3.537728   317A      3.565083   318A      3.663250  
     319A      3.757773   320A      3.789368   321A      3.800752  
     322A      3.838968   323A      3.857086   324A      3.916992  
     325A      3.939089   326A      4.004667   327A      4.079863  
     328A      4.099362   329A      4.205424   330A      4.370095  
     331A      4.915672   332A      4.948230   333A      4.987482  
     334A      5.119762   335A      5.441371   336A      5.689349  
     337A      6.495683   338A      6.950247   339A     33.541589  

    Final Occupation by Irrep:
              A 
    DOCC [    39 ]

  @DF-RHF Final Energy:  -539.47089815939444

   => Energetics <=

    Nuclear Repulsion Energy =            593.5201189029266970
    One-Electron Energy =               -1912.0858005069599130
    Two-Electron Energy =                 779.0947834446387787
    Total Energy =                       -539.4708981593944372

Computation Completed


Properties will be evaluated at   0.000000,   0.000000,   0.000000 [a0]

Properties computed using the SCF density matrix

  Nuclear Dipole Moment: [e a0]
     X:   -78.0919      Y:    29.2910      Z:     4.9795

  Electronic Dipole Moment: [e a0]
     X:    80.7175      Y:   -30.3419      Z:    -5.0858

  Dipole Moment: [e a0]
     X:     2.6256      Y:    -1.0509      Z:    -0.1063     Total:     2.8301

  Dipole Moment: [D]
     X:     6.6735      Y:    -2.6712      Z:    -0.2702     Total:     7.1933


*** tstop() called on node150.bme.utexas.edu at Mon May 13 10:26:39 2024
Module time:
	user time   =      30.86 seconds =       0.51 minutes
	system time =       0.57 seconds =       0.01 minutes
	total time  =          4 seconds =       0.07 minutes
Total time:
	user time   =      83.98 seconds =       1.40 minutes
	system time =       1.74 seconds =       0.03 minutes
	total time  =         12 seconds =       0.20 minutes

*** tstart() called on node150.bme.utexas.edu
*** at Mon May 13 10:26:39 2024


  //>>>>>>>>>>>>>>>>>>>>>>>>>>>>>>>>>>>//
  //               DFMP2               //
  //<<<<<<<<<<<<<<<<<<<<<<<<<<<<<<<<<<<//

   => Loading Basis Set <=

    Name: (AUG-CC-PVDZ AUX)
    Role: RIFIT
    Keyword: DF_BASIS_MP2
    atoms 1, 5, 9, 11-12     entry N          line   158 file /opt/anaconda/envs/psi4v1.5/share/psi4/basis/aug-cc-pvdz-ri.gbs 
    atoms 2, 4, 14-16, 18-19 entry H          line    30 file /opt/anaconda/envs/psi4v1.5/share/psi4/basis/aug-cc-pvdz-ri.gbs 
    atoms 3, 6-7, 10, 13     entry C          line   112 file /opt/anaconda/envs/psi4v1.5/share/psi4/basis/aug-cc-pvdz-ri.gbs 
    atoms 8, 17              entry O          line   204 file /opt/anaconda/envs/psi4v1.5/share/psi4/basis/aug-cc-pvdz-ri.gbs 

	 --------------------------------------------------------
	                          DF-MP2                         
	      2nd-Order Density-Fitted Moller-Plesset Theory     
	              RMP2 Wavefunction,   8 Threads             
	                                                         
	        Rob Parrish, Justin Turney, Andy Simmonett,      
	           Ed Hohenstein, and C. David Sherrill          
	 --------------------------------------------------------

   => Auxiliary Basis Set <=

  Basis Set: (AUG-CC-PVDZ AUX)
    Blend: AUG-CC-PVDZ-RI
    Number of shells: 327
    Number of basis functions: 1025
    Number of Cartesian functions: 1207
    Spherical Harmonics?: true
    Max angular momentum: 3

	 --------------------------------------------------------
	                 NBF =   339, NAUX =  1025
	 --------------------------------------------------------
	   CLASS    FOCC     OCC    AOCC    AVIR     VIR    FVIR
	   PAIRS      11      39      28     300     300       0
	 --------------------------------------------------------

	 Will attempt to load fitting metric from file 97.

	-----------------------------------------------------------
	 ==================> DF-MP2 Energies <==================== 
	-----------------------------------------------------------
	 Reference Energy          =    -539.4708981593944372 [Eh]
	 Singles Energy            =      -0.0000000000000000 [Eh]
	 Same-Spin Energy          =      -0.4759453815459372 [Eh]
	 Opposite-Spin Energy      =      -1.2282875110311466 [Eh]
	 Correlation Energy        =      -1.7042328925770840 [Eh]
	 Total Energy              =    -541.1751310519715616 [Eh]
	-----------------------------------------------------------
	 ================> DF-SCS-MP2 Energies <================== 
	-----------------------------------------------------------
	 SCS Same-Spin Scale       =       0.3333333333333333 [-]
	 SCS Opposite-Spin Scale   =       1.2000000000000000 [-]
	 SCS Same-Spin Energy      =      -0.1586484605153124 [Eh]
	 SCS Opposite-Spin Energy  =      -1.4739450132373759 [Eh]
	 SCS Correlation Energy    =      -1.6325934737526884 [Eh]
	 SCS Total Energy          =    -541.1034916331470868 [Eh]
	-----------------------------------------------------------


*** tstop() called on node150.bme.utexas.edu at Mon May 13 10:26:41 2024
Module time:
	user time   =      10.52 seconds =       0.18 minutes
	system time =       0.24 seconds =       0.00 minutes
	total time  =          2 seconds =       0.03 minutes
Total time:
	user time   =      94.50 seconds =       1.57 minutes
	system time =       1.98 seconds =       0.03 minutes
	total time  =         14 seconds =       0.23 minutes

  //>>>>>>>>>>>>>>>>>>>>>>>>>>>>>>>>>>>//
  //            Monomer B HF           //
  //<<<<<<<<<<<<<<<<<<<<<<<<<<<<<<<<<<<//


*** tstart() called on node150.bme.utexas.edu
*** at Mon May 13 10:26:41 2024

   => Loading Basis Set <=

    Name: AUG-CC-PVDZ
    Role: ORBITAL
    Keyword: BASIS
    atoms 1, 5, 9, 11-12     entry N          line   218 file /opt/anaconda/envs/psi4v1.5/share/psi4/basis/aug-cc-pvdz.gbs 
    atoms 2, 4, 14-16, 18-19 entry H          line    40 file /opt/anaconda/envs/psi4v1.5/share/psi4/basis/aug-cc-pvdz.gbs 
    atoms 3, 6-7, 10, 13     entry C          line   182 file /opt/anaconda/envs/psi4v1.5/share/psi4/basis/aug-cc-pvdz.gbs 
    atoms 8, 17              entry O          line   254 file /opt/anaconda/envs/psi4v1.5/share/psi4/basis/aug-cc-pvdz.gbs 


         ---------------------------------------------------------
                                   SCF
               by Justin Turney, Rob Parrish, Andy Simmonett
                          and Daniel G. A. Smith
                              RHF Reference
                        8 Threads,  47683 MiB Core
         ---------------------------------------------------------

  ==> Geometry <==

    Molecular point group: c1
    Full point group: C1

    Geometry (in Angstrom), charge = 0, multiplicity = 1:

       Center              X                  Y                   Z               Mass       
    ------------   -----------------  -----------------  -----------------  -----------------
      Gh(N)          -0.913628914023    -2.066215741963     0.093004168106    14.003074004430
      Gh(H)          -0.378318914023    -2.922315741963     0.179414168106     1.007825032230
      Gh(C)          -2.281998914023    -1.940405741963     0.020914168106    12.000000000000
      Gh(H)          -2.936158914023    -2.802625741963     0.025674168106     1.007825032230
      Gh(N)          -2.679268914023    -0.680905741963    -0.054175831894    14.003074004430
      Gh(C)          -1.504018914023     0.037794258037    -0.026575831894    12.000000000000
      Gh(C)          -1.300188914023     1.464104258037    -0.053075831894    12.000000000000
      Gh(O)          -2.099318914023     2.389844258037    -0.112905831894    15.994914619570
      Gh(N)           0.102681085977     1.737934258037     0.018894168106    14.003074004430
      Gh(C)           1.129211085977     0.830284258037     0.092574168106    12.000000000000
      Gh(N)           2.395941085977     1.335864258037     0.223404168106    14.003074004430
      Gh(N)           0.932361085977    -0.475145741963     0.109604168106    14.003074004430
      Gh(C)          -0.394348914023    -0.798135741963     0.070684168106    12.000000000000
      Gh(H)           0.312991085977     2.731124258037     0.085964168106     1.007825032230
      Gh(H)           2.584171085977     2.221944258037    -0.228745831894     1.007825032230
      Gh(H)           3.128871085977     0.630674258037     0.113744168106     1.007825032230
         O            4.784672585977    -1.709665554463    -0.238787519394    15.994914619570
         H            3.816702585977    -1.801645554463    -0.098427519394     1.007825032230
         H            4.913642585977    -1.950765554463    -1.169457519394     1.007825032230

  Running in c1 symmetry.

  Rotational constants: A =      0.04319  B =      0.01986  C =      0.01369 [cm^-1]
  Rotational constants: A =   1294.69891  B =    595.53033  C =    410.36272 [MHz]
  Nuclear repulsion =    9.017096520584763

  Charge       = 0
  Multiplicity = 1
  Electrons    = 10
  Nalpha       = 5
  Nbeta        = 5

  ==> Algorithm <==

  SCF Algorithm Type is DF.
  DIIS enabled.
  MOM disabled.
  Fractional occupation disabled.
  Guess Type is SAD.
  Energy threshold   = 1.00e-08
  Density threshold  = 1.00e-08
  Integral threshold = 1.00e-12

  ==> Primary Basis <==

  Basis Set: AUG-CC-PVDZ
    Blend: AUG-CC-PVDZ
    Number of shells: 143
    Number of basis functions: 339
    Number of Cartesian functions: 363
    Spherical Harmonics?: true
    Max angular momentum: 2

   => Loading Basis Set <=

    Name: (AUG-CC-PVDZ AUX)
    Role: JKFIT
    Keyword: DF_BASIS_SCF
    atoms 1, 5, 9, 11-12     entry N          line   212 file /opt/anaconda/envs/psi4v1.5/share/psi4/basis/aug-cc-pvdz-jkfit.gbs 
    atoms 2, 4, 14-16, 18-19 entry H          line    70 file /opt/anaconda/envs/psi4v1.5/share/psi4/basis/aug-cc-pvdz-jkfit.gbs 
    atoms 3, 6-7, 10, 13     entry C          line   154 file /opt/anaconda/envs/psi4v1.5/share/psi4/basis/aug-cc-pvdz-jkfit.gbs 
    atoms 8, 17              entry O          line   270 file /opt/anaconda/envs/psi4v1.5/share/psi4/basis/aug-cc-pvdz-jkfit.gbs 

  ==> Integral Setup <==

  ==> DiskDFJK: Density-Fitted J/K Matrices <==

    J tasked:                  Yes
    K tasked:                  Yes
    wK tasked:                  No
    OpenMP threads:              8
    Integrals threads:           8
    Memory [MiB]:            35762
    Algorithm:                Core
    Integral Cache:           LOAD
    Schwarz Cutoff:          1E-12
    Fitting Condition:       1E-10

   => Auxiliary Basis Set <=

  Basis Set: (AUG-CC-PVDZ AUX)
    Blend: AUG-CC-PVDZ-JKFIT
    Number of shells: 420
    Number of basis functions: 1256
    Number of Cartesian functions: 1457
    Spherical Harmonics?: true
    Max angular momentum: 3

  Minimum eigenvalue in the overlap matrix is 5.5949906392E-06.
  Reciprocal condition number of the overlap matrix is 3.8255255055E-07.
    Using symmetric orthogonalization.

  ==> Pre-Iterations <==

  SCF Guess: Superposition of Atomic Densities via on-the-fly atomic UHF (no occupation information).

   -------------------------
    Irrep   Nso     Nmo    
   -------------------------
     A        339     339 
   -------------------------
    Total     339     339
   -------------------------

  ==> Iterations <==

                           Total Energy        Delta E     RMS |[F,P]|

   @DF-RHF iter SAD:   -75.44399651817827   -7.54440e+01   0.00000e+00 
   @DF-RHF iter   1:   -75.95471968316379   -5.10723e-01   1.33439e-03 DIIS
   @DF-RHF iter   2:   -76.00739751934725   -5.26778e-02   8.89549e-04 DIIS
   @DF-RHF iter   3:   -76.03933649632717   -3.19390e-02   6.36149e-05 DIIS
   @DF-RHF iter   4:   -76.03973686649807   -4.00370e-04   1.48711e-05 DIIS
   @DF-RHF iter   5:   -76.03976161035013   -2.47439e-05   3.42118e-06 DIIS
   @DF-RHF iter   6:   -76.03976363380156   -2.02345e-06   6.87573e-07 DIIS
   @DF-RHF iter   7:   -76.03976371932204   -8.55205e-08   1.13316e-07 DIIS
   @DF-RHF iter   8:   -76.03976372143893   -2.11689e-09   1.82630e-08 DIIS
   @DF-RHF iter   9:   -76.03976372148776   -4.88285e-11   4.85773e-09 DIIS
  Energy and wave function converged.


  ==> Post-Iterations <==

    Orbital Energies [Eh]
    ---------------------

    Doubly Occupied:                                                      

       1A    -20.580634     2A     -1.347280     3A     -0.708371  
       4A     -0.582584     5A     -0.507925  

    Virtual:                                                              

       6A      0.016656     7A      0.032671     8A      0.035370  
       9A      0.050845    10A      0.056643    11A      0.062741  
      12A      0.065015    13A      0.080643    14A      0.082203  
      15A      0.089942    16A      0.092313    17A      0.104487  
      18A      0.110595    19A      0.112791    20A      0.118984  
      21A      0.121188    22A      0.136389    23A      0.146990  
      24A      0.151423    25A      0.157635    26A      0.160095  
      27A      0.161174    28A      0.166423    29A      0.171377  
      30A      0.183722    31A      0.184742    32A      0.192752  
      33A      0.202486    34A      0.206295    35A      0.209319  
      36A      0.218136    37A      0.219976    38A      0.223929  
      39A      0.225850    40A      0.235123    41A      0.239808  
      42A      0.245708    43A      0.248105    44A      0.255707  
      45A      0.262260    46A      0.270066    47A      0.277671  
      48A      0.281858    49A      0.285019    50A      0.294515  
      51A      0.300898    52A      0.304864    53A      0.314537  
      54A      0.323720    55A      0.333551    56A      0.337432  
      57A      0.353229    58A      0.357981    59A      0.361174  
      60A      0.370322    61A      0.380370    62A      0.387508  
      63A      0.390158    64A      0.403828    65A      0.410363  
      66A      0.425528    67A      0.445333    68A      0.448642  
      69A      0.459302    70A      0.463131    71A      0.474081  
      72A      0.476623    73A      0.480766    74A      0.492317  
      75A      0.498653    76A      0.502327    77A      0.510388  
      78A      0.522355    79A      0.525786    80A      0.528402  
      81A      0.540652    82A      0.543189    83A      0.546420  
      84A      0.550816    85A      0.561087    86A      0.571842  
      87A      0.577426    88A      0.584119    89A      0.587952  
      90A      0.591727    91A      0.602900    92A      0.605823  
      93A      0.619910    94A      0.631630    95A      0.635121  
      96A      0.644636    97A      0.650494    98A      0.653197  
      99A      0.655841   100A      0.665535   101A      0.675174  
     102A      0.688074   103A      0.711489   104A      0.717502  
     105A      0.728253   106A      0.736836   107A      0.748510  
     108A      0.753598   109A      0.774987   110A      0.785333  
     111A      0.800454   112A      0.805630   113A      0.825577  
     114A      0.829673   115A      0.839001   116A      0.852585  
     117A      0.863819   118A      0.876515   119A      0.886495  
     120A      0.888090   121A      0.901006   122A      0.916231  
     123A      0.937679   124A      0.952942   125A      0.955917  
     126A      0.975523   127A      0.993762   128A      1.001825  
     129A      1.008308   130A      1.021125   131A      1.030173  
     132A      1.045959   133A      1.061220   134A      1.073241  
     135A      1.091289   136A      1.099259   137A      1.111115  
     138A      1.122014   139A      1.127213   140A      1.138616  
     141A      1.145339   142A      1.147463   143A      1.154197  
     144A      1.165620   145A      1.169905   146A      1.179086  
     147A      1.181043   148A      1.187785   149A      1.196326  
     150A      1.212120   151A      1.218187   152A      1.227783  
     153A      1.230171   154A      1.243927   155A      1.250863  
     156A      1.264653   157A      1.268957   158A      1.275512  
     159A      1.285464   160A      1.291199   161A      1.301277  
     162A      1.305855   163A      1.316812   164A      1.321224  
     165A      1.335931   166A      1.355473   167A      1.361933  
     168A      1.370089   169A      1.388331   170A      1.391190  
     171A      1.415911   172A      1.422418   173A      1.448421  
     174A      1.458054   175A      1.472080   176A      1.475172  
     177A      1.496625   178A      1.507143   179A      1.523230  
     180A      1.546353   181A      1.549326   182A      1.557786  
     183A      1.585954   184A      1.591965   185A      1.599530  
     186A      1.637737   187A      1.661541   188A      1.680772  
     189A      1.687504   190A      1.718735   191A      1.740469  
     192A      1.773538   193A      1.791511   194A      1.848315  
     195A      1.875547   196A      1.932304   197A      2.006629  
     198A      2.071951   199A      2.125147   200A      2.129472  
     201A      2.177779   202A      2.206326   203A      2.226497  
     204A      2.234482   205A      2.332843   206A      2.350703  
     207A      2.354694   208A      2.378955   209A      2.391603  
     210A      2.410163   211A      2.423427   212A      2.431234  
     213A      2.455786   214A      2.465222   215A      2.471007  
     216A      2.490828   217A      2.497490   218A      2.512985  
     219A      2.536890   220A      2.547795   221A      2.575139  
     222A      2.583295   223A      2.614332   224A      2.620287  
     225A      2.638148   226A      2.677851   227A      2.692072  
     228A      2.735466   229A      2.754924   230A      2.768240  
     231A      2.777893   232A      2.786926   233A      2.827886  
     234A      2.835496   235A      2.883470   236A      2.898287  
     237A      2.943627   238A      2.952743   239A      2.965184  
     240A      3.024002   241A      3.053212   242A      3.059746  
     243A      3.127059   244A      3.138225   245A      3.164624  
     246A      3.200172   247A      3.209549   248A      3.257176  
     249A      3.315991   250A      3.341304   251A      3.375157  
     252A      3.382234   253A      3.394831   254A      3.412241  
     255A      3.421078   256A      3.457199   257A      3.463109  
     258A      3.493734   259A      3.520349   260A      3.564933  
     261A      3.587010   262A      3.598134   263A      3.607705  
     264A      3.627073   265A      3.643344   266A      3.695123  
     267A      3.701642   268A      3.714711   269A      3.724846  
     270A      3.738002   271A      3.752651   272A      3.778456  
     273A      3.782872   274A      3.792816   275A      3.809943  
     276A      3.852613   277A      3.870673   278A      3.895014  
     279A      3.921110   280A      3.933467   281A      3.965581  
     282A      3.981559   283A      4.030136   284A      4.046138  
     285A      4.059837   286A      4.169223   287A      4.238057  
     288A      4.306091   289A      4.330447   290A      4.354206  
     291A      4.446128   292A      4.563674   293A      4.613951  
     294A      4.687682   295A      4.694821   296A      4.731472  
     297A      4.763005   298A      4.803809   299A      4.840033  
     300A      4.867929   301A      4.936021   302A      4.981055  
     303A      5.008862   304A      5.038722   305A      5.049301  
     306A      5.117525   307A      5.156280   308A      5.185332  
     309A      5.253034   310A      5.340932   311A      5.435337  
     312A      5.551362   313A      5.587118   314A      5.617890  
     315A      5.716907   316A      5.818824   317A      5.834586  
     318A      5.899356   319A      5.910962   320A      6.035832  
     321A      6.079649   322A      6.098448   323A      6.196743  
     324A      6.227620   325A      6.308330   326A      6.355995  
     327A      6.491062   328A      7.186287   329A     18.279391  
     330A     18.594734   331A     18.985074   332A     19.063469  
     333A     19.886016   334A     25.324871   335A     25.360887  
     336A     25.449656   337A     25.481803   338A     25.510091  
     339A     33.542078  

    Final Occupation by Irrep:
              A 
    DOCC [     5 ]

  @DF-RHF Final Energy:   -76.03976372148776

   => Energetics <=

    Nuclear Repulsion Energy =              9.0170965205847633
    One-Electron Energy =                -122.6601302634179973
    Two-Electron Energy =                  37.6032700213454660
    Total Energy =                        -76.0397637214877733

Computation Completed


Properties will be evaluated at   0.000000,   0.000000,   0.000000 [a0]

Properties computed using the SCF density matrix

  Nuclear Dipole Moment: [e a0]
     X:    88.8317      Y:   -32.9374      Z:    -6.0059

  Electronic Dipole Moment: [e a0]
     X:   -89.3856      Y:    32.7163      Z:     5.4814

  Dipole Moment: [e a0]
     X:    -0.5539      Y:    -0.2211      Z:    -0.5245     Total:     0.7942

  Dipole Moment: [D]
     X:    -1.4078      Y:    -0.5620      Z:    -1.3331     Total:     2.0187


*** tstop() called on node150.bme.utexas.edu at Mon May 13 10:26:44 2024
Module time:
	user time   =      15.07 seconds =       0.25 minutes
	system time =       0.24 seconds =       0.00 minutes
	total time  =          3 seconds =       0.05 minutes
Total time:
	user time   =     109.59 seconds =       1.83 minutes
	system time =       2.22 seconds =       0.04 minutes
	total time  =         17 seconds =       0.28 minutes

*** tstart() called on node150.bme.utexas.edu
*** at Mon May 13 10:26:44 2024


  //>>>>>>>>>>>>>>>>>>>>>>>>>>>>>>>>>>>//
  //               DFMP2               //
  //<<<<<<<<<<<<<<<<<<<<<<<<<<<<<<<<<<<//

   => Loading Basis Set <=

    Name: (AUG-CC-PVDZ AUX)
    Role: RIFIT
    Keyword: DF_BASIS_MP2
    atoms 1, 5, 9, 11-12     entry N          line   158 file /opt/anaconda/envs/psi4v1.5/share/psi4/basis/aug-cc-pvdz-ri.gbs 
    atoms 2, 4, 14-16, 18-19 entry H          line    30 file /opt/anaconda/envs/psi4v1.5/share/psi4/basis/aug-cc-pvdz-ri.gbs 
    atoms 3, 6-7, 10, 13     entry C          line   112 file /opt/anaconda/envs/psi4v1.5/share/psi4/basis/aug-cc-pvdz-ri.gbs 
    atoms 8, 17              entry O          line   204 file /opt/anaconda/envs/psi4v1.5/share/psi4/basis/aug-cc-pvdz-ri.gbs 

	 --------------------------------------------------------
	                          DF-MP2                         
	      2nd-Order Density-Fitted Moller-Plesset Theory     
	              RMP2 Wavefunction,   8 Threads             
	                                                         
	        Rob Parrish, Justin Turney, Andy Simmonett,      
	           Ed Hohenstein, and C. David Sherrill          
	 --------------------------------------------------------

   => Auxiliary Basis Set <=

  Basis Set: (AUG-CC-PVDZ AUX)
    Blend: AUG-CC-PVDZ-RI
    Number of shells: 327
    Number of basis functions: 1025
    Number of Cartesian functions: 1207
    Spherical Harmonics?: true
    Max angular momentum: 3

	 --------------------------------------------------------
	                 NBF =   339, NAUX =  1025
	 --------------------------------------------------------
	   CLASS    FOCC     OCC    AOCC    AVIR     VIR    FVIR
	   PAIRS       1       5       4     334     334       0
	 --------------------------------------------------------

	 Will attempt to load fitting metric from file 97.

	-----------------------------------------------------------
	 ==================> DF-MP2 Energies <==================== 
	-----------------------------------------------------------
	 Reference Energy          =     -76.0397637214877591 [Eh]
	 Singles Energy            =      -0.0000000000000000 [Eh]
	 Same-Spin Energy          =      -0.0563035971538097 [Eh]
	 Opposite-Spin Energy      =      -0.1650737617937296 [Eh]
	 Correlation Energy        =      -0.2213773589475393 [Eh]
	 Total Energy              =     -76.2611410804352943 [Eh]
	-----------------------------------------------------------
	 ================> DF-SCS-MP2 Energies <================== 
	-----------------------------------------------------------
	 SCS Same-Spin Scale       =       0.3333333333333333 [-]
	 SCS Opposite-Spin Scale   =       1.2000000000000000 [-]
	 SCS Same-Spin Energy      =      -0.0187678657179366 [Eh]
	 SCS Opposite-Spin Energy  =      -0.1980885141524755 [Eh]
	 SCS Correlation Energy    =      -0.2168563798704120 [Eh]
	 SCS Total Energy          =     -76.2566201013581662 [Eh]
	-----------------------------------------------------------


*** tstop() called on node150.bme.utexas.edu at Mon May 13 10:26:45 2024
Module time:
	user time   =       7.73 seconds =       0.13 minutes
	system time =       0.12 seconds =       0.00 minutes
	total time  =          1 seconds =       0.02 minutes
Total time:
	user time   =     117.32 seconds =       1.96 minutes
	system time =       2.34 seconds =       0.04 minutes
	total time  =         18 seconds =       0.30 minutes
  Constructing Basis Sets for SAPT...

   => Loading Basis Set <=

    Name: (AUG-CC-PVDZ AUX)
    Role: RIFIT
    Keyword: DF_BASIS_SAPT
    atoms 1, 5, 9, 11-12     entry N          line   158 file /opt/anaconda/envs/psi4v1.5/share/psi4/basis/aug-cc-pvdz-ri.gbs 
    atoms 2, 4, 14-16, 18-19 entry H          line    30 file /opt/anaconda/envs/psi4v1.5/share/psi4/basis/aug-cc-pvdz-ri.gbs 
    atoms 3, 6-7, 10, 13     entry C          line   112 file /opt/anaconda/envs/psi4v1.5/share/psi4/basis/aug-cc-pvdz-ri.gbs 
    atoms 8, 17              entry O          line   204 file /opt/anaconda/envs/psi4v1.5/share/psi4/basis/aug-cc-pvdz-ri.gbs 


  //>>>>>>>>>>>>>>>>>>>>>>>>>>>>>>>>>>>//
  //           SAPT2+(3)DMP2           //
  //<<<<<<<<<<<<<<<<<<<<<<<<<<<<<<<<<<<//


*** tstart() called on node150.bme.utexas.edu
*** at Mon May 13 10:26:45 2024

      SAPT2+(3)  
    Ed Hohenstein
     6 June 2009

      Orbital Information
  --------------------------
    NSO        =       339
    NMO        =       339
    NRI        =      1025
    NOCC A     =        39
    NOCC B     =         5
    FOCC A     =        11
    FOCC B     =         1
    NVIR A     =       300
    NVIR B     =       334

    Estimated memory usage: 4987.0 MB

    Natural Orbital Cutoff:   1.000E-06
    Disp(T3) Truncation:            Yes
    CCD (vv|vv) Truncation:         Yes
    MBPT T2 Truncation:             Yes

    Monomer A: 52 virtual orbitals dropped
    Monomer B: 296 virtual orbitals dropped

    Elst10,r            =    -0.003885269232 [Eh]
    Exch10 (S^2)        =     0.000818217197 [Eh]
    Exch10              =     0.000818674628 [Eh]
    Ind20,r (A<-B)      =    -0.000282967027 [Eh]
    Ind20,r (B<-A)      =    -0.000245768133 [Eh]
    Ind20,r             =    -0.000528735159 [Eh]
    Exch-Ind20,r (A<-B) =     0.000081553156 [Eh]
    Exch-Ind20,r (B<-A) =     0.000071351406 [Eh]
    Exch-Ind20,r        =     0.000152904562 [Eh]
    Disp20              =    -0.001331575605 [Eh]
    Disp20 (NO)         =    -0.001237311482 [Eh]
    Exch-Disp20         =     0.000069769178 [Eh]
    Elst12,r            =     0.000043739398 [Eh]
    Exch11              =     0.000000400097 [Eh]
    Exch12              =     0.000293036637 [Eh]
    Ind22               =    -0.000100163336 [Eh]
    Disp21              =     0.000091497825 [Eh]
    Disp22 (SDQ)        =    -0.000074554700 [Eh]

    (i =   1 of   4)         23 seconds
    (i =   2 of   4)         46 seconds
    (i =   3 of   4)         71 seconds
    (i =   4 of   4)         95 seconds

    Disp220 (T)         =    -0.000127362044 [Eh]

    (i =   1 of  28)          0 seconds
    (i =   2 of  28)          0 seconds
    (i =   3 of  28)          0 seconds
    (i =   4 of  28)          0 seconds
    (i =   5 of  28)          0 seconds
    (i =   6 of  28)          1 seconds
    (i =   7 of  28)          1 seconds
    (i =   8 of  28)          1 seconds
    (i =   9 of  28)          1 seconds
    (i =  10 of  28)          1 seconds
    (i =  11 of  28)          1 seconds
    (i =  12 of  28)          2 seconds
    (i =  13 of  28)          2 seconds
    (i =  14 of  28)          2 seconds
    (i =  15 of  28)          2 seconds
    (i =  16 of  28)          2 seconds
    (i =  17 of  28)          2 seconds
    (i =  18 of  28)          3 seconds
    (i =  19 of  28)          3 seconds
    (i =  20 of  28)          3 seconds
    (i =  21 of  28)          3 seconds
    (i =  22 of  28)          3 seconds
    (i =  23 of  28)          3 seconds
    (i =  24 of  28)          4 seconds
    (i =  25 of  28)          4 seconds
    (i =  26 of  28)          4 seconds
    (i =  27 of  28)          4 seconds
    (i =  28 of  28)          4 seconds

    Disp202 (T)         =    -0.000116064473 [Eh]

    Disp22 (T)          =    -0.000243426518 [Eh]

    Est. Disp220 (T)    =    -0.000137065075 [Eh]
    Est. Disp202 (T)    =    -0.000124906803 [Eh]

    Est. Disp22 (T)     =    -0.000261971878 [Eh]
    Elst13,r            =     0.000070380410 [Eh]
    Disp30              =     0.000018765273 [Eh]

    SAPT Results 
  --------------------------------------------------------------------------------------------------------
    Electrostatics                 -3.77114942 [mEh]      -2.36643199 [kcal/mol]      -9.90115145 [kJ/mol]
      Elst10,r                     -3.88526923 [mEh]      -2.43804325 [kcal/mol]     -10.20077296 [kJ/mol]
      Elst12,r                      0.04373940 [mEh]       0.02744689 [kcal/mol]       0.11483777 [kJ/mol]
      Elst13,r                      0.07038041 [mEh]       0.04416437 [kcal/mol]       0.18478374 [kJ/mol]

    Exchange                        1.11211136 [mEh]       0.69786042 [kcal/mol]       2.91984798 [kJ/mol]
      Exch10                        0.81867463 [mEh]       0.51372608 [kcal/mol]       2.14942994 [kJ/mol]
      Exch10(S^2)                   0.81821720 [mEh]       0.51343904 [kcal/mol]       2.14822896 [kJ/mol]
      Exch11(S^2)                   0.00040010 [mEh]       0.00025106 [kcal/mol]       0.00105045 [kJ/mol]
      Exch12(S^2)                   0.29303664 [mEh]       0.18388327 [kcal/mol]       0.76936758 [kJ/mol]

    Induction                      -0.53217817 [mEh]      -0.33394684 [kcal/mol]      -1.39723360 [kJ/mol]
      Ind20,r                      -0.52873516 [mEh]      -0.33178632 [kcal/mol]      -1.38819397 [kJ/mol]
      Ind22                        -0.10016334 [mEh]      -0.06285344 [kcal/mol]      -0.26297880 [kJ/mol]
      Exch-Ind20,r                  0.15290456 [mEh]       0.09594906 [kcal/mol]       0.40145087 [kJ/mol]
      Exch-Ind22                    0.02896617 [mEh]       0.01817654 [kcal/mol]       0.07605066 [kJ/mol]
      delta HF,r (2)               -0.09081416 [mEh]      -0.05698674 [kcal/mol]      -0.23843253 [kJ/mol]
      delta MP2,r (2)               0.00566375 [mEh]       0.00355406 [kcal/mol]       0.01487018 [kJ/mol]

    Dispersion                     -1.48806991 [mEh]      -0.93377796 [kcal/mol]      -3.90692700 [kJ/mol]
      Disp20                       -1.33157561 [mEh]      -0.83557631 [kcal/mol]      -3.49605127 [kJ/mol]
      Disp30                        0.01876527 [mEh]       0.01177539 [kcal/mol]       0.04926822 [kJ/mol]
      Disp21                        0.09149783 [mEh]       0.05741575 [kcal/mol]       0.24022751 [kJ/mol]
      Disp22 (SDQ)                 -0.07455470 [mEh]      -0.04678378 [kcal/mol]      -0.19574334 [kJ/mol]
      Disp22 (T)                   -0.24342652 [mEh]      -0.15275245 [kcal/mol]      -0.63911623 [kJ/mol]
      Est. Disp22 (T)              -0.26197188 [mEh]      -0.16438984 [kcal/mol]      -0.68780707 [kJ/mol]
      Exch-Disp20                   0.06976918 [mEh]       0.04378082 [kcal/mol]       0.18317895 [kJ/mol]

  Total HF                         -3.53323936 [mEh]      -2.21714117 [kcal/mol]      -9.27651866 [kJ/mol]
  Total SAPT0                      -4.79504579 [mEh]      -3.00893666 [kcal/mol]     -12.58939097 [kJ/mol]
  Total SAPT2                      -4.52906682 [mEh]      -2.84203234 [kcal/mol]     -11.89106330 [kJ/mol]
  Total SAPT2+                     -4.77409558 [mEh]      -2.99579020 [kcal/mol]     -12.53438621 [kJ/mol]
  Total SAPT2+(3)                  -4.68494989 [mEh]      -2.93985044 [kcal/mol]     -12.30033425 [kJ/mol]
  Total SAPT2+dMP2                 -4.76843182 [mEh]      -2.99223614 [kcal/mol]     -12.51951603 [kJ/mol]
  Total SAPT2+(3)dMP2              -4.67928614 [mEh]      -2.93629638 [kcal/mol]     -12.28546407 [kJ/mol]

  Special recipe for scaled SAPT0 (see Manual):
    Electrostatics sSAPT0          -3.88526923 [mEh]      -2.43804325 [kcal/mol]     -10.20077296 [kJ/mol]
    Exchange sSAPT0                 0.81867463 [mEh]       0.51372608 [kcal/mol]       2.14942994 [kJ/mol]
    Induction sSAPT0               -0.46638816 [mEh]      -0.29266299 [kcal/mol]      -1.22450195 [kJ/mol]
    Dispersion sSAPT0              -1.26168935 [mEh]      -0.79172202 [kcal/mol]      -3.31256492 [kJ/mol]
  Total sSAPT0                     -4.79467211 [mEh]      -3.00870218 [kcal/mol]     -12.58840990 [kJ/mol]
  --------------------------------------------------------------------------------------------------------

*** tstop() called on node150.bme.utexas.edu at Mon May 13 10:31:29 2024
Module time:
	user time   =    2145.94 seconds =      35.77 minutes
	system time =      28.69 seconds =       0.48 minutes
	total time  =        284 seconds =       4.73 minutes
Total time:
	user time   =    2263.71 seconds =      37.73 minutes
	system time =      31.04 seconds =       0.52 minutes
	total time  =        302 seconds =       5.03 minutes

    Psi4 stopped on: Monday, 13 May 2024 10:31AM
    Psi4 wall time for execution: 0:05:01.83

*** Psi4 exiting successfully. Buy a developer a beer!
