
    -----------------------------------------------------------------------
          Psi4: An Open-Source Ab Initio Electronic Structure Package
                               Psi4 1.5 release

                         Git: Rev {HEAD} e9f4d6d 


    D. G. A. Smith, L. A. Burns, A. C. Simmonett, R. M. Parrish,
    M. C. Schieber, R. Galvelis, P. Kraus, H. Kruse, R. Di Remigio,
    A. Alenaizan, A. M. James, S. Lehtola, J. P. Misiewicz, M. Scheurer,
    R. A. Shaw, J. B. Schriber, Y. Xie, Z. L. Glick, D. A. Sirianni,
    J. S. O'Brien, J. M. Waldrop, A. Kumar, E. G. Hohenstein,
    B. P. Pritchard, B. R. Brooks, H. F. Schaefer III, A. Yu. Sokolov,
    K. Patkowski, A. E. DePrince III, U. Bozkaya, R. A. King,
    F. A. Evangelista, J. M. Turney, T. D. Crawford, C. D. Sherrill,
    J. Chem. Phys. 152(18) 184108 (2020). https://doi.org/10.1063/5.0006002

                            Additional Code Authors
    E. T. Seidl, C. L. Janssen, E. F. Valeev, M. L. Leininger,
    J. F. Gonthier, R. M. Richard, H. R. McAlexander, M. Saitow, X. Wang,
    P. Verma, M. H. Lechner, and A. Jiang

             Previous Authors, Complete List of Code Contributors,
                       and Citations for Specific Modules
    https://github.com/psi4/psi4/blob/master/codemeta.json
    https://github.com/psi4/psi4/graphs/contributors
    http://psicode.org/psi4manual/master/introduction.html#citing-psifour

    -----------------------------------------------------------------------


    Psi4 started on: Monday, 13 May 2024 10:27AM

    Process ID: 2460463
    Host:       node111.bme.utexas.edu
    PSIDATADIR: /opt/anaconda/envs/psi4v1.5/share/psi4
    Memory:     500.0 MiB
    Threads:    8
    
  ==> Input File <==

--------------------------------------------------------------------------
memory 50GB

molecule {
0 1
N 1.63335 -1.12327 -0.03993
H 2.5985 -0.77999 -0.05402
C 1.13519 -2.40064 -0.03329
H 1.78392 -3.2669 -0.04417
N -0.19102 -2.44582 -0.01281
C -0.56184 -1.12072 -0.00974
C -1.87569 -0.5308 0.0247
O -2.98967 -1.03682 0.06593
N -1.74634 0.89839 0.01527
C -0.58713 1.6265 -0.02179
N -0.72702 3.00354 0.04493
N 0.60817 1.0862 -0.04401
C 0.55385 -0.28546 -0.02031
H -2.63551 1.3822 0.11841
H -1.4943 3.38575 -0.49841
H 0.14852 3.47524 -0.15709
--
0 1
O 3.148628125 0.8684295833333333 -0.03836489583333333
H 3.457638125 1.1281095833333332 0.8437751041666667
H 2.258218125 1.2744695833333333 -0.11319489583333334
 units angstrom
 no_reorient
 symmetry c1} 
set  {scf_type DF
 basis aug-cc-pvdz
 freeze_core True
 guess SAD}
energy('sapt2+(3)dmp2')
--------------------------------------------------------------------------

  Memory set to  46.566 GiB by Python driver.

Scratch directory: /tmp/
   => Loading Basis Set <=

    Name: AUG-CC-PVDZ
    Role: ORBITAL
    Keyword: BASIS
    atoms 1, 5, 9, 11-12     entry N          line   218 file /opt/anaconda/envs/psi4v1.5/share/psi4/basis/aug-cc-pvdz.gbs 
    atoms 2, 4, 14-16, 18-19 entry H          line    40 file /opt/anaconda/envs/psi4v1.5/share/psi4/basis/aug-cc-pvdz.gbs 
    atoms 3, 6-7, 10, 13     entry C          line   182 file /opt/anaconda/envs/psi4v1.5/share/psi4/basis/aug-cc-pvdz.gbs 
    atoms 8, 17              entry O          line   254 file /opt/anaconda/envs/psi4v1.5/share/psi4/basis/aug-cc-pvdz.gbs 

   => Loading Basis Set <=

    Name: AUG-CC-PVDZ
    Role: ORBITAL
    Keyword: BASIS
    atoms 1, 5, 9, 11-12     entry N          line   218 file /opt/anaconda/envs/psi4v1.5/share/psi4/basis/aug-cc-pvdz.gbs 
    atoms 2, 4, 14-16, 18-19 entry H          line    40 file /opt/anaconda/envs/psi4v1.5/share/psi4/basis/aug-cc-pvdz.gbs 
    atoms 3, 6-7, 10, 13     entry C          line   182 file /opt/anaconda/envs/psi4v1.5/share/psi4/basis/aug-cc-pvdz.gbs 
    atoms 8, 17              entry O          line   254 file /opt/anaconda/envs/psi4v1.5/share/psi4/basis/aug-cc-pvdz.gbs 


  //>>>>>>>>>>>>>>>>>>>>>>>>>>>>>>>>>>>//
  //              Dimer HF             //
  //<<<<<<<<<<<<<<<<<<<<<<<<<<<<<<<<<<<//


*** tstart() called on node111.bme.utexas.edu
*** at Mon May 13 10:27:41 2024

   => Loading Basis Set <=

    Name: AUG-CC-PVDZ
    Role: ORBITAL
    Keyword: BASIS
    atoms 1, 5, 9, 11-12     entry N          line   218 file /opt/anaconda/envs/psi4v1.5/share/psi4/basis/aug-cc-pvdz.gbs 
    atoms 2, 4, 14-16, 18-19 entry H          line    40 file /opt/anaconda/envs/psi4v1.5/share/psi4/basis/aug-cc-pvdz.gbs 
    atoms 3, 6-7, 10, 13     entry C          line   182 file /opt/anaconda/envs/psi4v1.5/share/psi4/basis/aug-cc-pvdz.gbs 
    atoms 8, 17              entry O          line   254 file /opt/anaconda/envs/psi4v1.5/share/psi4/basis/aug-cc-pvdz.gbs 


         ---------------------------------------------------------
                                   SCF
               by Justin Turney, Rob Parrish, Andy Simmonett
                          and Daniel G. A. Smith
                              RHF Reference
                        8 Threads,  47683 MiB Core
         ---------------------------------------------------------

  ==> Geometry <==

    Molecular point group: c1
    Full point group: C1

    Geometry (in Angstrom), charge = 0, multiplicity = 1:

       Center              X                  Y                   Z               Mass       
    ------------   -----------------  -----------------  -----------------  -----------------
         N            1.711673721577    -1.071777074962    -0.035789310083    14.003074004430
         H            2.676823721577    -0.728497074962    -0.049879310083     1.007825032230
         C            1.213513721577    -2.349147074962    -0.029149310083    12.000000000000
         H            1.862243721577    -3.215407074962    -0.040029310083     1.007825032230
         N           -0.112696278423    -2.394327074962    -0.008669310083    14.003074004430
         C           -0.483516278423    -1.069227074962    -0.005599310083    12.000000000000
         C           -1.797366278423    -0.479307074962     0.028840689917    12.000000000000
         O           -2.911346278423    -0.985327074962     0.070070689917    15.994914619570
         N           -1.668016278423     0.949882925038     0.019410689917    14.003074004430
         C           -0.508806278423     1.677992925038    -0.017649310083    12.000000000000
         N           -0.648696278423     3.055032925038     0.049070689917    14.003074004430
         N            0.686493721577     1.137692925038    -0.039869310083    14.003074004430
         C            0.632173721577    -0.233967074962    -0.016169310083    12.000000000000
         H           -2.557186278423     1.433692925038     0.122550689917     1.007825032230
         H           -1.415976278423     3.437242925038    -0.494269310083     1.007825032230
         H            0.226843721577     3.526732925038    -0.152949310083     1.007825032230
         O            3.226951846577     0.919922508372    -0.034224205916    15.994914619570
         H            3.535961846577     1.179602508372     0.847915794084     1.007825032230
         H            2.336541846577     1.325962508372    -0.109054205916     1.007825032230

  Running in c1 symmetry.

  Rotational constants: A =      0.03786  B =      0.03363  C =      0.01786 [cm^-1]
  Rotational constants: A =   1135.03829  B =   1008.27160  C =    535.28161 [MHz]
  Nuclear repulsion =  711.898280609222411

  Charge       = 0
  Multiplicity = 1
  Electrons    = 88
  Nalpha       = 44
  Nbeta        = 44

  ==> Algorithm <==

  SCF Algorithm Type is DF.
  DIIS enabled.
  MOM disabled.
  Fractional occupation disabled.
  Guess Type is SAD.
  Energy threshold   = 1.00e-08
  Density threshold  = 1.00e-08
  Integral threshold = 1.00e-12

  ==> Primary Basis <==

  Basis Set: AUG-CC-PVDZ
    Blend: AUG-CC-PVDZ
    Number of shells: 143
    Number of basis functions: 339
    Number of Cartesian functions: 363
    Spherical Harmonics?: true
    Max angular momentum: 2

   => Loading Basis Set <=

    Name: (AUG-CC-PVDZ AUX)
    Role: JKFIT
    Keyword: DF_BASIS_SCF
    atoms 1, 5, 9, 11-12     entry N          line   212 file /opt/anaconda/envs/psi4v1.5/share/psi4/basis/aug-cc-pvdz-jkfit.gbs 
    atoms 2, 4, 14-16, 18-19 entry H          line    70 file /opt/anaconda/envs/psi4v1.5/share/psi4/basis/aug-cc-pvdz-jkfit.gbs 
    atoms 3, 6-7, 10, 13     entry C          line   154 file /opt/anaconda/envs/psi4v1.5/share/psi4/basis/aug-cc-pvdz-jkfit.gbs 
    atoms 8, 17              entry O          line   270 file /opt/anaconda/envs/psi4v1.5/share/psi4/basis/aug-cc-pvdz-jkfit.gbs 

  ==> Integral Setup <==

  ==> DiskDFJK: Density-Fitted J/K Matrices <==

    J tasked:                  Yes
    K tasked:                  Yes
    wK tasked:                  No
    OpenMP threads:              8
    Integrals threads:           8
    Memory [MiB]:            35762
    Algorithm:                Core
    Integral Cache:           SAVE
    Schwarz Cutoff:          1E-12
    Fitting Condition:       1E-10

   => Auxiliary Basis Set <=

  Basis Set: (AUG-CC-PVDZ AUX)
    Blend: AUG-CC-PVDZ-JKFIT
    Number of shells: 420
    Number of basis functions: 1256
    Number of Cartesian functions: 1457
    Spherical Harmonics?: true
    Max angular momentum: 3

  Minimum eigenvalue in the overlap matrix is 4.5799543484E-06.
  Reciprocal condition number of the overlap matrix is 2.9304240492E-07.
    Using symmetric orthogonalization.

  ==> Pre-Iterations <==

  SCF Guess: Superposition of Atomic Densities via on-the-fly atomic UHF (no occupation information).

   -------------------------
    Irrep   Nso     Nmo    
   -------------------------
     A        339     339 
   -------------------------
    Total     339     339
   -------------------------

  ==> Iterations <==

                           Total Energy        Delta E     RMS |[F,P]|

   @DF-RHF iter SAD:  -615.05731197662340   -6.15057e+02   0.00000e+00 
   @DF-RHF iter   1:  -615.14114482777120   -8.38329e-02   2.54745e-03 DIIS
   @DF-RHF iter   2:  -615.40372250235271   -2.62578e-01   1.49605e-03 DIIS
   @DF-RHF iter   3:  -615.49993096273545   -9.62085e-02   2.89455e-04 DIIS
   @DF-RHF iter   4:  -615.50529563687917   -5.36467e-03   1.24399e-04 DIIS
   @DF-RHF iter   5:  -615.50633680877968   -1.04117e-03   2.76135e-05 DIIS
   @DF-RHF iter   6:  -615.50644024231519   -1.03434e-04   1.35029e-05 DIIS
   @DF-RHF iter   7:  -615.50646971187643   -2.94696e-05   4.87542e-06 DIIS
   @DF-RHF iter   8:  -615.50647420384769   -4.49197e-06   1.78553e-06 DIIS
   @DF-RHF iter   9:  -615.50647475110429   -5.47257e-07   7.52627e-07 DIIS
   @DF-RHF iter  10:  -615.50647484749925   -9.63950e-08   2.87931e-07 DIIS
   @DF-RHF iter  11:  -615.50647486084802   -1.33488e-08   1.09363e-07 DIIS
   @DF-RHF iter  12:  -615.50647486266814   -1.82013e-09   3.40484e-08 DIIS
   @DF-RHF iter  13:  -615.50647486285914   -1.90994e-10   1.59228e-08 DIIS
   @DF-RHF iter  14:  -615.50647486289324   -3.41061e-11   5.84402e-09 DIIS
  Energy and wave function converged.


  ==> Post-Iterations <==

    Orbital Energies [Eh]
    ---------------------

    Doubly Occupied:                                                      

       1A    -20.570287     2A    -20.540361     3A    -15.646401  
       4A    -15.632700     5A    -15.624439     6A    -15.595012  
       7A    -15.567959     8A    -11.418905     9A    -11.380662  
      10A    -11.331466    11A    -11.313768    12A    -11.257673  
      13A     -1.403990    14A     -1.371857    15A     -1.353273  
      16A     -1.342207    17A     -1.233126    18A     -1.229578  
      19A     -1.175436    20A     -1.035344    21A     -0.909907  
      22A     -0.897717    23A     -0.843740    24A     -0.806968  
      25A     -0.751567    26A     -0.739601    27A     -0.719840  
      28A     -0.707880    29A     -0.681078    30A     -0.661223  
      31A     -0.637456    32A     -0.624580    33A     -0.600945  
      34A     -0.594739    35A     -0.584503    36A     -0.555038  
      37A     -0.525434    38A     -0.490474    39A     -0.471417  
      40A     -0.446044    41A     -0.438529    42A     -0.435741  
      43A     -0.404028    44A     -0.304626  

    Virtual:                                                              

      45A      0.016413    46A      0.031697    47A      0.040427  
      48A      0.048927    49A      0.063063    50A      0.065890  
      51A      0.079690    52A      0.090009    53A      0.097114  
      54A      0.101695    55A      0.105330    56A      0.117041  
      57A      0.120266    58A      0.126243    59A      0.131291  
      60A      0.136612    61A      0.141195    62A      0.148684  
      63A      0.149629    64A      0.153393    65A      0.159407  
      66A      0.163241    67A      0.174756    68A      0.176810  
      69A      0.184753    70A      0.190507    71A      0.196261  
      72A      0.205669    73A      0.210802    74A      0.213467  
      75A      0.218073    76A      0.223639    77A      0.227179  
      78A      0.240885    79A      0.245603    80A      0.255527  
      81A      0.262717    82A      0.266656    83A      0.273436  
      84A      0.285393    85A      0.290562    86A      0.294016  
      87A      0.298843    88A      0.304256    89A      0.310742  
      90A      0.316375    91A      0.318658    92A      0.334652  
      93A      0.339191    94A      0.346828    95A      0.351476  
      96A      0.360043    97A      0.366898    98A      0.368350  
      99A      0.373962   100A      0.377859   101A      0.384238  
     102A      0.395878   103A      0.401970   104A      0.404600  
     105A      0.411257   106A      0.413485   107A      0.417114  
     108A      0.430052   109A      0.435751   110A      0.443775  
     111A      0.448874   112A      0.450726   113A      0.457639  
     114A      0.467229   115A      0.473221   116A      0.478186  
     117A      0.485072   118A      0.497678   119A      0.499276  
     120A      0.520551   121A      0.524912   122A      0.537678  
     123A      0.544497   124A      0.544805   125A      0.560760  
     126A      0.567881   127A      0.573742   128A      0.586801  
     129A      0.587455   130A      0.603238   131A      0.611463  
     132A      0.623206   133A      0.633056   134A      0.633708  
     135A      0.650247   136A      0.655951   137A      0.661691  
     138A      0.671298   139A      0.674315   140A      0.683961  
     141A      0.693349   142A      0.696785   143A      0.704647  
     144A      0.708868   145A      0.710540   146A      0.730854  
     147A      0.734563   148A      0.748453   149A      0.749637  
     150A      0.755736   151A      0.763510   152A      0.784576  
     153A      0.789848   154A      0.802564   155A      0.807860  
     156A      0.820160   157A      0.830995   158A      0.834931  
     159A      0.845579   160A      0.851513   161A      0.857382  
     162A      0.874743   163A      0.885462   164A      0.891112  
     165A      0.898779   166A      0.900435   167A      0.913326  
     168A      0.921202   169A      0.933234   170A      0.933587  
     171A      0.946371   172A      0.960901   173A      0.971005  
     174A      0.993998   175A      1.009921   176A      1.014396  
     177A      1.023082   178A      1.029539   179A      1.040906  
     180A      1.043576   181A      1.053973   182A      1.063650  
     183A      1.068877   184A      1.088269   185A      1.098946  
     186A      1.106131   187A      1.119306   188A      1.130366  
     189A      1.131876   190A      1.144266   191A      1.156004  
     192A      1.169856   193A      1.182474   194A      1.201802  
     195A      1.214928   196A      1.229433   197A      1.238432  
     198A      1.252167   199A      1.267103   200A      1.281933  
     201A      1.294890   202A      1.304201   203A      1.311327  
     204A      1.314514   205A      1.347132   206A      1.359220  
     207A      1.365332   208A      1.407018   209A      1.416899  
     210A      1.421163   211A      1.453377   212A      1.480820  
     213A      1.490617   214A      1.511683   215A      1.521696  
     216A      1.538752   217A      1.551184   218A      1.567718  
     219A      1.584052   220A      1.593674   221A      1.599972  
     222A      1.614451   223A      1.637081   224A      1.654208  
     225A      1.663895   226A      1.699685   227A      1.710797  
     228A      1.732033   229A      1.747180   230A      1.752953  
     231A      1.768448   232A      1.776170   233A      1.791866  
     234A      1.804705   235A      1.820547   236A      1.836445  
     237A      1.848526   238A      1.858656   239A      1.890191  
     240A      1.893406   241A      1.902300   242A      1.923150  
     243A      1.955179   244A      1.966502   245A      1.990363  
     246A      2.006610   247A      2.020923   248A      2.034673  
     249A      2.046109   250A      2.051641   251A      2.074969  
     252A      2.095595   253A      2.115050   254A      2.122244  
     255A      2.130644   256A      2.164553   257A      2.175810  
     258A      2.193054   259A      2.204654   260A      2.209056  
     261A      2.235007   262A      2.277371   263A      2.296727  
     264A      2.300327   265A      2.312653   266A      2.322931  
     267A      2.340536   268A      2.345040   269A      2.351681  
     270A      2.368014   271A      2.374030   272A      2.407414  
     273A      2.416934   274A      2.425483   275A      2.442303  
     276A      2.474814   277A      2.484490   278A      2.504869  
     279A      2.527553   280A      2.540737   281A      2.573134  
     282A      2.584007   283A      2.624100   284A      2.644675  
     285A      2.655223   286A      2.670877   287A      2.684990  
     288A      2.725253   289A      2.730230   290A      2.753789  
     291A      2.766413   292A      2.777448   293A      2.793241  
     294A      2.802214   295A      2.814304   296A      2.830032  
     297A      2.843405   298A      2.854422   299A      2.859189  
     300A      2.892271   301A      2.901862   302A      2.926030  
     303A      2.947855   304A      2.982979   305A      3.002160  
     306A      3.018869   307A      3.035493   308A      3.053059  
     309A      3.077045   310A      3.151244   311A      3.211046  
     312A      3.236990   313A      3.251734   314A      3.260237  
     315A      3.283554   316A      3.308747   317A      3.335892  
     318A      3.408754   319A      3.418789   320A      3.427308  
     321A      3.546245   322A      3.568618   323A      3.612667  
     324A      3.681951   325A      3.759029   326A      3.764990  
     327A      3.786444   328A      3.799483   329A      3.834523  
     330A      3.852362   331A      3.861617   332A      3.949140  
     333A      3.983710   334A      4.067242   335A      4.105137  
     336A      4.187711   337A      4.234315   338A      4.414750  
     339A      4.472813  

    Final Occupation by Irrep:
              A 
    DOCC [    44 ]

  @DF-RHF Final Energy:  -615.50647486289324

   => Energetics <=

    Nuclear Repulsion Energy =            711.8982806092224109
    One-Electron Energy =               -2253.0944814255026358
    Two-Electron Energy =                 925.6897259533869828
    Total Energy =                       -615.5064748628932421

Computation Completed


Properties will be evaluated at   0.000000,   0.000000,   0.000000 [a0]

Properties computed using the SCF density matrix

  Nuclear Dipole Moment: [e a0]
     X:     6.2501      Y:     6.5190      Z:     0.1167

  Electronic Dipole Moment: [e a0]
     X:    -4.9824      Y:    -3.9230      Z:    -0.0390

  Dipole Moment: [e a0]
     X:     1.2677      Y:     2.5960      Z:     0.0778     Total:     2.8900

  Dipole Moment: [D]
     X:     3.2221      Y:     6.5983      Z:     0.1976     Total:     7.3456


*** tstop() called on node111.bme.utexas.edu at Mon May 13 10:27:50 2024
Module time:
	user time   =      59.92 seconds =       1.00 minutes
	system time =       0.85 seconds =       0.01 minutes
	total time  =          9 seconds =       0.15 minutes
Total time:
	user time   =      59.92 seconds =       1.00 minutes
	system time =       0.85 seconds =       0.01 minutes
	total time  =          9 seconds =       0.15 minutes

*** tstart() called on node111.bme.utexas.edu
*** at Mon May 13 10:27:50 2024


  //>>>>>>>>>>>>>>>>>>>>>>>>>>>>>>>>>>>//
  //               DFMP2               //
  //<<<<<<<<<<<<<<<<<<<<<<<<<<<<<<<<<<<//

   => Loading Basis Set <=

    Name: (AUG-CC-PVDZ AUX)
    Role: RIFIT
    Keyword: DF_BASIS_MP2
    atoms 1, 5, 9, 11-12     entry N          line   158 file /opt/anaconda/envs/psi4v1.5/share/psi4/basis/aug-cc-pvdz-ri.gbs 
    atoms 2, 4, 14-16, 18-19 entry H          line    30 file /opt/anaconda/envs/psi4v1.5/share/psi4/basis/aug-cc-pvdz-ri.gbs 
    atoms 3, 6-7, 10, 13     entry C          line   112 file /opt/anaconda/envs/psi4v1.5/share/psi4/basis/aug-cc-pvdz-ri.gbs 
    atoms 8, 17              entry O          line   204 file /opt/anaconda/envs/psi4v1.5/share/psi4/basis/aug-cc-pvdz-ri.gbs 

	 --------------------------------------------------------
	                          DF-MP2                         
	      2nd-Order Density-Fitted Moller-Plesset Theory     
	              RMP2 Wavefunction,   8 Threads             
	                                                         
	        Rob Parrish, Justin Turney, Andy Simmonett,      
	           Ed Hohenstein, and C. David Sherrill          
	 --------------------------------------------------------

   => Auxiliary Basis Set <=

  Basis Set: (AUG-CC-PVDZ AUX)
    Blend: AUG-CC-PVDZ-RI
    Number of shells: 327
    Number of basis functions: 1025
    Number of Cartesian functions: 1207
    Spherical Harmonics?: true
    Max angular momentum: 3

	 --------------------------------------------------------
	                 NBF =   339, NAUX =  1025
	 --------------------------------------------------------
	   CLASS    FOCC     OCC    AOCC    AVIR     VIR    FVIR
	   PAIRS      12      44      32     295     295       0
	 --------------------------------------------------------

	 Will save fitting metric to file 97.

	-----------------------------------------------------------
	 ==================> DF-MP2 Energies <==================== 
	-----------------------------------------------------------
	 Reference Energy          =    -615.5064748628932421 [Eh]
	 Singles Energy            =      -0.0000000000000000 [Eh]
	 Same-Spin Energy          =      -0.5390801376125396 [Eh]
	 Opposite-Spin Energy      =      -1.3993135607715772 [Eh]
	 Correlation Energy        =      -1.9383936983841168 [Eh]
	 Total Energy              =    -617.4448685612773033 [Eh]
	-----------------------------------------------------------
	 ================> DF-SCS-MP2 Energies <================== 
	-----------------------------------------------------------
	 SCS Same-Spin Scale       =       0.3333333333333333 [-]
	 SCS Opposite-Spin Scale   =       1.2000000000000000 [-]
	 SCS Same-Spin Energy      =      -0.1796933792041799 [Eh]
	 SCS Opposite-Spin Energy  =      -1.6791762729258926 [Eh]
	 SCS Correlation Energy    =      -1.8588696521300725 [Eh]
	 SCS Total Energy          =    -617.3653445150233665 [Eh]
	-----------------------------------------------------------


*** tstop() called on node111.bme.utexas.edu at Mon May 13 10:27:52 2024
Module time:
	user time   =      13.93 seconds =       0.23 minutes
	system time =       0.26 seconds =       0.00 minutes
	total time  =          2 seconds =       0.03 minutes
Total time:
	user time   =      73.85 seconds =       1.23 minutes
	system time =       1.11 seconds =       0.02 minutes
	total time  =         11 seconds =       0.18 minutes

  //>>>>>>>>>>>>>>>>>>>>>>>>>>>>>>>>>>>//
  //            Monomer A HF           //
  //<<<<<<<<<<<<<<<<<<<<<<<<<<<<<<<<<<<//


*** tstart() called on node111.bme.utexas.edu
*** at Mon May 13 10:27:52 2024

   => Loading Basis Set <=

    Name: AUG-CC-PVDZ
    Role: ORBITAL
    Keyword: BASIS
    atoms 1, 5, 9, 11-12     entry N          line   218 file /opt/anaconda/envs/psi4v1.5/share/psi4/basis/aug-cc-pvdz.gbs 
    atoms 2, 4, 14-16, 18-19 entry H          line    40 file /opt/anaconda/envs/psi4v1.5/share/psi4/basis/aug-cc-pvdz.gbs 
    atoms 3, 6-7, 10, 13     entry C          line   182 file /opt/anaconda/envs/psi4v1.5/share/psi4/basis/aug-cc-pvdz.gbs 
    atoms 8, 17              entry O          line   254 file /opt/anaconda/envs/psi4v1.5/share/psi4/basis/aug-cc-pvdz.gbs 


         ---------------------------------------------------------
                                   SCF
               by Justin Turney, Rob Parrish, Andy Simmonett
                          and Daniel G. A. Smith
                              RHF Reference
                        8 Threads,  47683 MiB Core
         ---------------------------------------------------------

  ==> Geometry <==

    Molecular point group: c1
    Full point group: C1

    Geometry (in Angstrom), charge = 0, multiplicity = 1:

       Center              X                  Y                   Z               Mass       
    ------------   -----------------  -----------------  -----------------  -----------------
         N            1.711673721577    -1.071777074962    -0.035789310083    14.003074004430
         H            2.676823721577    -0.728497074962    -0.049879310083     1.007825032230
         C            1.213513721577    -2.349147074962    -0.029149310083    12.000000000000
         H            1.862243721577    -3.215407074962    -0.040029310083     1.007825032230
         N           -0.112696278423    -2.394327074962    -0.008669310083    14.003074004430
         C           -0.483516278423    -1.069227074962    -0.005599310083    12.000000000000
         C           -1.797366278423    -0.479307074962     0.028840689917    12.000000000000
         O           -2.911346278423    -0.985327074962     0.070070689917    15.994914619570
         N           -1.668016278423     0.949882925038     0.019410689917    14.003074004430
         C           -0.508806278423     1.677992925038    -0.017649310083    12.000000000000
         N           -0.648696278423     3.055032925038     0.049070689917    14.003074004430
         N            0.686493721577     1.137692925038    -0.039869310083    14.003074004430
         C            0.632173721577    -0.233967074962    -0.016169310083    12.000000000000
         H           -2.557186278423     1.433692925038     0.122550689917     1.007825032230
         H           -1.415976278423     3.437242925038    -0.494269310083     1.007825032230
         H            0.226843721577     3.526732925038    -0.152949310083     1.007825032230
      Gh(O)           3.226951846577     0.919922508372    -0.034224205916    15.994914619570
      Gh(H)           3.535961846577     1.179602508372     0.847915794084     1.007825032230
      Gh(H)           2.336541846577     1.325962508372    -0.109054205916     1.007825032230

  Running in c1 symmetry.

  Rotational constants: A =      0.03786  B =      0.03363  C =      0.01786 [cm^-1]
  Rotational constants: A =   1135.03829  B =   1008.27160  C =    535.28161 [MHz]
  Nuclear repulsion =  593.411028235148706

  Charge       = 0
  Multiplicity = 1
  Electrons    = 78
  Nalpha       = 39
  Nbeta        = 39

  ==> Algorithm <==

  SCF Algorithm Type is DF.
  DIIS enabled.
  MOM disabled.
  Fractional occupation disabled.
  Guess Type is SAD.
  Energy threshold   = 1.00e-08
  Density threshold  = 1.00e-08
  Integral threshold = 1.00e-12

  ==> Primary Basis <==

  Basis Set: AUG-CC-PVDZ
    Blend: AUG-CC-PVDZ
    Number of shells: 143
    Number of basis functions: 339
    Number of Cartesian functions: 363
    Spherical Harmonics?: true
    Max angular momentum: 2

   => Loading Basis Set <=

    Name: (AUG-CC-PVDZ AUX)
    Role: JKFIT
    Keyword: DF_BASIS_SCF
    atoms 1, 5, 9, 11-12     entry N          line   212 file /opt/anaconda/envs/psi4v1.5/share/psi4/basis/aug-cc-pvdz-jkfit.gbs 
    atoms 2, 4, 14-16, 18-19 entry H          line    70 file /opt/anaconda/envs/psi4v1.5/share/psi4/basis/aug-cc-pvdz-jkfit.gbs 
    atoms 3, 6-7, 10, 13     entry C          line   154 file /opt/anaconda/envs/psi4v1.5/share/psi4/basis/aug-cc-pvdz-jkfit.gbs 
    atoms 8, 17              entry O          line   270 file /opt/anaconda/envs/psi4v1.5/share/psi4/basis/aug-cc-pvdz-jkfit.gbs 

  ==> Integral Setup <==

  ==> DiskDFJK: Density-Fitted J/K Matrices <==

    J tasked:                  Yes
    K tasked:                  Yes
    wK tasked:                  No
    OpenMP threads:              8
    Integrals threads:           8
    Memory [MiB]:            35762
    Algorithm:                Core
    Integral Cache:           LOAD
    Schwarz Cutoff:          1E-12
    Fitting Condition:       1E-10

   => Auxiliary Basis Set <=

  Basis Set: (AUG-CC-PVDZ AUX)
    Blend: AUG-CC-PVDZ-JKFIT
    Number of shells: 420
    Number of basis functions: 1256
    Number of Cartesian functions: 1457
    Spherical Harmonics?: true
    Max angular momentum: 3

  Minimum eigenvalue in the overlap matrix is 4.5799543484E-06.
  Reciprocal condition number of the overlap matrix is 2.9304240492E-07.
    Using symmetric orthogonalization.

  ==> Pre-Iterations <==

  SCF Guess: Superposition of Atomic Densities via on-the-fly atomic UHF (no occupation information).

   -------------------------
    Irrep   Nso     Nmo    
   -------------------------
     A        339     339 
   -------------------------
    Total     339     339
   -------------------------

  ==> Iterations <==

                           Total Energy        Delta E     RMS |[F,P]|

   @DF-RHF iter SAD:  -539.19429178729422   -5.39194e+02   0.00000e+00 
   @DF-RHF iter   1:  -539.16559527400671    2.86965e-02   2.25955e-03 DIIS
   @DF-RHF iter   2:  -539.38837659397097   -2.22781e-01   1.30540e-03 DIIS
   @DF-RHF iter   3:  -539.46418906676001   -7.58125e-02   2.81264e-04 DIIS
   @DF-RHF iter   4:  -539.46924013786918   -5.05107e-03   1.13038e-04 DIIS
   @DF-RHF iter   5:  -539.47016889310646   -9.28755e-04   2.35838e-05 DIIS
   @DF-RHF iter   6:  -539.47026410361241   -9.52105e-05   1.24295e-05 DIIS
   @DF-RHF iter   7:  -539.47028912388987   -2.50203e-05   5.08120e-06 DIIS
   @DF-RHF iter   8:  -539.47029356375833   -4.43987e-06   1.80366e-06 DIIS
   @DF-RHF iter   9:  -539.47029408799654   -5.24238e-07   6.84054e-07 DIIS
   @DF-RHF iter  10:  -539.47029417796728   -8.99707e-08   2.69098e-07 DIIS
   @DF-RHF iter  11:  -539.47029418996897   -1.20017e-08   9.40469e-08 DIIS
   @DF-RHF iter  12:  -539.47029419145235   -1.48339e-09   3.26166e-08 DIIS
   @DF-RHF iter  13:  -539.47029419162413   -1.71781e-10   1.52377e-08 DIIS
   @DF-RHF iter  14:  -539.47029419165347   -2.93312e-11   5.05617e-09 DIIS
  Energy and wave function converged.


  ==> Post-Iterations <==

    Orbital Energies [Eh]
    ---------------------

    Doubly Occupied:                                                      

       1A    -20.536381     2A    -15.645344     3A    -15.637867  
       4A    -15.620932     5A    -15.580747     6A    -15.574847  
       7A    -11.404874     8A    -11.377086     9A    -11.332343  
      10A    -11.322151    11A    -11.257008    12A     -1.398231  
      13A     -1.366332    14A     -1.339571    15A     -1.222930  
      16A     -1.219101    17A     -1.181538    18A     -1.034148  
      19A     -0.908711    20A     -0.886416    21A     -0.848394  
      22A     -0.799803    23A     -0.741746    24A     -0.732214  
      25A     -0.701268    26A     -0.673823    27A     -0.656171  
      28A     -0.633803    29A     -0.616423    30A     -0.601930  
      31A     -0.597252    32A     -0.548299    33A     -0.499383  
      34A     -0.460803    35A     -0.443277    36A     -0.433203  
      37A     -0.431172    38A     -0.411785    39A     -0.302087  

    Virtual:                                                              

      40A      0.019982    41A      0.026581    42A      0.041325  
      43A      0.050316    44A      0.056680    45A      0.064810  
      46A      0.077916    47A      0.092420    48A      0.096246  
      49A      0.100585    50A      0.105195    51A      0.117547  
      52A      0.122741    53A      0.127040    54A      0.129976  
      55A      0.134921    56A      0.140206    57A      0.146382  
      58A      0.150933    59A      0.151755    60A      0.160496  
      61A      0.162101    62A      0.163705    63A      0.175038  
      64A      0.181188    65A      0.187086    66A      0.193832  
      67A      0.195860    68A      0.211779    69A      0.213327  
      70A      0.216759    71A      0.223371    72A      0.226228  
      73A      0.233260    74A      0.240371    75A      0.254552  
      76A      0.259905    77A      0.265774    78A      0.269836  
      79A      0.276663    80A      0.285774    81A      0.288708  
      82A      0.292764    83A      0.298865    84A      0.307930  
      85A      0.311849    86A      0.325074    87A      0.329219  
      88A      0.339091    89A      0.345431    90A      0.357041  
      91A      0.357735    92A      0.368795    93A      0.370707  
      94A      0.375876    95A      0.378846    96A      0.387940  
      97A      0.394057    98A      0.403779    99A      0.410488  
     100A      0.414780   101A      0.418789   102A      0.419568  
     103A      0.431562   104A      0.433260   105A      0.443192  
     106A      0.444399   107A      0.455190   108A      0.459152  
     109A      0.465378   110A      0.479789   111A      0.487664  
     112A      0.493736   113A      0.498148   114A      0.509504  
     115A      0.513141   116A      0.515803   117A      0.531707  
     118A      0.544355   119A      0.548493   120A      0.551319  
     121A      0.563834   122A      0.572320   123A      0.583063  
     124A      0.590801   125A      0.607557   126A      0.610661  
     127A      0.622716   128A      0.632463   129A      0.637449  
     130A      0.644821   131A      0.656854   132A      0.664566  
     133A      0.666481   134A      0.677691   135A      0.683289  
     136A      0.695505   137A      0.699281   138A      0.700237  
     139A      0.708517   140A      0.714238   141A      0.728867  
     142A      0.737785   143A      0.744838   144A      0.746956  
     145A      0.751058   146A      0.773849   147A      0.777647  
     148A      0.791005   149A      0.797249   150A      0.806074  
     151A      0.818643   152A      0.830447   153A      0.834759  
     154A      0.844459   155A      0.853338   156A      0.860228  
     157A      0.882714   158A      0.886162   159A      0.898115  
     160A      0.900441   161A      0.907604   162A      0.918486  
     163A      0.922154   164A      0.930521   165A      0.947819  
     166A      0.956681   167A      0.967977   168A      0.971688  
     169A      1.000463   170A      1.014551   171A      1.025220  
     172A      1.032012   173A      1.032745   174A      1.042296  
     175A      1.055895   176A      1.068073   177A      1.071756  
     178A      1.084345   179A      1.098826   180A      1.115765  
     181A      1.122615   182A      1.128415   183A      1.132126  
     184A      1.144331   185A      1.160419   186A      1.171153  
     187A      1.191743   188A      1.193114   189A      1.202286  
     190A      1.227733   191A      1.236328   192A      1.256035  
     193A      1.258294   194A      1.265572   195A      1.277432  
     196A      1.289895   197A      1.304685   198A      1.319642  
     199A      1.329379   200A      1.362779   201A      1.370981  
     202A      1.374847   203A      1.392288   204A      1.403034  
     205A      1.417889   206A      1.431443   207A      1.446936  
     208A      1.458188   209A      1.465381   210A      1.506266  
     211A      1.515740   212A      1.525222   213A      1.554367  
     214A      1.555730   215A      1.564965   216A      1.588346  
     217A      1.601382   218A      1.616998   219A      1.633160  
     220A      1.646730   221A      1.669969   222A      1.675840  
     223A      1.708021   224A      1.730269   225A      1.749323  
     226A      1.753834   227A      1.773487   228A      1.781362  
     229A      1.797918   230A      1.806702   231A      1.822907  
     232A      1.842395   233A      1.846312   234A      1.865337  
     235A      1.903140   236A      1.910718   237A      1.921115  
     238A      1.939168   239A      1.970120   240A      1.979229  
     241A      2.001719   242A      2.024134   243A      2.031390  
     244A      2.042404   245A      2.054801   246A      2.093489  
     247A      2.106998   248A      2.121742   249A      2.126033  
     250A      2.170074   251A      2.173992   252A      2.179597  
     253A      2.203782   254A      2.223102   255A      2.253558  
     256A      2.261423   257A      2.286190   258A      2.311171  
     259A      2.323032   260A      2.326777   261A      2.337921  
     262A      2.351555   263A      2.356080   264A      2.376715  
     265A      2.387102   266A      2.400126   267A      2.412194  
     268A      2.438922   269A      2.445143   270A      2.480612  
     271A      2.512115   272A      2.524101   273A      2.537452  
     274A      2.543543   275A      2.568406   276A      2.575806  
     277A      2.613338   278A      2.647207   279A      2.655946  
     280A      2.673878   281A      2.684152   282A      2.722362  
     283A      2.735007   284A      2.746510   285A      2.765304  
     286A      2.772243   287A      2.791611   288A      2.805192  
     289A      2.821139   290A      2.840905   291A      2.844375  
     292A      2.851273   293A      2.866871   294A      2.894324  
     295A      2.904934   296A      2.907357   297A      2.947548  
     298A      2.977962   299A      3.007055   300A      3.019162  
     301A      3.039775   302A      3.066219   303A      3.099709  
     304A      3.173782   305A      3.210307   306A      3.241726  
     307A      3.263055   308A      3.270840   309A      3.308522  
     310A      3.310450   311A      3.406692   312A      3.425071  
     313A      3.428387   314A      3.524177   315A      3.557235  
     316A      3.584085   317A      3.641831   318A      3.755696  
     319A      3.775923   320A      3.796896   321A      3.821064  
     322A      3.838832   323A      3.886462   324A      3.956472  
     325A      4.055199   326A      4.091713   327A      4.106447  
     328A      4.221132   329A      4.343198   330A      4.438036  
     331A      5.007263   332A      5.056752   333A      5.144142  
     334A      5.241553   335A      5.569051   336A      6.204870  
     337A      6.683366   338A      7.076774   339A     33.563606  

    Final Occupation by Irrep:
              A 
    DOCC [    39 ]

  @DF-RHF Final Energy:  -539.47029419165347

   => Energetics <=

    Nuclear Repulsion Energy =            593.4110282351487058
    One-Electron Energy =               -1911.8038581687058013
    Two-Electron Energy =                 778.9225357419036300
    Total Energy =                       -539.4702941916534655

Computation Completed


Properties will be evaluated at   0.000000,   0.000000,   0.000000 [a0]

Properties computed using the SCF density matrix

  Nuclear Dipole Moment: [e a0]
     X:   -53.6318      Y:   -12.1231      Z:    -0.7621

  Electronic Dipole Moment: [e a0]
     X:    55.4239      Y:    14.2166      Z:     0.3314

  Dipole Moment: [e a0]
     X:     1.7921      Y:     2.0935      Z:    -0.4307     Total:     2.7892

  Dipole Moment: [D]
     X:     4.5550      Y:     5.3211      Z:    -1.0947     Total:     7.0895


*** tstop() called on node111.bme.utexas.edu at Mon May 13 10:27:59 2024
Module time:
	user time   =      48.04 seconds =       0.80 minutes
	system time =       0.59 seconds =       0.01 minutes
	total time  =          7 seconds =       0.12 minutes
Total time:
	user time   =     121.91 seconds =       2.03 minutes
	system time =       1.70 seconds =       0.03 minutes
	total time  =         18 seconds =       0.30 minutes

*** tstart() called on node111.bme.utexas.edu
*** at Mon May 13 10:27:59 2024


  //>>>>>>>>>>>>>>>>>>>>>>>>>>>>>>>>>>>//
  //               DFMP2               //
  //<<<<<<<<<<<<<<<<<<<<<<<<<<<<<<<<<<<//

   => Loading Basis Set <=

    Name: (AUG-CC-PVDZ AUX)
    Role: RIFIT
    Keyword: DF_BASIS_MP2
    atoms 1, 5, 9, 11-12     entry N          line   158 file /opt/anaconda/envs/psi4v1.5/share/psi4/basis/aug-cc-pvdz-ri.gbs 
    atoms 2, 4, 14-16, 18-19 entry H          line    30 file /opt/anaconda/envs/psi4v1.5/share/psi4/basis/aug-cc-pvdz-ri.gbs 
    atoms 3, 6-7, 10, 13     entry C          line   112 file /opt/anaconda/envs/psi4v1.5/share/psi4/basis/aug-cc-pvdz-ri.gbs 
    atoms 8, 17              entry O          line   204 file /opt/anaconda/envs/psi4v1.5/share/psi4/basis/aug-cc-pvdz-ri.gbs 

	 --------------------------------------------------------
	                          DF-MP2                         
	      2nd-Order Density-Fitted Moller-Plesset Theory     
	              RMP2 Wavefunction,   8 Threads             
	                                                         
	        Rob Parrish, Justin Turney, Andy Simmonett,      
	           Ed Hohenstein, and C. David Sherrill          
	 --------------------------------------------------------

   => Auxiliary Basis Set <=

  Basis Set: (AUG-CC-PVDZ AUX)
    Blend: AUG-CC-PVDZ-RI
    Number of shells: 327
    Number of basis functions: 1025
    Number of Cartesian functions: 1207
    Spherical Harmonics?: true
    Max angular momentum: 3

	 --------------------------------------------------------
	                 NBF =   339, NAUX =  1025
	 --------------------------------------------------------
	   CLASS    FOCC     OCC    AOCC    AVIR     VIR    FVIR
	   PAIRS      11      39      28     300     300       0
	 --------------------------------------------------------

	 Will attempt to load fitting metric from file 97.

	-----------------------------------------------------------
	 ==================> DF-MP2 Energies <==================== 
	-----------------------------------------------------------
	 Reference Energy          =    -539.4702941916534655 [Eh]
	 Singles Energy            =      -0.0000000000000000 [Eh]
	 Same-Spin Energy          =      -0.4764410745335187 [Eh]
	 Opposite-Spin Energy      =      -1.2301755637802563 [Eh]
	 Correlation Energy        =      -1.7066166383137751 [Eh]
	 Total Energy              =    -541.1769108299672553 [Eh]
	-----------------------------------------------------------
	 ================> DF-SCS-MP2 Energies <================== 
	-----------------------------------------------------------
	 SCS Same-Spin Scale       =       0.3333333333333333 [-]
	 SCS Opposite-Spin Scale   =       1.2000000000000000 [-]
	 SCS Same-Spin Energy      =      -0.1588136915111729 [Eh]
	 SCS Opposite-Spin Energy  =      -1.4762106765363074 [Eh]
	 SCS Correlation Energy    =      -1.6350243680474803 [Eh]
	 SCS Total Energy          =    -541.1053185597008905 [Eh]
	-----------------------------------------------------------


*** tstop() called on node111.bme.utexas.edu at Mon May 13 10:28:01 2024
Module time:
	user time   =      11.95 seconds =       0.20 minutes
	system time =       0.24 seconds =       0.00 minutes
	total time  =          2 seconds =       0.03 minutes
Total time:
	user time   =     133.86 seconds =       2.23 minutes
	system time =       1.94 seconds =       0.03 minutes
	total time  =         20 seconds =       0.33 minutes

  //>>>>>>>>>>>>>>>>>>>>>>>>>>>>>>>>>>>//
  //            Monomer B HF           //
  //<<<<<<<<<<<<<<<<<<<<<<<<<<<<<<<<<<<//


*** tstart() called on node111.bme.utexas.edu
*** at Mon May 13 10:28:01 2024

   => Loading Basis Set <=

    Name: AUG-CC-PVDZ
    Role: ORBITAL
    Keyword: BASIS
    atoms 1, 5, 9, 11-12     entry N          line   218 file /opt/anaconda/envs/psi4v1.5/share/psi4/basis/aug-cc-pvdz.gbs 
    atoms 2, 4, 14-16, 18-19 entry H          line    40 file /opt/anaconda/envs/psi4v1.5/share/psi4/basis/aug-cc-pvdz.gbs 
    atoms 3, 6-7, 10, 13     entry C          line   182 file /opt/anaconda/envs/psi4v1.5/share/psi4/basis/aug-cc-pvdz.gbs 
    atoms 8, 17              entry O          line   254 file /opt/anaconda/envs/psi4v1.5/share/psi4/basis/aug-cc-pvdz.gbs 


         ---------------------------------------------------------
                                   SCF
               by Justin Turney, Rob Parrish, Andy Simmonett
                          and Daniel G. A. Smith
                              RHF Reference
                        8 Threads,  47683 MiB Core
         ---------------------------------------------------------

  ==> Geometry <==

    Molecular point group: c1
    Full point group: C1

    Geometry (in Angstrom), charge = 0, multiplicity = 1:

       Center              X                  Y                   Z               Mass       
    ------------   -----------------  -----------------  -----------------  -----------------
      Gh(N)           1.711673721577    -1.071777074962    -0.035789310083    14.003074004430
      Gh(H)           2.676823721577    -0.728497074962    -0.049879310083     1.007825032230
      Gh(C)           1.213513721577    -2.349147074962    -0.029149310083    12.000000000000
      Gh(H)           1.862243721577    -3.215407074962    -0.040029310083     1.007825032230
      Gh(N)          -0.112696278423    -2.394327074962    -0.008669310083    14.003074004430
      Gh(C)          -0.483516278423    -1.069227074962    -0.005599310083    12.000000000000
      Gh(C)          -1.797366278423    -0.479307074962     0.028840689917    12.000000000000
      Gh(O)          -2.911346278423    -0.985327074962     0.070070689917    15.994914619570
      Gh(N)          -1.668016278423     0.949882925038     0.019410689917    14.003074004430
      Gh(C)          -0.508806278423     1.677992925038    -0.017649310083    12.000000000000
      Gh(N)          -0.648696278423     3.055032925038     0.049070689917    14.003074004430
      Gh(N)           0.686493721577     1.137692925038    -0.039869310083    14.003074004430
      Gh(C)           0.632173721577    -0.233967074962    -0.016169310083    12.000000000000
      Gh(H)          -2.557186278423     1.433692925038     0.122550689917     1.007825032230
      Gh(H)          -1.415976278423     3.437242925038    -0.494269310083     1.007825032230
      Gh(H)           0.226843721577     3.526732925038    -0.152949310083     1.007825032230
         O            3.226951846577     0.919922508372    -0.034224205916    15.994914619570
         H            3.535961846577     1.179602508372     0.847915794084     1.007825032230
         H            2.336541846577     1.325962508372    -0.109054205916     1.007825032230

  Running in c1 symmetry.

  Rotational constants: A =      0.03786  B =      0.03363  C =      0.01786 [cm^-1]
  Rotational constants: A =   1135.03829  B =   1008.27160  C =    535.28161 [MHz]
  Nuclear repulsion =    9.020530614828118

  Charge       = 0
  Multiplicity = 1
  Electrons    = 10
  Nalpha       = 5
  Nbeta        = 5

  ==> Algorithm <==

  SCF Algorithm Type is DF.
  DIIS enabled.
  MOM disabled.
  Fractional occupation disabled.
  Guess Type is SAD.
  Energy threshold   = 1.00e-08
  Density threshold  = 1.00e-08
  Integral threshold = 1.00e-12

  ==> Primary Basis <==

  Basis Set: AUG-CC-PVDZ
    Blend: AUG-CC-PVDZ
    Number of shells: 143
    Number of basis functions: 339
    Number of Cartesian functions: 363
    Spherical Harmonics?: true
    Max angular momentum: 2

   => Loading Basis Set <=

    Name: (AUG-CC-PVDZ AUX)
    Role: JKFIT
    Keyword: DF_BASIS_SCF
    atoms 1, 5, 9, 11-12     entry N          line   212 file /opt/anaconda/envs/psi4v1.5/share/psi4/basis/aug-cc-pvdz-jkfit.gbs 
    atoms 2, 4, 14-16, 18-19 entry H          line    70 file /opt/anaconda/envs/psi4v1.5/share/psi4/basis/aug-cc-pvdz-jkfit.gbs 
    atoms 3, 6-7, 10, 13     entry C          line   154 file /opt/anaconda/envs/psi4v1.5/share/psi4/basis/aug-cc-pvdz-jkfit.gbs 
    atoms 8, 17              entry O          line   270 file /opt/anaconda/envs/psi4v1.5/share/psi4/basis/aug-cc-pvdz-jkfit.gbs 

  ==> Integral Setup <==

  ==> DiskDFJK: Density-Fitted J/K Matrices <==

    J tasked:                  Yes
    K tasked:                  Yes
    wK tasked:                  No
    OpenMP threads:              8
    Integrals threads:           8
    Memory [MiB]:            35762
    Algorithm:                Core
    Integral Cache:           LOAD
    Schwarz Cutoff:          1E-12
    Fitting Condition:       1E-10

   => Auxiliary Basis Set <=

  Basis Set: (AUG-CC-PVDZ AUX)
    Blend: AUG-CC-PVDZ-JKFIT
    Number of shells: 420
    Number of basis functions: 1256
    Number of Cartesian functions: 1457
    Spherical Harmonics?: true
    Max angular momentum: 3

  Minimum eigenvalue in the overlap matrix is 4.5799543484E-06.
  Reciprocal condition number of the overlap matrix is 2.9304240492E-07.
    Using symmetric orthogonalization.

  ==> Pre-Iterations <==

  SCF Guess: Superposition of Atomic Densities via on-the-fly atomic UHF (no occupation information).

   -------------------------
    Irrep   Nso     Nmo    
   -------------------------
     A        339     339 
   -------------------------
    Total     339     339
   -------------------------

  ==> Iterations <==

                           Total Energy        Delta E     RMS |[F,P]|

   @DF-RHF iter SAD:   -75.44433779891263   -7.54443e+01   0.00000e+00 
   @DF-RHF iter   1:   -75.95560431414972   -5.11267e-01   1.33661e-03 DIIS
   @DF-RHF iter   2:   -76.00831447290915   -5.27102e-02   8.91980e-04 DIIS
   @DF-RHF iter   3:   -76.04017284765393   -3.18584e-02   6.34503e-05 DIIS
   @DF-RHF iter   4:   -76.04057156174628   -3.98714e-04   1.48746e-05 DIIS
   @DF-RHF iter   5:   -76.04059628249389   -2.47207e-05   3.42426e-06 DIIS
   @DF-RHF iter   6:   -76.04059831510187   -2.03261e-06   6.92704e-07 DIIS
   @DF-RHF iter   7:   -76.04059840261337   -8.75115e-08   1.15155e-07 DIIS
   @DF-RHF iter   8:   -76.04059840481339   -2.20003e-09   1.89908e-08 DIIS
   @DF-RHF iter   9:   -76.04059840486686   -5.34612e-11   4.95368e-09 DIIS
  Energy and wave function converged.


  ==> Post-Iterations <==

    Orbital Energies [Eh]
    ---------------------

    Doubly Occupied:                                                      

       1A    -20.580668     2A     -1.347100     3A     -0.708549  
       4A     -0.581929     5A     -0.507686  

    Virtual:                                                              

       6A      0.017810     7A      0.033997     8A      0.037549  
       9A      0.050793    10A      0.060524    11A      0.063811  
      12A      0.069041    13A      0.079037    14A      0.087116  
      15A      0.091925    16A      0.095029    17A      0.104977  
      18A      0.115176    19A      0.116186    20A      0.120386  
      21A      0.127845    22A      0.141476    23A      0.148474  
      24A      0.155460    25A      0.158418    26A      0.159125  
      27A      0.164265    28A      0.168758    29A      0.171853  
      30A      0.187098    31A      0.191522    32A      0.197478  
      33A      0.204438    34A      0.207712    35A      0.215489  
      36A      0.217800    37A      0.223867    38A      0.228652  
      39A      0.236159    40A      0.240555    41A      0.248278  
      42A      0.249934    43A      0.256027    44A      0.259136  
      45A      0.270877    46A      0.276976    47A      0.283062  
      48A      0.287901    49A      0.302608    50A      0.305655  
      51A      0.311990    52A      0.318447    53A      0.335537  
      54A      0.337380    55A      0.342610    56A      0.352718  
      57A      0.361283    58A      0.370864    59A      0.376861  
      60A      0.389103    61A      0.391209    62A      0.401925  
      63A      0.403775    64A      0.417056    65A      0.431386  
      66A      0.438615    67A      0.446945    68A      0.462312  
      69A      0.471253    70A      0.476527    71A      0.485300  
      72A      0.493736    73A      0.503668    74A      0.512114  
      75A      0.516325    76A      0.521731    77A      0.524102  
      78A      0.534851    79A      0.536166    80A      0.542653  
      81A      0.545339    82A      0.550006    83A      0.566573  
      84A      0.570815    85A      0.581683    86A      0.585744  
      87A      0.592378    88A      0.600634    89A      0.606131  
      90A      0.609959    91A      0.612706    92A      0.626203  
      93A      0.632664    94A      0.638448    95A      0.647384  
      96A      0.652935    97A      0.660096    98A      0.668035  
      99A      0.677896   100A      0.693268   101A      0.701633  
     102A      0.720711   103A      0.727832   104A      0.734196  
     105A      0.737380   106A      0.761711   107A      0.763272  
     108A      0.779708   109A      0.797033   110A      0.820928  
     111A      0.829134   112A      0.839861   113A      0.844902  
     114A      0.852552   115A      0.863061   116A      0.885118  
     117A      0.890113   118A      0.901486   119A      0.914592  
     120A      0.932732   121A      0.937976   122A      0.950784  
     123A      0.959235   124A      0.973340   125A      0.986870  
     126A      0.996988   127A      1.018642   128A      1.023431  
     129A      1.034986   130A      1.037499   131A      1.052653  
     132A      1.054774   133A      1.075472   134A      1.090496  
     135A      1.102053   136A      1.110610   137A      1.117896  
     138A      1.124417   139A      1.140665   140A      1.148819  
     141A      1.154362   142A      1.164911   143A      1.172531  
     144A      1.178973   145A      1.182798   146A      1.192639  
     147A      1.211594   148A      1.219948   149A      1.227703  
     150A      1.239781   151A      1.242237   152A      1.246547  
     153A      1.255919   154A      1.267647   155A      1.272376  
     156A      1.283774   157A      1.293369   158A      1.303392  
     159A      1.308726   160A      1.311982   161A      1.315890  
     162A      1.327913   163A      1.349518   164A      1.352891  
     165A      1.374361   166A      1.387907   167A      1.395721  
     168A      1.405935   169A      1.423831   170A      1.434640  
     171A      1.447003   172A      1.465079   173A      1.470006  
     174A      1.499248   175A      1.503035   176A      1.513568  
     177A      1.528131   178A      1.542575   179A      1.566404  
     180A      1.579188   181A      1.591558   182A      1.602507  
     183A      1.630300   184A      1.646741   185A      1.672579  
     186A      1.687043   187A      1.708377   188A      1.739698  
     189A      1.772052   190A      1.777149   191A      1.800519  
     192A      1.847043   193A      1.872416   194A      1.911721  
     195A      1.960939   196A      2.041010   197A      2.072713  
     198A      2.139007   199A      2.155782   200A      2.196152  
     201A      2.211032   202A      2.233252   203A      2.242380  
     204A      2.332804   205A      2.348614   206A      2.360218  
     207A      2.399337   208A      2.405810   209A      2.422945  
     210A      2.439714   211A      2.452617   212A      2.462773  
     213A      2.486986   214A      2.495006   215A      2.526995  
     216A      2.534588   217A      2.558134   218A      2.565158  
     219A      2.567120   220A      2.583732   221A      2.603824  
     222A      2.604907   223A      2.616916   224A      2.644462  
     225A      2.681918   226A      2.707447   227A      2.739143  
     228A      2.753509   229A      2.786944   230A      2.796008  
     231A      2.845867   232A      2.857994   233A      2.869750  
     234A      2.891569   235A      2.931028   236A      2.952106  
     237A      2.963105   238A      3.002095   239A      3.048039  
     240A      3.066953   241A      3.154223   242A      3.175104  
     243A      3.202584   244A      3.211692   245A      3.226019  
     246A      3.245754   247A      3.265345   248A      3.296982  
     249A      3.322089   250A      3.362917   251A      3.372017  
     252A      3.407872   253A      3.436557   254A      3.452006  
     255A      3.463806   256A      3.476494   257A      3.501310  
     258A      3.555064   259A      3.580862   260A      3.599157  
     261A      3.624266   262A      3.640738   263A      3.653038  
     264A      3.660352   265A      3.705565   266A      3.736830  
     267A      3.748321   268A      3.763733   269A      3.781164  
     270A      3.787537   271A      3.802468   272A      3.818338  
     273A      3.836643   274A      3.842677   275A      3.884970  
     276A      3.885852   277A      3.902784   278A      3.928526  
     279A      3.948149   280A      3.983914   281A      4.002484  
     282A      4.029980   283A      4.086162   284A      4.137276  
     285A      4.182924   286A      4.204130   287A      4.249284  
     288A      4.288675   289A      4.369454   290A      4.444117  
     291A      4.480157   292A      4.597640   293A      4.629999  
     294A      4.692144   295A      4.709921   296A      4.760348  
     297A      4.791573   298A      4.828485   299A      4.905621  
     300A      4.933981   301A      4.968879   302A      5.004764  
     303A      5.019636   304A      5.048449   305A      5.050101  
     306A      5.144537   307A      5.190247   308A      5.199905  
     309A      5.258662   310A      5.370946   311A      5.442679  
     312A      5.574312   313A      5.611147   314A      5.654148  
     315A      5.752022   316A      5.856995   317A      5.870575  
     318A      5.905666   319A      5.986598   320A      6.040282  
     321A      6.061651   322A      6.110452   323A      6.216096  
     324A      6.227273   325A      6.324929   326A      6.362974  
     327A      6.496852   328A      7.197967   329A     18.282928  
     330A     18.631876   331A     19.008456   332A     19.083839  
     333A     19.959895   334A     25.334053   335A     25.374110  
     336A     25.456362   337A     25.463943   338A     25.531515  
     339A     33.542174  

    Final Occupation by Irrep:
              A 
    DOCC [     5 ]

  @DF-RHF Final Energy:   -76.04059840486686

   => Energetics <=

    Nuclear Repulsion Energy =              9.0205306148281181
    One-Electron Energy =                -122.6703923055760441
    Two-Electron Energy =                  37.6092632858810560
    Total Energy =                        -76.0405984048668699

Computation Completed


Properties will be evaluated at   0.000000,   0.000000,   0.000000 [a0]

Properties computed using the SCF density matrix

  Nuclear Dipole Moment: [e a0]
     X:    59.8819      Y:    18.6420      Z:     0.8789

  Electronic Dipole Moment: [e a0]
     X:   -60.2648      Y:   -18.2036      Z:    -0.3462

  Dipole Moment: [e a0]
     X:    -0.3830      Y:     0.4384      Z:     0.5327     Total:     0.7891

  Dipole Moment: [D]
     X:    -0.9734      Y:     1.1143      Z:     1.3540     Total:     2.0056


*** tstop() called on node111.bme.utexas.edu at Mon May 13 10:28:04 2024
Module time:
	user time   =      23.52 seconds =       0.39 minutes
	system time =       0.29 seconds =       0.00 minutes
	total time  =          3 seconds =       0.05 minutes
Total time:
	user time   =     157.40 seconds =       2.62 minutes
	system time =       2.23 seconds =       0.04 minutes
	total time  =         23 seconds =       0.38 minutes

*** tstart() called on node111.bme.utexas.edu
*** at Mon May 13 10:28:04 2024


  //>>>>>>>>>>>>>>>>>>>>>>>>>>>>>>>>>>>//
  //               DFMP2               //
  //<<<<<<<<<<<<<<<<<<<<<<<<<<<<<<<<<<<//

   => Loading Basis Set <=

    Name: (AUG-CC-PVDZ AUX)
    Role: RIFIT
    Keyword: DF_BASIS_MP2
    atoms 1, 5, 9, 11-12     entry N          line   158 file /opt/anaconda/envs/psi4v1.5/share/psi4/basis/aug-cc-pvdz-ri.gbs 
    atoms 2, 4, 14-16, 18-19 entry H          line    30 file /opt/anaconda/envs/psi4v1.5/share/psi4/basis/aug-cc-pvdz-ri.gbs 
    atoms 3, 6-7, 10, 13     entry C          line   112 file /opt/anaconda/envs/psi4v1.5/share/psi4/basis/aug-cc-pvdz-ri.gbs 
    atoms 8, 17              entry O          line   204 file /opt/anaconda/envs/psi4v1.5/share/psi4/basis/aug-cc-pvdz-ri.gbs 

	 --------------------------------------------------------
	                          DF-MP2                         
	      2nd-Order Density-Fitted Moller-Plesset Theory     
	              RMP2 Wavefunction,   8 Threads             
	                                                         
	        Rob Parrish, Justin Turney, Andy Simmonett,      
	           Ed Hohenstein, and C. David Sherrill          
	 --------------------------------------------------------

   => Auxiliary Basis Set <=

  Basis Set: (AUG-CC-PVDZ AUX)
    Blend: AUG-CC-PVDZ-RI
    Number of shells: 327
    Number of basis functions: 1025
    Number of Cartesian functions: 1207
    Spherical Harmonics?: true
    Max angular momentum: 3

	 --------------------------------------------------------
	                 NBF =   339, NAUX =  1025
	 --------------------------------------------------------
	   CLASS    FOCC     OCC    AOCC    AVIR     VIR    FVIR
	   PAIRS       1       5       4     334     334       0
	 --------------------------------------------------------

	 Will attempt to load fitting metric from file 97.

	-----------------------------------------------------------
	 ==================> DF-MP2 Energies <==================== 
	-----------------------------------------------------------
	 Reference Energy          =     -76.0405984048668557 [Eh]
	 Singles Energy            =      -0.0000000000000000 [Eh]
	 Same-Spin Energy          =      -0.0565268407697177 [Eh]
	 Opposite-Spin Energy      =      -0.1662033733369127 [Eh]
	 Correlation Energy        =      -0.2227302141066304 [Eh]
	 Total Energy              =     -76.2633286189734889 [Eh]
	-----------------------------------------------------------
	 ================> DF-SCS-MP2 Energies <================== 
	-----------------------------------------------------------
	 SCS Same-Spin Scale       =       0.3333333333333333 [-]
	 SCS Opposite-Spin Scale   =       1.2000000000000000 [-]
	 SCS Same-Spin Energy      =      -0.0188422802565726 [Eh]
	 SCS Opposite-Spin Energy  =      -0.1994440480042952 [Eh]
	 SCS Correlation Energy    =      -0.2182863282608678 [Eh]
	 SCS Total Energy          =     -76.2588847331277293 [Eh]
	-----------------------------------------------------------


*** tstop() called on node111.bme.utexas.edu at Mon May 13 10:28:05 2024
Module time:
	user time   =       7.37 seconds =       0.12 minutes
	system time =       0.12 seconds =       0.00 minutes
	total time  =          1 seconds =       0.02 minutes
Total time:
	user time   =     164.77 seconds =       2.75 minutes
	system time =       2.35 seconds =       0.04 minutes
	total time  =         24 seconds =       0.40 minutes
  Constructing Basis Sets for SAPT...

   => Loading Basis Set <=

    Name: (AUG-CC-PVDZ AUX)
    Role: RIFIT
    Keyword: DF_BASIS_SAPT
    atoms 1, 5, 9, 11-12     entry N          line   158 file /opt/anaconda/envs/psi4v1.5/share/psi4/basis/aug-cc-pvdz-ri.gbs 
    atoms 2, 4, 14-16, 18-19 entry H          line    30 file /opt/anaconda/envs/psi4v1.5/share/psi4/basis/aug-cc-pvdz-ri.gbs 
    atoms 3, 6-7, 10, 13     entry C          line   112 file /opt/anaconda/envs/psi4v1.5/share/psi4/basis/aug-cc-pvdz-ri.gbs 
    atoms 8, 17              entry O          line   204 file /opt/anaconda/envs/psi4v1.5/share/psi4/basis/aug-cc-pvdz-ri.gbs 


  //>>>>>>>>>>>>>>>>>>>>>>>>>>>>>>>>>>>//
  //           SAPT2+(3)DMP2           //
  //<<<<<<<<<<<<<<<<<<<<<<<<<<<<<<<<<<<//


*** tstart() called on node111.bme.utexas.edu
*** at Mon May 13 10:28:06 2024

      SAPT2+(3)  
    Ed Hohenstein
     6 June 2009

      Orbital Information
  --------------------------
    NSO        =       339
    NMO        =       339
    NRI        =      1025
    NOCC A     =        39
    NOCC B     =         5
    FOCC A     =        11
    FOCC B     =         1
    NVIR A     =       300
    NVIR B     =       334

    Estimated memory usage: 4987.0 MB

    Natural Orbital Cutoff:   1.000E-06
    Disp(T3) Truncation:            Yes
    CCD (vv|vv) Truncation:         Yes
    MBPT T2 Truncation:             Yes

    Monomer A: 42 virtual orbitals dropped
    Monomer B: 286 virtual orbitals dropped

    Elst10,r            =    -0.056148440914 [Eh]
    Exch10 (S^2)        =     0.081552199370 [Eh]
    Exch10              =     0.083220337670 [Eh]
    Ind20,r (A<-B)      =    -0.019712882899 [Eh]
    Ind20,r (B<-A)      =    -0.019326820244 [Eh]
    Ind20,r             =    -0.039039703142 [Eh]
    Exch-Ind20,r (A<-B) =     0.012156636572 [Eh]
    Exch-Ind20,r (B<-A) =     0.013605398736 [Eh]
    Exch-Ind20,r        =     0.025762035308 [Eh]
    Disp20              =    -0.020993066996 [Eh]
    Disp20 (NO)         =    -0.019341564275 [Eh]
    Exch-Disp20         =     0.005008590153 [Eh]
    Elst12,r            =    -0.003007239131 [Eh]
    Exch11              =    -0.000038833149 [Eh]
    Exch12              =     0.010662071013 [Eh]
    Ind22               =    -0.007045554745 [Eh]
    Disp21              =     0.002764949840 [Eh]
    Disp22 (SDQ)        =    -0.001276887604 [Eh]

    (i =   1 of   4)         45 seconds
    (i =   2 of   4)         91 seconds
    (i =   3 of   4)        136 seconds
    (i =   4 of   4)        181 seconds

    Disp220 (T)         =    -0.001649768028 [Eh]

    (i =   1 of  28)          0 seconds
    (i =   2 of  28)          0 seconds
    (i =   3 of  28)          1 seconds
    (i =   4 of  28)          1 seconds
    (i =   5 of  28)          1 seconds
    (i =   6 of  28)          2 seconds
    (i =   7 of  28)          2 seconds
    (i =   8 of  28)          2 seconds
    (i =   9 of  28)          3 seconds
    (i =  10 of  28)          3 seconds
    (i =  11 of  28)          3 seconds
    (i =  12 of  28)          4 seconds
    (i =  13 of  28)          4 seconds
    (i =  14 of  28)          4 seconds
    (i =  15 of  28)          4 seconds
    (i =  16 of  28)          5 seconds
    (i =  17 of  28)          5 seconds
    (i =  18 of  28)          5 seconds
    (i =  19 of  28)          5 seconds
    (i =  20 of  28)          6 seconds
    (i =  21 of  28)          6 seconds
    (i =  22 of  28)          6 seconds
    (i =  23 of  28)          7 seconds
    (i =  24 of  28)          7 seconds
    (i =  25 of  28)          7 seconds
    (i =  26 of  28)          7 seconds
    (i =  27 of  28)          8 seconds
    (i =  28 of  28)          8 seconds

    Disp202 (T)         =    -0.001526929157 [Eh]

    Disp22 (T)          =    -0.003176697185 [Eh]

    Est. Disp220 (T)    =    -0.001790635454 [Eh]
    Est. Disp202 (T)    =    -0.001657307839 [Eh]

    Est. Disp22 (T)     =    -0.003447943293 [Eh]
    Elst13,r            =     0.001677947567 [Eh]
    Disp30              =     0.000382049500 [Eh]

    SAPT Results 
  --------------------------------------------------------------------------------------------------------
    Electrostatics                -57.47773248 [mEh]     -36.06782166 [kcal/mol]    -150.90776583 [kJ/mol]
      Elst10,r                    -56.14844091 [mEh]     -35.23367861 [kcal/mol]    -147.41771131 [kJ/mol]
      Elst12,r                     -3.00723913 [mEh]      -1.88707104 [kcal/mol]      -7.89550525 [kJ/mol]
      Elst13,r                      1.67794757 [mEh]       1.05292799 [kcal/mol]       4.40545073 [kJ/mol]

    Exchange                       93.84357553 [mEh]      58.88773270 [kcal/mol]     246.38627362 [kJ/mol]
      Exch10                       83.22033767 [mEh]      52.22155030 [kcal/mol]     218.49496645 [kJ/mol]
      Exch10(S^2)                  81.55219937 [mEh]      51.17477771 [kcal/mol]     214.11526995 [kJ/mol]
      Exch11(S^2)                  -0.03883315 [mEh]      -0.02436817 [kcal/mol]      -0.10195642 [kJ/mol]
      Exch12(S^2)                  10.66207101 [mEh]       6.69055057 [kcal/mol]      27.99326359 [kJ/mol]

    Induction                     -23.33253098 [mEh]     -14.64138424 [kcal/mol]     -61.25955165 [kJ/mol]
      Ind20,r                     -39.03970314 [mEh]     -24.49778358 [kcal/mol]    -102.49872648 [kJ/mol]
      Ind22                        -7.04555475 [mEh]      -4.42115235 [kcal/mol]     -18.49810144 [kJ/mol]
      Exch-Ind20,r                 25.76203531 [mEh]      16.16592122 [kcal/mol]      67.63821438 [kJ/mol]
      Exch-Ind22                    4.64931379 [mEh]       2.91748845 [kcal/mol]      12.20677167 [kJ/mol]
      delta HF,r (2)               -9.37649530 [mEh]      -5.88383963 [kcal/mol]     -24.61798501 [kJ/mol]
      delta MP2,r (2)               1.71787310 [mEh]       1.07798165 [kcal/mol]       4.51027521 [kJ/mol]

    Dispersion                    -17.56230840 [mEh]     -11.02051490 [kcal/mol]     -46.10983435 [kJ/mol]
      Disp20                      -20.99306700 [mEh]     -13.17334842 [kcal/mol]     -55.11728980 [kJ/mol]
      Disp30                        0.38204950 [mEh]       0.23973968 [kcal/mol]       1.00307082 [kJ/mol]
      Disp21                        2.76494984 [mEh]       1.73503222 [kcal/mol]       7.25937481 [kJ/mol]
      Disp22 (SDQ)                 -1.27688760 [mEh]      -0.80125907 [kcal/mol]      -3.35246794 [kJ/mol]
      Disp22 (T)                   -3.17669718 [mEh]      -1.99340758 [kcal/mol]      -8.34041731 [kJ/mol]
      Est. Disp22 (T)              -3.44794329 [mEh]      -2.16361708 [kcal/mol]      -9.05257387 [kJ/mol]
      Exch-Disp20                   5.00859015 [mEh]       3.14293777 [kcal/mol]      13.15005163 [kJ/mol]

  Total HF                          4.41773363 [mEh]       2.77216970 [kcal/mol]      11.59875804 [kJ/mol]
  Total SAPT0                     -11.56674322 [mEh]      -7.25824095 [kcal/mol]     -30.36848013 [kJ/mol]
  Total SAPT2                      -6.34698544 [mEh]      -3.98279349 [kcal/mol]     -16.66400798 [kJ/mol]
  Total SAPT2+                     -8.30686650 [mEh]      -5.21263743 [kcal/mol]     -21.80967499 [kJ/mol]
  Total SAPT2+(3)                  -6.24686943 [mEh]      -3.91996975 [kcal/mol]     -16.40115343 [kJ/mol]
  Total SAPT2+dMP2                 -6.58899339 [mEh]      -4.13465578 [kcal/mol]     -17.29939977 [kJ/mol]
  Total SAPT2+(3)dMP2              -4.52899633 [mEh]      -2.84198810 [kcal/mol]     -11.89087822 [kJ/mol]

  Special recipe for scaled SAPT0 (see Manual):
    Electrostatics sSAPT0         -56.14844091 [mEh]     -35.23367861 [kcal/mol]    -147.41771131 [kJ/mol]
    Exchange sSAPT0                83.22033767 [mEh]      52.22155030 [kcal/mol]     218.49496645 [kJ/mol]
    Induction sSAPT0              -21.04073008 [mEh]     -13.20325746 [kcal/mol]     -55.24242921 [kJ/mol]
    Dispersion sSAPT0             -15.67079724 [mEh]      -9.83357373 [kcal/mol]     -41.14367250 [kJ/mol]
  Total sSAPT0                     -9.63963057 [mEh]      -6.04895950 [kcal/mol]     -25.30884657 [kJ/mol]
  --------------------------------------------------------------------------------------------------------

*** tstop() called on node111.bme.utexas.edu at Mon May 13 10:35:37 2024
Module time:
	user time   =    3419.61 seconds =      56.99 minutes
	system time =      32.16 seconds =       0.54 minutes
	total time  =        451 seconds =       7.52 minutes
Total time:
	user time   =    3584.82 seconds =      59.75 minutes
	system time =      34.52 seconds =       0.58 minutes
	total time  =        476 seconds =       7.93 minutes

    Psi4 stopped on: Monday, 13 May 2024 10:35AM
    Psi4 wall time for execution: 0:07:55.73

*** Psi4 exiting successfully. Buy a developer a beer!
