
    -----------------------------------------------------------------------
          Psi4: An Open-Source Ab Initio Electronic Structure Package
                               Psi4 1.5 release

                         Git: Rev {HEAD} e9f4d6d 


    D. G. A. Smith, L. A. Burns, A. C. Simmonett, R. M. Parrish,
    M. C. Schieber, R. Galvelis, P. Kraus, H. Kruse, R. Di Remigio,
    A. Alenaizan, A. M. James, S. Lehtola, J. P. Misiewicz, M. Scheurer,
    R. A. Shaw, J. B. Schriber, Y. Xie, Z. L. Glick, D. A. Sirianni,
    J. S. O'Brien, J. M. Waldrop, A. Kumar, E. G. Hohenstein,
    B. P. Pritchard, B. R. Brooks, H. F. Schaefer III, A. Yu. Sokolov,
    K. Patkowski, A. E. DePrince III, U. Bozkaya, R. A. King,
    F. A. Evangelista, J. M. Turney, T. D. Crawford, C. D. Sherrill,
    J. Chem. Phys. 152(18) 184108 (2020). https://doi.org/10.1063/5.0006002

                            Additional Code Authors
    E. T. Seidl, C. L. Janssen, E. F. Valeev, M. L. Leininger,
    J. F. Gonthier, R. M. Richard, H. R. McAlexander, M. Saitow, X. Wang,
    P. Verma, M. H. Lechner, and A. Jiang

             Previous Authors, Complete List of Code Contributors,
                       and Citations for Specific Modules
    https://github.com/psi4/psi4/blob/master/codemeta.json
    https://github.com/psi4/psi4/graphs/contributors
    http://psicode.org/psi4manual/master/introduction.html#citing-psifour

    -----------------------------------------------------------------------


    Psi4 started on: Monday, 13 May 2024 10:36AM

    Process ID: 2973159
    Host:       node150.bme.utexas.edu
    PSIDATADIR: /opt/anaconda/envs/psi4v1.5/share/psi4
    Memory:     500.0 MiB
    Threads:    8
    
  ==> Input File <==

--------------------------------------------------------------------------
memory 50GB

molecule {
0 1
N -0.03833 2.39519 -0.00199
H 0.45077 3.28326 0.00186
C -1.39524 2.18879 -0.01692
H -2.10321 3.00709 -0.0235
N -1.71481 0.90376 -0.02243
C -0.49969 0.25482 -0.00818
C -0.20611 -1.15484 -0.02685
O -0.9509 -2.13246 -0.05918
N 1.2039 -1.34173 -0.01779
C 2.16556 -0.36069 0.0155
N 3.47664 -0.79549 -0.04963
N 1.90051 0.9236 0.03231
C 0.55833 1.1618 -0.00097
H 1.48524 -2.3148 -0.11699
H 3.6966 -1.61504 0.50662
H 4.1256 -0.03273 0.11538
--
0 1
O -3.87708 -1.27213 0.07142
H -3.47338 -0.38818 0.03791
H -3.09017 -1.83946 0.02199
 units angstrom
 no_reorient
 symmetry c1} 
set  {scf_type DF
 basis jun-cc-pvdz
 freeze_core True
 guess SAD}
energy('sapt2+(3)dmp2')
--------------------------------------------------------------------------

  Memory set to  46.566 GiB by Python driver.

Scratch directory: /tmp/
   => Loading Basis Set <=

    Name: JUN-CC-PVDZ
    Role: ORBITAL
    Keyword: BASIS
    atoms 1, 5, 9, 11-12     entry N          line   198 file /opt/anaconda/envs/psi4v1.5/share/psi4/basis/jun-cc-pvdz.gbs 
    atoms 2, 4, 14-16, 18-19 entry H          line    36 file /opt/anaconda/envs/psi4v1.5/share/psi4/basis/jun-cc-pvdz.gbs 
    atoms 3, 6-7, 10, 13     entry C          line   164 file /opt/anaconda/envs/psi4v1.5/share/psi4/basis/jun-cc-pvdz.gbs 
    atoms 8, 17              entry O          line   232 file /opt/anaconda/envs/psi4v1.5/share/psi4/basis/jun-cc-pvdz.gbs 

   => Loading Basis Set <=

    Name: JUN-CC-PVDZ
    Role: ORBITAL
    Keyword: BASIS
    atoms 1, 5, 9, 11-12     entry N          line   198 file /opt/anaconda/envs/psi4v1.5/share/psi4/basis/jun-cc-pvdz.gbs 
    atoms 2, 4, 14-16, 18-19 entry H          line    36 file /opt/anaconda/envs/psi4v1.5/share/psi4/basis/jun-cc-pvdz.gbs 
    atoms 3, 6-7, 10, 13     entry C          line   164 file /opt/anaconda/envs/psi4v1.5/share/psi4/basis/jun-cc-pvdz.gbs 
    atoms 8, 17              entry O          line   232 file /opt/anaconda/envs/psi4v1.5/share/psi4/basis/jun-cc-pvdz.gbs 


  //>>>>>>>>>>>>>>>>>>>>>>>>>>>>>>>>>>>//
  //              Dimer HF             //
  //<<<<<<<<<<<<<<<<<<<<<<<<<<<<<<<<<<<//


*** tstart() called on node150.bme.utexas.edu
*** at Mon May 13 10:36:17 2024

   => Loading Basis Set <=

    Name: JUN-CC-PVDZ
    Role: ORBITAL
    Keyword: BASIS
    atoms 1, 5, 9, 11-12     entry N          line   198 file /opt/anaconda/envs/psi4v1.5/share/psi4/basis/jun-cc-pvdz.gbs 
    atoms 2, 4, 14-16, 18-19 entry H          line    36 file /opt/anaconda/envs/psi4v1.5/share/psi4/basis/jun-cc-pvdz.gbs 
    atoms 3, 6-7, 10, 13     entry C          line   164 file /opt/anaconda/envs/psi4v1.5/share/psi4/basis/jun-cc-pvdz.gbs 
    atoms 8, 17              entry O          line   232 file /opt/anaconda/envs/psi4v1.5/share/psi4/basis/jun-cc-pvdz.gbs 


         ---------------------------------------------------------
                                   SCF
               by Justin Turney, Rob Parrish, Andy Simmonett
                          and Daniel G. A. Smith
                              RHF Reference
                        8 Threads,  47683 MiB Core
         ---------------------------------------------------------

  ==> Geometry <==

    Molecular point group: c1
    Full point group: C1

    Geometry (in Angstrom), charge = 0, multiplicity = 1:

       Center              X                  Y                   Z               Mass       
    ------------   -----------------  -----------------  -----------------  -----------------
         N           -0.032158484595     2.395637252240     0.001200253263    14.003074004430
         H            0.456941515405     3.283707252240     0.005050253263     1.007825032230
         C           -1.389068484595     2.189237252240    -0.013729746737    12.000000000000
         H           -2.097038484595     3.007537252240    -0.020309746737     1.007825032230
         N           -1.708638484595     0.904207252240    -0.019239746737    14.003074004430
         C           -0.493518484595     0.255267252240    -0.004989746737    12.000000000000
         C           -0.199938484595    -1.154392747760    -0.023659746737    12.000000000000
         O           -0.944728484595    -2.132012747760    -0.055989746737    15.994914619570
         N            1.210071515405    -1.341282747760    -0.014599746737    14.003074004430
         C            2.171731515405    -0.360242747760     0.018690253263    12.000000000000
         N            3.482811515405    -0.795042747760    -0.046439746737    14.003074004430
         N            1.906681515405     0.924047252240     0.035500253263    14.003074004430
         C            0.564501515405     1.162247252240     0.002220253263    12.000000000000
         H            1.491411515405    -2.314352747760    -0.113799746737     1.007825032230
         H            3.702771515405    -1.614592747760     0.509810253263     1.007825032230
         H            4.131771515405    -0.032282747760     0.118570253263     1.007825032230
         O           -3.870908484595    -1.271682747760     0.074610253263    15.994914619570
         H           -3.467208484595    -0.387732747760     0.041100253263     1.007825032230
         H           -3.083998484595    -1.839012747760     0.025180253263     1.007825032230

  Running in c1 symmetry.

  Rotational constants: A =      0.04678  B =      0.02467  C =      0.01617 [cm^-1]
  Rotational constants: A =   1402.50570  B =    739.55639  C =    484.67958 [MHz]
  Nuclear repulsion =  697.329877509955736

  Charge       = 0
  Multiplicity = 1
  Electrons    = 88
  Nalpha       = 44
  Nbeta        = 44

  ==> Algorithm <==

  SCF Algorithm Type is DF.
  DIIS enabled.
  MOM disabled.
  Fractional occupation disabled.
  Guess Type is SAD.
  Energy threshold   = 1.00e-08
  Density threshold  = 1.00e-08
  Integral threshold = 1.00e-12

  ==> Primary Basis <==

  Basis Set: JUN-CC-PVDZ
    Blend: JUN-CC-PVDZ
    Number of shells: 117
    Number of basis functions: 251
    Number of Cartesian functions: 263
    Spherical Harmonics?: true
    Max angular momentum: 2

   => Loading Basis Set <=

    Name: (JUN-CC-PVDZ AUX)
    Role: JKFIT
    Keyword: DF_BASIS_SCF
    atoms 1, 5, 9, 11-12     entry N          line   202 file /opt/anaconda/envs/psi4v1.5/share/psi4/basis/jun-cc-pvdz-jkfit.gbs 
    atoms 2, 4, 14-16, 18-19 entry H          line    70 file /opt/anaconda/envs/psi4v1.5/share/psi4/basis/jun-cc-pvdz-jkfit.gbs 
    atoms 3, 6-7, 10, 13     entry C          line   146 file /opt/anaconda/envs/psi4v1.5/share/psi4/basis/jun-cc-pvdz-jkfit.gbs 
    atoms 8, 17              entry O          line   258 file /opt/anaconda/envs/psi4v1.5/share/psi4/basis/jun-cc-pvdz-jkfit.gbs 

  ==> Integral Setup <==

  ==> DiskDFJK: Density-Fitted J/K Matrices <==

    J tasked:                  Yes
    K tasked:                  Yes
    wK tasked:                  No
    OpenMP threads:              8
    Integrals threads:           8
    Memory [MiB]:            35762
    Algorithm:                Core
    Integral Cache:           SAVE
    Schwarz Cutoff:          1E-12
    Fitting Condition:       1E-10

   => Auxiliary Basis Set <=

  Basis Set: (JUN-CC-PVDZ AUX)
    Blend: JUN-CC-PVDZ-JKFIT
    Number of shells: 387
    Number of basis functions: 1109
    Number of Cartesian functions: 1267
    Spherical Harmonics?: true
    Max angular momentum: 3

  Minimum eigenvalue in the overlap matrix is 1.3474474685E-05.
  Reciprocal condition number of the overlap matrix is 1.0282367025E-06.
    Using symmetric orthogonalization.

  ==> Pre-Iterations <==

  SCF Guess: Superposition of Atomic Densities via on-the-fly atomic UHF (no occupation information).

   -------------------------
    Irrep   Nso     Nmo    
   -------------------------
     A        251     251 
   -------------------------
    Total     251     251
   -------------------------

  ==> Iterations <==

                           Total Energy        Delta E     RMS |[F,P]|

   @DF-RHF iter SAD:  -614.84888007948746   -6.14849e+02   0.00000e+00 
   @DF-RHF iter   1:  -615.14298795732577   -2.94108e-01   3.39448e-03 DIIS
   @DF-RHF iter   2:  -615.40832969931557   -2.65342e-01   1.95100e-03 DIIS
   @DF-RHF iter   3:  -615.49926025079253   -9.09306e-02   3.55163e-04 DIIS
   @DF-RHF iter   4:  -615.50395268673492   -4.69244e-03   1.58153e-04 DIIS
   @DF-RHF iter   5:  -615.50486244636852   -9.09760e-04   3.68586e-05 DIIS
   @DF-RHF iter   6:  -615.50496412867233   -1.01682e-04   1.79521e-05 DIIS
   @DF-RHF iter   7:  -615.50499269417719   -2.85655e-05   6.72498e-06 DIIS
   @DF-RHF iter   8:  -615.50499737268126   -4.67850e-06   2.44978e-06 DIIS
   @DF-RHF iter   9:  -615.50499789265939   -5.19978e-07   9.98180e-07 DIIS
   @DF-RHF iter  10:  -615.50499798783085   -9.51715e-08   3.76612e-07 DIIS
   @DF-RHF iter  11:  -615.50499800078887   -1.29580e-08   1.31306e-07 DIIS
   @DF-RHF iter  12:  -615.50499800234434   -1.55546e-09   3.68172e-08 DIIS
   @DF-RHF iter  13:  -615.50499800248883   -1.44496e-10   1.72965e-08 DIIS
   @DF-RHF iter  14:  -615.50499800251112   -2.22826e-11   6.46080e-09 DIIS
  Energy and wave function converged.


  ==> Post-Iterations <==

    Orbital Energies [Eh]
    ---------------------

    Doubly Occupied:                                                      

       1A    -20.551471     2A    -20.504619     3A    -15.658484  
       4A    -15.655156     5A    -15.632348     6A    -15.594863  
       7A    -15.590292     8A    -11.420058     9A    -11.394952  
      10A    -11.349713    11A    -11.339384    12A    -11.273142  
      13A     -1.416093    14A     -1.382911    15A     -1.355891  
      16A     -1.279926    17A     -1.239732    18A     -1.236974  
      19A     -1.198780    20A     -1.052269    21A     -0.927357  
      22A     -0.904794    23A     -0.864009    24A     -0.817342  
      25A     -0.759642    26A     -0.747679    27A     -0.716815  
      28A     -0.690096    29A     -0.672268    30A     -0.651544  
      31A     -0.644615    32A     -0.631215    33A     -0.618193  
      34A     -0.612629    35A     -0.564352    36A     -0.534123  
      37A     -0.507535    38A     -0.474547    39A     -0.462292  
      40A     -0.449066    41A     -0.447976    42A     -0.437900  
      43A     -0.428263    44A     -0.318845  

    Virtual:                                                              

      45A      0.036507    46A      0.040735    47A      0.065084  
      48A      0.072089    49A      0.075381    50A      0.086675  
      51A      0.092585    52A      0.106083    53A      0.108307  
      54A      0.115672    55A      0.120755    56A      0.125481  
      57A      0.136452    58A      0.147841    59A      0.154988  
      60A      0.159014    61A      0.170880    62A      0.174709  
      63A      0.179853    64A      0.181239    65A      0.200432  
      66A      0.204311    67A      0.216273    68A      0.221931  
      69A      0.223081    70A      0.226913    71A      0.237150  
      72A      0.241309    73A      0.248947    74A      0.258463  
      75A      0.268358    76A      0.270223    77A      0.273602  
      78A      0.280781    79A      0.283431    80A      0.284553  
      81A      0.294656    82A      0.309952    83A      0.314397  
      84A      0.315981    85A      0.323952    86A      0.331008  
      87A      0.336172    88A      0.341845    89A      0.350346  
      90A      0.358025    91A      0.363089    92A      0.380339  
      93A      0.382651    94A      0.387854    95A      0.407345  
      96A      0.411375    97A      0.413335    98A      0.417926  
      99A      0.432631   100A      0.455773   101A      0.470670  
     102A      0.472161   103A      0.485960   104A      0.492888  
     105A      0.503950   106A      0.521351   107A      0.542985  
     108A      0.565367   109A      0.595617   110A      0.607015  
     111A      0.634261   112A      0.652698   113A      0.699535  
     114A      0.763052   115A      0.799829   116A      0.809998  
     117A      0.833112   118A      0.839188   119A      0.850924  
     120A      0.857621   121A      0.862234   122A      0.892346  
     123A      0.925846   124A      0.933621   125A      0.941223  
     126A      0.977001   127A      0.990518   128A      0.996654  
     129A      1.021467   130A      1.031169   131A      1.045512  
     132A      1.061014   133A      1.066914   134A      1.082056  
     135A      1.096472   136A      1.111448   137A      1.130468  
     138A      1.149831   139A      1.157172   140A      1.160099  
     141A      1.172705   142A      1.191164   143A      1.195579  
     144A      1.207351   145A      1.209343   146A      1.222349  
     147A      1.249740   148A      1.260172   149A      1.270141  
     150A      1.278367   151A      1.287102   152A      1.304325  
     153A      1.307827   154A      1.310405   155A      1.339888  
     156A      1.344509   157A      1.365409   158A      1.377656  
     159A      1.385619   160A      1.411077   161A      1.443556  
     162A      1.457771   163A      1.466104   164A      1.499024  
     165A      1.516879   166A      1.526481   167A      1.542524  
     168A      1.551881   169A      1.555591   170A      1.572799  
     171A      1.585288   172A      1.616484   173A      1.632946  
     174A      1.670958   175A      1.687762   176A      1.745983  
     177A      1.760256   178A      1.769319   179A      1.779394  
     180A      1.818819   181A      1.835070   182A      1.838031  
     183A      1.869423   184A      1.879793   185A      1.904073  
     186A      1.933314   187A      1.943267   188A      1.990737  
     189A      2.001533   190A      2.004936   191A      2.050175  
     192A      2.061244   193A      2.078955   194A      2.105853  
     195A      2.129481   196A      2.132821   197A      2.175294  
     198A      2.189006   199A      2.206029   200A      2.248435  
     201A      2.259530   202A      2.274366   203A      2.300183  
     204A      2.313166   205A      2.321592   206A      2.350307  
     207A      2.367156   208A      2.384324   209A      2.396709  
     210A      2.439869   211A      2.473806   212A      2.535589  
     213A      2.554293   214A      2.585078   215A      2.590340  
     216A      2.616778   217A      2.649185   218A      2.670977  
     219A      2.695731   220A      2.724183   221A      2.743394  
     222A      2.758468   223A      2.827931   224A      2.846945  
     225A      2.865414   226A      2.900716   227A      2.951168  
     228A      2.955979   229A      3.036853   230A      3.045331  
     231A      3.082830   232A      3.095169   233A      3.115968  
     234A      3.172501   235A      3.189407   236A      3.198622  
     237A      3.246128   238A      3.293012   239A      3.303079  
     240A      3.345334   241A      3.366638   242A      3.371966  
     243A      3.487850   244A      3.558198   245A      3.617302  
     246A      3.723503   247A      3.791663   248A      3.828126  
     249A      3.998014   250A      4.066603   251A      4.306103  

    Final Occupation by Irrep:
              A 
    DOCC [    44 ]

  @DF-RHF Final Energy:  -615.50499800251112

   => Energetics <=

    Nuclear Repulsion Energy =            697.3298775099557361
    One-Electron Energy =               -2223.6494481860931955
    Two-Electron Energy =                 910.8145726736264578
    Total Energy =                       -615.5049980025111154

Computation Completed


Properties will be evaluated at   0.000000,   0.000000,   0.000000 [a0]

Properties computed using the SCF density matrix

  Nuclear Dipole Moment: [e a0]
     X:     1.0264      Y:     0.0744      Z:     0.5305

  Electronic Dipole Moment: [e a0]
     X:     2.7284      Y:     1.6755      Z:    -0.1778

  Dipole Moment: [e a0]
     X:     3.7548      Y:     1.7499      Z:     0.3527     Total:     4.1576

  Dipole Moment: [D]
     X:     9.5438      Y:     4.4479      Z:     0.8964     Total:    10.5675


*** tstop() called on node150.bme.utexas.edu at Mon May 13 10:36:21 2024
Module time:
	user time   =      25.27 seconds =       0.42 minutes
	system time =       0.59 seconds =       0.01 minutes
	total time  =          4 seconds =       0.07 minutes
Total time:
	user time   =      25.27 seconds =       0.42 minutes
	system time =       0.59 seconds =       0.01 minutes
	total time  =          4 seconds =       0.07 minutes

*** tstart() called on node150.bme.utexas.edu
*** at Mon May 13 10:36:21 2024


  //>>>>>>>>>>>>>>>>>>>>>>>>>>>>>>>>>>>//
  //               DFMP2               //
  //<<<<<<<<<<<<<<<<<<<<<<<<<<<<<<<<<<<//

   => Loading Basis Set <=

    Name: (JUN-CC-PVDZ AUX)
    Role: RIFIT
    Keyword: DF_BASIS_MP2
    atoms 1, 5, 9, 11-12     entry N          line   144 file /opt/anaconda/envs/psi4v1.5/share/psi4/basis/jun-cc-pvdz-ri.gbs 
    atoms 2, 4, 14-16, 18-19 entry H          line    30 file /opt/anaconda/envs/psi4v1.5/share/psi4/basis/jun-cc-pvdz-ri.gbs 
    atoms 3, 6-7, 10, 13     entry C          line   100 file /opt/anaconda/envs/psi4v1.5/share/psi4/basis/jun-cc-pvdz-ri.gbs 
    atoms 8, 17              entry O          line   188 file /opt/anaconda/envs/psi4v1.5/share/psi4/basis/jun-cc-pvdz-ri.gbs 

	 --------------------------------------------------------
	                          DF-MP2                         
	      2nd-Order Density-Fitted Moller-Plesset Theory     
	              RMP2 Wavefunction,   8 Threads             
	                                                         
	        Rob Parrish, Justin Turney, Andy Simmonett,      
	           Ed Hohenstein, and C. David Sherrill          
	 --------------------------------------------------------

   => Auxiliary Basis Set <=

  Basis Set: (JUN-CC-PVDZ AUX)
    Blend: JUN-CC-PVDZ-RI
    Number of shells: 294
    Number of basis functions: 878
    Number of Cartesian functions: 1017
    Spherical Harmonics?: true
    Max angular momentum: 3

	 --------------------------------------------------------
	                 NBF =   251, NAUX =   878
	 --------------------------------------------------------
	   CLASS    FOCC     OCC    AOCC    AVIR     VIR    FVIR
	   PAIRS      12      44      32     207     207       0
	 --------------------------------------------------------

	 Will save fitting metric to file 97.

	-----------------------------------------------------------
	 ==================> DF-MP2 Energies <==================== 
	-----------------------------------------------------------
	 Reference Energy          =    -615.5049980025111154 [Eh]
	 Singles Energy            =      -0.0000000000000000 [Eh]
	 Same-Spin Energy          =      -0.5155265330186581 [Eh]
	 Opposite-Spin Energy      =      -1.3419216686790525 [Eh]
	 Correlation Energy        =      -1.8574482016977107 [Eh]
	 Total Energy              =    -617.3624462042088226 [Eh]
	-----------------------------------------------------------
	 ================> DF-SCS-MP2 Energies <================== 
	-----------------------------------------------------------
	 SCS Same-Spin Scale       =       0.3333333333333333 [-]
	 SCS Opposite-Spin Scale   =       1.2000000000000000 [-]
	 SCS Same-Spin Energy      =      -0.1718421776728860 [Eh]
	 SCS Opposite-Spin Energy  =      -1.6103060024148630 [Eh]
	 SCS Correlation Energy    =      -1.7821481800877490 [Eh]
	 SCS Total Energy          =    -617.2871461825989172 [Eh]
	-----------------------------------------------------------


*** tstop() called on node150.bme.utexas.edu at Mon May 13 10:36:22 2024
Module time:
	user time   =       8.46 seconds =       0.14 minutes
	system time =       0.20 seconds =       0.00 minutes
	total time  =          1 seconds =       0.02 minutes
Total time:
	user time   =      33.73 seconds =       0.56 minutes
	system time =       0.79 seconds =       0.01 minutes
	total time  =          5 seconds =       0.08 minutes

  //>>>>>>>>>>>>>>>>>>>>>>>>>>>>>>>>>>>//
  //            Monomer A HF           //
  //<<<<<<<<<<<<<<<<<<<<<<<<<<<<<<<<<<<//


*** tstart() called on node150.bme.utexas.edu
*** at Mon May 13 10:36:22 2024

   => Loading Basis Set <=

    Name: JUN-CC-PVDZ
    Role: ORBITAL
    Keyword: BASIS
    atoms 1, 5, 9, 11-12     entry N          line   198 file /opt/anaconda/envs/psi4v1.5/share/psi4/basis/jun-cc-pvdz.gbs 
    atoms 2, 4, 14-16, 18-19 entry H          line    36 file /opt/anaconda/envs/psi4v1.5/share/psi4/basis/jun-cc-pvdz.gbs 
    atoms 3, 6-7, 10, 13     entry C          line   164 file /opt/anaconda/envs/psi4v1.5/share/psi4/basis/jun-cc-pvdz.gbs 
    atoms 8, 17              entry O          line   232 file /opt/anaconda/envs/psi4v1.5/share/psi4/basis/jun-cc-pvdz.gbs 


         ---------------------------------------------------------
                                   SCF
               by Justin Turney, Rob Parrish, Andy Simmonett
                          and Daniel G. A. Smith
                              RHF Reference
                        8 Threads,  47683 MiB Core
         ---------------------------------------------------------

  ==> Geometry <==

    Molecular point group: c1
    Full point group: C1

    Geometry (in Angstrom), charge = 0, multiplicity = 1:

       Center              X                  Y                   Z               Mass       
    ------------   -----------------  -----------------  -----------------  -----------------
         N           -0.032158484595     2.395637252240     0.001200253263    14.003074004430
         H            0.456941515405     3.283707252240     0.005050253263     1.007825032230
         C           -1.389068484595     2.189237252240    -0.013729746737    12.000000000000
         H           -2.097038484595     3.007537252240    -0.020309746737     1.007825032230
         N           -1.708638484595     0.904207252240    -0.019239746737    14.003074004430
         C           -0.493518484595     0.255267252240    -0.004989746737    12.000000000000
         C           -0.199938484595    -1.154392747760    -0.023659746737    12.000000000000
         O           -0.944728484595    -2.132012747760    -0.055989746737    15.994914619570
         N            1.210071515405    -1.341282747760    -0.014599746737    14.003074004430
         C            2.171731515405    -0.360242747760     0.018690253263    12.000000000000
         N            3.482811515405    -0.795042747760    -0.046439746737    14.003074004430
         N            1.906681515405     0.924047252240     0.035500253263    14.003074004430
         C            0.564501515405     1.162247252240     0.002220253263    12.000000000000
         H            1.491411515405    -2.314352747760    -0.113799746737     1.007825032230
         H            3.702771515405    -1.614592747760     0.509810253263     1.007825032230
         H            4.131771515405    -0.032282747760     0.118570253263     1.007825032230
      Gh(O)          -3.870908484595    -1.271682747760     0.074610253263    15.994914619570
      Gh(H)          -3.467208484595    -0.387732747760     0.041100253263     1.007825032230
      Gh(H)          -3.083998484595    -1.839012747760     0.025180253263     1.007825032230

  Running in c1 symmetry.

  Rotational constants: A =      0.04678  B =      0.02467  C =      0.01617 [cm^-1]
  Rotational constants: A =   1402.50570  B =    739.55639  C =    484.67958 [MHz]
  Nuclear repulsion =  593.919999721530189

  Charge       = 0
  Multiplicity = 1
  Electrons    = 78
  Nalpha       = 39
  Nbeta        = 39

  ==> Algorithm <==

  SCF Algorithm Type is DF.
  DIIS enabled.
  MOM disabled.
  Fractional occupation disabled.
  Guess Type is SAD.
  Energy threshold   = 1.00e-08
  Density threshold  = 1.00e-08
  Integral threshold = 1.00e-12

  ==> Primary Basis <==

  Basis Set: JUN-CC-PVDZ
    Blend: JUN-CC-PVDZ
    Number of shells: 117
    Number of basis functions: 251
    Number of Cartesian functions: 263
    Spherical Harmonics?: true
    Max angular momentum: 2

   => Loading Basis Set <=

    Name: (JUN-CC-PVDZ AUX)
    Role: JKFIT
    Keyword: DF_BASIS_SCF
    atoms 1, 5, 9, 11-12     entry N          line   202 file /opt/anaconda/envs/psi4v1.5/share/psi4/basis/jun-cc-pvdz-jkfit.gbs 
    atoms 2, 4, 14-16, 18-19 entry H          line    70 file /opt/anaconda/envs/psi4v1.5/share/psi4/basis/jun-cc-pvdz-jkfit.gbs 
    atoms 3, 6-7, 10, 13     entry C          line   146 file /opt/anaconda/envs/psi4v1.5/share/psi4/basis/jun-cc-pvdz-jkfit.gbs 
    atoms 8, 17              entry O          line   258 file /opt/anaconda/envs/psi4v1.5/share/psi4/basis/jun-cc-pvdz-jkfit.gbs 

  ==> Integral Setup <==

  ==> DiskDFJK: Density-Fitted J/K Matrices <==

    J tasked:                  Yes
    K tasked:                  Yes
    wK tasked:                  No
    OpenMP threads:              8
    Integrals threads:           8
    Memory [MiB]:            35762
    Algorithm:                Core
    Integral Cache:           LOAD
    Schwarz Cutoff:          1E-12
    Fitting Condition:       1E-10

   => Auxiliary Basis Set <=

  Basis Set: (JUN-CC-PVDZ AUX)
    Blend: JUN-CC-PVDZ-JKFIT
    Number of shells: 387
    Number of basis functions: 1109
    Number of Cartesian functions: 1267
    Spherical Harmonics?: true
    Max angular momentum: 3

  Minimum eigenvalue in the overlap matrix is 1.3474474685E-05.
  Reciprocal condition number of the overlap matrix is 1.0282367025E-06.
    Using symmetric orthogonalization.

  ==> Pre-Iterations <==

  SCF Guess: Superposition of Atomic Densities via on-the-fly atomic UHF (no occupation information).

   -------------------------
    Irrep   Nso     Nmo    
   -------------------------
     A        251     251 
   -------------------------
    Total     251     251
   -------------------------

  ==> Iterations <==

                           Total Energy        Delta E     RMS |[F,P]|

   @DF-RHF iter SAD:  -539.24448801222093   -5.39244e+02   0.00000e+00 
   @DF-RHF iter   1:  -539.15004215273098    9.44459e-02   3.04045e-03 DIIS
   @DF-RHF iter   2:  -539.37092319529177   -2.20881e-01   1.80626e-03 DIIS
   @DF-RHF iter   3:  -539.45142148611410   -8.04983e-02   3.75770e-04 DIIS
   @DF-RHF iter   4:  -539.45642736207446   -5.00588e-03   1.47760e-04 DIIS
   @DF-RHF iter   5:  -539.45731078952747   -8.83427e-04   3.24631e-05 DIIS
   @DF-RHF iter   6:  -539.45740551576102   -9.47262e-05   1.72099e-05 DIIS
   @DF-RHF iter   7:  -539.45743168399349   -2.61682e-05   6.96630e-06 DIIS
   @DF-RHF iter   8:  -539.45743613526633   -4.45127e-06   2.44244e-06 DIIS
   @DF-RHF iter   9:  -539.45743664698398   -5.11718e-07   9.07848e-07 DIIS
   @DF-RHF iter  10:  -539.45743673348920   -8.65052e-08   3.63648e-07 DIIS
   @DF-RHF iter  11:  -539.45743674474909   -1.12599e-08   1.30853e-07 DIIS
   @DF-RHF iter  12:  -539.45743674612538   -1.37629e-09   4.59632e-08 DIIS
   @DF-RHF iter  13:  -539.45743674628511   -1.59730e-10   2.11242e-08 DIIS
   @DF-RHF iter  14:  -539.45743674631638   -3.12639e-11   6.12772e-09 DIIS
  Energy and wave function converged.


  ==> Post-Iterations <==

    Orbital Energies [Eh]
    ---------------------

    Doubly Occupied:                                                      

       1A    -20.533104     2A    -15.644176     3A    -15.641813  
       4A    -15.623040     5A    -15.582878     6A    -15.572420  
       7A    -11.408110     8A    -11.377081     9A    -11.334572  
      10A    -11.321857    11A    -11.257410    12A     -1.399563  
      13A     -1.366390    14A     -1.341920    15A     -1.227018  
      16A     -1.224614    17A     -1.182795    18A     -1.037228  
      19A     -0.912759    20A     -0.891532    21A     -0.847808  
      22A     -0.804189    23A     -0.745427    24A     -0.734983  
      25A     -0.703963    26A     -0.676262    27A     -0.658708  
      28A     -0.637677    29A     -0.615223    30A     -0.604208  
      31A     -0.598940    32A     -0.548683    33A     -0.501039  
      34A     -0.462647    35A     -0.443333    36A     -0.433205  
      37A     -0.433009    38A     -0.412498    39A     -0.303770  

    Virtual:                                                              

      40A      0.042507    41A      0.046695    42A      0.070176  
      43A      0.078426    44A      0.080900    45A      0.089461  
      46A      0.100139    47A      0.110605    48A      0.118133  
      49A      0.119675    50A      0.121930    51A      0.136088  
      52A      0.143444    53A      0.146349    54A      0.159419  
      55A      0.162335    56A      0.166703    57A      0.181152  
      58A      0.184792    59A      0.187569    60A      0.192319  
      61A      0.208510    62A      0.216544    63A      0.217802  
      64A      0.224595    65A      0.231679    66A      0.234961  
      67A      0.243207    68A      0.248015    69A      0.255551  
      70A      0.259577    71A      0.270611    72A      0.275322  
      73A      0.279117    74A      0.282266    75A      0.286316  
      76A      0.292145    77A      0.303367    78A      0.320565  
      79A      0.323393    80A      0.329061    81A      0.337908  
      82A      0.344683    83A      0.346508    84A      0.354641  
      85A      0.361913    86A      0.375939    87A      0.389695  
      88A      0.396333    89A      0.405255    90A      0.418028  
      91A      0.420502    92A      0.427262    93A      0.430326  
      94A      0.434488    95A      0.457918    96A      0.474890  
      97A      0.485028    98A      0.488648    99A      0.507374  
     100A      0.514832   101A      0.528816   102A      0.553104  
     103A      0.569707   104A      0.607520   105A      0.617901  
     106A      0.629999   107A      0.666123   108A      0.711583  
     109A      0.770064   110A      0.811738   111A      0.822920  
     112A      0.846121   113A      0.849061   114A      0.861462  
     115A      0.869981   116A      0.871326   117A      0.874655  
     118A      0.899046   119A      0.913555   120A      0.940454  
     121A      0.949244   122A      0.954586   123A      0.984201  
     124A      0.993134   125A      1.017032   126A      1.029832  
     127A      1.049291   128A      1.057779   129A      1.074455  
     130A      1.080142   131A      1.096533   132A      1.110873  
     133A      1.121548   134A      1.129683   135A      1.146170  
     136A      1.168162   137A      1.175067   138A      1.178987  
     139A      1.186541   140A      1.208091   141A      1.220337  
     142A      1.222231   143A      1.243566   144A      1.254292  
     145A      1.269726   146A      1.277065   147A      1.289051  
     148A      1.298220   149A      1.320585   150A      1.326485  
     151A      1.332121   152A      1.356298   153A      1.380354  
     154A      1.384546   155A      1.401361   156A      1.408643  
     157A      1.440456   158A      1.478425   159A      1.505831  
     160A      1.517696   161A      1.549959   162A      1.562626  
     163A      1.584576   164A      1.593884   165A      1.635869  
     166A      1.676487   167A      1.689513   168A      1.771078  
     169A      1.782896   170A      1.791726   171A      1.827572  
     172A      1.847462   173A      1.850013   174A      1.878544  
     175A      1.889757   176A      1.915699   177A      1.942235  
     178A      1.951970   179A      1.960599   180A      1.979503  
     181A      2.013060   182A      2.016144   183A      2.019690  
     184A      2.033014   185A      2.066368   186A      2.077788  
     187A      2.099096   188A      2.139657   189A      2.144789  
     190A      2.165007   191A      2.182378   192A      2.202224  
     193A      2.214200   194A      2.229322   195A      2.263537  
     196A      2.295252   197A      2.309604   198A      2.325679  
     199A      2.331819   200A      2.364694   201A      2.380346  
     202A      2.399851   203A      2.407188   204A      2.454428  
     205A      2.458522   206A      2.533234   207A      2.563314  
     208A      2.571291   209A      2.604682   210A      2.663145  
     211A      2.680928   212A      2.712683   213A      2.735579  
     214A      2.757266   215A      2.769494   216A      2.777434  
     217A      2.840807   218A      2.859040   219A      2.876466  
     220A      2.912361   221A      2.940464   222A      2.966690  
     223A      2.973961   224A      3.052690   225A      3.059417  
     226A      3.101779   227A      3.105601   228A      3.133959  
     229A      3.183599   230A      3.202511   231A      3.209395  
     232A      3.258723   233A      3.307818   234A      3.318160  
     235A      3.358365   236A      3.414686   237A      3.506847  
     238A      3.573040   239A      3.737657   240A      3.807130  
     241A      3.849408   242A      4.084855   243A      4.510346  
     244A      4.551334   245A      4.813726   246A      4.934553  
     247A      5.191213   248A      5.521613   249A      6.615431  
     250A      6.994390   251A     33.579317  

    Final Occupation by Irrep:
              A 
    DOCC [    39 ]

  @DF-RHF Final Energy:  -539.45743674631638

   => Energetics <=

    Nuclear Repulsion Energy =            593.9199997215301892
    One-Electron Energy =               -1912.6631676517990854
    Two-Electron Energy =                 779.2857311839526346
    Total Energy =                       -539.4574367463163753

Computation Completed


Properties will be evaluated at   0.000000,   0.000000,   0.000000 [a0]

Properties computed using the SCF density matrix

  Nuclear Dipole Moment: [e a0]
     X:    71.9261      Y:    23.5074      Z:    -0.7227

  Electronic Dipole Moment: [e a0]
     X:   -69.4240      Y:   -22.1820      Z:     1.1397

  Dipole Moment: [e a0]
     X:     2.5021      Y:     1.3254      Z:     0.4170     Total:     2.8620

  Dipole Moment: [D]
     X:     6.3596      Y:     3.3689      Z:     1.0599     Total:     7.2744


*** tstop() called on node150.bme.utexas.edu at Mon May 13 10:36:25 2024
Module time:
	user time   =      20.22 seconds =       0.34 minutes
	system time =       0.37 seconds =       0.01 minutes
	total time  =          3 seconds =       0.05 minutes
Total time:
	user time   =      53.96 seconds =       0.90 minutes
	system time =       1.16 seconds =       0.02 minutes
	total time  =          8 seconds =       0.13 minutes

*** tstart() called on node150.bme.utexas.edu
*** at Mon May 13 10:36:25 2024


  //>>>>>>>>>>>>>>>>>>>>>>>>>>>>>>>>>>>//
  //               DFMP2               //
  //<<<<<<<<<<<<<<<<<<<<<<<<<<<<<<<<<<<//

   => Loading Basis Set <=

    Name: (JUN-CC-PVDZ AUX)
    Role: RIFIT
    Keyword: DF_BASIS_MP2
    atoms 1, 5, 9, 11-12     entry N          line   144 file /opt/anaconda/envs/psi4v1.5/share/psi4/basis/jun-cc-pvdz-ri.gbs 
    atoms 2, 4, 14-16, 18-19 entry H          line    30 file /opt/anaconda/envs/psi4v1.5/share/psi4/basis/jun-cc-pvdz-ri.gbs 
    atoms 3, 6-7, 10, 13     entry C          line   100 file /opt/anaconda/envs/psi4v1.5/share/psi4/basis/jun-cc-pvdz-ri.gbs 
    atoms 8, 17              entry O          line   188 file /opt/anaconda/envs/psi4v1.5/share/psi4/basis/jun-cc-pvdz-ri.gbs 

	 --------------------------------------------------------
	                          DF-MP2                         
	      2nd-Order Density-Fitted Moller-Plesset Theory     
	              RMP2 Wavefunction,   8 Threads             
	                                                         
	        Rob Parrish, Justin Turney, Andy Simmonett,      
	           Ed Hohenstein, and C. David Sherrill          
	 --------------------------------------------------------

   => Auxiliary Basis Set <=

  Basis Set: (JUN-CC-PVDZ AUX)
    Blend: JUN-CC-PVDZ-RI
    Number of shells: 294
    Number of basis functions: 878
    Number of Cartesian functions: 1017
    Spherical Harmonics?: true
    Max angular momentum: 3

	 --------------------------------------------------------
	                 NBF =   251, NAUX =   878
	 --------------------------------------------------------
	   CLASS    FOCC     OCC    AOCC    AVIR     VIR    FVIR
	   PAIRS      11      39      28     212     212       0
	 --------------------------------------------------------

	 Will attempt to load fitting metric from file 97.

	-----------------------------------------------------------
	 ==================> DF-MP2 Energies <==================== 
	-----------------------------------------------------------
	 Reference Energy          =    -539.4574367463163753 [Eh]
	 Singles Energy            =      -0.0000000000000000 [Eh]
	 Same-Spin Energy          =      -0.4607352818936563 [Eh]
	 Opposite-Spin Energy      =      -1.1852442901240132 [Eh]
	 Correlation Energy        =      -1.6459795720176695 [Eh]
	 Total Energy              =    -541.1034163183340979 [Eh]
	-----------------------------------------------------------
	 ================> DF-SCS-MP2 Energies <================== 
	-----------------------------------------------------------
	 SCS Same-Spin Scale       =       0.3333333333333333 [-]
	 SCS Opposite-Spin Scale   =       1.2000000000000000 [-]
	 SCS Same-Spin Energy      =      -0.1535784272978854 [Eh]
	 SCS Opposite-Spin Energy  =      -1.4222931481488159 [Eh]
	 SCS Correlation Energy    =      -1.5758715754467014 [Eh]
	 SCS Total Energy          =    -541.0333083217631156 [Eh]
	-----------------------------------------------------------


*** tstop() called on node150.bme.utexas.edu at Mon May 13 10:36:26 2024
Module time:
	user time   =       6.93 seconds =       0.12 minutes
	system time =       0.16 seconds =       0.00 minutes
	total time  =          1 seconds =       0.02 minutes
Total time:
	user time   =      60.89 seconds =       1.01 minutes
	system time =       1.32 seconds =       0.02 minutes
	total time  =          9 seconds =       0.15 minutes

  //>>>>>>>>>>>>>>>>>>>>>>>>>>>>>>>>>>>//
  //            Monomer B HF           //
  //<<<<<<<<<<<<<<<<<<<<<<<<<<<<<<<<<<<//


*** tstart() called on node150.bme.utexas.edu
*** at Mon May 13 10:36:26 2024

   => Loading Basis Set <=

    Name: JUN-CC-PVDZ
    Role: ORBITAL
    Keyword: BASIS
    atoms 1, 5, 9, 11-12     entry N          line   198 file /opt/anaconda/envs/psi4v1.5/share/psi4/basis/jun-cc-pvdz.gbs 
    atoms 2, 4, 14-16, 18-19 entry H          line    36 file /opt/anaconda/envs/psi4v1.5/share/psi4/basis/jun-cc-pvdz.gbs 
    atoms 3, 6-7, 10, 13     entry C          line   164 file /opt/anaconda/envs/psi4v1.5/share/psi4/basis/jun-cc-pvdz.gbs 
    atoms 8, 17              entry O          line   232 file /opt/anaconda/envs/psi4v1.5/share/psi4/basis/jun-cc-pvdz.gbs 


         ---------------------------------------------------------
                                   SCF
               by Justin Turney, Rob Parrish, Andy Simmonett
                          and Daniel G. A. Smith
                              RHF Reference
                        8 Threads,  47683 MiB Core
         ---------------------------------------------------------

  ==> Geometry <==

    Molecular point group: c1
    Full point group: C1

    Geometry (in Angstrom), charge = 0, multiplicity = 1:

       Center              X                  Y                   Z               Mass       
    ------------   -----------------  -----------------  -----------------  -----------------
      Gh(N)          -0.032158484595     2.395637252240     0.001200253263    14.003074004430
      Gh(H)           0.456941515405     3.283707252240     0.005050253263     1.007825032230
      Gh(C)          -1.389068484595     2.189237252240    -0.013729746737    12.000000000000
      Gh(H)          -2.097038484595     3.007537252240    -0.020309746737     1.007825032230
      Gh(N)          -1.708638484595     0.904207252240    -0.019239746737    14.003074004430
      Gh(C)          -0.493518484595     0.255267252240    -0.004989746737    12.000000000000
      Gh(C)          -0.199938484595    -1.154392747760    -0.023659746737    12.000000000000
      Gh(O)          -0.944728484595    -2.132012747760    -0.055989746737    15.994914619570
      Gh(N)           1.210071515405    -1.341282747760    -0.014599746737    14.003074004430
      Gh(C)           2.171731515405    -0.360242747760     0.018690253263    12.000000000000
      Gh(N)           3.482811515405    -0.795042747760    -0.046439746737    14.003074004430
      Gh(N)           1.906681515405     0.924047252240     0.035500253263    14.003074004430
      Gh(C)           0.564501515405     1.162247252240     0.002220253263    12.000000000000
      Gh(H)           1.491411515405    -2.314352747760    -0.113799746737     1.007825032230
      Gh(H)           3.702771515405    -1.614592747760     0.509810253263     1.007825032230
      Gh(H)           4.131771515405    -0.032282747760     0.118570253263     1.007825032230
         O           -3.870908484595    -1.271682747760     0.074610253263    15.994914619570
         H           -3.467208484595    -0.387732747760     0.041100253263     1.007825032230
         H           -3.083998484595    -1.839012747760     0.025180253263     1.007825032230

  Running in c1 symmetry.

  Rotational constants: A =      0.04678  B =      0.02467  C =      0.01617 [cm^-1]
  Rotational constants: A =   1402.50570  B =    739.55639  C =    484.67958 [MHz]
  Nuclear repulsion =    9.064578069446647

  Charge       = 0
  Multiplicity = 1
  Electrons    = 10
  Nalpha       = 5
  Nbeta        = 5

  ==> Algorithm <==

  SCF Algorithm Type is DF.
  DIIS enabled.
  MOM disabled.
  Fractional occupation disabled.
  Guess Type is SAD.
  Energy threshold   = 1.00e-08
  Density threshold  = 1.00e-08
  Integral threshold = 1.00e-12

  ==> Primary Basis <==

  Basis Set: JUN-CC-PVDZ
    Blend: JUN-CC-PVDZ
    Number of shells: 117
    Number of basis functions: 251
    Number of Cartesian functions: 263
    Spherical Harmonics?: true
    Max angular momentum: 2

   => Loading Basis Set <=

    Name: (JUN-CC-PVDZ AUX)
    Role: JKFIT
    Keyword: DF_BASIS_SCF
    atoms 1, 5, 9, 11-12     entry N          line   202 file /opt/anaconda/envs/psi4v1.5/share/psi4/basis/jun-cc-pvdz-jkfit.gbs 
    atoms 2, 4, 14-16, 18-19 entry H          line    70 file /opt/anaconda/envs/psi4v1.5/share/psi4/basis/jun-cc-pvdz-jkfit.gbs 
    atoms 3, 6-7, 10, 13     entry C          line   146 file /opt/anaconda/envs/psi4v1.5/share/psi4/basis/jun-cc-pvdz-jkfit.gbs 
    atoms 8, 17              entry O          line   258 file /opt/anaconda/envs/psi4v1.5/share/psi4/basis/jun-cc-pvdz-jkfit.gbs 

  ==> Integral Setup <==

  ==> DiskDFJK: Density-Fitted J/K Matrices <==

    J tasked:                  Yes
    K tasked:                  Yes
    wK tasked:                  No
    OpenMP threads:              8
    Integrals threads:           8
    Memory [MiB]:            35762
    Algorithm:                Core
    Integral Cache:           LOAD
    Schwarz Cutoff:          1E-12
    Fitting Condition:       1E-10

   => Auxiliary Basis Set <=

  Basis Set: (JUN-CC-PVDZ AUX)
    Blend: JUN-CC-PVDZ-JKFIT
    Number of shells: 387
    Number of basis functions: 1109
    Number of Cartesian functions: 1267
    Spherical Harmonics?: true
    Max angular momentum: 3

  Minimum eigenvalue in the overlap matrix is 1.3474474685E-05.
  Reciprocal condition number of the overlap matrix is 1.0282367025E-06.
    Using symmetric orthogonalization.

  ==> Pre-Iterations <==

  SCF Guess: Superposition of Atomic Densities via on-the-fly atomic UHF (no occupation information).

   -------------------------
    Irrep   Nso     Nmo    
   -------------------------
     A        251     251 
   -------------------------
    Total     251     251
   -------------------------

  ==> Iterations <==

                           Total Energy        Delta E     RMS |[F,P]|

   @DF-RHF iter SAD:   -75.49963688138533   -7.54996e+01   0.00000e+00 
   @DF-RHF iter   1:   -75.95836480067507   -4.58728e-01   1.72432e-03 DIIS
   @DF-RHF iter   2:   -76.00921270495053   -5.08479e-02   1.11088e-03 DIIS
   @DF-RHF iter   3:   -76.03639162558228   -2.71789e-02   8.85667e-05 DIIS
   @DF-RHF iter   4:   -76.03676936579906   -3.77740e-04   2.03160e-05 DIIS
   @DF-RHF iter   5:   -76.03679127142927   -2.19056e-05   4.03112e-06 DIIS
   @DF-RHF iter   6:   -76.03679264877128   -1.37734e-06   8.54681e-07 DIIS
   @DF-RHF iter   7:   -76.03679271905156   -7.02803e-08   1.04309e-07 DIIS
   @DF-RHF iter   8:   -76.03679271995840   -9.06837e-10   1.81392e-08 DIIS
   @DF-RHF iter   9:   -76.03679271998483   -2.64322e-11   4.88994e-09 DIIS
  Energy and wave function converged.


  ==> Post-Iterations <==

    Orbital Energies [Eh]
    ---------------------

    Doubly Occupied:                                                      

       1A    -20.581049     2A     -1.351664     3A     -0.704831  
       4A     -0.588367     5A     -0.508913  

    Virtual:                                                              

       6A      0.021240     7A      0.039538     8A      0.045534  
       9A      0.061074    10A      0.071343    11A      0.076560  
      12A      0.089943    13A      0.093362    14A      0.111207  
      15A      0.112919    16A      0.116014    17A      0.133219  
      18A      0.139817    19A      0.143722    20A      0.151758  
      21A      0.155256    22A      0.159485    23A      0.163875  
      24A      0.175667    25A      0.185350    26A      0.197473  
      27A      0.198683    28A      0.200594    29A      0.208869  
      30A      0.210754    31A      0.225175    32A      0.228798  
      33A      0.229969    34A      0.240508    35A      0.244411  
      36A      0.252196    37A      0.258683    38A      0.260239  
      39A      0.264581    40A      0.270191    41A      0.272044  
      42A      0.280177    43A      0.284328    44A      0.293857  
      45A      0.298024    46A      0.310010    47A      0.329259  
      48A      0.337192    49A      0.342437    50A      0.361876  
      51A      0.379282    52A      0.394978    53A      0.416167  
      54A      0.426749    55A      0.446288    56A      0.459100  
      57A      0.469522    58A      0.477117    59A      0.489750  
      60A      0.501050    61A      0.514689    62A      0.517359  
      63A      0.532499    64A      0.541631    65A      0.547705  
      66A      0.553472    67A      0.559254    68A      0.562690  
      69A      0.580024    70A      0.596365    71A      0.627331  
      72A      0.643058    73A      0.649077    74A      0.673027  
      75A      0.690653    76A      0.741340    77A      0.752612  
      78A      0.760453    79A      0.774462    80A      0.778864  
      81A      0.806656    82A      0.809972    83A      0.822768  
      84A      0.858891    85A      0.864787    86A      0.882904  
      87A      0.913135    88A      0.920352    89A      0.942097  
      90A      0.988082    91A      1.000633    92A      1.004577  
      93A      1.017578    94A      1.058007    95A      1.074144  
      96A      1.107729    97A      1.152254    98A      1.155957  
      99A      1.194302   100A      1.229722   101A      1.250861  
     102A      1.269423   103A      1.276546   104A      1.291281  
     105A      1.309178   106A      1.376732   107A      1.383389  
     108A      1.401011   109A      1.481284   110A      1.493595  
     111A      1.537777   112A      1.669885   113A      1.758567  
     114A      1.764522   115A      1.801573   116A      1.823321  
     117A      1.826201   118A      1.869794   119A      1.901209  
     120A      1.915295   121A      1.930965   122A      1.943173  
     123A      1.960840   124A      1.981900   125A      1.988498  
     126A      2.013416   127A      2.020356   128A      2.044714  
     129A      2.055916   130A      2.077475   131A      2.094527  
     132A      2.104433   133A      2.138152   134A      2.151999  
     135A      2.180664   136A      2.185353   137A      2.194371  
     138A      2.222286   139A      2.229247   140A      2.248864  
     141A      2.266202   142A      2.291603   143A      2.296894  
     144A      2.345732   145A      2.348248   146A      2.368350  
     147A      2.379720   148A      2.402968   149A      2.443403  
     150A      2.448276   151A      2.455775   152A      2.473786  
     153A      2.493634   154A      2.503798   155A      2.520133  
     156A      2.528223   157A      2.553204   158A      2.558929  
     159A      2.625634   160A      2.636968   161A      2.669484  
     162A      2.674110   163A      2.738412   164A      2.771014  
     165A      2.781638   166A      2.816718   167A      2.835435  
     168A      2.842558   169A      2.866669   170A      2.949798  
     171A      2.956206   172A      2.985416   173A      3.004718  
     174A      3.042763   175A      3.083427   176A      3.096886  
     177A      3.151446   178A      3.170801   179A      3.220237  
     180A      3.274025   181A      3.295724   182A      3.302481  
     183A      3.312165   184A      3.332768   185A      3.356705  
     186A      3.436944   187A      3.469458   188A      3.494855  
     189A      3.512059   190A      3.528210   191A      3.560853  
     192A      3.585840   193A      3.626038   194A      3.677431  
     195A      3.712511   196A      3.725735   197A      3.753821  
     198A      3.789001   199A      3.826382   200A      3.914830  
     201A      3.923033   202A      3.929498   203A      4.038439  
     204A      4.080338   205A      4.133196   206A      4.163549  
     207A      4.211223   208A      4.232139   209A      4.269658  
     210A      4.283923   211A      4.307298   212A      4.312057  
     213A      4.359796   214A      4.369519   215A      4.505506  
     216A      4.553379   217A      4.596366   218A      4.614726  
     219A      4.704941   220A      4.731495   221A      4.762338  
     222A      4.811269   223A      4.866841   224A      4.915428  
     225A      5.005681   226A      5.131595   227A      5.196370  
     228A      5.361645   229A      5.476536   230A      5.604508  
     231A      5.664993   232A      5.671284   233A      5.775418  
     234A      5.937861   235A      6.019702   236A      6.031403  
     237A      6.093215   238A      6.117120   239A      6.163945  
     240A      6.907584   241A     18.138163   242A     18.453270  
     243A     18.488540   244A     18.511905   245A     18.867733  
     246A     25.273064   247A     25.311754   248A     25.384039  
     249A     25.412559   250A     25.416442   251A     33.492779  

    Final Occupation by Irrep:
              A 
    DOCC [     5 ]

  @DF-RHF Final Energy:   -76.03679271998483

   => Energetics <=

    Nuclear Repulsion Energy =              9.0645780694466467
    One-Electron Energy =                -122.7330927516952244
    Two-Electron Energy =                  37.6317219622637396
    Total Energy =                        -76.0367927199848310

Computation Completed


Properties will be evaluated at   0.000000,   0.000000,   0.000000 [a0]

Properties computed using the SCF density matrix

  Nuclear Dipole Moment: [e a0]
     X:   -70.8996      Y:   -23.4330      Z:     1.2532

  Electronic Dipole Moment: [e a0]
     X:    71.7309      Y:    23.6531      Z:    -1.3111

  Dipole Moment: [e a0]
     X:     0.8313      Y:     0.2201      Z:    -0.0579     Total:     0.8619

  Dipole Moment: [D]
     X:     2.1129      Y:     0.5595      Z:    -0.1471     Total:     2.1907


*** tstop() called on node150.bme.utexas.edu at Mon May 13 10:36:28 2024
Module time:
	user time   =      10.25 seconds =       0.17 minutes
	system time =       0.16 seconds =       0.00 minutes
	total time  =          2 seconds =       0.03 minutes
Total time:
	user time   =      71.16 seconds =       1.19 minutes
	system time =       1.48 seconds =       0.02 minutes
	total time  =         11 seconds =       0.18 minutes

*** tstart() called on node150.bme.utexas.edu
*** at Mon May 13 10:36:28 2024


  //>>>>>>>>>>>>>>>>>>>>>>>>>>>>>>>>>>>//
  //               DFMP2               //
  //<<<<<<<<<<<<<<<<<<<<<<<<<<<<<<<<<<<//

   => Loading Basis Set <=

    Name: (JUN-CC-PVDZ AUX)
    Role: RIFIT
    Keyword: DF_BASIS_MP2
    atoms 1, 5, 9, 11-12     entry N          line   144 file /opt/anaconda/envs/psi4v1.5/share/psi4/basis/jun-cc-pvdz-ri.gbs 
    atoms 2, 4, 14-16, 18-19 entry H          line    30 file /opt/anaconda/envs/psi4v1.5/share/psi4/basis/jun-cc-pvdz-ri.gbs 
    atoms 3, 6-7, 10, 13     entry C          line   100 file /opt/anaconda/envs/psi4v1.5/share/psi4/basis/jun-cc-pvdz-ri.gbs 
    atoms 8, 17              entry O          line   188 file /opt/anaconda/envs/psi4v1.5/share/psi4/basis/jun-cc-pvdz-ri.gbs 

	 --------------------------------------------------------
	                          DF-MP2                         
	      2nd-Order Density-Fitted Moller-Plesset Theory     
	              RMP2 Wavefunction,   8 Threads             
	                                                         
	        Rob Parrish, Justin Turney, Andy Simmonett,      
	           Ed Hohenstein, and C. David Sherrill          
	 --------------------------------------------------------

   => Auxiliary Basis Set <=

  Basis Set: (JUN-CC-PVDZ AUX)
    Blend: JUN-CC-PVDZ-RI
    Number of shells: 294
    Number of basis functions: 878
    Number of Cartesian functions: 1017
    Spherical Harmonics?: true
    Max angular momentum: 3

	 --------------------------------------------------------
	                 NBF =   251, NAUX =   878
	 --------------------------------------------------------
	   CLASS    FOCC     OCC    AOCC    AVIR     VIR    FVIR
	   PAIRS       1       5       4     246     246       0
	 --------------------------------------------------------

	 Will attempt to load fitting metric from file 97.

	-----------------------------------------------------------
	 ==================> DF-MP2 Energies <==================== 
	-----------------------------------------------------------
	 Reference Energy          =     -76.0367927199848310 [Eh]
	 Singles Energy            =      -0.0000000000000000 [Eh]
	 Same-Spin Energy          =      -0.0534316509110823 [Eh]
	 Opposite-Spin Energy      =      -0.1569869881504636 [Eh]
	 Correlation Energy        =      -0.2104186390615458 [Eh]
	 Total Energy              =     -76.2472113590463749 [Eh]
	-----------------------------------------------------------
	 ================> DF-SCS-MP2 Energies <================== 
	-----------------------------------------------------------
	 SCS Same-Spin Scale       =       0.3333333333333333 [-]
	 SCS Opposite-Spin Scale   =       1.2000000000000000 [-]
	 SCS Same-Spin Energy      =      -0.0178105503036941 [Eh]
	 SCS Opposite-Spin Energy  =      -0.1883843857805563 [Eh]
	 SCS Correlation Energy    =      -0.2061949360842504 [Eh]
	 SCS Total Energy          =     -76.2429876560690758 [Eh]
	-----------------------------------------------------------


*** tstop() called on node150.bme.utexas.edu at Mon May 13 10:36:29 2024
Module time:
	user time   =       5.38 seconds =       0.09 minutes
	system time =       0.08 seconds =       0.00 minutes
	total time  =          1 seconds =       0.02 minutes
Total time:
	user time   =      76.55 seconds =       1.28 minutes
	system time =       1.56 seconds =       0.03 minutes
	total time  =         12 seconds =       0.20 minutes
  Constructing Basis Sets for SAPT...

   => Loading Basis Set <=

    Name: (JUN-CC-PVDZ AUX)
    Role: RIFIT
    Keyword: DF_BASIS_SAPT
    atoms 1, 5, 9, 11-12     entry N          line   144 file /opt/anaconda/envs/psi4v1.5/share/psi4/basis/jun-cc-pvdz-ri.gbs 
    atoms 2, 4, 14-16, 18-19 entry H          line    30 file /opt/anaconda/envs/psi4v1.5/share/psi4/basis/jun-cc-pvdz-ri.gbs 
    atoms 3, 6-7, 10, 13     entry C          line   100 file /opt/anaconda/envs/psi4v1.5/share/psi4/basis/jun-cc-pvdz-ri.gbs 
    atoms 8, 17              entry O          line   188 file /opt/anaconda/envs/psi4v1.5/share/psi4/basis/jun-cc-pvdz-ri.gbs 


  //>>>>>>>>>>>>>>>>>>>>>>>>>>>>>>>>>>>//
  //           SAPT2+(3)DMP2           //
  //<<<<<<<<<<<<<<<<<<<<<<<<<<<<<<<<<<<//


*** tstart() called on node150.bme.utexas.edu
*** at Mon May 13 10:36:29 2024

      SAPT2+(3)  
    Ed Hohenstein
     6 June 2009

      Orbital Information
  --------------------------
    NSO        =       251
    NMO        =       251
    NRI        =       878
    NOCC A     =        39
    NOCC B     =         5
    FOCC A     =        11
    FOCC B     =         1
    NVIR A     =       212
    NVIR B     =       246

    Estimated memory usage: 2634.1 MB

    Natural Orbital Cutoff:   1.000E-06
    Disp(T3) Truncation:            Yes
    CCD (vv|vv) Truncation:         Yes
    MBPT T2 Truncation:             Yes

    Monomer A: 23 virtual orbitals dropped
    Monomer B: 216 virtual orbitals dropped

    Elst10,r            =    -0.021173495161 [Eh]
    Exch10 (S^2)        =     0.014525974443 [Eh]
    Exch10              =     0.014586690008 [Eh]
    Ind20,r (A<-B)      =    -0.004059462850 [Eh]
    Ind20,r (B<-A)      =    -0.001963543439 [Eh]
    Ind20,r             =    -0.006023006289 [Eh]
    Exch-Ind20,r (A<-B) =     0.002133162256 [Eh]
    Exch-Ind20,r (B<-A) =     0.001162220095 [Eh]
    Exch-Ind20,r        =     0.003295382352 [Eh]
    Disp20              =    -0.005404633860 [Eh]
    Disp20 (NO)         =    -0.004813497876 [Eh]
    Exch-Disp20         =     0.000923059371 [Eh]
    Elst12,r            =     0.000489485172 [Eh]
    Exch11              =    -0.000102126526 [Eh]
    Exch12              =     0.003299018545 [Eh]
    Ind22               =    -0.001214333695 [Eh]
    Disp21              =     0.000564505406 [Eh]
    Disp22 (SDQ)        =    -0.000440475997 [Eh]

    (i =   1 of   4)          8 seconds
    (i =   2 of   4)         17 seconds
    (i =   3 of   4)         26 seconds
    (i =   4 of   4)         35 seconds

    Disp220 (T)         =    -0.000489507481 [Eh]

    (i =   1 of  28)          0 seconds
    (i =   2 of  28)          0 seconds
    (i =   3 of  28)          0 seconds
    (i =   4 of  28)          0 seconds
    (i =   5 of  28)          0 seconds
    (i =   6 of  28)          0 seconds
    (i =   7 of  28)          0 seconds
    (i =   8 of  28)          0 seconds
    (i =   9 of  28)          0 seconds
    (i =  10 of  28)          0 seconds
    (i =  11 of  28)          0 seconds
    (i =  12 of  28)          0 seconds
    (i =  13 of  28)          0 seconds
    (i =  14 of  28)          1 seconds
    (i =  15 of  28)          1 seconds
    (i =  16 of  28)          1 seconds
    (i =  17 of  28)          1 seconds
    (i =  18 of  28)          1 seconds
    (i =  19 of  28)          1 seconds
    (i =  20 of  28)          1 seconds
    (i =  21 of  28)          1 seconds
    (i =  22 of  28)          1 seconds
    (i =  23 of  28)          1 seconds
    (i =  24 of  28)          1 seconds
    (i =  25 of  28)          1 seconds
    (i =  26 of  28)          1 seconds
    (i =  27 of  28)          1 seconds
    (i =  28 of  28)          2 seconds

    Disp202 (T)         =    -0.000384945108 [Eh]

    Disp22 (T)          =    -0.000874452589 [Eh]

    Est. Disp220 (T)    =    -0.000549622909 [Eh]
    Est. Disp202 (T)    =    -0.000432219442 [Eh]

    Est. Disp22 (T)     =    -0.000981842351 [Eh]
    Elst13,r            =     0.000269801718 [Eh]
    Disp30              =     0.000059329181 [Eh]

    SAPT Results 
  --------------------------------------------------------------------------------------------------------
    Electrostatics                -20.41420827 [mEh]     -12.81010909 [kcal/mol]     -53.59749643 [kJ/mol]
      Elst10,r                    -21.17349516 [mEh]     -13.28656881 [kcal/mol]     -55.59100389 [kJ/mol]
      Elst12,r                      0.48948517 [mEh]       0.30715658 [kcal/mol]       1.28514314 [kJ/mol]
      Elst13,r                      0.26980172 [mEh]       0.16930313 [kcal/mol]       0.70836431 [kJ/mol]

    Exchange                       17.78358203 [mEh]      11.15936620 [kcal/mol]      46.69078818 [kJ/mol]
      Exch10                       14.58669001 [mEh]       9.15328617 [kcal/mol]      38.29734934 [kJ/mol]
      Exch10(S^2)                  14.52597444 [mEh]       9.11518658 [kcal/mol]      38.13794065 [kJ/mol]
      Exch11(S^2)                  -0.10212653 [mEh]      -0.06408536 [kcal/mol]      -0.26813316 [kJ/mol]
      Exch12(S^2)                   3.29901854 [mEh]       2.07016539 [kcal/mol]       8.66157200 [kJ/mol]

    Induction                      -4.43652438 [mEh]      -2.78396108 [kcal/mol]     -11.64809315 [kJ/mol]
      Ind20,r                      -6.02300629 [mEh]      -3.77949351 [kcal/mol]     -15.81340083 [kJ/mol]
      Ind22                        -1.21433370 [mEh]      -0.76200590 [kcal/mol]      -3.18823268 [kJ/mol]
      Exch-Ind20,r                  3.29538235 [mEh]       2.06788365 [kcal/mol]       8.65202517 [kJ/mol]
      Exch-Ind22                    0.66440140 [mEh]       0.41691817 [kcal/mol]       1.74438564 [kJ/mol]
      delta HF,r (2)               -1.45410712 [mEh]      -0.91246599 [kcal/mol]      -3.81775772 [kJ/mol]
      delta MP2,r (2)               0.29513897 [mEh]       0.18520250 [kcal/mol]       0.77488726 [kJ/mol]

    Dispersion                     -5.28005825 [mEh]      -3.31328657 [kcal/mol]     -13.86279103 [kJ/mol]
      Disp20                       -5.40463386 [mEh]      -3.39145895 [kcal/mol]     -14.18986424 [kJ/mol]
      Disp30                        0.05932918 [mEh]       0.03722962 [kcal/mol]       0.15576874 [kJ/mol]
      Disp21                        0.56450541 [mEh]       0.35423249 [kcal/mol]       1.48210874 [kJ/mol]
      Disp22 (SDQ)                 -0.44047600 [mEh]      -0.27640286 [kcal/mol]      -1.15646957 [kJ/mol]
      Disp22 (T)                   -0.87445259 [mEh]      -0.54872728 [kcal/mol]      -2.29587496 [kJ/mol]
      Est. Disp22 (T)              -0.98184235 [mEh]      -0.61611538 [kcal/mol]      -2.57782674 [kJ/mol]
      Exch-Disp20                   0.92305937 [mEh]       0.57922850 [kcal/mol]       2.42349204 [kJ/mol]

  Total HF                        -10.76853621 [mEh]      -6.75735849 [kcal/mol]     -28.27278792 [kJ/mol]
  Total SAPT0                     -15.25011070 [mEh]      -9.56958894 [kcal/mol]     -40.03916012 [kJ/mol]
  Total SAPT2                     -12.11366580 [mEh]      -7.60144005 [kcal/mol]     -31.80442518 [kJ/mol]
  Total SAPT2+                    -12.97147874 [mEh]      -8.13972580 [kcal/mol]     -34.05661275 [kJ/mol]
  Total SAPT2+(3)                 -12.64234784 [mEh]      -7.93319304 [kcal/mol]     -33.19247969 [kJ/mol]
  Total SAPT2+dMP2                -12.67633977 [mEh]      -7.95452330 [kcal/mol]     -33.28172548 [kJ/mol]
  Total SAPT2+(3)dMP2             -12.34720887 [mEh]      -7.74799054 [kcal/mol]     -32.41759243 [kJ/mol]

  Special recipe for scaled SAPT0 (see Manual):
    Electrostatics sSAPT0         -21.17349516 [mEh]     -13.28656881 [kcal/mol]     -55.59100389 [kJ/mol]
    Exchange sSAPT0                14.58669001 [mEh]       9.15328617 [kcal/mol]      38.29734934 [kJ/mol]
    Induction sSAPT0               -4.14023605 [mEh]      -2.59803735 [kcal/mol]     -10.87018826 [kJ/mol]
    Dispersion sSAPT0              -4.46995145 [mEh]      -2.80493688 [kcal/mol]     -11.73585592 [kJ/mol]
  Total sSAPT0                    -15.19699266 [mEh]      -9.53625686 [kcal/mol]     -39.89969872 [kJ/mol]
  --------------------------------------------------------------------------------------------------------

*** tstop() called on node150.bme.utexas.edu at Mon May 13 10:38:17 2024
Module time:
	user time   =     821.80 seconds =      13.70 minutes
	system time =      13.55 seconds =       0.23 minutes
	total time  =        108 seconds =       1.80 minutes
Total time:
	user time   =     898.79 seconds =      14.98 minutes
	system time =      15.11 seconds =       0.25 minutes
	total time  =        120 seconds =       2.00 minutes

    Psi4 stopped on: Monday, 13 May 2024 10:38AM
    Psi4 wall time for execution: 0:01:59.94

*** Psi4 exiting successfully. Buy a developer a beer!
