
    -----------------------------------------------------------------------
          Psi4: An Open-Source Ab Initio Electronic Structure Package
                               Psi4 1.5 release

                         Git: Rev {HEAD} e9f4d6d 


    D. G. A. Smith, L. A. Burns, A. C. Simmonett, R. M. Parrish,
    M. C. Schieber, R. Galvelis, P. Kraus, H. Kruse, R. Di Remigio,
    A. Alenaizan, A. M. James, S. Lehtola, J. P. Misiewicz, M. Scheurer,
    R. A. Shaw, J. B. Schriber, Y. Xie, Z. L. Glick, D. A. Sirianni,
    J. S. O'Brien, J. M. Waldrop, A. Kumar, E. G. Hohenstein,
    B. P. Pritchard, B. R. Brooks, H. F. Schaefer III, A. Yu. Sokolov,
    K. Patkowski, A. E. DePrince III, U. Bozkaya, R. A. King,
    F. A. Evangelista, J. M. Turney, T. D. Crawford, C. D. Sherrill,
    J. Chem. Phys. 152(18) 184108 (2020). https://doi.org/10.1063/5.0006002

                            Additional Code Authors
    E. T. Seidl, C. L. Janssen, E. F. Valeev, M. L. Leininger,
    J. F. Gonthier, R. M. Richard, H. R. McAlexander, M. Saitow, X. Wang,
    P. Verma, M. H. Lechner, and A. Jiang

             Previous Authors, Complete List of Code Contributors,
                       and Citations for Specific Modules
    https://github.com/psi4/psi4/blob/master/codemeta.json
    https://github.com/psi4/psi4/graphs/contributors
    http://psicode.org/psi4manual/master/introduction.html#citing-psifour

    -----------------------------------------------------------------------


    Psi4 started on: Monday, 13 May 2024 10:33AM

    Process ID: 3073390
    Host:       node153.bme.utexas.edu
    PSIDATADIR: /opt/anaconda/envs/psi4v1.5/share/psi4
    Memory:     500.0 MiB
    Threads:    8
    
  ==> Input File <==

--------------------------------------------------------------------------
memory 50GB

molecule {
0 1
N -0.85368 -2.09481 0.08509
H -0.31837 -2.95091 0.1715
C -2.22205 -1.969 0.013
H -2.87621 -2.83122 0.01776
N -2.61932 -0.7095 -0.06209
C -1.44407 0.0092 -0.03449
C -1.24024 1.43551 -0.06099
O -2.03937 2.36125 -0.12082
N 0.16263 1.70934 0.01098
C 1.18916 0.80169 0.08466
N 2.45589 1.30727 0.21549
N 0.99231 -0.50374 0.10169
C -0.3344 -0.82673 0.06277
H 0.37294 2.70253 0.07805
H 2.64412 2.19335 -0.23666
H 3.18882 0.60208 0.10583
--
0 1
O 4.114033833333334 -1.4418666041666668 -0.16406722916666666
H 3.1460638333333333 -1.5338466041666667 -0.02370722916666667
H 4.243003833333334 -1.6829666041666667 -1.0947372291666666
 units angstrom
 no_reorient
 symmetry c1} 
set  {scf_type DF
 basis jun-cc-pvdz
 freeze_core True
 guess SAD}
energy('sapt2+(3)dmp2')
--------------------------------------------------------------------------

  Memory set to  46.566 GiB by Python driver.

Scratch directory: /tmp/
   => Loading Basis Set <=

    Name: JUN-CC-PVDZ
    Role: ORBITAL
    Keyword: BASIS
    atoms 1, 5, 9, 11-12     entry N          line   198 file /opt/anaconda/envs/psi4v1.5/share/psi4/basis/jun-cc-pvdz.gbs 
    atoms 2, 4, 14-16, 18-19 entry H          line    36 file /opt/anaconda/envs/psi4v1.5/share/psi4/basis/jun-cc-pvdz.gbs 
    atoms 3, 6-7, 10, 13     entry C          line   164 file /opt/anaconda/envs/psi4v1.5/share/psi4/basis/jun-cc-pvdz.gbs 
    atoms 8, 17              entry O          line   232 file /opt/anaconda/envs/psi4v1.5/share/psi4/basis/jun-cc-pvdz.gbs 

   => Loading Basis Set <=

    Name: JUN-CC-PVDZ
    Role: ORBITAL
    Keyword: BASIS
    atoms 1, 5, 9, 11-12     entry N          line   198 file /opt/anaconda/envs/psi4v1.5/share/psi4/basis/jun-cc-pvdz.gbs 
    atoms 2, 4, 14-16, 18-19 entry H          line    36 file /opt/anaconda/envs/psi4v1.5/share/psi4/basis/jun-cc-pvdz.gbs 
    atoms 3, 6-7, 10, 13     entry C          line   164 file /opt/anaconda/envs/psi4v1.5/share/psi4/basis/jun-cc-pvdz.gbs 
    atoms 8, 17              entry O          line   232 file /opt/anaconda/envs/psi4v1.5/share/psi4/basis/jun-cc-pvdz.gbs 


  //>>>>>>>>>>>>>>>>>>>>>>>>>>>>>>>>>>>//
  //              Dimer HF             //
  //<<<<<<<<<<<<<<<<<<<<<<<<<<<<<<<<<<<//


*** tstart() called on node153.bme.utexas.edu
*** at Mon May 13 10:33:17 2024

   => Loading Basis Set <=

    Name: JUN-CC-PVDZ
    Role: ORBITAL
    Keyword: BASIS
    atoms 1, 5, 9, 11-12     entry N          line   198 file /opt/anaconda/envs/psi4v1.5/share/psi4/basis/jun-cc-pvdz.gbs 
    atoms 2, 4, 14-16, 18-19 entry H          line    36 file /opt/anaconda/envs/psi4v1.5/share/psi4/basis/jun-cc-pvdz.gbs 
    atoms 3, 6-7, 10, 13     entry C          line   164 file /opt/anaconda/envs/psi4v1.5/share/psi4/basis/jun-cc-pvdz.gbs 
    atoms 8, 17              entry O          line   232 file /opt/anaconda/envs/psi4v1.5/share/psi4/basis/jun-cc-pvdz.gbs 


         ---------------------------------------------------------
                                   SCF
               by Justin Turney, Rob Parrish, Andy Simmonett
                          and Daniel G. A. Smith
                              RHF Reference
                        8 Threads,  47683 MiB Core
         ---------------------------------------------------------

  ==> Geometry <==

    Molecular point group: c1
    Full point group: C1

    Geometry (in Angstrom), charge = 0, multiplicity = 1:

       Center              X                  Y                   Z               Mass       
    ------------   -----------------  -----------------  -----------------  -----------------
         N           -0.835796792802    -2.097791572178     0.084200823249    14.003074004430
         H           -0.300486792802    -2.953891572178     0.170610823249     1.007825032230
         C           -2.204166792802    -1.971981572178     0.012110823249    12.000000000000
         H           -2.858326792802    -2.834201572178     0.016870823249     1.007825032230
         N           -2.601436792802    -0.712481572178    -0.062979176751    14.003074004430
         C           -1.426186792802     0.006218427822    -0.035379176751    12.000000000000
         C           -1.222356792802     1.432528427822    -0.061879176751    12.000000000000
         O           -2.021486792802     2.358268427822    -0.121709176751    15.994914619570
         N            0.180513207198     1.706358427822     0.010090823249    14.003074004430
         C            1.207043207198     0.798708427822     0.083770823249    12.000000000000
         N            2.473773207198     1.304288427822     0.214600823249    14.003074004430
         N            1.010193207198    -0.506721572178     0.100800823249    14.003074004430
         C           -0.316516792802    -0.829711572178     0.061880823249    12.000000000000
         H            0.390823207198     2.699548427822     0.077160823249     1.007825032230
         H            2.662003207198     2.190368427822    -0.237549176751     1.007825032230
         H            3.206703207198     0.599098427822     0.104940823249     1.007825032230
         O            4.131917040531    -1.444848176345    -0.164956405917    15.994914619570
         H            3.163947040531    -1.536828176345    -0.024596405917     1.007825032230
         H            4.260887040531    -1.685948176345    -1.095626405917     1.007825032230

  Running in c1 symmetry.

  Rotational constants: A =      0.04412  B =      0.02333  C =      0.01535 [cm^-1]
  Rotational constants: A =   1322.77548  B =    699.53272  C =    460.15912 [MHz]
  Nuclear repulsion =  690.279166945988777

  Charge       = 0
  Multiplicity = 1
  Electrons    = 88
  Nalpha       = 44
  Nbeta        = 44

  ==> Algorithm <==

  SCF Algorithm Type is DF.
  DIIS enabled.
  MOM disabled.
  Fractional occupation disabled.
  Guess Type is SAD.
  Energy threshold   = 1.00e-08
  Density threshold  = 1.00e-08
  Integral threshold = 1.00e-12

  ==> Primary Basis <==

  Basis Set: JUN-CC-PVDZ
    Blend: JUN-CC-PVDZ
    Number of shells: 117
    Number of basis functions: 251
    Number of Cartesian functions: 263
    Spherical Harmonics?: true
    Max angular momentum: 2

   => Loading Basis Set <=

    Name: (JUN-CC-PVDZ AUX)
    Role: JKFIT
    Keyword: DF_BASIS_SCF
    atoms 1, 5, 9, 11-12     entry N          line   202 file /opt/anaconda/envs/psi4v1.5/share/psi4/basis/jun-cc-pvdz-jkfit.gbs 
    atoms 2, 4, 14-16, 18-19 entry H          line    70 file /opt/anaconda/envs/psi4v1.5/share/psi4/basis/jun-cc-pvdz-jkfit.gbs 
    atoms 3, 6-7, 10, 13     entry C          line   146 file /opt/anaconda/envs/psi4v1.5/share/psi4/basis/jun-cc-pvdz-jkfit.gbs 
    atoms 8, 17              entry O          line   258 file /opt/anaconda/envs/psi4v1.5/share/psi4/basis/jun-cc-pvdz-jkfit.gbs 

  ==> Integral Setup <==

  ==> DiskDFJK: Density-Fitted J/K Matrices <==

    J tasked:                  Yes
    K tasked:                  Yes
    wK tasked:                  No
    OpenMP threads:              8
    Integrals threads:           8
    Memory [MiB]:            35762
    Algorithm:                Core
    Integral Cache:           SAVE
    Schwarz Cutoff:          1E-12
    Fitting Condition:       1E-10

   => Auxiliary Basis Set <=

  Basis Set: (JUN-CC-PVDZ AUX)
    Blend: JUN-CC-PVDZ-JKFIT
    Number of shells: 387
    Number of basis functions: 1109
    Number of Cartesian functions: 1267
    Spherical Harmonics?: true
    Max angular momentum: 3

  Minimum eigenvalue in the overlap matrix is 1.2701960296E-05.
  Reciprocal condition number of the overlap matrix is 9.7226730667E-07.
    Using symmetric orthogonalization.

  ==> Pre-Iterations <==

  SCF Guess: Superposition of Atomic Densities via on-the-fly atomic UHF (no occupation information).

   -------------------------
    Irrep   Nso     Nmo    
   -------------------------
     A        251     251 
   -------------------------
    Total     251     251
   -------------------------

  ==> Iterations <==

                           Total Energy        Delta E     RMS |[F,P]|

   @DF-RHF iter SAD:  -614.79852797471221   -6.14799e+02   0.00000e+00 
   @DF-RHF iter   1:  -615.12880305212718   -3.30275e-01   3.43975e-03 DIIS
   @DF-RHF iter   2:  -615.39294241887740   -2.64139e-01   2.06175e-03 DIIS
   @DF-RHF iter   3:  -615.49533184368067   -1.02389e-01   3.81899e-04 DIIS
   @DF-RHF iter   4:  -615.50054335727305   -5.21151e-03   1.64727e-04 DIIS
   @DF-RHF iter   5:  -615.50155860579866   -1.01525e-03   3.71831e-05 DIIS
   @DF-RHF iter   6:  -615.50166482883606   -1.06223e-04   1.85050e-05 DIIS
   @DF-RHF iter   7:  -615.50169551701526   -3.06882e-05   7.01768e-06 DIIS
   @DF-RHF iter   8:  -615.50170046316271   -4.94615e-06   2.45484e-06 DIIS
   @DF-RHF iter   9:  -615.50170099119362   -5.28031e-07   1.00905e-06 DIIS
   @DF-RHF iter  10:  -615.50170108381258   -9.26190e-08   3.88193e-07 DIIS
   @DF-RHF iter  11:  -615.50170109734427   -1.35317e-08   1.41759e-07 DIIS
   @DF-RHF iter  12:  -615.50170109899716   -1.65289e-09   4.28380e-08 DIIS
   @DF-RHF iter  13:  -615.50170109916667   -1.69507e-10   2.17623e-08 DIIS
   @DF-RHF iter  14:  -615.50170109919623   -2.95586e-11   7.35212e-09 DIIS
  Energy and wave function converged.


  ==> Post-Iterations <==

    Orbital Energies [Eh]
    ---------------------

    Doubly Occupied:                                                      

       1A    -20.589575     2A    -20.538441     3A    -15.648016  
       4A    -15.644003     5A    -15.621863     6A    -15.587452  
       7A    -15.576019     8A    -11.414140     9A    -11.381352  
      10A    -11.339617    11A    -11.324853    12A    -11.259947  
      13A     -1.403892    14A     -1.370710    15A     -1.359660  
      16A     -1.345439    17A     -1.227936    18A     -1.226325  
      19A     -1.186282    20A     -1.040071    21A     -0.915165  
      22A     -0.894153    23A     -0.851806    24A     -0.808263  
      25A     -0.747667    26A     -0.739902    27A     -0.722523  
      28A     -0.705611    29A     -0.678686    30A     -0.662619  
      31A     -0.640691    32A     -0.621146    33A     -0.606835  
      34A     -0.603462    35A     -0.594744    36A     -0.553352  
      37A     -0.521226    38A     -0.505442    39A     -0.461049  
      40A     -0.448331    41A     -0.437947    42A     -0.437384  
      43A     -0.416505    44A     -0.306243  

    Virtual:                                                              

      45A      0.042892    46A      0.044415    47A      0.069092  
      48A      0.076108    49A      0.084584    50A      0.090116  
      51A      0.098914    52A      0.110297    53A      0.117988  
      54A      0.121695    55A      0.124069    56A      0.130903  
      57A      0.138905    58A      0.151281    59A      0.158562  
      60A      0.160986    61A      0.168702    62A      0.181065  
      63A      0.181597    64A      0.184707    65A      0.195294  
      66A      0.203354    67A      0.206474    68A      0.209837  
      69A      0.222509    70A      0.230018    71A      0.237374  
      72A      0.240199    73A      0.248645    74A      0.252475  
      75A      0.260049    76A      0.264869    77A      0.274061  
      78A      0.275549    79A      0.282414    80A      0.284492  
      81A      0.296764    82A      0.307466    83A      0.309731  
      84A      0.320690    85A      0.323915    86A      0.331183  
      87A      0.341121    88A      0.343932    89A      0.346167  
      90A      0.352883    91A      0.371417    92A      0.376557  
      93A      0.389540    94A      0.393213    95A      0.400694  
      96A      0.408939    97A      0.414916    98A      0.420262  
      99A      0.427955   100A      0.436741   101A      0.451367  
     102A      0.474679   103A      0.478858   104A      0.484498  
     105A      0.486380   106A      0.516388   107A      0.543759  
     108A      0.565603   109A      0.592414   110A      0.609889  
     111A      0.616487   112A      0.663418   113A      0.716721  
     114A      0.765337   115A      0.810805   116A      0.818493  
     117A      0.845694   118A      0.850838   119A      0.860373  
     120A      0.868488   121A      0.869300   122A      0.889968  
     123A      0.937078   124A      0.944188   125A      0.949025  
     126A      0.971684   127A      0.995364   128A      1.006303  
     129A      1.022615   130A      1.035279   131A      1.050937  
     132A      1.058504   133A      1.075174   134A      1.083172  
     135A      1.095169   136A      1.114040   137A      1.126675  
     138A      1.137293   139A      1.152307   140A      1.165227  
     141A      1.174109   142A      1.182784   143A      1.202155  
     144A      1.204579   145A      1.222127   146A      1.238310  
     147A      1.250345   148A      1.262566   149A      1.271007  
     150A      1.277617   151A      1.282649   152A      1.292927  
     153A      1.309112   154A      1.318288   155A      1.325903  
     156A      1.350128   157A      1.356389   158A      1.377953  
     159A      1.379622   160A      1.395551   161A      1.402886  
     162A      1.414160   163A      1.437268   164A      1.473326  
     165A      1.506040   166A      1.507025   167A      1.528451  
     168A      1.544028   169A      1.555448   170A      1.573657  
     171A      1.589917   172A      1.605624   173A      1.624604  
     174A      1.674486   175A      1.706129   176A      1.723237  
     177A      1.767577   178A      1.784640   179A      1.794092  
     180A      1.839914   181A      1.845946   182A      1.863429  
     183A      1.884602   184A      1.886778   185A      1.914722  
     186A      1.925394   187A      1.937688   188A      1.953344  
     189A      2.006885   190A      2.011553   191A      2.019813  
     192A      2.061261   193A      2.068209   194A      2.082239  
     195A      2.090710   196A      2.138723   197A      2.159333  
     198A      2.193356   199A      2.196349   200A      2.226953  
     201A      2.267318   202A      2.279244   203A      2.305699  
     204A      2.321395   205A      2.325186   206A      2.363530  
     207A      2.376019   208A      2.387574   209A      2.407275  
     210A      2.447822   211A      2.459359   212A      2.478060  
     213A      2.480020   214A      2.545550   215A      2.567136  
     216A      2.606608   217A      2.656634   218A      2.679802  
     219A      2.708305   220A      2.730583   221A      2.752628  
     222A      2.768865   223A      2.840232   224A      2.846546  
     225A      2.876098   226A      2.919565   227A      2.957263  
     228A      2.960697   229A      3.036544   230A      3.046939  
     231A      3.095348   232A      3.101275   233A      3.120677  
     234A      3.162711   235A      3.200013   236A      3.227713  
     237A      3.230354   238A      3.271800   239A      3.309676  
     240A      3.321087   241A      3.337386   242A      3.386076  
     243A      3.475100   244A      3.506256   245A      3.599080  
     246A      3.733654   247A      3.802189   248A      3.834618  
     249A      3.899041   250A      4.075741   251A      4.160071  

    Final Occupation by Irrep:
              A 
    DOCC [    44 ]

  @DF-RHF Final Energy:  -615.50170109919623

   => Energetics <=

    Nuclear Repulsion Energy =            690.2791669459887771
    One-Electron Energy =               -2209.6290462866973030
    Two-Electron Energy =                 903.8481782415121870
    Total Energy =                       -615.5017010991962252

Computation Completed


Properties will be evaluated at   0.000000,   0.000000,   0.000000 [a0]

Properties computed using the SCF density matrix

  Nuclear Dipole Moment: [e a0]
     X:     9.8769      Y:    -3.2964      Z:    -0.9288

  Electronic Dipole Moment: [e a0]
     X:    -7.8645      Y:     2.0780      Z:     0.2650

  Dipole Moment: [e a0]
     X:     2.0123      Y:    -1.2183      Z:    -0.6638     Total:     2.4442

  Dipole Moment: [D]
     X:     5.1148      Y:    -3.0967      Z:    -1.6871     Total:     6.2127


*** tstop() called on node153.bme.utexas.edu at Mon May 13 10:33:25 2024
Module time:
	user time   =      56.07 seconds =       0.93 minutes
	system time =       1.46 seconds =       0.02 minutes
	total time  =          8 seconds =       0.13 minutes
Total time:
	user time   =      56.07 seconds =       0.93 minutes
	system time =       1.46 seconds =       0.02 minutes
	total time  =          8 seconds =       0.13 minutes

*** tstart() called on node153.bme.utexas.edu
*** at Mon May 13 10:33:25 2024


  //>>>>>>>>>>>>>>>>>>>>>>>>>>>>>>>>>>>//
  //               DFMP2               //
  //<<<<<<<<<<<<<<<<<<<<<<<<<<<<<<<<<<<//

   => Loading Basis Set <=

    Name: (JUN-CC-PVDZ AUX)
    Role: RIFIT
    Keyword: DF_BASIS_MP2
    atoms 1, 5, 9, 11-12     entry N          line   144 file /opt/anaconda/envs/psi4v1.5/share/psi4/basis/jun-cc-pvdz-ri.gbs 
    atoms 2, 4, 14-16, 18-19 entry H          line    30 file /opt/anaconda/envs/psi4v1.5/share/psi4/basis/jun-cc-pvdz-ri.gbs 
    atoms 3, 6-7, 10, 13     entry C          line   100 file /opt/anaconda/envs/psi4v1.5/share/psi4/basis/jun-cc-pvdz-ri.gbs 
    atoms 8, 17              entry O          line   188 file /opt/anaconda/envs/psi4v1.5/share/psi4/basis/jun-cc-pvdz-ri.gbs 

	 --------------------------------------------------------
	                          DF-MP2                         
	      2nd-Order Density-Fitted Moller-Plesset Theory     
	              RMP2 Wavefunction,   8 Threads             
	                                                         
	        Rob Parrish, Justin Turney, Andy Simmonett,      
	           Ed Hohenstein, and C. David Sherrill          
	 --------------------------------------------------------

   => Auxiliary Basis Set <=

  Basis Set: (JUN-CC-PVDZ AUX)
    Blend: JUN-CC-PVDZ-RI
    Number of shells: 294
    Number of basis functions: 878
    Number of Cartesian functions: 1017
    Spherical Harmonics?: true
    Max angular momentum: 3

	 --------------------------------------------------------
	                 NBF =   251, NAUX =   878
	 --------------------------------------------------------
	   CLASS    FOCC     OCC    AOCC    AVIR     VIR    FVIR
	   PAIRS      12      44      32     207     207       0
	 --------------------------------------------------------

	 Will save fitting metric to file 97.

	-----------------------------------------------------------
	 ==================> DF-MP2 Energies <==================== 
	-----------------------------------------------------------
	 Reference Energy          =    -615.5017010991962252 [Eh]
	 Singles Energy            =      -0.0000000000000000 [Eh]
	 Same-Spin Energy          =      -0.5152639043885877 [Eh]
	 Opposite-Spin Energy      =      -1.3424021917998266 [Eh]
	 Correlation Energy        =      -1.8576660961884142 [Eh]
	 Total Energy              =    -617.3593671953846069 [Eh]
	-----------------------------------------------------------
	 ================> DF-SCS-MP2 Energies <================== 
	-----------------------------------------------------------
	 SCS Same-Spin Scale       =       0.3333333333333333 [-]
	 SCS Opposite-Spin Scale   =       1.2000000000000000 [-]
	 SCS Same-Spin Energy      =      -0.1717546347961959 [Eh]
	 SCS Opposite-Spin Energy  =      -1.6108826301597918 [Eh]
	 SCS Correlation Energy    =      -1.7826372649559876 [Eh]
	 SCS Total Energy          =    -617.2843383641521768 [Eh]
	-----------------------------------------------------------


*** tstop() called on node153.bme.utexas.edu at Mon May 13 10:33:27 2024
Module time:
	user time   =      11.67 seconds =       0.19 minutes
	system time =       0.42 seconds =       0.01 minutes
	total time  =          2 seconds =       0.03 minutes
Total time:
	user time   =      67.74 seconds =       1.13 minutes
	system time =       1.88 seconds =       0.03 minutes
	total time  =         10 seconds =       0.17 minutes

  //>>>>>>>>>>>>>>>>>>>>>>>>>>>>>>>>>>>//
  //            Monomer A HF           //
  //<<<<<<<<<<<<<<<<<<<<<<<<<<<<<<<<<<<//


*** tstart() called on node153.bme.utexas.edu
*** at Mon May 13 10:33:27 2024

   => Loading Basis Set <=

    Name: JUN-CC-PVDZ
    Role: ORBITAL
    Keyword: BASIS
    atoms 1, 5, 9, 11-12     entry N          line   198 file /opt/anaconda/envs/psi4v1.5/share/psi4/basis/jun-cc-pvdz.gbs 
    atoms 2, 4, 14-16, 18-19 entry H          line    36 file /opt/anaconda/envs/psi4v1.5/share/psi4/basis/jun-cc-pvdz.gbs 
    atoms 3, 6-7, 10, 13     entry C          line   164 file /opt/anaconda/envs/psi4v1.5/share/psi4/basis/jun-cc-pvdz.gbs 
    atoms 8, 17              entry O          line   232 file /opt/anaconda/envs/psi4v1.5/share/psi4/basis/jun-cc-pvdz.gbs 


         ---------------------------------------------------------
                                   SCF
               by Justin Turney, Rob Parrish, Andy Simmonett
                          and Daniel G. A. Smith
                              RHF Reference
                        8 Threads,  47683 MiB Core
         ---------------------------------------------------------

  ==> Geometry <==

    Molecular point group: c1
    Full point group: C1

    Geometry (in Angstrom), charge = 0, multiplicity = 1:

       Center              X                  Y                   Z               Mass       
    ------------   -----------------  -----------------  -----------------  -----------------
         N           -0.835796792802    -2.097791572178     0.084200823249    14.003074004430
         H           -0.300486792802    -2.953891572178     0.170610823249     1.007825032230
         C           -2.204166792802    -1.971981572178     0.012110823249    12.000000000000
         H           -2.858326792802    -2.834201572178     0.016870823249     1.007825032230
         N           -2.601436792802    -0.712481572178    -0.062979176751    14.003074004430
         C           -1.426186792802     0.006218427822    -0.035379176751    12.000000000000
         C           -1.222356792802     1.432528427822    -0.061879176751    12.000000000000
         O           -2.021486792802     2.358268427822    -0.121709176751    15.994914619570
         N            0.180513207198     1.706358427822     0.010090823249    14.003074004430
         C            1.207043207198     0.798708427822     0.083770823249    12.000000000000
         N            2.473773207198     1.304288427822     0.214600823249    14.003074004430
         N            1.010193207198    -0.506721572178     0.100800823249    14.003074004430
         C           -0.316516792802    -0.829711572178     0.061880823249    12.000000000000
         H            0.390823207198     2.699548427822     0.077160823249     1.007825032230
         H            2.662003207198     2.190368427822    -0.237549176751     1.007825032230
         H            3.206703207198     0.599098427822     0.104940823249     1.007825032230
      Gh(O)           4.131917040531    -1.444848176345    -0.164956405917    15.994914619570
      Gh(H)           3.163947040531    -1.536828176345    -0.024596405917     1.007825032230
      Gh(H)           4.260887040531    -1.685948176345    -1.095626405917     1.007825032230

  Running in c1 symmetry.

  Rotational constants: A =      0.04412  B =      0.02333  C =      0.01535 [cm^-1]
  Rotational constants: A =   1322.77548  B =    699.53272  C =    460.15912 [MHz]
  Nuclear repulsion =  593.520118902926697

  Charge       = 0
  Multiplicity = 1
  Electrons    = 78
  Nalpha       = 39
  Nbeta        = 39

  ==> Algorithm <==

  SCF Algorithm Type is DF.
  DIIS enabled.
  MOM disabled.
  Fractional occupation disabled.
  Guess Type is SAD.
  Energy threshold   = 1.00e-08
  Density threshold  = 1.00e-08
  Integral threshold = 1.00e-12

  ==> Primary Basis <==

  Basis Set: JUN-CC-PVDZ
    Blend: JUN-CC-PVDZ
    Number of shells: 117
    Number of basis functions: 251
    Number of Cartesian functions: 263
    Spherical Harmonics?: true
    Max angular momentum: 2

   => Loading Basis Set <=

    Name: (JUN-CC-PVDZ AUX)
    Role: JKFIT
    Keyword: DF_BASIS_SCF
    atoms 1, 5, 9, 11-12     entry N          line   202 file /opt/anaconda/envs/psi4v1.5/share/psi4/basis/jun-cc-pvdz-jkfit.gbs 
    atoms 2, 4, 14-16, 18-19 entry H          line    70 file /opt/anaconda/envs/psi4v1.5/share/psi4/basis/jun-cc-pvdz-jkfit.gbs 
    atoms 3, 6-7, 10, 13     entry C          line   146 file /opt/anaconda/envs/psi4v1.5/share/psi4/basis/jun-cc-pvdz-jkfit.gbs 
    atoms 8, 17              entry O          line   258 file /opt/anaconda/envs/psi4v1.5/share/psi4/basis/jun-cc-pvdz-jkfit.gbs 

  ==> Integral Setup <==

  ==> DiskDFJK: Density-Fitted J/K Matrices <==

    J tasked:                  Yes
    K tasked:                  Yes
    wK tasked:                  No
    OpenMP threads:              8
    Integrals threads:           8
    Memory [MiB]:            35762
    Algorithm:                Core
    Integral Cache:           LOAD
    Schwarz Cutoff:          1E-12
    Fitting Condition:       1E-10

   => Auxiliary Basis Set <=

  Basis Set: (JUN-CC-PVDZ AUX)
    Blend: JUN-CC-PVDZ-JKFIT
    Number of shells: 387
    Number of basis functions: 1109
    Number of Cartesian functions: 1267
    Spherical Harmonics?: true
    Max angular momentum: 3

  Minimum eigenvalue in the overlap matrix is 1.2701960296E-05.
  Reciprocal condition number of the overlap matrix is 9.7226730667E-07.
    Using symmetric orthogonalization.

  ==> Pre-Iterations <==

  SCF Guess: Superposition of Atomic Densities via on-the-fly atomic UHF (no occupation information).

   -------------------------
    Irrep   Nso     Nmo    
   -------------------------
     A        251     251 
   -------------------------
    Total     251     251
   -------------------------

  ==> Iterations <==

                           Total Energy        Delta E     RMS |[F,P]|

   @DF-RHF iter SAD:  -539.22548911220997   -5.39225e+02   0.00000e+00 
   @DF-RHF iter   1:  -539.15065347858604    7.48356e-02   3.03426e-03 DIIS
   @DF-RHF iter   2:  -539.37214714585173   -2.21494e-01   1.78910e-03 DIIS
   @DF-RHF iter   3:  -539.45124758593568   -7.91004e-02   3.72486e-04 DIIS
   @DF-RHF iter   4:  -539.45616759980908   -4.92001e-03   1.47405e-04 DIIS
   @DF-RHF iter   5:  -539.45703951216956   -8.71912e-04   3.22323e-05 DIIS
   @DF-RHF iter   6:  -539.45713389618243   -9.43840e-05   1.73366e-05 DIIS
   @DF-RHF iter   7:  -539.45716014415541   -2.62480e-05   6.97331e-06 DIIS
   @DF-RHF iter   8:  -539.45716465961823   -4.51546e-06   2.43339e-06 DIIS
   @DF-RHF iter   9:  -539.45716516358323   -5.03965e-07   8.84061e-07 DIIS
   @DF-RHF iter  10:  -539.45716524680961   -8.32264e-08   3.58821e-07 DIIS
   @DF-RHF iter  11:  -539.45716525795888   -1.11493e-08   1.21590e-07 DIIS
   @DF-RHF iter  12:  -539.45716525924365   -1.28477e-09   4.17771e-08 DIIS
   @DF-RHF iter  13:  -539.45716525938678   -1.43132e-10   2.01346e-08 DIIS
   @DF-RHF iter  14:  -539.45716525941339   -2.66027e-11   6.36916e-09 DIIS
  Energy and wave function converged.


  ==> Post-Iterations <==

    Orbital Energies [Eh]
    ---------------------

    Doubly Occupied:                                                      

       1A    -20.534083     2A    -15.642048     3A    -15.640468  
       4A    -15.626166     5A    -15.578665     6A    -15.571222  
       7A    -11.408809     8A    -11.377194     9A    -11.333328  
      10A    -11.320198    11A    -11.254831    12A     -1.399503  
      13A     -1.365387    14A     -1.341794    15A     -1.227586  
      16A     -1.220289    17A     -1.180761    18A     -1.035363  
      19A     -0.910230    20A     -0.890708    21A     -0.845998  
      22A     -0.803684    23A     -0.743528    24A     -0.737928  
      25A     -0.705711    26A     -0.676114    27A     -0.657661  
      28A     -0.635960    29A     -0.616173    30A     -0.602344  
      31A     -0.599043    32A     -0.549803    33A     -0.497446  
      34A     -0.459345    35A     -0.442950    36A     -0.432843  
      37A     -0.432183    38A     -0.410910    39A     -0.300906  

    Virtual:                                                              

      40A      0.039232    41A      0.047791    42A      0.065367  
      43A      0.077816    44A      0.079841    45A      0.092244  
      46A      0.100284    47A      0.104035    48A      0.116643  
      49A      0.122617    50A      0.124798    51A      0.128417  
      52A      0.143341    53A      0.146506    54A      0.155510  
      55A      0.160779    56A      0.165603    57A      0.168544  
      58A      0.178239    59A      0.182102    60A      0.188098  
      61A      0.196100    62A      0.198163    63A      0.204093  
      64A      0.213334    65A      0.225886    66A      0.232095  
      67A      0.236106    68A      0.245057    69A      0.254980  
      70A      0.258235    71A      0.265362    72A      0.270573  
      73A      0.278946    74A      0.285037    75A      0.287936  
      76A      0.301663    77A      0.308122    78A      0.312947  
      79A      0.322817    80A      0.334907    81A      0.338126  
      82A      0.345068    83A      0.348849    84A      0.355754  
      85A      0.364374    86A      0.372853    87A      0.386282  
      88A      0.389602    89A      0.396953    90A      0.404247  
      91A      0.409665    92A      0.420903    93A      0.425603  
      94A      0.427021    95A      0.441213    96A      0.451234  
      97A      0.475973    98A      0.482048    99A      0.486894  
     100A      0.491724   101A      0.520787   102A      0.534983  
     103A      0.568604   104A      0.595333   105A      0.613312  
     106A      0.619337   107A      0.667330   108A      0.721423  
     109A      0.762868   110A      0.778232   111A      0.812719  
     112A      0.822883   113A      0.843919   114A      0.851260  
     115A      0.853886   116A      0.863613   117A      0.864315  
     118A      0.873118   119A      0.883800   120A      0.912739  
     121A      0.942711   122A      0.950986   123A      0.958100  
     124A      0.986105   125A      1.006279   126A      1.018706  
     127A      1.037661   128A      1.057429   129A      1.061228  
     130A      1.075943   131A      1.082920   132A      1.100885  
     133A      1.121955   134A      1.132963   135A      1.139388  
     136A      1.153517   137A      1.169617   138A      1.179446  
     139A      1.188546   140A      1.207539   141A      1.210735  
     142A      1.224685   143A      1.248970   144A      1.269664  
     145A      1.279438   146A      1.286187   147A      1.292277  
     148A      1.309516   149A      1.323133   150A      1.324450  
     151A      1.337382   152A      1.358879   153A      1.366733  
     154A      1.383126   155A      1.403485   156A      1.415424  
     157A      1.436685   158A      1.479953   159A      1.508271  
     160A      1.518961   161A      1.546013   162A      1.558819  
     163A      1.582579   164A      1.591453   165A      1.625990  
     166A      1.677383   167A      1.707115   168A      1.768297  
     169A      1.787106   170A      1.799277   171A      1.803964  
     172A      1.823506   173A      1.843821   174A      1.848703  
     175A      1.852463   176A      1.883914   177A      1.897653  
     178A      1.923451   179A      1.937068   180A      1.956116  
     181A      1.986696   182A      2.014694   183A      2.018738  
     184A      2.034307   185A      2.064167   186A      2.075196  
     187A      2.089649   188A      2.096804   189A      2.118197  
     190A      2.142508   191A      2.177682   192A      2.180632  
     193A      2.200497   194A      2.235371   195A      2.270748  
     196A      2.292190   197A      2.306752   198A      2.311033  
     199A      2.327253   200A      2.349884   201A      2.372189  
     202A      2.382402   203A      2.394445   204A      2.411666  
     205A      2.453326   206A      2.481163   207A      2.547846  
     208A      2.569415   209A      2.597807   210A      2.619298  
     211A      2.659376   212A      2.678832   213A      2.713108  
     214A      2.734178   215A      2.754131   216A      2.771496  
     217A      2.844982   218A      2.850056   219A      2.877490  
     220A      2.890917   221A      2.921586   222A      2.963506  
     223A      2.965938   224A      3.041463   225A      3.052593  
     226A      3.098959   227A      3.104114   228A      3.127221  
     229A      3.168427   230A      3.201051   231A      3.208905  
     232A      3.233774   233A      3.290811   234A      3.321872  
     235A      3.339464   236A      3.386220   237A      3.510325  
     238A      3.599929   239A      3.737113   240A      3.807257  
     241A      3.838699   242A      4.080434   243A      4.425006  
     244A      4.497636   245A      4.688659   246A      4.840207  
     247A      5.062263   248A      5.522207   249A      6.465309  
     250A      6.886357   251A     33.501628  

    Final Occupation by Irrep:
              A 
    DOCC [    39 ]

  @DF-RHF Final Energy:  -539.45716525941339

   => Energetics <=

    Nuclear Repulsion Energy =            593.5201189029266970
    One-Electron Energy =               -1911.9362474499894233
    Two-Electron Energy =                 778.9589632876493397
    Total Energy =                       -539.4571652594133866

Computation Completed


Properties will be evaluated at   0.000000,   0.000000,   0.000000 [a0]

Properties computed using the SCF density matrix

  Nuclear Dipole Moment: [e a0]
     X:   -66.6196      Y:    24.6368      Z:     3.6819

  Electronic Dipole Moment: [e a0]
     X:    69.2866      Y:   -25.6863      Z:    -3.7993

  Dipole Moment: [e a0]
     X:     2.6670      Y:    -1.0495      Z:    -0.1174     Total:     2.8685

  Dipole Moment: [D]
     X:     6.7789      Y:    -2.6677      Z:    -0.2985     Total:     7.2911


*** tstop() called on node153.bme.utexas.edu at Mon May 13 10:33:33 2024
Module time:
	user time   =      44.17 seconds =       0.74 minutes
	system time =       0.95 seconds =       0.02 minutes
	total time  =          6 seconds =       0.10 minutes
Total time:
	user time   =     111.94 seconds =       1.87 minutes
	system time =       2.83 seconds =       0.05 minutes
	total time  =         16 seconds =       0.27 minutes

*** tstart() called on node153.bme.utexas.edu
*** at Mon May 13 10:33:33 2024


  //>>>>>>>>>>>>>>>>>>>>>>>>>>>>>>>>>>>//
  //               DFMP2               //
  //<<<<<<<<<<<<<<<<<<<<<<<<<<<<<<<<<<<//

   => Loading Basis Set <=

    Name: (JUN-CC-PVDZ AUX)
    Role: RIFIT
    Keyword: DF_BASIS_MP2
    atoms 1, 5, 9, 11-12     entry N          line   144 file /opt/anaconda/envs/psi4v1.5/share/psi4/basis/jun-cc-pvdz-ri.gbs 
    atoms 2, 4, 14-16, 18-19 entry H          line    30 file /opt/anaconda/envs/psi4v1.5/share/psi4/basis/jun-cc-pvdz-ri.gbs 
    atoms 3, 6-7, 10, 13     entry C          line   100 file /opt/anaconda/envs/psi4v1.5/share/psi4/basis/jun-cc-pvdz-ri.gbs 
    atoms 8, 17              entry O          line   188 file /opt/anaconda/envs/psi4v1.5/share/psi4/basis/jun-cc-pvdz-ri.gbs 

	 --------------------------------------------------------
	                          DF-MP2                         
	      2nd-Order Density-Fitted Moller-Plesset Theory     
	              RMP2 Wavefunction,   8 Threads             
	                                                         
	        Rob Parrish, Justin Turney, Andy Simmonett,      
	           Ed Hohenstein, and C. David Sherrill          
	 --------------------------------------------------------

   => Auxiliary Basis Set <=

  Basis Set: (JUN-CC-PVDZ AUX)
    Blend: JUN-CC-PVDZ-RI
    Number of shells: 294
    Number of basis functions: 878
    Number of Cartesian functions: 1017
    Spherical Harmonics?: true
    Max angular momentum: 3

	 --------------------------------------------------------
	                 NBF =   251, NAUX =   878
	 --------------------------------------------------------
	   CLASS    FOCC     OCC    AOCC    AVIR     VIR    FVIR
	   PAIRS      11      39      28     212     212       0
	 --------------------------------------------------------

	 Will attempt to load fitting metric from file 97.

	-----------------------------------------------------------
	 ==================> DF-MP2 Energies <==================== 
	-----------------------------------------------------------
	 Reference Energy          =    -539.4571652594133866 [Eh]
	 Singles Energy            =      -0.0000000000000000 [Eh]
	 Same-Spin Energy          =      -0.4605840914726653 [Eh]
	 Opposite-Spin Energy      =      -1.1849705552422545 [Eh]
	 Correlation Energy        =      -1.6455546467149198 [Eh]
	 Total Energy              =    -541.1027199061283000 [Eh]
	-----------------------------------------------------------
	 ================> DF-SCS-MP2 Energies <================== 
	-----------------------------------------------------------
	 SCS Same-Spin Scale       =       0.3333333333333333 [-]
	 SCS Opposite-Spin Scale   =       1.2000000000000000 [-]
	 SCS Same-Spin Energy      =      -0.1535280304908884 [Eh]
	 SCS Opposite-Spin Energy  =      -1.4219646662907053 [Eh]
	 SCS Correlation Energy    =      -1.5754926967815936 [Eh]
	 SCS Total Energy          =    -541.0326579561949529 [Eh]
	-----------------------------------------------------------


*** tstop() called on node153.bme.utexas.edu at Mon May 13 10:33:35 2024
Module time:
	user time   =       9.92 seconds =       0.17 minutes
	system time =       0.40 seconds =       0.01 minutes
	total time  =          2 seconds =       0.03 minutes
Total time:
	user time   =     121.86 seconds =       2.03 minutes
	system time =       3.23 seconds =       0.05 minutes
	total time  =         18 seconds =       0.30 minutes

  //>>>>>>>>>>>>>>>>>>>>>>>>>>>>>>>>>>>//
  //            Monomer B HF           //
  //<<<<<<<<<<<<<<<<<<<<<<<<<<<<<<<<<<<//


*** tstart() called on node153.bme.utexas.edu
*** at Mon May 13 10:33:35 2024

   => Loading Basis Set <=

    Name: JUN-CC-PVDZ
    Role: ORBITAL
    Keyword: BASIS
    atoms 1, 5, 9, 11-12     entry N          line   198 file /opt/anaconda/envs/psi4v1.5/share/psi4/basis/jun-cc-pvdz.gbs 
    atoms 2, 4, 14-16, 18-19 entry H          line    36 file /opt/anaconda/envs/psi4v1.5/share/psi4/basis/jun-cc-pvdz.gbs 
    atoms 3, 6-7, 10, 13     entry C          line   164 file /opt/anaconda/envs/psi4v1.5/share/psi4/basis/jun-cc-pvdz.gbs 
    atoms 8, 17              entry O          line   232 file /opt/anaconda/envs/psi4v1.5/share/psi4/basis/jun-cc-pvdz.gbs 


         ---------------------------------------------------------
                                   SCF
               by Justin Turney, Rob Parrish, Andy Simmonett
                          and Daniel G. A. Smith
                              RHF Reference
                        8 Threads,  47683 MiB Core
         ---------------------------------------------------------

  ==> Geometry <==

    Molecular point group: c1
    Full point group: C1

    Geometry (in Angstrom), charge = 0, multiplicity = 1:

       Center              X                  Y                   Z               Mass       
    ------------   -----------------  -----------------  -----------------  -----------------
      Gh(N)          -0.835796792802    -2.097791572178     0.084200823249    14.003074004430
      Gh(H)          -0.300486792802    -2.953891572178     0.170610823249     1.007825032230
      Gh(C)          -2.204166792802    -1.971981572178     0.012110823249    12.000000000000
      Gh(H)          -2.858326792802    -2.834201572178     0.016870823249     1.007825032230
      Gh(N)          -2.601436792802    -0.712481572178    -0.062979176751    14.003074004430
      Gh(C)          -1.426186792802     0.006218427822    -0.035379176751    12.000000000000
      Gh(C)          -1.222356792802     1.432528427822    -0.061879176751    12.000000000000
      Gh(O)          -2.021486792802     2.358268427822    -0.121709176751    15.994914619570
      Gh(N)           0.180513207198     1.706358427822     0.010090823249    14.003074004430
      Gh(C)           1.207043207198     0.798708427822     0.083770823249    12.000000000000
      Gh(N)           2.473773207198     1.304288427822     0.214600823249    14.003074004430
      Gh(N)           1.010193207198    -0.506721572178     0.100800823249    14.003074004430
      Gh(C)          -0.316516792802    -0.829711572178     0.061880823249    12.000000000000
      Gh(H)           0.390823207198     2.699548427822     0.077160823249     1.007825032230
      Gh(H)           2.662003207198     2.190368427822    -0.237549176751     1.007825032230
      Gh(H)           3.206703207198     0.599098427822     0.104940823249     1.007825032230
         O            4.131917040531    -1.444848176345    -0.164956405917    15.994914619570
         H            3.163947040531    -1.536828176345    -0.024596405917     1.007825032230
         H            4.260887040531    -1.685948176345    -1.095626405917     1.007825032230

  Running in c1 symmetry.

  Rotational constants: A =      0.04412  B =      0.02333  C =      0.01535 [cm^-1]
  Rotational constants: A =   1322.77548  B =    699.53272  C =    460.15912 [MHz]
  Nuclear repulsion =    9.017096520584765

  Charge       = 0
  Multiplicity = 1
  Electrons    = 10
  Nalpha       = 5
  Nbeta        = 5

  ==> Algorithm <==

  SCF Algorithm Type is DF.
  DIIS enabled.
  MOM disabled.
  Fractional occupation disabled.
  Guess Type is SAD.
  Energy threshold   = 1.00e-08
  Density threshold  = 1.00e-08
  Integral threshold = 1.00e-12

  ==> Primary Basis <==

  Basis Set: JUN-CC-PVDZ
    Blend: JUN-CC-PVDZ
    Number of shells: 117
    Number of basis functions: 251
    Number of Cartesian functions: 263
    Spherical Harmonics?: true
    Max angular momentum: 2

   => Loading Basis Set <=

    Name: (JUN-CC-PVDZ AUX)
    Role: JKFIT
    Keyword: DF_BASIS_SCF
    atoms 1, 5, 9, 11-12     entry N          line   202 file /opt/anaconda/envs/psi4v1.5/share/psi4/basis/jun-cc-pvdz-jkfit.gbs 
    atoms 2, 4, 14-16, 18-19 entry H          line    70 file /opt/anaconda/envs/psi4v1.5/share/psi4/basis/jun-cc-pvdz-jkfit.gbs 
    atoms 3, 6-7, 10, 13     entry C          line   146 file /opt/anaconda/envs/psi4v1.5/share/psi4/basis/jun-cc-pvdz-jkfit.gbs 
    atoms 8, 17              entry O          line   258 file /opt/anaconda/envs/psi4v1.5/share/psi4/basis/jun-cc-pvdz-jkfit.gbs 

  ==> Integral Setup <==

  ==> DiskDFJK: Density-Fitted J/K Matrices <==

    J tasked:                  Yes
    K tasked:                  Yes
    wK tasked:                  No
    OpenMP threads:              8
    Integrals threads:           8
    Memory [MiB]:            35762
    Algorithm:                Core
    Integral Cache:           LOAD
    Schwarz Cutoff:          1E-12
    Fitting Condition:       1E-10

   => Auxiliary Basis Set <=

  Basis Set: (JUN-CC-PVDZ AUX)
    Blend: JUN-CC-PVDZ-JKFIT
    Number of shells: 387
    Number of basis functions: 1109
    Number of Cartesian functions: 1267
    Spherical Harmonics?: true
    Max angular momentum: 3

  Minimum eigenvalue in the overlap matrix is 1.2701960296E-05.
  Reciprocal condition number of the overlap matrix is 9.7226730667E-07.
    Using symmetric orthogonalization.

  ==> Pre-Iterations <==

  SCF Guess: Superposition of Atomic Densities via on-the-fly atomic UHF (no occupation information).

   -------------------------
    Irrep   Nso     Nmo    
   -------------------------
     A        251     251 
   -------------------------
    Total     251     251
   -------------------------

  ==> Iterations <==

                           Total Energy        Delta E     RMS |[F,P]|

   @DF-RHF iter SAD:   -75.49009742617881   -7.54901e+01   0.00000e+00 
   @DF-RHF iter   1:   -75.95812001806772   -4.68023e-01   1.72153e-03 DIIS
   @DF-RHF iter   2:   -76.00879748228640   -5.06775e-02   1.10985e-03 DIIS
   @DF-RHF iter   3:   -76.03592579727126   -2.71283e-02   8.88753e-05 DIIS
   @DF-RHF iter   4:   -76.03631172635183   -3.85929e-04   2.04781e-05 DIIS
   @DF-RHF iter   5:   -76.03633421386486   -2.24875e-05   4.08874e-06 DIIS
   @DF-RHF iter   6:   -76.03633567629133   -1.46243e-06   8.98195e-07 DIIS
   @DF-RHF iter   7:   -76.03633575704212   -8.07508e-08   1.14099e-07 DIIS
   @DF-RHF iter   8:   -76.03633575816687   -1.12475e-09   2.09697e-08 DIIS
   @DF-RHF iter   9:   -76.03633575820417   -3.73035e-11   5.60195e-09 DIIS
  Energy and wave function converged.


  ==> Post-Iterations <==

    Orbital Energies [Eh]
    ---------------------

    Doubly Occupied:                                                      

       1A    -20.580336     2A     -1.347388     3A     -0.708537  
       4A     -0.581499     5A     -0.507543  

    Virtual:                                                              

       6A      0.024742     7A      0.043250     8A      0.048490  
       9A      0.063170    10A      0.074303    11A      0.079179  
      12A      0.093961    13A      0.096530    14A      0.110778  
      15A      0.114830    16A      0.119372    17A      0.133087  
      18A      0.140364    19A      0.151675    20A      0.152745  
      21A      0.157332    22A      0.163326    23A      0.168970  
      24A      0.177157    25A      0.181383    26A      0.189707  
      27A      0.200506    28A      0.204689    29A      0.208945  
      30A      0.210751    31A      0.222992    32A      0.231197  
      33A      0.235597    34A      0.243133    35A      0.247343  
      36A      0.252568    37A      0.260530    38A      0.261798  
      39A      0.264052    40A      0.267408    41A      0.278352  
      42A      0.282382    43A      0.291649    44A      0.293976  
      45A      0.307280    46A      0.318911    47A      0.329134  
      48A      0.333191    49A      0.347593    50A      0.363452  
      51A      0.375335    52A      0.389369    53A      0.406221  
      54A      0.418002    55A      0.425807    56A      0.459196  
      57A      0.472102    58A      0.485162    59A      0.495337  
      60A      0.505151    61A      0.510466    62A      0.521170  
      63A      0.529889    64A      0.545501    65A      0.548628  
      66A      0.557121    67A      0.563685    68A      0.573883  
      69A      0.584458    70A      0.609070    71A      0.623605  
      72A      0.644346    73A      0.651965    74A      0.676599  
      75A      0.697511    76A      0.745199    77A      0.748908  
      78A      0.763399    79A      0.776975    80A      0.782017  
      81A      0.813462    82A      0.822177    83A      0.839574  
      84A      0.865382    85A      0.879691    86A      0.897635  
      87A      0.923155    88A      0.926562    89A      0.970160  
      90A      0.989093    91A      1.004954    92A      1.013263  
      93A      1.022834    94A      1.068580    95A      1.071697  
      96A      1.089703    97A      1.130430    98A      1.153426  
      99A      1.200207   100A      1.225322   101A      1.254458  
     102A      1.266960   103A      1.273240   104A      1.283847  
     105A      1.311729   106A      1.317808   107A      1.366997  
     108A      1.406053   109A      1.433244   110A      1.525014  
     111A      1.616875   112A      1.717301   113A      1.756903  
     114A      1.767382   115A      1.799541   116A      1.835516  
     117A      1.851278   118A      1.884224   119A      1.913832  
     120A      1.915978   121A      1.925647   122A      1.940431  
     123A      1.953524   124A      1.968447   125A      1.999605  
     126A      2.015332   127A      2.022464   128A      2.042142  
     129A      2.060711   130A      2.070595   131A      2.095479  
     132A      2.110884   133A      2.135512   134A      2.137226  
     135A      2.173295   136A      2.184255   137A      2.198652  
     138A      2.220267   139A      2.232305   140A      2.259664  
     141A      2.270701   142A      2.300557   143A      2.311304  
     144A      2.351557   145A      2.362922   146A      2.374199  
     147A      2.383901   148A      2.412175   149A      2.450274  
     150A      2.455514   151A      2.466427   152A      2.476542  
     153A      2.486312   154A      2.505493   155A      2.523215  
     156A      2.537215   157A      2.547356   158A      2.581540  
     159A      2.607797   160A      2.649015   161A      2.676393  
     162A      2.681317   163A      2.725159   164A      2.780085  
     165A      2.793181   166A      2.831889   167A      2.834621  
     168A      2.839490   169A      2.867018   170A      2.936698  
     171A      2.967096   172A      2.982647   173A      3.011184  
     174A      3.044321   175A      3.081045   176A      3.103272  
     177A      3.170511   178A      3.181080   179A      3.221632  
     180A      3.265463   181A      3.305096   182A      3.311951  
     183A      3.315500   184A      3.324523   185A      3.362683  
     186A      3.432097   187A      3.477963   188A      3.481556  
     189A      3.506012   190A      3.534861   191A      3.570539  
     192A      3.590821   193A      3.635277   194A      3.682901  
     195A      3.722790   196A      3.740236   197A      3.752456  
     198A      3.798912   199A      3.866336   200A      3.911266  
     201A      3.938279   202A      3.962143   203A      4.057896  
     204A      4.085924   205A      4.120710   206A      4.166306  
     207A      4.191131   208A      4.235098   209A      4.275361  
     210A      4.292281   211A      4.317221   212A      4.325421  
     213A      4.350279   214A      4.358828   215A      4.475559  
     216A      4.536169   217A      4.580675   218A      4.603758  
     219A      4.679255   220A      4.761110   221A      4.766042  
     222A      4.814982   223A      4.874602   224A      4.920059  
     225A      5.012075   226A      5.132267   227A      5.187867  
     228A      5.331945   229A      5.474166   230A      5.627705  
     231A      5.662862   232A      5.673632   233A      5.757360  
     234A      5.940369   235A      6.018680   236A      6.040218  
     237A      6.100525   238A      6.131966   239A      6.156713  
     240A      6.944882   241A     18.147204   242A     18.449898  
     243A     18.495909   244A     18.512517   245A     18.884407  
     246A     25.289156   247A     25.303133   248A     25.389509  
     249A     25.412693   250A     25.428614   251A     33.518253  

    Final Occupation by Irrep:
              A 
    DOCC [     5 ]

  @DF-RHF Final Energy:   -76.03633575820417

   => Energetics <=

    Nuclear Repulsion Energy =              9.0170965205847651
    One-Electron Energy =                -122.6562579680429934
    Two-Electron Energy =                  37.6028256892540540
    Total Energy =                        -76.0363357582041886

Computation Completed


Properties will be evaluated at   0.000000,   0.000000,   0.000000 [a0]

Properties computed using the SCF density matrix

  Nuclear Dipole Moment: [e a0]
     X:    76.4964      Y:   -27.9331      Z:    -4.6107

  Electronic Dipole Moment: [e a0]
     X:   -77.0907      Y:    27.6957      Z:     4.0410

  Dipole Moment: [e a0]
     X:    -0.5943      Y:    -0.2374      Z:    -0.5697     Total:     0.8567

  Dipole Moment: [D]
     X:    -1.5104      Y:    -0.6033      Z:    -1.4480     Total:     2.1776


*** tstop() called on node153.bme.utexas.edu at Mon May 13 10:33:38 2024
Module time:
	user time   =      20.57 seconds =       0.34 minutes
	system time =       0.35 seconds =       0.01 minutes
	total time  =          3 seconds =       0.05 minutes
Total time:
	user time   =     142.46 seconds =       2.37 minutes
	system time =       3.58 seconds =       0.06 minutes
	total time  =         21 seconds =       0.35 minutes

*** tstart() called on node153.bme.utexas.edu
*** at Mon May 13 10:33:38 2024


  //>>>>>>>>>>>>>>>>>>>>>>>>>>>>>>>>>>>//
  //               DFMP2               //
  //<<<<<<<<<<<<<<<<<<<<<<<<<<<<<<<<<<<//

   => Loading Basis Set <=

    Name: (JUN-CC-PVDZ AUX)
    Role: RIFIT
    Keyword: DF_BASIS_MP2
    atoms 1, 5, 9, 11-12     entry N          line   144 file /opt/anaconda/envs/psi4v1.5/share/psi4/basis/jun-cc-pvdz-ri.gbs 
    atoms 2, 4, 14-16, 18-19 entry H          line    30 file /opt/anaconda/envs/psi4v1.5/share/psi4/basis/jun-cc-pvdz-ri.gbs 
    atoms 3, 6-7, 10, 13     entry C          line   100 file /opt/anaconda/envs/psi4v1.5/share/psi4/basis/jun-cc-pvdz-ri.gbs 
    atoms 8, 17              entry O          line   188 file /opt/anaconda/envs/psi4v1.5/share/psi4/basis/jun-cc-pvdz-ri.gbs 

	 --------------------------------------------------------
	                          DF-MP2                         
	      2nd-Order Density-Fitted Moller-Plesset Theory     
	              RMP2 Wavefunction,   8 Threads             
	                                                         
	        Rob Parrish, Justin Turney, Andy Simmonett,      
	           Ed Hohenstein, and C. David Sherrill          
	 --------------------------------------------------------

   => Auxiliary Basis Set <=

  Basis Set: (JUN-CC-PVDZ AUX)
    Blend: JUN-CC-PVDZ-RI
    Number of shells: 294
    Number of basis functions: 878
    Number of Cartesian functions: 1017
    Spherical Harmonics?: true
    Max angular momentum: 3

	 --------------------------------------------------------
	                 NBF =   251, NAUX =   878
	 --------------------------------------------------------
	   CLASS    FOCC     OCC    AOCC    AVIR     VIR    FVIR
	   PAIRS       1       5       4     246     246       0
	 --------------------------------------------------------

	 Will attempt to load fitting metric from file 97.

	-----------------------------------------------------------
	 ==================> DF-MP2 Energies <==================== 
	-----------------------------------------------------------
	 Reference Energy          =     -76.0363357582041743 [Eh]
	 Singles Energy            =      -0.0000000000000000 [Eh]
	 Same-Spin Energy          =      -0.0534467137430710 [Eh]
	 Opposite-Spin Energy      =      -0.1571044534799279 [Eh]
	 Correlation Energy        =      -0.2105511672229989 [Eh]
	 Total Energy              =     -76.2468869254271766 [Eh]
	-----------------------------------------------------------
	 ================> DF-SCS-MP2 Energies <================== 
	-----------------------------------------------------------
	 SCS Same-Spin Scale       =       0.3333333333333333 [-]
	 SCS Opposite-Spin Scale   =       1.2000000000000000 [-]
	 SCS Same-Spin Energy      =      -0.0178155712476903 [Eh]
	 SCS Opposite-Spin Energy  =      -0.1885253441759135 [Eh]
	 SCS Correlation Energy    =      -0.2063409154236038 [Eh]
	 SCS Total Energy          =     -76.2426766736277841 [Eh]
	-----------------------------------------------------------


*** tstop() called on node153.bme.utexas.edu at Mon May 13 10:33:40 2024
Module time:
	user time   =       6.53 seconds =       0.11 minutes
	system time =       0.18 seconds =       0.00 minutes
	total time  =          2 seconds =       0.03 minutes
Total time:
	user time   =     149.00 seconds =       2.48 minutes
	system time =       3.76 seconds =       0.06 minutes
	total time  =         23 seconds =       0.38 minutes
  Constructing Basis Sets for SAPT...

   => Loading Basis Set <=

    Name: (JUN-CC-PVDZ AUX)
    Role: RIFIT
    Keyword: DF_BASIS_SAPT
    atoms 1, 5, 9, 11-12     entry N          line   144 file /opt/anaconda/envs/psi4v1.5/share/psi4/basis/jun-cc-pvdz-ri.gbs 
    atoms 2, 4, 14-16, 18-19 entry H          line    30 file /opt/anaconda/envs/psi4v1.5/share/psi4/basis/jun-cc-pvdz-ri.gbs 
    atoms 3, 6-7, 10, 13     entry C          line   100 file /opt/anaconda/envs/psi4v1.5/share/psi4/basis/jun-cc-pvdz-ri.gbs 
    atoms 8, 17              entry O          line   188 file /opt/anaconda/envs/psi4v1.5/share/psi4/basis/jun-cc-pvdz-ri.gbs 


  //>>>>>>>>>>>>>>>>>>>>>>>>>>>>>>>>>>>//
  //           SAPT2+(3)DMP2           //
  //<<<<<<<<<<<<<<<<<<<<<<<<<<<<<<<<<<<//


*** tstart() called on node153.bme.utexas.edu
*** at Mon May 13 10:33:40 2024

      SAPT2+(3)  
    Ed Hohenstein
     6 June 2009

      Orbital Information
  --------------------------
    NSO        =       251
    NMO        =       251
    NRI        =       878
    NOCC A     =        39
    NOCC B     =         5
    FOCC A     =        11
    FOCC B     =         1
    NVIR A     =       212
    NVIR B     =       246

    Estimated memory usage: 2634.1 MB

    Natural Orbital Cutoff:   1.000E-06
    Disp(T3) Truncation:            Yes
    CCD (vv|vv) Truncation:         Yes
    MBPT T2 Truncation:             Yes

    Monomer A: 25 virtual orbitals dropped
    Monomer B: 216 virtual orbitals dropped

    Elst10,r            =    -0.014389324802 [Eh]
    Exch10 (S^2)        =     0.009237102867 [Eh]
    Exch10              =     0.009273406705 [Eh]
    Ind20,r (A<-B)      =    -0.002314963900 [Eh]
    Ind20,r (B<-A)      =    -0.001850615752 [Eh]
    Ind20,r             =    -0.004165579652 [Eh]
    Exch-Ind20,r (A<-B) =     0.001254876633 [Eh]
    Exch-Ind20,r (B<-A) =     0.000930070421 [Eh]
    Exch-Ind20,r        =     0.002184947054 [Eh]
    Disp20              =    -0.003813520799 [Eh]
    Disp20 (NO)         =    -0.003404576839 [Eh]
    Exch-Disp20         =     0.000574560702 [Eh]
    Elst12,r            =    -0.000163492734 [Eh]
    Exch11              =    -0.000066358928 [Eh]
    Exch12              =     0.002151098065 [Eh]
    Ind22               =    -0.000872038330 [Eh]
    Disp21              =     0.000233325210 [Eh]
    Disp22 (SDQ)        =    -0.000203687019 [Eh]

    (i =   1 of   4)         11 seconds
    (i =   2 of   4)         22 seconds
    (i =   3 of   4)         33 seconds
    (i =   4 of   4)         44 seconds

    Disp220 (T)         =    -0.000307678701 [Eh]

    (i =   1 of  28)          0 seconds
    (i =   2 of  28)          0 seconds
    (i =   3 of  28)          0 seconds
    (i =   4 of  28)          0 seconds
    (i =   5 of  28)          0 seconds
    (i =   6 of  28)          1 seconds
    (i =   7 of  28)          1 seconds
    (i =   8 of  28)          1 seconds
    (i =   9 of  28)          1 seconds
    (i =  10 of  28)          1 seconds
    (i =  11 of  28)          1 seconds
    (i =  12 of  28)          1 seconds
    (i =  13 of  28)          1 seconds
    (i =  14 of  28)          1 seconds
    (i =  15 of  28)          1 seconds
    (i =  16 of  28)          1 seconds
    (i =  17 of  28)          1 seconds
    (i =  18 of  28)          1 seconds
    (i =  19 of  28)          1 seconds
    (i =  20 of  28)          2 seconds
    (i =  21 of  28)          2 seconds
    (i =  22 of  28)          2 seconds
    (i =  23 of  28)          2 seconds
    (i =  24 of  28)          2 seconds
    (i =  25 of  28)          2 seconds
    (i =  26 of  28)          2 seconds
    (i =  27 of  28)          2 seconds
    (i =  28 of  28)          2 seconds

    Disp202 (T)         =    -0.000269636987 [Eh]

    Disp22 (T)          =    -0.000577315688 [Eh]

    Est. Disp220 (T)    =    -0.000344635818 [Eh]
    Est. Disp202 (T)    =    -0.000302024689 [Eh]

    Est. Disp22 (T)     =    -0.000646660507 [Eh]
    Elst13,r            =     0.000415797946 [Eh]
    Disp30              =     0.000048787144 [Eh]

    SAPT Results 
  --------------------------------------------------------------------------------------------------------
    Electrostatics                -14.13701959 [mEh]      -8.87111372 [kcal/mol]     -37.11673982 [kJ/mol]
      Elst10,r                    -14.38932480 [mEh]      -9.02943763 [kcal/mol]     -37.77916706 [kJ/mol]
      Elst12,r                     -0.16349273 [mEh]      -0.10259324 [kcal/mol]      -0.42925012 [kJ/mol]
      Elst13,r                      0.41579795 [mEh]       0.26091715 [kcal/mol]       1.09167736 [kJ/mol]

    Exchange                       11.35814584 [mEh]       7.12734412 [kcal/mol]      29.82080780 [kJ/mol]
      Exch10                        9.27340671 [mEh]       5.81915056 [kcal/mol]      24.34732595 [kJ/mol]
      Exch10(S^2)                   9.23710287 [mEh]       5.79636956 [kcal/mol]      24.25201024 [kJ/mol]
      Exch11(S^2)                  -0.06635893 [mEh]      -0.04164086 [kcal/mol]      -0.17422534 [kJ/mol]
      Exch12(S^2)                   2.15109806 [mEh]       1.34983441 [kcal/mol]       5.64770719 [kJ/mol]

    Induction                      -3.32673204 [mEh]      -2.08755587 [kcal/mol]      -8.73433376 [kJ/mol]
      Ind20,r                      -4.16557965 [mEh]      -2.61394070 [kcal/mol]     -10.93672787 [kJ/mol]
      Ind22                        -0.87203833 [mEh]      -0.54721231 [kcal/mol]      -2.28953632 [kJ/mol]
      Exch-Ind20,r                  2.18494705 [mEh]       1.37107498 [kcal/mol]       5.73657770 [kJ/mol]
      Exch-Ind22                    0.45740515 [mEh]       0.28702606 [kcal/mol]       1.20091705 [kJ/mol]
      delta HF,r (2)               -1.10353088 [mEh]      -0.69247608 [kcal/mol]      -2.89731994 [kJ/mol]
      delta MP2,r (2)               0.17206463 [mEh]       0.10797218 [kcal/mol]       0.45175561 [kJ/mol]

    Dispersion                     -3.80719527 [mEh]      -2.38905110 [kcal/mol]      -9.99578980 [kJ/mol]
      Disp20                       -3.81352080 [mEh]      -2.39302043 [kcal/mol]     -10.01239748 [kJ/mol]
      Disp30                        0.04878714 [mEh]       0.03061440 [kcal/mol]       0.12809063 [kJ/mol]
      Disp21                        0.23332521 [mEh]       0.14641378 [kcal/mol]       0.61259526 [kJ/mol]
      Disp22 (SDQ)                 -0.20368702 [mEh]      -0.12781553 [kcal/mol]      -0.53478020 [kJ/mol]
      Disp22 (T)                   -0.57731569 [mEh]      -0.36227106 [kcal/mol]      -1.51574213 [kJ/mol]
      Est. Disp22 (T)              -0.64666051 [mEh]      -0.40578559 [kcal/mol]      -1.69780693 [kJ/mol]
      Exch-Disp20                   0.57456070 [mEh]       0.36054228 [kcal/mol]       1.50850892 [kJ/mol]

  Total HF                         -8.20008158 [mEh]      -5.14562888 [kcal/mol]     -21.52931122 [kJ/mol]
  Total SAPT0                     -11.43904168 [mEh]      -7.17810702 [kcal/mol]     -30.03319978 [kJ/mol]
  Total SAPT2                      -9.93242845 [mEh]      -6.23269295 [kcal/mol]     -26.07758732 [kJ/mol]
  Total SAPT2+                    -10.54945077 [mEh]      -6.61988030 [kcal/mol]     -27.69757918 [kJ/mol]
  Total SAPT2+(3)                 -10.08486568 [mEh]      -6.32834876 [kcal/mol]     -26.47781120 [kJ/mol]
  Total SAPT2+dMP2                -10.37738614 [mEh]      -6.51190812 [kcal/mol]     -27.24582357 [kJ/mol]
  Total SAPT2+(3)dMP2              -9.91280105 [mEh]      -6.22037657 [kcal/mol]     -26.02605558 [kJ/mol]

  Special recipe for scaled SAPT0 (see Manual):
    Electrostatics sSAPT0         -14.38932480 [mEh]      -9.02943763 [kcal/mol]     -37.77916706 [kJ/mol]
    Exchange sSAPT0                 9.27340671 [mEh]       5.81915056 [kcal/mol]      24.34732595 [kJ/mol]
    Induction sSAPT0               -3.05830014 [mEh]      -1.91911231 [kcal/mol]      -8.02956590 [kJ/mol]
    Dispersion sSAPT0              -3.23215899 [mEh]      -2.02821039 [kcal/mol]      -8.48603226 [kJ/mol]
  Total sSAPT0                    -11.40637722 [mEh]      -7.15760977 [kcal/mol]     -29.94743927 [kJ/mol]
  --------------------------------------------------------------------------------------------------------

*** tstop() called on node153.bme.utexas.edu at Mon May 13 10:36:00 2024
Module time:
	user time   =    1048.48 seconds =      17.47 minutes
	system time =      20.26 seconds =       0.34 minutes
	total time  =        140 seconds =       2.33 minutes
Total time:
	user time   =    1197.97 seconds =      19.97 minutes
	system time =      24.02 seconds =       0.40 minutes
	total time  =        163 seconds =       2.72 minutes

    Psi4 stopped on: Monday, 13 May 2024 10:36AM
    Psi4 wall time for execution: 0:02:42.82

*** Psi4 exiting successfully. Buy a developer a beer!
