
    -----------------------------------------------------------------------
          Psi4: An Open-Source Ab Initio Electronic Structure Package
                               Psi4 1.5 release

                         Git: Rev {HEAD} e9f4d6d 


    D. G. A. Smith, L. A. Burns, A. C. Simmonett, R. M. Parrish,
    M. C. Schieber, R. Galvelis, P. Kraus, H. Kruse, R. Di Remigio,
    A. Alenaizan, A. M. James, S. Lehtola, J. P. Misiewicz, M. Scheurer,
    R. A. Shaw, J. B. Schriber, Y. Xie, Z. L. Glick, D. A. Sirianni,
    J. S. O'Brien, J. M. Waldrop, A. Kumar, E. G. Hohenstein,
    B. P. Pritchard, B. R. Brooks, H. F. Schaefer III, A. Yu. Sokolov,
    K. Patkowski, A. E. DePrince III, U. Bozkaya, R. A. King,
    F. A. Evangelista, J. M. Turney, T. D. Crawford, C. D. Sherrill,
    J. Chem. Phys. 152(18) 184108 (2020). https://doi.org/10.1063/5.0006002

                            Additional Code Authors
    E. T. Seidl, C. L. Janssen, E. F. Valeev, M. L. Leininger,
    J. F. Gonthier, R. M. Richard, H. R. McAlexander, M. Saitow, X. Wang,
    P. Verma, M. H. Lechner, and A. Jiang

             Previous Authors, Complete List of Code Contributors,
                       and Citations for Specific Modules
    https://github.com/psi4/psi4/blob/master/codemeta.json
    https://github.com/psi4/psi4/graphs/contributors
    http://psicode.org/psi4manual/master/introduction.html#citing-psifour

    -----------------------------------------------------------------------


    Psi4 started on: Friday, 29 March 2024 03:49PM

    Process ID: 2077314
    Host:       node111.bme.utexas.edu
    PSIDATADIR: /opt/anaconda/envs/psi4v1.5/share/psi4
    Memory:     500.0 MiB
    Threads:    8
    
  ==> Input File <==

--------------------------------------------------------------------------
memory 50GB

molecule {
0 1
N 1.63335 -1.12327 -0.03993
H 2.5985 -0.77999 -0.05402
C 1.13519 -2.40064 -0.03329
H 1.78392 -3.2669 -0.04417
N -0.19102 -2.44582 -0.01281
C -0.56184 -1.12072 -0.00974
C -1.87569 -0.5308 0.0247
O -2.98967 -1.03682 0.06593
N -1.74634 0.89839 0.01527
C -0.58713 1.6265 -0.02179
N -0.72702 3.00354 0.04493
N 0.60817 1.0862 -0.04401
C 0.55385 -0.28546 -0.02031
H -2.63551 1.3822 0.11841
H -1.4943 3.38575 -0.49841
H 0.14852 3.47524 -0.15709
--
0 1
O 3.148628125 0.8684295833333333 -0.03836489583333333
H 3.457638125 1.1281095833333332 0.8437751041666667
H 2.258218125 1.2744695833333333 -0.11319489583333334
 units angstrom
 no_reorient
 symmetry c1} 
set  {scf_type DF
 basis aug-cc-pvtz
 freeze_core True
 guess SAD}
energy('sapt2+(3)dmp2')
--------------------------------------------------------------------------

  Memory set to  46.566 GiB by Python driver.

Scratch directory: /tmp/
   => Loading Basis Set <=

    Name: AUG-CC-PVTZ
    Role: ORBITAL
    Keyword: BASIS
    atoms 1, 5, 9, 11-12     entry N          line   285 file /opt/anaconda/envs/psi4v1.5/share/psi4/basis/aug-cc-pvtz.gbs 
    atoms 2, 4, 14-16, 18-19 entry H          line    40 file /opt/anaconda/envs/psi4v1.5/share/psi4/basis/aug-cc-pvtz.gbs 
    atoms 3, 6-7, 10, 13     entry C          line   239 file /opt/anaconda/envs/psi4v1.5/share/psi4/basis/aug-cc-pvtz.gbs 
    atoms 8, 17              entry O          line   331 file /opt/anaconda/envs/psi4v1.5/share/psi4/basis/aug-cc-pvtz.gbs 

   => Loading Basis Set <=

    Name: AUG-CC-PVTZ
    Role: ORBITAL
    Keyword: BASIS
    atoms 1, 5, 9, 11-12     entry N          line   285 file /opt/anaconda/envs/psi4v1.5/share/psi4/basis/aug-cc-pvtz.gbs 
    atoms 2, 4, 14-16, 18-19 entry H          line    40 file /opt/anaconda/envs/psi4v1.5/share/psi4/basis/aug-cc-pvtz.gbs 
    atoms 3, 6-7, 10, 13     entry C          line   239 file /opt/anaconda/envs/psi4v1.5/share/psi4/basis/aug-cc-pvtz.gbs 
    atoms 8, 17              entry O          line   331 file /opt/anaconda/envs/psi4v1.5/share/psi4/basis/aug-cc-pvtz.gbs 


  //>>>>>>>>>>>>>>>>>>>>>>>>>>>>>>>>>>>//
  //              Dimer HF             //
  //<<<<<<<<<<<<<<<<<<<<<<<<<<<<<<<<<<<//


*** tstart() called on node111.bme.utexas.edu
*** at Fri Mar 29 15:49:05 2024

   => Loading Basis Set <=

    Name: AUG-CC-PVTZ
    Role: ORBITAL
    Keyword: BASIS
    atoms 1, 5, 9, 11-12     entry N          line   285 file /opt/anaconda/envs/psi4v1.5/share/psi4/basis/aug-cc-pvtz.gbs 
    atoms 2, 4, 14-16, 18-19 entry H          line    40 file /opt/anaconda/envs/psi4v1.5/share/psi4/basis/aug-cc-pvtz.gbs 
    atoms 3, 6-7, 10, 13     entry C          line   239 file /opt/anaconda/envs/psi4v1.5/share/psi4/basis/aug-cc-pvtz.gbs 
    atoms 8, 17              entry O          line   331 file /opt/anaconda/envs/psi4v1.5/share/psi4/basis/aug-cc-pvtz.gbs 


         ---------------------------------------------------------
                                   SCF
               by Justin Turney, Rob Parrish, Andy Simmonett
                          and Daniel G. A. Smith
                              RHF Reference
                        8 Threads,  47683 MiB Core
         ---------------------------------------------------------

  ==> Geometry <==

    Molecular point group: c1
    Full point group: C1

    Geometry (in Angstrom), charge = 0, multiplicity = 1:

       Center              X                  Y                   Z               Mass       
    ------------   -----------------  -----------------  -----------------  -----------------
         N            1.711673721577    -1.071777074962    -0.035789310083    14.003074004430
         H            2.676823721577    -0.728497074962    -0.049879310083     1.007825032230
         C            1.213513721577    -2.349147074962    -0.029149310083    12.000000000000
         H            1.862243721577    -3.215407074962    -0.040029310083     1.007825032230
         N           -0.112696278423    -2.394327074962    -0.008669310083    14.003074004430
         C           -0.483516278423    -1.069227074962    -0.005599310083    12.000000000000
         C           -1.797366278423    -0.479307074962     0.028840689917    12.000000000000
         O           -2.911346278423    -0.985327074962     0.070070689917    15.994914619570
         N           -1.668016278423     0.949882925038     0.019410689917    14.003074004430
         C           -0.508806278423     1.677992925038    -0.017649310083    12.000000000000
         N           -0.648696278423     3.055032925038     0.049070689917    14.003074004430
         N            0.686493721577     1.137692925038    -0.039869310083    14.003074004430
         C            0.632173721577    -0.233967074962    -0.016169310083    12.000000000000
         H           -2.557186278423     1.433692925038     0.122550689917     1.007825032230
         H           -1.415976278423     3.437242925038    -0.494269310083     1.007825032230
         H            0.226843721577     3.526732925038    -0.152949310083     1.007825032230
         O            3.226951846577     0.919922508372    -0.034224205916    15.994914619570
         H            3.535961846577     1.179602508372     0.847915794084     1.007825032230
         H            2.336541846577     1.325962508372    -0.109054205916     1.007825032230

  Running in c1 symmetry.

  Rotational constants: A =      0.03786  B =      0.03363  C =      0.01786 [cm^-1]
  Rotational constants: A =   1135.03829  B =   1008.27160  C =    535.28161 [MHz]
  Nuclear repulsion =  711.898280609222411

  Charge       = 0
  Multiplicity = 1
  Electrons    = 88
  Nalpha       = 44
  Nbeta        = 44

  ==> Algorithm <==

  SCF Algorithm Type is DF.
  DIIS enabled.
  MOM disabled.
  Fractional occupation disabled.
  Guess Type is SAD.
  Energy threshold   = 1.00e-08
  Density threshold  = 1.00e-08
  Integral threshold = 1.00e-12

  ==> Primary Basis <==

  Basis Set: AUG-CC-PVTZ
    Blend: AUG-CC-PVTZ
    Number of shells: 231
    Number of basis functions: 713
    Number of Cartesian functions: 835
    Spherical Harmonics?: true
    Max angular momentum: 3

   => Loading Basis Set <=

    Name: (AUG-CC-PVTZ AUX)
    Role: JKFIT
    Keyword: DF_BASIS_SCF
    atoms 1, 5, 9, 11-12     entry N          line   224 file /opt/anaconda/envs/psi4v1.5/share/psi4/basis/aug-cc-pvtz-jkfit.gbs 
    atoms 2, 4, 14-16, 18-19 entry H          line    70 file /opt/anaconda/envs/psi4v1.5/share/psi4/basis/aug-cc-pvtz-jkfit.gbs 
    atoms 3, 6-7, 10, 13     entry C          line   162 file /opt/anaconda/envs/psi4v1.5/share/psi4/basis/aug-cc-pvtz-jkfit.gbs 
    atoms 8, 17              entry O          line   286 file /opt/anaconda/envs/psi4v1.5/share/psi4/basis/aug-cc-pvtz-jkfit.gbs 

  ==> Integral Setup <==

  ==> DiskDFJK: Density-Fitted J/K Matrices <==

    J tasked:                  Yes
    K tasked:                  Yes
    wK tasked:                  No
    OpenMP threads:              8
    Integrals threads:           8
    Memory [MiB]:            35762
    Algorithm:                Core
    Integral Cache:           SAVE
    Schwarz Cutoff:          1E-12
    Fitting Condition:       1E-10

   => Auxiliary Basis Set <=

  Basis Set: (AUG-CC-PVTZ AUX)
    Blend: AUG-CC-PVTZ-JKFIT
    Number of shells: 458
    Number of basis functions: 1570
    Number of Cartesian functions: 1957
    Spherical Harmonics?: true
    Max angular momentum: 4

  Minimum eigenvalue in the overlap matrix is 1.4550313208E-06.
  Reciprocal condition number of the overlap matrix is 7.8497468399E-08.
    Using symmetric orthogonalization.

  ==> Pre-Iterations <==

  SCF Guess: Superposition of Atomic Densities via on-the-fly atomic UHF (no occupation information).

   -------------------------
    Irrep   Nso     Nmo    
   -------------------------
     A        713     713 
   -------------------------
    Total     713     713
   -------------------------

  ==> Iterations <==

                           Total Energy        Delta E     RMS |[F,P]|

   @DF-RHF iter SAD:  -615.17282637633218   -6.15173e+02   0.00000e+00 
   @DF-RHF iter   1:  -615.27348814874460   -1.00662e-01   1.25351e-03 DIIS
   @DF-RHF iter   2:  -615.53573379775275   -2.62246e-01   7.56715e-04 DIIS
   @DF-RHF iter   3:  -615.63476156516606   -9.90278e-02   1.39772e-04 DIIS
   @DF-RHF iter   4:  -615.64010107168178   -5.33951e-03   6.22981e-05 DIIS
   @DF-RHF iter   5:  -615.64118996675484   -1.08890e-03   1.39621e-05 DIIS
   @DF-RHF iter   6:  -615.64130086157240   -1.10895e-04   6.78418e-06 DIIS
   @DF-RHF iter   7:  -615.64133175115012   -3.08896e-05   2.48872e-06 DIIS
   @DF-RHF iter   8:  -615.64133683141552   -5.08027e-06   8.99348e-07 DIIS
   @DF-RHF iter   9:  -615.64133744336800   -6.11952e-07   3.80258e-07 DIIS
   @DF-RHF iter  10:  -615.64133754985278   -1.06485e-07   1.48488e-07 DIIS
   @DF-RHF iter  11:  -615.64133756540116   -1.55484e-08   5.75692e-08 DIIS
   @DF-RHF iter  12:  -615.64133756751664   -2.11548e-09   1.85190e-08 DIIS
   @DF-RHF iter  13:  -615.64133756776414   -2.47496e-10   7.99441e-09 DIIS
  Energy and wave function converged.


  ==> Post-Iterations <==

    Orbital Energies [Eh]
    ---------------------

    Doubly Occupied:                                                      

       1A    -20.559471     2A    -20.529148     3A    -15.639541  
       4A    -15.624428     5A    -15.617375     6A    -15.587108  
       7A    -15.559282     8A    -11.411956     9A    -11.372352  
      10A    -11.325868    11A    -11.307016    12A    -11.252065  
      13A     -1.399509    14A     -1.367680    15A     -1.349470  
      16A     -1.338429    17A     -1.230437    18A     -1.226202  
      19A     -1.172189    20A     -1.032282    21A     -0.907316  
      22A     -0.895294    23A     -0.841685    24A     -0.805129  
      25A     -0.750061    26A     -0.737989    27A     -0.718360  
      28A     -0.706821    29A     -0.679871    30A     -0.661426  
      31A     -0.636435    32A     -0.623025    33A     -0.600417  
      34A     -0.594581    35A     -0.583785    36A     -0.555004  
      37A     -0.525138    38A     -0.490388    39A     -0.472308  
      40A     -0.446061    41A     -0.439479    42A     -0.435754  
      43A     -0.404990    44A     -0.305035  

    Virtual:                                                              

      45A      0.012114    46A      0.025485    47A      0.033607  
      48A      0.040896    49A      0.051349    50A      0.053669  
      51A      0.066569    52A      0.076531    53A      0.081342  
      54A      0.086081    55A      0.086752    56A      0.098101  
      57A      0.105292    58A      0.109892    59A      0.112620  
      60A      0.115696    61A      0.118232    62A      0.124371  
      63A      0.126439    64A      0.130587    65A      0.133614  
      66A      0.137729    67A      0.142817    68A      0.146794  
      69A      0.154610    70A      0.162312    71A      0.164499  
      72A      0.168282    73A      0.173119    74A      0.178192  
      75A      0.182538    76A      0.183973    77A      0.189781  
      78A      0.196900    79A      0.200470    80A      0.208772  
      81A      0.210220    82A      0.216817    83A      0.223260  
      84A      0.231440    85A      0.233684    86A      0.239439  
      87A      0.241706    88A      0.255615    89A      0.262062  
      90A      0.266226    91A      0.271142    92A      0.278634  
      93A      0.282475    94A      0.284054    95A      0.288641  
      96A      0.295887    97A      0.296805    98A      0.301194  
      99A      0.305545   100A      0.310188   101A      0.314767  
     102A      0.321856   103A      0.330236   104A      0.332478  
     105A      0.335660   106A      0.342603   107A      0.354108  
     108A      0.357826   109A      0.361421   110A      0.364816  
     111A      0.368455   112A      0.370750   113A      0.373284  
     114A      0.375738   115A      0.380607   116A      0.389469  
     117A      0.394571   118A      0.399299   119A      0.405256  
     120A      0.412361   121A      0.417741   122A      0.422562  
     123A      0.430073   124A      0.434575   125A      0.438707  
     126A      0.443866   127A      0.447186   128A      0.450358  
     129A      0.458301   130A      0.464651   131A      0.472986  
     132A      0.475283   133A      0.480107   134A      0.486675  
     135A      0.487556   136A      0.490359   137A      0.501015  
     138A      0.502294   139A      0.506952   140A      0.512861  
     141A      0.514396   142A      0.517035   143A      0.526118  
     144A      0.532692   145A      0.534261   146A      0.539772  
     147A      0.547283   148A      0.549787   149A      0.557813  
     150A      0.558968   151A      0.572392   152A      0.574945  
     153A      0.586145   154A      0.596737   155A      0.606310  
     156A      0.615315   157A      0.621527   158A      0.626876  
     159A      0.634984   160A      0.639234   161A      0.649627  
     162A      0.649952   163A      0.659918   164A      0.664232  
     165A      0.669713   166A      0.675069   167A      0.676490  
     168A      0.689562   169A      0.693626   170A      0.704637  
     171A      0.705882   172A      0.707403   173A      0.720598  
     174A      0.735080   175A      0.739616   176A      0.740485  
     177A      0.752193   178A      0.754766   179A      0.759005  
     180A      0.764042   181A      0.773138   182A      0.776219  
     183A      0.780031   184A      0.783932   185A      0.800450  
     186A      0.809715   187A      0.813743   188A      0.826915  
     189A      0.835286   190A      0.837712   191A      0.839261  
     192A      0.848352   193A      0.852331   194A      0.858206  
     195A      0.860031   196A      0.863805   197A      0.878065  
     198A      0.887862   199A      0.893357   200A      0.895263  
     201A      0.902760   202A      0.911781   203A      0.918142  
     204A      0.921825   205A      0.928681   206A      0.936355  
     207A      0.941553   208A      0.943562   209A      0.952241  
     210A      0.961787   211A      0.963455   212A      0.970469  
     213A      0.977233   214A      0.985811   215A      0.990470  
     216A      0.995494   217A      1.000474   218A      1.012188  
     219A      1.017703   220A      1.019882   221A      1.022013  
     222A      1.025660   223A      1.035671   224A      1.041616  
     225A      1.047897   226A      1.051513   227A      1.062248  
     228A      1.065875   229A      1.069359   230A      1.074986  
     231A      1.076495   232A      1.086986   233A      1.093480  
     234A      1.101430   235A      1.102333   236A      1.106283  
     237A      1.110217   238A      1.122169   239A      1.132731  
     240A      1.144047   241A      1.151611   242A      1.154988  
     243A      1.159676   244A      1.164259   245A      1.168420  
     246A      1.174260   247A      1.178261   248A      1.192280  
     249A      1.199871   250A      1.201183   251A      1.206513  
     252A      1.218921   253A      1.225630   254A      1.226172  
     255A      1.241793   256A      1.244491   257A      1.248745  
     258A      1.259522   259A      1.266777   260A      1.273573  
     261A      1.279023   262A      1.284949   263A      1.297482  
     264A      1.306078   265A      1.309840   266A      1.315770  
     267A      1.322731   268A      1.332266   269A      1.346653  
     270A      1.349119   271A      1.359020   272A      1.361044  
     273A      1.373518   274A      1.383985   275A      1.390699  
     276A      1.394757   277A      1.399450   278A      1.403999  
     279A      1.413877   280A      1.422967   281A      1.427560  
     282A      1.441217   283A      1.444470   284A      1.447234  
     285A      1.454599   286A      1.464770   287A      1.470015  
     288A      1.474989   289A      1.482661   290A      1.489880  
     291A      1.493880   292A      1.509715   293A      1.516126  
     294A      1.521131   295A      1.534861   296A      1.540023  
     297A      1.553580   298A      1.556252   299A      1.560655  
     300A      1.564623   301A      1.581129   302A      1.583564  
     303A      1.588913   304A      1.609875   305A      1.612898  
     306A      1.624724   307A      1.635517   308A      1.637134  
     309A      1.655087   310A      1.667895   311A      1.670578  
     312A      1.673263   313A      1.682949   314A      1.696441  
     315A      1.698745   316A      1.708075   317A      1.717705  
     318A      1.725297   319A      1.735149   320A      1.740186  
     321A      1.757006   322A      1.774084   323A      1.776102  
     324A      1.783456   325A      1.793415   326A      1.799459  
     327A      1.809049   328A      1.816952   329A      1.839271  
     330A      1.841014   331A      1.849301   332A      1.864334  
     333A      1.872217   334A      1.889868   335A      1.900821  
     336A      1.905346   337A      1.928072   338A      1.937054  
     339A      1.954614   340A      1.957554   341A      1.965114  
     342A      1.974727   343A      1.981967   344A      1.989313  
     345A      2.006827   346A      2.026972   347A      2.033664  
     348A      2.053031   349A      2.062044   350A      2.073359  
     351A      2.085035   352A      2.088586   353A      2.102065  
     354A      2.112681   355A      2.119205   356A      2.124453  
     357A      2.127561   358A      2.148957   359A      2.162456  
     360A      2.182834   361A      2.188923   362A      2.201521  
     363A      2.206041   364A      2.216186   365A      2.228741  
     366A      2.240849   367A      2.247506   368A      2.263809  
     369A      2.268965   370A      2.291487   371A      2.294205  
     372A      2.301158   373A      2.319907   374A      2.327482  
     375A      2.337092   376A      2.342966   377A      2.351406  
     378A      2.354277   379A      2.361430   380A      2.371735  
     381A      2.394730   382A      2.406643   383A      2.416492  
     384A      2.420194   385A      2.429297   386A      2.438994  
     387A      2.450964   388A      2.454859   389A      2.462623  
     390A      2.478183   391A      2.479569   392A      2.493718  
     393A      2.495047   394A      2.509650   395A      2.514662  
     396A      2.524968   397A      2.537857   398A      2.548024  
     399A      2.572753   400A      2.576270   401A      2.582192  
     402A      2.595922   403A      2.602544   404A      2.614763  
     405A      2.627190   406A      2.628094   407A      2.634376  
     408A      2.665663   409A      2.672969   410A      2.685409  
     411A      2.698671   412A      2.706985   413A      2.709529  
     414A      2.732919   415A      2.735214   416A      2.747658  
     417A      2.755092   418A      2.764423   419A      2.777455  
     420A      2.789999   421A      2.798168   422A      2.806978  
     423A      2.813350   424A      2.826020   425A      2.839825  
     426A      2.868028   427A      2.886294   428A      2.892527  
     429A      2.900635   430A      2.902227   431A      2.915276  
     432A      2.932669   433A      2.948343   434A      2.984416  
     435A      2.995732   436A      3.013551   437A      3.035588  
     438A      3.048710   439A      3.062576   440A      3.088144  
     441A      3.103422   442A      3.108950   443A      3.125048  
     444A      3.163507   445A      3.173313   446A      3.190284  
     447A      3.216513   448A      3.233418   449A      3.264724  
     450A      3.266337   451A      3.282839   452A      3.301183  
     453A      3.317153   454A      3.324549   455A      3.374109  
     456A      3.387584   457A      3.424099   458A      3.425707  
     459A      3.431716   460A      3.464027   461A      3.509508  
     462A      3.522993   463A      3.536097   464A      3.541590  
     465A      3.543960   466A      3.589606   467A      3.610351  
     468A      3.616622   469A      3.650745   470A      3.670444  
     471A      3.677142   472A      3.691788   473A      3.698296  
     474A      3.708327   475A      3.714924   476A      3.738909  
     477A      3.749166   478A      3.764181   479A      3.771594  
     480A      3.789077   481A      3.807162   482A      3.822920  
     483A      3.837045   484A      3.839639   485A      3.847248  
     486A      3.873646   487A      3.890209   488A      3.896207  
     489A      3.898989   490A      3.911311   491A      3.920298  
     492A      3.941540   493A      3.958846   494A      3.968242  
     495A      3.978344   496A      4.004734   497A      4.015923  
     498A      4.036257   499A      4.048737   500A      4.064566  
     501A      4.077024   502A      4.094914   503A      4.110951  
     504A      4.123158   505A      4.141878   506A      4.144427  
     507A      4.158556   508A      4.167763   509A      4.175380  
     510A      4.195464   511A      4.201450   512A      4.212213  
     513A      4.218546   514A      4.234828   515A      4.236907  
     516A      4.248998   517A      4.261889   518A      4.283653  
     519A      4.288282   520A      4.293585   521A      4.305149  
     522A      4.307722   523A      4.315263   524A      4.332005  
     525A      4.350380   526A      4.366448   527A      4.370734  
     528A      4.387961   529A      4.396203   530A      4.400091  
     531A      4.407980   532A      4.427065   533A      4.443743  
     534A      4.464481   535A      4.481226   536A      4.488773  
     537A      4.516355   538A      4.521714   539A      4.528329  
     540A      4.539261   541A      4.551340   542A      4.561316  
     543A      4.570345   544A      4.583793   545A      4.600240  
     546A      4.606825   547A      4.619292   548A      4.621780  
     549A      4.632074   550A      4.655322   551A      4.670296  
     552A      4.694368   553A      4.709506   554A      4.729640  
     555A      4.743879   556A      4.746029   557A      4.769495  
     558A      4.805132   559A      4.814069   560A      4.824894  
     561A      4.835424   562A      4.849886   563A      4.862360  
     564A      4.885917   565A      4.894561   566A      4.916039  
     567A      4.923817   568A      4.944952   569A      4.954631  
     570A      4.971696   571A      4.998944   572A      5.008557  
     573A      5.019420   574A      5.036316   575A      5.058448  
     576A      5.077148   577A      5.136630   578A      5.138707  
     579A      5.157870   580A      5.161978   581A      5.175267  
     582A      5.194251   583A      5.202447   584A      5.216824  
     585A      5.246014   586A      5.255361   587A      5.274370  
     588A      5.288367   589A      5.295663   590A      5.317006  
     591A      5.330843   592A      5.360819   593A      5.378933  
     594A      5.380928   595A      5.423651   596A      5.446252  
     597A      5.456130   598A      5.479019   599A      5.505134  
     600A      5.516845   601A      5.526734   602A      5.556252  
     603A      5.565306   604A      5.572176   605A      5.595183  
     606A      5.607292   607A      5.624207   608A      5.639626  
     609A      5.648394   610A      5.667685   611A      5.680421  
     612A      5.687957   613A      5.691774   614A      5.701465  
     615A      5.714295   616A      5.752266   617A      5.756267  
     618A      5.762403   619A      5.795324   620A      5.818721  
     621A      5.833689   622A      5.858908   623A      5.879680  
     624A      5.884134   625A      5.900870   626A      5.917623  
     627A      5.944976   628A      5.951029   629A      5.955333  
     630A      5.982638   631A      5.986461   632A      6.025990  
     633A      6.031367   634A      6.034939   635A      6.066102  
     636A      6.095239   637A      6.115038   638A      6.146868  
     639A      6.150947   640A      6.178475   641A      6.194827  
     642A      6.207346   643A      6.233748   644A      6.256110  
     645A      6.275542   646A      6.279926   647A      6.319055  
     648A      6.371889   649A      6.443518   650A      6.485844  
     651A      6.512011   652A      6.560374   653A      6.589426  
     654A      6.608209   655A      6.636997   656A      6.684310  
     657A      6.691082   658A      6.693721   659A      6.715244  
     660A      6.755554   661A      6.773224   662A      6.800614  
     663A      6.809993   664A      6.865268   665A      6.945890  
     666A      6.953196   667A      6.971517   668A      6.992783  
     669A      7.006338   670A      7.031392   671A      7.056701  
     672A      7.127018   673A      7.139865   674A      7.184733  
     675A      7.208306   676A      7.224259   677A      7.239766  
     678A      7.292008   679A      7.319064   680A      7.369826  
     681A      7.405403   682A      7.411447   683A      7.414939  
     684A      7.429533   685A      7.456317   686A      7.499266  
     687A      7.603645   688A      7.644921   689A      7.712473  
     690A      7.727058   691A      7.759831   692A      7.807158  
     693A      7.819868   694A      7.892709   695A      7.931057  
     696A      8.001392   697A      8.030214   698A      8.047957  
     699A      8.182100   700A      8.265815   701A      8.993166  
     702A     16.149108   703A     16.360208   704A     16.529297  
     705A     17.265334   706A     17.673005   707A     17.973281  
     708A     18.695006   709A     19.206092   710A     19.494740  
     711A     20.130420   712A     21.019474   713A     21.543644  

    Final Occupation by Irrep:
              A 
    DOCC [    44 ]

  @DF-RHF Final Energy:  -615.64133756776414

   => Energetics <=

    Nuclear Repulsion Energy =            711.8982806092224109
    One-Electron Energy =               -2253.6429243657457846
    Two-Electron Energy =                 926.1033061887592339
    Total Energy =                       -615.6413375677641397

Computation Completed


Properties will be evaluated at   0.000000,   0.000000,   0.000000 [a0]

Properties computed using the SCF density matrix

  Nuclear Dipole Moment: [e a0]
     X:     6.2501      Y:     6.5190      Z:     0.1167

  Electronic Dipole Moment: [e a0]
     X:    -4.9885      Y:    -3.9247      Z:    -0.0398

  Dipole Moment: [e a0]
     X:     1.2616      Y:     2.5943      Z:     0.0769     Total:     2.8858

  Dipole Moment: [D]
     X:     3.2065      Y:     6.5941      Z:     0.1954     Total:     7.3350


*** tstop() called on node111.bme.utexas.edu at Fri Mar 29 15:49:53 2024
Module time:
	user time   =     339.83 seconds =       5.66 minutes
	system time =       2.92 seconds =       0.05 minutes
	total time  =         48 seconds =       0.80 minutes
Total time:
	user time   =     339.83 seconds =       5.66 minutes
	system time =       2.92 seconds =       0.05 minutes
	total time  =         48 seconds =       0.80 minutes

*** tstart() called on node111.bme.utexas.edu
*** at Fri Mar 29 15:49:53 2024


  //>>>>>>>>>>>>>>>>>>>>>>>>>>>>>>>>>>>//
  //               DFMP2               //
  //<<<<<<<<<<<<<<<<<<<<<<<<<<<<<<<<<<<//

   => Loading Basis Set <=

    Name: (AUG-CC-PVTZ AUX)
    Role: RIFIT
    Keyword: DF_BASIS_MP2
    atoms 1, 5, 9, 11-12     entry N          line   206 file /opt/anaconda/envs/psi4v1.5/share/psi4/basis/aug-cc-pvtz-ri.gbs 
    atoms 2, 4, 14-16, 18-19 entry H          line    30 file /opt/anaconda/envs/psi4v1.5/share/psi4/basis/aug-cc-pvtz-ri.gbs 
    atoms 3, 6-7, 10, 13     entry C          line   148 file /opt/anaconda/envs/psi4v1.5/share/psi4/basis/aug-cc-pvtz-ri.gbs 
    atoms 8, 17              entry O          line   264 file /opt/anaconda/envs/psi4v1.5/share/psi4/basis/aug-cc-pvtz-ri.gbs 

	 --------------------------------------------------------
	                          DF-MP2                         
	      2nd-Order Density-Fitted Moller-Plesset Theory     
	              RMP2 Wavefunction,   8 Threads             
	                                                         
	        Rob Parrish, Justin Turney, Andy Simmonett,      
	           Ed Hohenstein, and C. David Sherrill          
	 --------------------------------------------------------

   => Auxiliary Basis Set <=

  Basis Set: (AUG-CC-PVTZ AUX)
    Blend: AUG-CC-PVTZ-RI
    Number of shells: 434
    Number of basis functions: 1594
    Number of Cartesian functions: 2017
    Spherical Harmonics?: true
    Max angular momentum: 4

	 --------------------------------------------------------
	                 NBF =   713, NAUX =  1594
	 --------------------------------------------------------
	   CLASS    FOCC     OCC    AOCC    AVIR     VIR    FVIR
	   PAIRS      12      44      32     669     669       0
	 --------------------------------------------------------

	 Will save fitting metric to file 97.

	-----------------------------------------------------------
	 ==================> DF-MP2 Energies <==================== 
	-----------------------------------------------------------
	 Reference Energy          =    -615.6413375677641397 [Eh]
	 Singles Energy            =      -0.0000000000000000 [Eh]
	 Same-Spin Energy          =      -0.6148665541725846 [Eh]
	 Opposite-Spin Energy      =      -1.7086631459631882 [Eh]
	 Correlation Energy        =      -2.3235297001357731 [Eh]
	 Total Energy              =    -617.9648672678998764 [Eh]
	-----------------------------------------------------------
	 ================> DF-SCS-MP2 Energies <================== 
	-----------------------------------------------------------
	 SCS Same-Spin Scale       =       0.3333333333333333 [-]
	 SCS Opposite-Spin Scale   =       1.2000000000000000 [-]
	 SCS Same-Spin Energy      =      -0.2049555180575282 [Eh]
	 SCS Opposite-Spin Energy  =      -2.0503957751558257 [Eh]
	 SCS Correlation Energy    =      -2.2553512932133541 [Eh]
	 SCS Total Energy          =    -617.8966888609775197 [Eh]
	-----------------------------------------------------------


*** tstop() called on node111.bme.utexas.edu at Fri Mar 29 15:50:04 2024
Module time:
	user time   =      72.76 seconds =       1.21 minutes
	system time =       1.15 seconds =       0.02 minutes
	total time  =         11 seconds =       0.18 minutes
Total time:
	user time   =     412.60 seconds =       6.88 minutes
	system time =       4.07 seconds =       0.07 minutes
	total time  =         59 seconds =       0.98 minutes

  //>>>>>>>>>>>>>>>>>>>>>>>>>>>>>>>>>>>//
  //            Monomer A HF           //
  //<<<<<<<<<<<<<<<<<<<<<<<<<<<<<<<<<<<//


*** tstart() called on node111.bme.utexas.edu
*** at Fri Mar 29 15:50:04 2024

   => Loading Basis Set <=

    Name: AUG-CC-PVTZ
    Role: ORBITAL
    Keyword: BASIS
    atoms 1, 5, 9, 11-12     entry N          line   285 file /opt/anaconda/envs/psi4v1.5/share/psi4/basis/aug-cc-pvtz.gbs 
    atoms 2, 4, 14-16, 18-19 entry H          line    40 file /opt/anaconda/envs/psi4v1.5/share/psi4/basis/aug-cc-pvtz.gbs 
    atoms 3, 6-7, 10, 13     entry C          line   239 file /opt/anaconda/envs/psi4v1.5/share/psi4/basis/aug-cc-pvtz.gbs 
    atoms 8, 17              entry O          line   331 file /opt/anaconda/envs/psi4v1.5/share/psi4/basis/aug-cc-pvtz.gbs 


         ---------------------------------------------------------
                                   SCF
               by Justin Turney, Rob Parrish, Andy Simmonett
                          and Daniel G. A. Smith
                              RHF Reference
                        8 Threads,  47683 MiB Core
         ---------------------------------------------------------

  ==> Geometry <==

    Molecular point group: c1
    Full point group: C1

    Geometry (in Angstrom), charge = 0, multiplicity = 1:

       Center              X                  Y                   Z               Mass       
    ------------   -----------------  -----------------  -----------------  -----------------
         N            1.711673721577    -1.071777074962    -0.035789310083    14.003074004430
         H            2.676823721577    -0.728497074962    -0.049879310083     1.007825032230
         C            1.213513721577    -2.349147074962    -0.029149310083    12.000000000000
         H            1.862243721577    -3.215407074962    -0.040029310083     1.007825032230
         N           -0.112696278423    -2.394327074962    -0.008669310083    14.003074004430
         C           -0.483516278423    -1.069227074962    -0.005599310083    12.000000000000
         C           -1.797366278423    -0.479307074962     0.028840689917    12.000000000000
         O           -2.911346278423    -0.985327074962     0.070070689917    15.994914619570
         N           -1.668016278423     0.949882925038     0.019410689917    14.003074004430
         C           -0.508806278423     1.677992925038    -0.017649310083    12.000000000000
         N           -0.648696278423     3.055032925038     0.049070689917    14.003074004430
         N            0.686493721577     1.137692925038    -0.039869310083    14.003074004430
         C            0.632173721577    -0.233967074962    -0.016169310083    12.000000000000
         H           -2.557186278423     1.433692925038     0.122550689917     1.007825032230
         H           -1.415976278423     3.437242925038    -0.494269310083     1.007825032230
         H            0.226843721577     3.526732925038    -0.152949310083     1.007825032230
      Gh(O)           3.226951846577     0.919922508372    -0.034224205916    15.994914619570
      Gh(H)           3.535961846577     1.179602508372     0.847915794084     1.007825032230
      Gh(H)           2.336541846577     1.325962508372    -0.109054205916     1.007825032230

  Running in c1 symmetry.

  Rotational constants: A =      0.03786  B =      0.03363  C =      0.01786 [cm^-1]
  Rotational constants: A =   1135.03829  B =   1008.27160  C =    535.28161 [MHz]
  Nuclear repulsion =  593.411028235148706

  Charge       = 0
  Multiplicity = 1
  Electrons    = 78
  Nalpha       = 39
  Nbeta        = 39

  ==> Algorithm <==

  SCF Algorithm Type is DF.
  DIIS enabled.
  MOM disabled.
  Fractional occupation disabled.
  Guess Type is SAD.
  Energy threshold   = 1.00e-08
  Density threshold  = 1.00e-08
  Integral threshold = 1.00e-12

  ==> Primary Basis <==

  Basis Set: AUG-CC-PVTZ
    Blend: AUG-CC-PVTZ
    Number of shells: 231
    Number of basis functions: 713
    Number of Cartesian functions: 835
    Spherical Harmonics?: true
    Max angular momentum: 3

   => Loading Basis Set <=

    Name: (AUG-CC-PVTZ AUX)
    Role: JKFIT
    Keyword: DF_BASIS_SCF
    atoms 1, 5, 9, 11-12     entry N          line   224 file /opt/anaconda/envs/psi4v1.5/share/psi4/basis/aug-cc-pvtz-jkfit.gbs 
    atoms 2, 4, 14-16, 18-19 entry H          line    70 file /opt/anaconda/envs/psi4v1.5/share/psi4/basis/aug-cc-pvtz-jkfit.gbs 
    atoms 3, 6-7, 10, 13     entry C          line   162 file /opt/anaconda/envs/psi4v1.5/share/psi4/basis/aug-cc-pvtz-jkfit.gbs 
    atoms 8, 17              entry O          line   286 file /opt/anaconda/envs/psi4v1.5/share/psi4/basis/aug-cc-pvtz-jkfit.gbs 

  ==> Integral Setup <==

  ==> DiskDFJK: Density-Fitted J/K Matrices <==

    J tasked:                  Yes
    K tasked:                  Yes
    wK tasked:                  No
    OpenMP threads:              8
    Integrals threads:           8
    Memory [MiB]:            35762
    Algorithm:                Core
    Integral Cache:           LOAD
    Schwarz Cutoff:          1E-12
    Fitting Condition:       1E-10

   => Auxiliary Basis Set <=

  Basis Set: (AUG-CC-PVTZ AUX)
    Blend: AUG-CC-PVTZ-JKFIT
    Number of shells: 458
    Number of basis functions: 1570
    Number of Cartesian functions: 1957
    Spherical Harmonics?: true
    Max angular momentum: 4

  Minimum eigenvalue in the overlap matrix is 1.4550313208E-06.
  Reciprocal condition number of the overlap matrix is 7.8497468399E-08.
    Using symmetric orthogonalization.

  ==> Pre-Iterations <==

  SCF Guess: Superposition of Atomic Densities via on-the-fly atomic UHF (no occupation information).

   -------------------------
    Irrep   Nso     Nmo    
   -------------------------
     A        713     713 
   -------------------------
    Total     713     713
   -------------------------

  ==> Iterations <==

                           Total Energy        Delta E     RMS |[F,P]|

   @DF-RHF iter SAD:  -539.29440646338992   -5.39294e+02   0.00000e+00 
   @DF-RHF iter   1:  -539.27935867772396    1.50478e-02   1.11132e-03 DIIS
   @DF-RHF iter   2:  -539.50238847771436   -2.23030e-01   6.56171e-04 DIIS
   @DF-RHF iter   3:  -539.58030164642980   -7.79132e-02   1.36812e-04 DIIS
   @DF-RHF iter   4:  -539.58535693612191   -5.05529e-03   5.68094e-05 DIIS
   @DF-RHF iter   5:  -539.58633417478040   -9.77239e-04   1.18113e-05 DIIS
   @DF-RHF iter   6:  -539.58643605197028   -1.01877e-04   6.16948e-06 DIIS
   @DF-RHF iter   7:  -539.58646208478854   -2.60328e-05   2.58481e-06 DIIS
   @DF-RHF iter   8:  -539.58646708234130   -4.99755e-06   9.10247e-07 DIIS
   @DF-RHF iter   9:  -539.58646767354981   -5.91209e-07   3.53836e-07 DIIS
   @DF-RHF iter  10:  -539.58646777524052   -1.01691e-07   1.39967e-07 DIIS
   @DF-RHF iter  11:  -539.58646778971354   -1.44730e-08   4.96401e-08 DIIS
   @DF-RHF iter  12:  -539.58646779147853   -1.76499e-09   1.80741e-08 DIIS
   @DF-RHF iter  13:  -539.58646779170999   -2.31466e-10   7.64017e-09 DIIS
  Energy and wave function converged.


  ==> Post-Iterations <==

    Orbital Energies [Eh]
    ---------------------

    Doubly Occupied:                                                      

       1A    -20.525170     2A    -15.638326     3A    -15.631013  
       4A    -15.612638     5A    -15.572192     6A    -15.566119  
       7A    -11.397782     8A    -11.368786     9A    -11.326697  
      10A    -11.315373    11A    -11.251402    12A     -1.393644  
      13A     -1.361965    14A     -1.335750    15A     -1.220239  
      16A     -1.215663    17A     -1.178323    18A     -1.031089  
      19A     -0.906123    20A     -0.883979    21A     -0.846324  
      22A     -0.797935    23A     -0.740082    24A     -0.730853  
      25A     -0.700165    26A     -0.672688    27A     -0.656418  
      28A     -0.632920    29A     -0.614709    30A     -0.601352  
      31A     -0.597292    32A     -0.548223    33A     -0.498918  
      34A     -0.461604    35A     -0.443274    36A     -0.433275  
      37A     -0.431986    38A     -0.412828    39A     -0.302496  

    Virtual:                                                              

      40A      0.015345    41A      0.021401    42A      0.034380  
      43A      0.042481    44A      0.045242    45A      0.054260  
      46A      0.064974    47A      0.078558    48A      0.080942  
      49A      0.084769    50A      0.087668    51A      0.097302  
      52A      0.102129    53A      0.107658    54A      0.115481  
      55A      0.116199    56A      0.118601    57A      0.123107  
      58A      0.127037    59A      0.130909    60A      0.132028  
      61A      0.135503    62A      0.139942    63A      0.149054  
      64A      0.153547    65A      0.154110    66A      0.161600  
      67A      0.164952    68A      0.175421    69A      0.176570  
      70A      0.182391    71A      0.183128    72A      0.190971  
      73A      0.195979    74A      0.199686    75A      0.209174  
      76A      0.211593    77A      0.216543    78A      0.222076  
      79A      0.229482    80A      0.231563    81A      0.233943  
      82A      0.236548    83A      0.241979    84A      0.257529  
      85A      0.265204    86A      0.272487    87A      0.275346  
      88A      0.281463    89A      0.285402    90A      0.290919  
      91A      0.295716    92A      0.299668    93A      0.303247  
      94A      0.307684    95A      0.311564    96A      0.315270  
      97A      0.320116    98A      0.325927    99A      0.332663  
     100A      0.336077   101A      0.344496   102A      0.347694  
     103A      0.358254   104A      0.359264   105A      0.362301  
     106A      0.368906   107A      0.372973   108A      0.374367  
     109A      0.378487   110A      0.380501   111A      0.381382  
     112A      0.392923   113A      0.396472   114A      0.399114  
     115A      0.404400   116A      0.409078   117A      0.411971  
     118A      0.424840   119A      0.431682   120A      0.432627  
     121A      0.439287   122A      0.447962   123A      0.451026  
     124A      0.456175   125A      0.464673   126A      0.467092  
     127A      0.471271   128A      0.480621   129A      0.484571  
     130A      0.489862   131A      0.493068   132A      0.501035  
     133A      0.501873   134A      0.506849   135A      0.510024  
     136A      0.519093   137A      0.523702   138A      0.528458  
     139A      0.531950   140A      0.541019   141A      0.544561  
     142A      0.547843   143A      0.552429   144A      0.560068  
     145A      0.562552   146A      0.569596   147A      0.581108  
     148A      0.591360   149A      0.597771   150A      0.604383  
     151A      0.615870   152A      0.620790   153A      0.624472  
     154A      0.630004   155A      0.643232   156A      0.651616  
     157A      0.654917   158A      0.657024   159A      0.662806  
     160A      0.671603   161A      0.676151   162A      0.683284  
     163A      0.691042   164A      0.699926   165A      0.703158  
     166A      0.709304   167A      0.729264   168A      0.733037  
     169A      0.738306   170A      0.746291   171A      0.750889  
     172A      0.756969   173A      0.758709   174A      0.767904  
     175A      0.777133   176A      0.778756   177A      0.783273  
     178A      0.789577   179A      0.790897   180A      0.804092  
     181A      0.813037   182A      0.816721   183A      0.831927  
     184A      0.834298   185A      0.842306   186A      0.849116  
     187A      0.854206   188A      0.857996   189A      0.861999  
     190A      0.868249   191A      0.869678   192A      0.879342  
     193A      0.883986   194A      0.888989   195A      0.898957  
     196A      0.902383   197A      0.910045   198A      0.914758  
     199A      0.920181   200A      0.929319   201A      0.937890  
     202A      0.939981   203A      0.945715   204A      0.945882  
     205A      0.959759   206A      0.961976   207A      0.964937  
     208A      0.981455   209A      0.983309   210A      0.993159  
     211A      0.997959   212A      1.005583   213A      1.005748  
     214A      1.012974   215A      1.020326   216A      1.026769  
     217A      1.030375   218A      1.038314   219A      1.044732  
     220A      1.046277   221A      1.053086   222A      1.057656  
     223A      1.063209   224A      1.071996   225A      1.075854  
     226A      1.079571   227A      1.087928   228A      1.092837  
     229A      1.097436   230A      1.108012   231A      1.109928  
     232A      1.117466   233A      1.123353   234A      1.129596  
     235A      1.134855   236A      1.137014   237A      1.152407  
     238A      1.164340   239A      1.168962   240A      1.172352  
     241A      1.175982   242A      1.188100   243A      1.193330  
     244A      1.201601   245A      1.206798   246A      1.209960  
     247A      1.219417   248A      1.230030   249A      1.232350  
     250A      1.239589   251A      1.251301   252A      1.253753  
     253A      1.255574   254A      1.263847   255A      1.278370  
     256A      1.279550   257A      1.292528   258A      1.301634  
     259A      1.312627   260A      1.318013   261A      1.323395  
     262A      1.326092   263A      1.343030   264A      1.347790  
     265A      1.360454   266A      1.363563   267A      1.367171  
     268A      1.376088   269A      1.384769   270A      1.389586  
     271A      1.393707   272A      1.397005   273A      1.408957  
     274A      1.410862   275A      1.418279   276A      1.429680  
     277A      1.436974   278A      1.449385   279A      1.455112  
     280A      1.458976   281A      1.466668   282A      1.476309  
     283A      1.484864   284A      1.487509   285A      1.496498  
     286A      1.508199   287A      1.511068   288A      1.517985  
     289A      1.525051   290A      1.538386   291A      1.546122  
     292A      1.556212   293A      1.568089   294A      1.572368  
     295A      1.578922   296A      1.583023   297A      1.589139  
     298A      1.601909   299A      1.612800   300A      1.624918  
     301A      1.631063   302A      1.639068   303A      1.648250  
     304A      1.652888   305A      1.667570   306A      1.677128  
     307A      1.686232   308A      1.687461   309A      1.700265  
     310A      1.710487   311A      1.721302   312A      1.723538  
     313A      1.737023   314A      1.750480   315A      1.754875  
     316A      1.764795   317A      1.772122   318A      1.784406  
     319A      1.789971   320A      1.797979   321A      1.811258  
     322A      1.830394   323A      1.839569   324A      1.842831  
     325A      1.848797   326A      1.867847   327A      1.880716  
     328A      1.889335   329A      1.892214   330A      1.914261  
     331A      1.921602   332A      1.926349   333A      1.945015  
     334A      1.955039   335A      1.966700   336A      1.970397  
     337A      1.973256   338A      1.981887   339A      1.992411  
     340A      2.006741   341A      2.012705   342A      2.031406  
     343A      2.049417   344A      2.057153   345A      2.061892  
     346A      2.075793   347A      2.090861   348A      2.098681  
     349A      2.104989   350A      2.115396   351A      2.132344  
     352A      2.138365   353A      2.146469   354A      2.158523  
     355A      2.173266   356A      2.193038   357A      2.197729  
     358A      2.205678   359A      2.218028   360A      2.222874  
     361A      2.229999   362A      2.238267   363A      2.259544  
     364A      2.259894   365A      2.283778   366A      2.303034  
     367A      2.308638   368A      2.316622   369A      2.325943  
     370A      2.330655   371A      2.344195   372A      2.350715  
     373A      2.357030   374A      2.368054   375A      2.374073  
     376A      2.381913   377A      2.395358   378A      2.411764  
     379A      2.427735   380A      2.432277   381A      2.436465  
     382A      2.456925   383A      2.464128   384A      2.470021  
     385A      2.482020   386A      2.492916   387A      2.507403  
     388A      2.512457   389A      2.517346   390A      2.532375  
     391A      2.539793   392A      2.546577   393A      2.558762  
     394A      2.580041   395A      2.584498   396A      2.598475  
     397A      2.605720   398A      2.614556   399A      2.634106  
     400A      2.638196   401A      2.654776   402A      2.663071  
     403A      2.680494   404A      2.696445   405A      2.703898  
     406A      2.721088   407A      2.721409   408A      2.733043  
     409A      2.747676   410A      2.755642   411A      2.763468  
     412A      2.769780   413A      2.770349   414A      2.792684  
     415A      2.811562   416A      2.827157   417A      2.836960  
     418A      2.850108   419A      2.868053   420A      2.877105  
     421A      2.888005   422A      2.898651   423A      2.918653  
     424A      2.936981   425A      2.964396   426A      2.973656  
     427A      2.997359   428A      3.013841   429A      3.027225  
     430A      3.035924   431A      3.058726   432A      3.072808  
     433A      3.074602   434A      3.106019   435A      3.117468  
     436A      3.129656   437A      3.136235   438A      3.170101  
     439A      3.186704   440A      3.205569   441A      3.220801  
     442A      3.239611   443A      3.258177   444A      3.274640  
     445A      3.296476   446A      3.304901   447A      3.325619  
     448A      3.361158   449A      3.379067   450A      3.388629  
     451A      3.416624   452A      3.431916   453A      3.435554  
     454A      3.445415   455A      3.462099   456A      3.487780  
     457A      3.526927   458A      3.534165   459A      3.540525  
     460A      3.548604   461A      3.568992   462A      3.603837  
     463A      3.617016   464A      3.629728   465A      3.651235  
     466A      3.669819   467A      3.672099   468A      3.683325  
     469A      3.696657   470A      3.703428   471A      3.715104  
     472A      3.722895   473A      3.730400   474A      3.759613  
     475A      3.763492   476A      3.781311   477A      3.795789  
     478A      3.817210   479A      3.824635   480A      3.838853  
     481A      3.840625   482A      3.854902   483A      3.870717  
     484A      3.877679   485A      3.902402   486A      3.907748  
     487A      3.916789   488A      3.920977   489A      3.947414  
     490A      3.959615   491A      3.974609   492A      3.985491  
     493A      4.007549   494A      4.016033   495A      4.026329  
     496A      4.046202   497A      4.070036   498A      4.074997  
     499A      4.083297   500A      4.099034   501A      4.128079  
     502A      4.142778   503A      4.161187   504A      4.168207  
     505A      4.177541   506A      4.198990   507A      4.201983  
     508A      4.219577   509A      4.228731   510A      4.239058  
     511A      4.244769   512A      4.253711   513A      4.263880  
     514A      4.276844   515A      4.290519   516A      4.305070  
     517A      4.312685   518A      4.326997   519A      4.335338  
     520A      4.347875   521A      4.361049   522A      4.375481  
     523A      4.377799   524A      4.389074   525A      4.402376  
     526A      4.420702   527A      4.434429   528A      4.449306  
     529A      4.471184   530A      4.483770   531A      4.497795  
     532A      4.504174   533A      4.523961   534A      4.545569  
     535A      4.553496   536A      4.560450   537A      4.579395  
     538A      4.583592   539A      4.604831   540A      4.612107  
     541A      4.628598   542A      4.639611   543A      4.659474  
     544A      4.672252   545A      4.682345   546A      4.706549  
     547A      4.732261   548A      4.740685   549A      4.761085  
     550A      4.774903   551A      4.792514   552A      4.815127  
     553A      4.837943   554A      4.850401   555A      4.857158  
     556A      4.869908   557A      4.883650   558A      4.902667  
     559A      4.913492   560A      4.918863   561A      4.934625  
     562A      4.954388   563A      4.976292   564A      5.005768  
     565A      5.012374   566A      5.032283   567A      5.041085  
     568A      5.061922   569A      5.077577   570A      5.110134  
     571A      5.158716   572A      5.172508   573A      5.185148  
     574A      5.187030   575A      5.202248   576A      5.212293  
     577A      5.217514   578A      5.236224   579A      5.262588  
     580A      5.277972   581A      5.283343   582A      5.300378  
     583A      5.336722   584A      5.354195   585A      5.359734  
     586A      5.386304   587A      5.420552   588A      5.439954  
     589A      5.454674   590A      5.474765   591A      5.488832  
     592A      5.509206   593A      5.513141   594A      5.522263  
     595A      5.558650   596A      5.567827   597A      5.573181  
     598A      5.591350   599A      5.613161   600A      5.633245  
     601A      5.638006   602A      5.655338   603A      5.671432  
     604A      5.680615   605A      5.685221   606A      5.697485  
     607A      5.720186   608A      5.730351   609A      5.755989  
     610A      5.760499   611A      5.768391   612A      5.791514  
     613A      5.800457   614A      5.850217   615A      5.855440  
     616A      5.865020   617A      5.892266   618A      5.901398  
     619A      5.916901   620A      5.929692   621A      5.945733  
     622A      5.968205   623A      5.978198   624A      5.988230  
     625A      6.006182   626A      6.036003   627A      6.037887  
     628A      6.059134   629A      6.079019   630A      6.109255  
     631A      6.124953   632A      6.143972   633A      6.158892  
     634A      6.184927   635A      6.203623   636A      6.228061  
     637A      6.243229   638A      6.259209   639A      6.269869  
     640A      6.312965   641A      6.330431   642A      6.378056  
     643A      6.445283   644A      6.452018   645A      6.533888  
     646A      6.556595   647A      6.590786   648A      6.610688  
     649A      6.629336   650A      6.692316   651A      6.696761  
     652A      6.714173   653A      6.717884   654A      6.733871  
     655A      6.767365   656A      6.782622   657A      6.824889  
     658A      6.846366   659A      6.870726   660A      6.954714  
     661A      6.987906   662A      7.008912   663A      7.030365  
     664A      7.075520   665A      7.092473   666A      7.126706  
     667A      7.193377   668A      7.203887   669A      7.220479  
     670A      7.238881   671A      7.286625   672A      7.309967  
     673A      7.386882   674A      7.415334   675A      7.441900  
     676A      7.461015   677A      7.490911   678A      7.669899  
     679A      7.729830   680A      7.770770   681A      7.823060  
     682A      7.859749   683A      7.900645   684A      7.926705  
     685A      7.992912   686A      8.007471   687A      8.050136  
     688A      8.243745   689A      8.299791   690A      8.550996  
     691A      8.847746   692A      9.075950   693A      9.927059  
     694A     10.243905   695A     10.279621   696A     10.518394  
     697A     11.251810   698A     12.200178   699A     12.584073  
     700A     13.729346   701A     14.086658   702A     16.155478  
     703A     16.367119   704A     16.550765   705A     17.571597  
     706A     17.976264   707A     18.610199   708A     19.208245  
     709A     19.492365   710A     20.135688   711A     21.025039  
     712A     21.529883   713A     68.544984  

    Final Occupation by Irrep:
              A 
    DOCC [    39 ]

  @DF-RHF Final Energy:  -539.58646779170999

   => Energetics <=

    Nuclear Repulsion Energy =            593.4110282351487058
    One-Electron Energy =               -1912.2837618225485130
    Two-Electron Energy =                 779.2862657956898147
    Total Energy =                       -539.5864677917099925

Computation Completed


Properties will be evaluated at   0.000000,   0.000000,   0.000000 [a0]

Properties computed using the SCF density matrix

  Nuclear Dipole Moment: [e a0]
     X:   -53.6318      Y:   -12.1231      Z:    -0.7621

  Electronic Dipole Moment: [e a0]
     X:    55.4183      Y:    14.2163      Z:     0.3323

  Dipole Moment: [e a0]
     X:     1.7865      Y:     2.0932      Z:    -0.4299     Total:     2.7853

  Dipole Moment: [D]
     X:     4.5409      Y:     5.3204      Z:    -1.0926     Total:     7.0795


*** tstop() called on node111.bme.utexas.edu at Fri Mar 29 15:50:50 2024
Module time:
	user time   =     336.67 seconds =       5.61 minutes
	system time =       2.18 seconds =       0.04 minutes
	total time  =         46 seconds =       0.77 minutes
Total time:
	user time   =     749.29 seconds =      12.49 minutes
	system time =       6.25 seconds =       0.10 minutes
	total time  =        105 seconds =       1.75 minutes

*** tstart() called on node111.bme.utexas.edu
*** at Fri Mar 29 15:50:50 2024


  //>>>>>>>>>>>>>>>>>>>>>>>>>>>>>>>>>>>//
  //               DFMP2               //
  //<<<<<<<<<<<<<<<<<<<<<<<<<<<<<<<<<<<//

   => Loading Basis Set <=

    Name: (AUG-CC-PVTZ AUX)
    Role: RIFIT
    Keyword: DF_BASIS_MP2
    atoms 1, 5, 9, 11-12     entry N          line   206 file /opt/anaconda/envs/psi4v1.5/share/psi4/basis/aug-cc-pvtz-ri.gbs 
    atoms 2, 4, 14-16, 18-19 entry H          line    30 file /opt/anaconda/envs/psi4v1.5/share/psi4/basis/aug-cc-pvtz-ri.gbs 
    atoms 3, 6-7, 10, 13     entry C          line   148 file /opt/anaconda/envs/psi4v1.5/share/psi4/basis/aug-cc-pvtz-ri.gbs 
    atoms 8, 17              entry O          line   264 file /opt/anaconda/envs/psi4v1.5/share/psi4/basis/aug-cc-pvtz-ri.gbs 

	 --------------------------------------------------------
	                          DF-MP2                         
	      2nd-Order Density-Fitted Moller-Plesset Theory     
	              RMP2 Wavefunction,   8 Threads             
	                                                         
	        Rob Parrish, Justin Turney, Andy Simmonett,      
	           Ed Hohenstein, and C. David Sherrill          
	 --------------------------------------------------------

   => Auxiliary Basis Set <=

  Basis Set: (AUG-CC-PVTZ AUX)
    Blend: AUG-CC-PVTZ-RI
    Number of shells: 434
    Number of basis functions: 1594
    Number of Cartesian functions: 2017
    Spherical Harmonics?: true
    Max angular momentum: 4

	 --------------------------------------------------------
	                 NBF =   713, NAUX =  1594
	 --------------------------------------------------------
	   CLASS    FOCC     OCC    AOCC    AVIR     VIR    FVIR
	   PAIRS      11      39      28     674     674       0
	 --------------------------------------------------------

	 Will attempt to load fitting metric from file 97.

	-----------------------------------------------------------
	 ==================> DF-MP2 Energies <==================== 
	-----------------------------------------------------------
	 Reference Energy          =    -539.5864677917099925 [Eh]
	 Singles Energy            =      -0.0000000000000000 [Eh]
	 Same-Spin Energy          =      -0.5423957363146046 [Eh]
	 Opposite-Spin Energy      =      -1.4987467455902195 [Eh]
	 Correlation Energy        =      -2.0411424819048243 [Eh]
	 Total Energy              =    -541.6276102736147777 [Eh]
	-----------------------------------------------------------
	 ================> DF-SCS-MP2 Energies <================== 
	-----------------------------------------------------------
	 SCS Same-Spin Scale       =       0.3333333333333333 [-]
	 SCS Opposite-Spin Scale   =       1.2000000000000000 [-]
	 SCS Same-Spin Energy      =      -0.1807985787715349 [Eh]
	 SCS Opposite-Spin Energy  =      -1.7984960947082633 [Eh]
	 SCS Correlation Energy    =      -1.9792946734797983 [Eh]
	 SCS Total Energy          =    -541.5657624651897777 [Eh]
	-----------------------------------------------------------


*** tstop() called on node111.bme.utexas.edu at Fri Mar 29 15:51:01 2024
Module time:
	user time   =      62.57 seconds =       1.04 minutes
	system time =       1.00 seconds =       0.02 minutes
	total time  =         11 seconds =       0.18 minutes
Total time:
	user time   =     811.87 seconds =      13.53 minutes
	system time =       7.25 seconds =       0.12 minutes
	total time  =        116 seconds =       1.93 minutes

  //>>>>>>>>>>>>>>>>>>>>>>>>>>>>>>>>>>>//
  //            Monomer B HF           //
  //<<<<<<<<<<<<<<<<<<<<<<<<<<<<<<<<<<<//


*** tstart() called on node111.bme.utexas.edu
*** at Fri Mar 29 15:51:01 2024

   => Loading Basis Set <=

    Name: AUG-CC-PVTZ
    Role: ORBITAL
    Keyword: BASIS
    atoms 1, 5, 9, 11-12     entry N          line   285 file /opt/anaconda/envs/psi4v1.5/share/psi4/basis/aug-cc-pvtz.gbs 
    atoms 2, 4, 14-16, 18-19 entry H          line    40 file /opt/anaconda/envs/psi4v1.5/share/psi4/basis/aug-cc-pvtz.gbs 
    atoms 3, 6-7, 10, 13     entry C          line   239 file /opt/anaconda/envs/psi4v1.5/share/psi4/basis/aug-cc-pvtz.gbs 
    atoms 8, 17              entry O          line   331 file /opt/anaconda/envs/psi4v1.5/share/psi4/basis/aug-cc-pvtz.gbs 


         ---------------------------------------------------------
                                   SCF
               by Justin Turney, Rob Parrish, Andy Simmonett
                          and Daniel G. A. Smith
                              RHF Reference
                        8 Threads,  47683 MiB Core
         ---------------------------------------------------------

  ==> Geometry <==

    Molecular point group: c1
    Full point group: C1

    Geometry (in Angstrom), charge = 0, multiplicity = 1:

       Center              X                  Y                   Z               Mass       
    ------------   -----------------  -----------------  -----------------  -----------------
      Gh(N)           1.711673721577    -1.071777074962    -0.035789310083    14.003074004430
      Gh(H)           2.676823721577    -0.728497074962    -0.049879310083     1.007825032230
      Gh(C)           1.213513721577    -2.349147074962    -0.029149310083    12.000000000000
      Gh(H)           1.862243721577    -3.215407074962    -0.040029310083     1.007825032230
      Gh(N)          -0.112696278423    -2.394327074962    -0.008669310083    14.003074004430
      Gh(C)          -0.483516278423    -1.069227074962    -0.005599310083    12.000000000000
      Gh(C)          -1.797366278423    -0.479307074962     0.028840689917    12.000000000000
      Gh(O)          -2.911346278423    -0.985327074962     0.070070689917    15.994914619570
      Gh(N)          -1.668016278423     0.949882925038     0.019410689917    14.003074004430
      Gh(C)          -0.508806278423     1.677992925038    -0.017649310083    12.000000000000
      Gh(N)          -0.648696278423     3.055032925038     0.049070689917    14.003074004430
      Gh(N)           0.686493721577     1.137692925038    -0.039869310083    14.003074004430
      Gh(C)           0.632173721577    -0.233967074962    -0.016169310083    12.000000000000
      Gh(H)          -2.557186278423     1.433692925038     0.122550689917     1.007825032230
      Gh(H)          -1.415976278423     3.437242925038    -0.494269310083     1.007825032230
      Gh(H)           0.226843721577     3.526732925038    -0.152949310083     1.007825032230
         O            3.226951846577     0.919922508372    -0.034224205916    15.994914619570
         H            3.535961846577     1.179602508372     0.847915794084     1.007825032230
         H            2.336541846577     1.325962508372    -0.109054205916     1.007825032230

  Running in c1 symmetry.

  Rotational constants: A =      0.03786  B =      0.03363  C =      0.01786 [cm^-1]
  Rotational constants: A =   1135.03829  B =   1008.27160  C =    535.28161 [MHz]
  Nuclear repulsion =    9.020530614828118

  Charge       = 0
  Multiplicity = 1
  Electrons    = 10
  Nalpha       = 5
  Nbeta        = 5

  ==> Algorithm <==

  SCF Algorithm Type is DF.
  DIIS enabled.
  MOM disabled.
  Fractional occupation disabled.
  Guess Type is SAD.
  Energy threshold   = 1.00e-08
  Density threshold  = 1.00e-08
  Integral threshold = 1.00e-12

  ==> Primary Basis <==

  Basis Set: AUG-CC-PVTZ
    Blend: AUG-CC-PVTZ
    Number of shells: 231
    Number of basis functions: 713
    Number of Cartesian functions: 835
    Spherical Harmonics?: true
    Max angular momentum: 3

   => Loading Basis Set <=

    Name: (AUG-CC-PVTZ AUX)
    Role: JKFIT
    Keyword: DF_BASIS_SCF
    atoms 1, 5, 9, 11-12     entry N          line   224 file /opt/anaconda/envs/psi4v1.5/share/psi4/basis/aug-cc-pvtz-jkfit.gbs 
    atoms 2, 4, 14-16, 18-19 entry H          line    70 file /opt/anaconda/envs/psi4v1.5/share/psi4/basis/aug-cc-pvtz-jkfit.gbs 
    atoms 3, 6-7, 10, 13     entry C          line   162 file /opt/anaconda/envs/psi4v1.5/share/psi4/basis/aug-cc-pvtz-jkfit.gbs 
    atoms 8, 17              entry O          line   286 file /opt/anaconda/envs/psi4v1.5/share/psi4/basis/aug-cc-pvtz-jkfit.gbs 

  ==> Integral Setup <==

  ==> DiskDFJK: Density-Fitted J/K Matrices <==

    J tasked:                  Yes
    K tasked:                  Yes
    wK tasked:                  No
    OpenMP threads:              8
    Integrals threads:           8
    Memory [MiB]:            35762
    Algorithm:                Core
    Integral Cache:           LOAD
    Schwarz Cutoff:          1E-12
    Fitting Condition:       1E-10

   => Auxiliary Basis Set <=

  Basis Set: (AUG-CC-PVTZ AUX)
    Blend: AUG-CC-PVTZ-JKFIT
    Number of shells: 458
    Number of basis functions: 1570
    Number of Cartesian functions: 1957
    Spherical Harmonics?: true
    Max angular momentum: 4

  Minimum eigenvalue in the overlap matrix is 1.4550313208E-06.
  Reciprocal condition number of the overlap matrix is 7.8497468399E-08.
    Using symmetric orthogonalization.

  ==> Pre-Iterations <==

  SCF Guess: Superposition of Atomic Densities via on-the-fly atomic UHF (no occupation information).

   -------------------------
    Irrep   Nso     Nmo    
   -------------------------
     A        713     713 
   -------------------------
    Total     713     713
   -------------------------

  ==> Iterations <==

                           Total Energy        Delta E     RMS |[F,P]|

   @DF-RHF iter SAD:   -75.45663029150965   -7.54566e+01   0.00000e+00 
   @DF-RHF iter   1:   -75.97377171566822   -5.17141e-01   6.55266e-04 DIIS
   @DF-RHF iter   2:   -76.02574960729126   -5.19779e-02   4.54978e-04 DIIS
   @DF-RHF iter   3:   -76.05844428895134   -3.26947e-02   3.10212e-05 DIIS
   @DF-RHF iter   4:   -76.05885703806182   -4.12749e-04   7.70805e-06 DIIS
   @DF-RHF iter   5:   -76.05888518073219   -2.81427e-05   1.77811e-06 DIIS
   @DF-RHF iter   6:   -76.05888754499702   -2.36426e-06   3.91171e-07 DIIS
   @DF-RHF iter   7:   -76.05888766980244   -1.24805e-07   6.97974e-08 DIIS
   @DF-RHF iter   8:   -76.05888767326574   -3.46330e-09   1.19601e-08 DIIS
   @DF-RHF iter   9:   -76.05888767334696   -8.12150e-11   3.02802e-09 DIIS
  Energy and wave function converged.


  ==> Post-Iterations <==

    Orbital Energies [Eh]
    ---------------------

    Doubly Occupied:                                                      

       1A    -20.570255     2A     -1.344200     3A     -0.707297  
       4A     -0.581578     5A     -0.508876  

    Virtual:                                                              

       6A      0.014561     7A      0.028746     8A      0.031625  
       9A      0.042738    10A      0.051401    11A      0.053386  
      12A      0.058940    13A      0.067562    14A      0.073081  
      15A      0.077581    16A      0.079581    17A      0.087802  
      18A      0.094970    19A      0.099287    20A      0.100044  
      21A      0.108048    22A      0.119829    23A      0.123326  
      24A      0.127639    25A      0.133429    26A      0.135692  
      27A      0.136251    28A      0.142658    29A      0.145395  
      30A      0.158093    31A      0.161595    32A      0.163602  
      33A      0.167651    34A      0.170780    35A      0.178579  
      36A      0.180935    37A      0.185921    38A      0.190171  
      39A      0.196371    40A      0.200006    41A      0.204969  
      42A      0.208824    43A      0.210864    44A      0.216720  
      45A      0.223251    46A      0.230734    47A      0.234432  
      48A      0.239211    49A      0.253329    50A      0.253673  
      51A      0.261435    52A      0.267816    53A      0.276154  
      54A      0.280754    55A      0.284679    56A      0.287870  
      57A      0.292537    58A      0.298838    59A      0.302243  
      60A      0.305364    61A      0.310185    62A      0.312870  
      63A      0.323361    64A      0.328296    65A      0.337674  
      66A      0.338719    67A      0.349013    68A      0.359565  
      69A      0.364971    70A      0.368070    71A      0.373653  
      72A      0.380510    73A      0.384482    74A      0.389487  
      75A      0.395184    76A      0.401128    77A      0.402067  
      78A      0.405506    79A      0.410422    80A      0.415604  
      81A      0.421579    82A      0.425515    83A      0.426879  
      84A      0.431516    85A      0.436227    86A      0.439812  
      87A      0.448909    88A      0.450321    89A      0.457123  
      90A      0.461857    91A      0.464258    92A      0.467490  
      93A      0.477876    94A      0.485229    95A      0.486220  
      96A      0.496060    97A      0.501770    98A      0.504851  
      99A      0.507838   100A      0.513983   101A      0.521420  
     102A      0.527284   103A      0.531324   104A      0.543654  
     105A      0.555286   106A      0.559121   107A      0.571996  
     108A      0.581232   109A      0.583658   110A      0.596655  
     111A      0.605668   112A      0.607718   113A      0.610209  
     114A      0.631120   115A      0.634420   116A      0.650397  
     117A      0.658379   118A      0.659354   119A      0.663049  
     120A      0.670457   121A      0.680950   122A      0.690961  
     123A      0.693805   124A      0.698766   125A      0.706938  
     126A      0.722204   127A      0.724300   128A      0.735716  
     129A      0.750877   130A      0.754809   131A      0.758617  
     132A      0.761126   133A      0.766998   134A      0.776063  
     135A      0.785078   136A      0.786470   137A      0.795252  
     138A      0.803739   139A      0.809621   140A      0.814725  
     141A      0.819066   142A      0.824822   143A      0.827994  
     144A      0.835290   145A      0.835660   146A      0.837947  
     147A      0.841932   148A      0.845130   149A      0.848761  
     150A      0.856460   151A      0.861541   152A      0.863713  
     153A      0.876625   154A      0.884883   155A      0.890412  
     156A      0.895666   157A      0.898352   158A      0.902950  
     159A      0.915091   160A      0.921092   161A      0.924938  
     162A      0.926820   163A      0.935254   164A      0.942831  
     165A      0.948592   166A      0.950081   167A      0.960299  
     168A      0.965621   169A      0.971067   170A      0.980878  
     171A      0.986428   172A      0.996036   173A      0.997234  
     174A      1.011981   175A      1.014364   176A      1.027482  
     177A      1.034247   178A      1.035697   179A      1.040680  
     180A      1.050443   181A      1.053106   182A      1.065214  
     183A      1.072923   184A      1.077071   185A      1.084749  
     186A      1.091892   187A      1.101711   188A      1.108121  
     189A      1.113853   190A      1.122877   191A      1.128167  
     192A      1.134561   193A      1.138240   194A      1.146178  
     195A      1.153865   196A      1.156487   197A      1.165017  
     198A      1.174343   199A      1.178659   200A      1.184566  
     201A      1.195943   202A      1.202827   203A      1.205052  
     204A      1.219185   205A      1.222241   206A      1.233631  
     207A      1.243614   208A      1.246040   209A      1.257624  
     210A      1.261537   211A      1.270924   212A      1.281947  
     213A      1.289047   214A      1.309217   215A      1.312206  
     216A      1.318792   217A      1.329481   218A      1.341659  
     219A      1.345706   220A      1.354227   221A      1.361184  
     222A      1.374220   223A      1.377024   224A      1.382134  
     225A      1.390835   226A      1.397993   227A      1.411458  
     228A      1.423951   229A      1.428394   230A      1.438637  
     231A      1.447255   232A      1.460765   233A      1.471194  
     234A      1.475890   235A      1.496683   236A      1.499944  
     237A      1.508409   238A      1.515975   239A      1.520881  
     240A      1.533298   241A      1.535217   242A      1.549561  
     243A      1.563088   244A      1.565337   245A      1.576317  
     246A      1.585244   247A      1.596483   248A      1.600740  
     249A      1.606261   250A      1.612842   251A      1.618362  
     252A      1.634560   253A      1.646389   254A      1.652802  
     255A      1.671012   256A      1.679110   257A      1.685843  
     258A      1.689208   259A      1.691679   260A      1.701849  
     261A      1.704987   262A      1.714131   263A      1.719584  
     264A      1.730523   265A      1.737376   266A      1.739564  
     267A      1.742984   268A      1.746615   269A      1.752056  
     270A      1.753760   271A      1.759583   272A      1.768104  
     273A      1.778628   274A      1.781312   275A      1.793814  
     276A      1.797296   277A      1.802426   278A      1.814483  
     279A      1.817810   280A      1.819605   281A      1.834663  
     282A      1.841446   283A      1.854639   284A      1.860007  
     285A      1.877254   286A      1.883978   287A      1.902343  
     288A      1.913153   289A      1.918794   290A      1.924731  
     291A      1.933645   292A      1.942913   293A      1.956778  
     294A      1.960566   295A      1.974855   296A      1.976111  
     297A      1.993205   298A      2.005025   299A      2.017668  
     300A      2.027529   301A      2.035205   302A      2.041727  
     303A      2.045666   304A      2.056230   305A      2.072490  
     306A      2.078558   307A      2.086345   308A      2.095512  
     309A      2.109612   310A      2.113995   311A      2.126488  
     312A      2.140502   313A      2.154486   314A      2.165117  
     315A      2.170610   316A      2.186529   317A      2.197600  
     318A      2.229147   319A      2.232454   320A      2.243096  
     321A      2.256676   322A      2.280179   323A      2.292675  
     324A      2.302049   325A      2.319920   326A      2.333543  
     327A      2.350226   328A      2.357042   329A      2.371351  
     330A      2.380937   331A      2.386944   332A      2.393522  
     333A      2.414467   334A      2.422817   335A      2.436910  
     336A      2.448218   337A      2.461863   338A      2.484368  
     339A      2.490818   340A      2.496949   341A      2.503846  
     342A      2.511779   343A      2.525345   344A      2.527503  
     345A      2.533002   346A      2.556014   347A      2.563409  
     348A      2.580783   349A      2.584930   350A      2.604248  
     351A      2.619778   352A      2.631155   353A      2.634834  
     354A      2.657249   355A      2.662735   356A      2.676708  
     357A      2.682601   358A      2.695801   359A      2.699855  
     360A      2.711659   361A      2.719232   362A      2.726400  
     363A      2.736421   364A      2.746196   365A      2.754847  
     366A      2.770019   367A      2.777698   368A      2.790786  
     369A      2.797090   370A      2.803472   371A      2.817291  
     372A      2.825577   373A      2.834726   374A      2.846381  
     375A      2.866858   376A      2.872577   377A      2.875196  
     378A      2.884201   379A      2.906278   380A      2.912311  
     381A      2.924761   382A      2.929833   383A      2.937763  
     384A      2.947947   385A      2.966929   386A      2.971244  
     387A      2.988420   388A      2.998739   389A      3.004891  
     390A      3.028820   391A      3.034762   392A      3.038909  
     393A      3.057640   394A      3.062843   395A      3.081028  
     396A      3.087427   397A      3.095323   398A      3.103544  
     399A      3.127941   400A      3.140192   401A      3.159516  
     402A      3.172606   403A      3.183107   404A      3.189328  
     405A      3.208923   406A      3.215276   407A      3.225381  
     408A      3.243267   409A      3.257002   410A      3.272233  
     411A      3.284494   412A      3.301989   413A      3.318885  
     414A      3.339666   415A      3.363211   416A      3.389298  
     417A      3.398516   418A      3.404722   419A      3.425951  
     420A      3.448151   421A      3.477259   422A      3.509586  
     423A      3.539061   424A      3.551286   425A      3.588209  
     426A      3.628389   427A      3.681659   428A      3.699509  
     429A      3.728933   430A      3.752369   431A      3.765450  
     432A      3.786931   433A      3.871496   434A      3.894533  
     435A      3.921178   436A      3.966841   437A      4.012986  
     438A      4.017272   439A      4.060190   440A      4.083649  
     441A      4.094229   442A      4.141763   443A      4.158041  
     444A      4.165540   445A      4.185361   446A      4.189718  
     447A      4.191975   448A      4.224751   449A      4.229356  
     450A      4.241297   451A      4.274936   452A      4.288101  
     453A      4.302330   454A      4.309474   455A      4.323541  
     456A      4.369771   457A      4.401887   458A      4.425006  
     459A      4.442859   460A      4.450713   461A      4.477864  
     462A      4.491050   463A      4.508573   464A      4.524974  
     465A      4.535633   466A      4.546691   467A      4.553735  
     468A      4.566151   469A      4.570199   470A      4.589348  
     471A      4.610991   472A      4.612757   473A      4.625504  
     474A      4.646941   475A      4.655035   476A      4.663445  
     477A      4.690641   478A      4.710104   479A      4.714691  
     480A      4.734503   481A      4.743747   482A      4.763598  
     483A      4.769415   484A      4.785805   485A      4.813058  
     486A      4.821689   487A      4.832272   488A      4.849366  
     489A      4.859061   490A      4.861832   491A      4.906192  
     492A      4.909343   493A      4.916821   494A      4.927221  
     495A      4.947138   496A      4.954967   497A      4.966388  
     498A      4.977324   499A      4.987467   500A      4.997405  
     501A      4.998377   502A      5.008760   503A      5.034606  
     504A      5.041179   505A      5.047378   506A      5.067795  
     507A      5.073303   508A      5.091485   509A      5.097547  
     510A      5.130434   511A      5.135204   512A      5.150535  
     513A      5.170977   514A      5.192729   515A      5.212327  
     516A      5.218583   517A      5.235690   518A      5.241948  
     519A      5.255266   520A      5.266042   521A      5.277483  
     522A      5.297682   523A      5.311185   524A      5.330157  
     525A      5.344216   526A      5.356212   527A      5.369738  
     528A      5.399453   529A      5.402700   530A      5.406730  
     531A      5.458865   532A      5.476848   533A      5.481409  
     534A      5.518081   535A      5.540792   536A      5.551855  
     537A      5.578284   538A      5.590375   539A      5.595873  
     540A      5.623638   541A      5.674244   542A      5.683693  
     543A      5.706809   544A      5.737034   545A      5.760759  
     546A      5.772873   547A      5.806430   548A      5.823102  
     549A      5.835247   550A      5.877897   551A      5.910727  
     552A      5.928078   553A      5.949278   554A      5.979314  
     555A      5.997675   556A      6.023769   557A      6.051932  
     558A      6.112084   559A      6.174518   560A      6.199896  
     561A      6.203166   562A      6.236985   563A      6.268844  
     564A      6.290684   565A      6.325313   566A      6.335495  
     567A      6.363008   568A      6.394498   569A      6.412034  
     570A      6.447518   571A      6.467342   572A      6.482721  
     573A      6.503747   574A      6.529373   575A      6.532730  
     576A      6.546077   577A      6.553949   578A      6.557405  
     579A      6.578129   580A      6.602830   581A      6.652085  
     582A      6.694195   583A      6.699990   584A      6.729481  
     585A      6.760952   586A      6.762273   587A      6.805220  
     588A      6.812701   589A      6.835822   590A      6.863738  
     591A      6.865758   592A      6.900016   593A      6.941767  
     594A      6.943019   595A      6.973663   596A      6.983376  
     597A      7.011381   598A      7.027337   599A      7.080456  
     600A      7.113142   601A      7.187237   602A      7.215958  
     603A      7.242025   604A      7.270076   605A      7.302373  
     606A      7.337146   607A      7.355762   608A      7.397546  
     609A      7.430176   610A      7.435809   611A      7.445586  
     612A      7.460904   613A      7.500126   614A      7.532582  
     615A      7.552521   616A      7.564639   617A      7.579254  
     618A      7.579622   619A      7.586914   620A      7.610514  
     621A      7.627435   622A      7.635325   623A      7.653951  
     624A      7.709861   625A      7.713393   626A      7.725098  
     627A      7.729947   628A      7.766720   629A      7.787270  
     630A      7.819193   631A      7.858838   632A      7.881311  
     633A      7.910253   634A      7.917554   635A      7.943179  
     636A      7.948346   637A      7.960404   638A      8.001422  
     639A      8.030347   640A      8.043186   641A      8.055423  
     642A      8.103728   643A      8.121515   644A      8.175705  
     645A      8.201166   646A      8.226360   647A      8.249426  
     648A      8.311308   649A      8.338571   650A      8.384294  
     651A      8.449820   652A      8.557590   653A      8.572563  
     654A      8.621284   655A      8.716398   656A      8.754231  
     657A      8.812135   658A      8.830821   659A      8.894042  
     660A      9.013497   661A      9.058409   662A      9.087296  
     663A      9.161014   664A      9.357869   665A      9.382937  
     666A      9.407277   667A      9.523304   668A      9.581682  
     669A      9.630133   670A      9.749820   671A      9.767518  
     672A      9.869448   673A      9.918845   674A      9.965668  
     675A     10.176507   676A     10.202600   677A     10.311457  
     678A     10.418075   679A     10.541024   680A     10.601795  
     681A     10.794742   682A     11.104250   683A     11.170095  
     684A     11.286546   685A     11.395152   686A     11.465774  
     687A     11.570357   688A     11.850324   689A     12.019874  
     690A     12.038807   691A     12.051033   692A     12.092826  
     693A     12.213133   694A     12.289746   695A     12.391361  
     696A     12.637619   697A     12.817408   698A     13.048813  
     699A     13.348405   700A     13.516725   701A     14.240964  
     702A     17.517774   703A     52.014380   704A     52.684513  
     705A     53.395782   706A     54.566301   707A     56.672874  
     708A     59.756697   709A     61.679955   710A     62.258070  
     711A     64.185439   712A     65.912269   713A     69.947023  

    Final Occupation by Irrep:
              A 
    DOCC [     5 ]

  @DF-RHF Final Energy:   -76.05888767334696

   => Energetics <=

    Nuclear Repulsion Energy =              9.0205306148281181
    One-Electron Energy =                -122.7344227290768828
    Two-Electron Energy =                  37.6550044409018057
    Total Energy =                        -76.0588876733469590

Computation Completed


Properties will be evaluated at   0.000000,   0.000000,   0.000000 [a0]

Properties computed using the SCF density matrix

  Nuclear Dipole Moment: [e a0]
     X:    59.8819      Y:    18.6420      Z:     0.8789

  Electronic Dipole Moment: [e a0]
     X:   -60.2623      Y:   -18.2047      Z:    -0.3476

  Dipole Moment: [e a0]
     X:    -0.3804      Y:     0.4374      Z:     0.5313     Total:     0.7863

  Dipole Moment: [D]
     X:    -0.9669      Y:     1.1117      Z:     1.3504     Total:     1.9986


*** tstop() called on node111.bme.utexas.edu at Fri Mar 29 15:51:27 2024
Module time:
	user time   =     185.39 seconds =       3.09 minutes
	system time =       1.56 seconds =       0.03 minutes
	total time  =         26 seconds =       0.43 minutes
Total time:
	user time   =     997.29 seconds =      16.62 minutes
	system time =       8.81 seconds =       0.15 minutes
	total time  =        142 seconds =       2.37 minutes

*** tstart() called on node111.bme.utexas.edu
*** at Fri Mar 29 15:51:27 2024


  //>>>>>>>>>>>>>>>>>>>>>>>>>>>>>>>>>>>//
  //               DFMP2               //
  //<<<<<<<<<<<<<<<<<<<<<<<<<<<<<<<<<<<//

   => Loading Basis Set <=

    Name: (AUG-CC-PVTZ AUX)
    Role: RIFIT
    Keyword: DF_BASIS_MP2
    atoms 1, 5, 9, 11-12     entry N          line   206 file /opt/anaconda/envs/psi4v1.5/share/psi4/basis/aug-cc-pvtz-ri.gbs 
    atoms 2, 4, 14-16, 18-19 entry H          line    30 file /opt/anaconda/envs/psi4v1.5/share/psi4/basis/aug-cc-pvtz-ri.gbs 
    atoms 3, 6-7, 10, 13     entry C          line   148 file /opt/anaconda/envs/psi4v1.5/share/psi4/basis/aug-cc-pvtz-ri.gbs 
    atoms 8, 17              entry O          line   264 file /opt/anaconda/envs/psi4v1.5/share/psi4/basis/aug-cc-pvtz-ri.gbs 

	 --------------------------------------------------------
	                          DF-MP2                         
	      2nd-Order Density-Fitted Moller-Plesset Theory     
	              RMP2 Wavefunction,   8 Threads             
	                                                         
	        Rob Parrish, Justin Turney, Andy Simmonett,      
	           Ed Hohenstein, and C. David Sherrill          
	 --------------------------------------------------------

   => Auxiliary Basis Set <=

  Basis Set: (AUG-CC-PVTZ AUX)
    Blend: AUG-CC-PVTZ-RI
    Number of shells: 434
    Number of basis functions: 1594
    Number of Cartesian functions: 2017
    Spherical Harmonics?: true
    Max angular momentum: 4

	 --------------------------------------------------------
	                 NBF =   713, NAUX =  1594
	 --------------------------------------------------------
	   CLASS    FOCC     OCC    AOCC    AVIR     VIR    FVIR
	   PAIRS       1       5       4     708     708       0
	 --------------------------------------------------------

	 Will attempt to load fitting metric from file 97.

	-----------------------------------------------------------
	 ==================> DF-MP2 Energies <==================== 
	-----------------------------------------------------------
	 Reference Energy          =     -76.0588876733469590 [Eh]
	 Singles Energy            =      -0.0000000000000000 [Eh]
	 Same-Spin Energy          =      -0.0655852775778796 [Eh]
	 Opposite-Spin Energy      =      -0.2053047601263795 [Eh]
	 Correlation Energy        =      -0.2708900377042591 [Eh]
	 Total Energy              =     -76.3297777110512214 [Eh]
	-----------------------------------------------------------
	 ================> DF-SCS-MP2 Energies <================== 
	-----------------------------------------------------------
	 SCS Same-Spin Scale       =       0.3333333333333333 [-]
	 SCS Opposite-Spin Scale   =       1.2000000000000000 [-]
	 SCS Same-Spin Energy      =      -0.0218617591926265 [Eh]
	 SCS Opposite-Spin Energy  =      -0.2463657121516554 [Eh]
	 SCS Correlation Energy    =      -0.2682274713442819 [Eh]
	 SCS Total Energy          =     -76.3271151446912341 [Eh]
	-----------------------------------------------------------


*** tstop() called on node111.bme.utexas.edu at Fri Mar 29 15:51:34 2024
Module time:
	user time   =      31.32 seconds =       0.52 minutes
	system time =       0.73 seconds =       0.01 minutes
	total time  =          7 seconds =       0.12 minutes
Total time:
	user time   =    1028.62 seconds =      17.14 minutes
	system time =       9.54 seconds =       0.16 minutes
	total time  =        149 seconds =       2.48 minutes
  Constructing Basis Sets for SAPT...

   => Loading Basis Set <=

    Name: (AUG-CC-PVTZ AUX)
    Role: RIFIT
    Keyword: DF_BASIS_SAPT
    atoms 1, 5, 9, 11-12     entry N          line   206 file /opt/anaconda/envs/psi4v1.5/share/psi4/basis/aug-cc-pvtz-ri.gbs 
    atoms 2, 4, 14-16, 18-19 entry H          line    30 file /opt/anaconda/envs/psi4v1.5/share/psi4/basis/aug-cc-pvtz-ri.gbs 
    atoms 3, 6-7, 10, 13     entry C          line   148 file /opt/anaconda/envs/psi4v1.5/share/psi4/basis/aug-cc-pvtz-ri.gbs 
    atoms 8, 17              entry O          line   264 file /opt/anaconda/envs/psi4v1.5/share/psi4/basis/aug-cc-pvtz-ri.gbs 


  //>>>>>>>>>>>>>>>>>>>>>>>>>>>>>>>>>>>//
  //           SAPT2+(3)DMP2           //
  //<<<<<<<<<<<<<<<<<<<<<<<<<<<<<<<<<<<//


*** tstart() called on node111.bme.utexas.edu
*** at Fri Mar 29 15:51:34 2024

      SAPT2+(3)  
    Ed Hohenstein
     6 June 2009

      Orbital Information
  --------------------------
    NSO        =       713
    NMO        =       713
    NRI        =      1594
    NOCC A     =        39
    NOCC B     =         5
    FOCC A     =        11
    FOCC B     =         1
    NVIR A     =       674
    NVIR B     =       708

    Estimated memory usage: 24690.3 MB

    Natural Orbital Cutoff:   1.000E-06
    Disp(T3) Truncation:            Yes
    CCD (vv|vv) Truncation:         Yes
    MBPT T2 Truncation:             Yes

    Monomer A: 139 virtual orbitals dropped
    Monomer B: 620 virtual orbitals dropped

    Elst10,r            =    -0.055955308010 [Eh]
    Exch10 (S^2)        =     0.081274757364 [Eh]
    Exch10              =     0.082927858816 [Eh]
    Ind20,r (A<-B)      =    -0.020449794945 [Eh]
    Ind20,r (B<-A)      =    -0.020053909921 [Eh]
    Ind20,r             =    -0.040503704866 [Eh]
    Exch-Ind20,r (A<-B) =     0.012838296293 [Eh]
    Exch-Ind20,r (B<-A) =     0.014282255593 [Eh]
    Exch-Ind20,r        =     0.027120551887 [Eh]
    Disp20              =    -0.023506961755 [Eh]
    Disp20 (NO)         =    -0.020840829853 [Eh]
    Exch-Disp20         =     0.005547204843 [Eh]
    Elst12,r            =    -0.002252752399 [Eh]
    Exch11              =     0.000782054632 [Eh]
    Exch12              =     0.007538473275 [Eh]
    Ind22               =    -0.006058519043 [Eh]
    Disp21              =     0.002672519600 [Eh]
    Disp22 (SDQ)        =    -0.000600535694 [Eh]

    (i =   1 of   4)        418 seconds
    (i =   2 of   4)        836 seconds
    (i =   3 of   4)       1253 seconds
    (i =   4 of   4)       1670 seconds

    Disp220 (T)         =    -0.001899398031 [Eh]

    (i =   1 of  28)          4 seconds
    (i =   2 of  28)          9 seconds
    (i =   3 of  28)         13 seconds
    (i =   4 of  28)         18 seconds
    (i =   5 of  28)         22 seconds
    (i =   6 of  28)         26 seconds
    (i =   7 of  28)         31 seconds
    (i =   8 of  28)         35 seconds
    (i =   9 of  28)         40 seconds
    (i =  10 of  28)         44 seconds
    (i =  11 of  28)         49 seconds
    (i =  12 of  28)         53 seconds
    (i =  13 of  28)         58 seconds
    (i =  14 of  28)         63 seconds
    (i =  15 of  28)         67 seconds
    (i =  16 of  28)         72 seconds
    (i =  17 of  28)         76 seconds
    (i =  18 of  28)         81 seconds
    (i =  19 of  28)         85 seconds
    (i =  20 of  28)         90 seconds
    (i =  21 of  28)         94 seconds
    (i =  22 of  28)         99 seconds
    (i =  23 of  28)        103 seconds
    (i =  24 of  28)        108 seconds
    (i =  25 of  28)        112 seconds
    (i =  26 of  28)        117 seconds
    (i =  27 of  28)        121 seconds
    (i =  28 of  28)        126 seconds

    Disp202 (T)         =    -0.001763515043 [Eh]

    Disp22 (T)          =    -0.003662913074 [Eh]

    Est. Disp220 (T)    =    -0.002142384789 [Eh]
    Est. Disp202 (T)    =    -0.001989118522 [Eh]

    Est. Disp22 (T)     =    -0.004131503311 [Eh]
    Elst13,r            =     0.001701535620 [Eh]
    Disp30              =     0.000882694783 [Eh]

    SAPT Results 
  --------------------------------------------------------------------------------------------------------
    Electrostatics                -56.50652479 [mEh]     -35.45837964 [kcal/mol]    -148.35786040 [kJ/mol]
      Elst10,r                    -55.95530801 [mEh]     -35.11248588 [kcal/mol]    -146.91064094 [kJ/mol]
      Elst12,r                     -2.25275240 [mEh]      -1.41362347 [kcal/mol]      -5.91460061 [kJ/mol]
      Elst13,r                      1.70153562 [mEh]       1.06772972 [kcal/mol]       4.46738115 [kJ/mol]

    Exchange                       91.24838672 [mEh]      57.25922714 [kcal/mol]     239.57260634 [kJ/mol]
      Exch10                       82.92785882 [mEh]      52.03801705 [kcal/mol]     217.72706333 [kJ/mol]
      Exch10(S^2)                  81.27475736 [mEh]      51.00068022 [kcal/mol]     213.38684606 [kJ/mol]
      Exch11(S^2)                   0.78205463 [mEh]       0.49074669 [kcal/mol]       2.05328415 [kJ/mol]
      Exch12(S^2)                   7.53847328 [mEh]       4.73046340 [kcal/mol]      19.79225886 [kJ/mol]

    Induction                     -22.55985264 [mEh]     -14.15652126 [kcal/mol]     -59.23088494 [kJ/mol]
      Ind20,r                     -40.50370487 [mEh]     -25.41645853 [kcal/mol]    -106.34246247 [kJ/mol]
      Ind22                        -6.05851904 [mEh]      -3.80177810 [kcal/mol]     -15.90663956 [kJ/mol]
      Exch-Ind20,r                 27.12055189 [mEh]      17.01840324 [kcal/mol]      71.20499917 [kJ/mol]
      Exch-Ind22                    4.05667532 [mEh]       2.54560220 [kcal/mol]      10.65079960 [kJ/mol]
      delta HF,r (2)               -9.57150053 [mEh]      -6.00620726 [kcal/mol]     -25.12997119 [kJ/mol]
      delta MP2,r (2)               2.39664460 [mEh]       1.50391719 [kcal/mol]       6.29238952 [kJ/mol]

    Dispersion                    -19.13658153 [mEh]     -12.00838621 [kcal/mol]     -50.24308789 [kJ/mol]
      Disp20                      -23.50696175 [mEh]     -14.75084120 [kcal/mol]     -61.71751958 [kJ/mol]
      Disp30                        0.88269478 [mEh]       0.55389934 [kcal/mol]       2.31751483 [kJ/mol]
      Disp21                        2.67251960 [mEh]       1.67703137 [kcal/mol]       7.01669924 [kJ/mol]
      Disp22 (SDQ)                 -0.60053569 [mEh]      -0.37684184 [kcal/mol]      -1.57670625 [kJ/mol]
      Disp22 (T)                   -3.66291307 [mEh]      -2.29851266 [kcal/mol]      -9.61697695 [kJ/mol]
      Est. Disp22 (T)              -4.13150331 [mEh]      -2.59255747 [kcal/mol]     -10.84726045 [kJ/mol]
      Exch-Disp20                   5.54720484 [mEh]       3.48092359 [kcal/mol]      14.56418431 [kJ/mol]

  Total HF                          4.01789729 [mEh]       2.52126862 [kcal/mol]      10.54898789 [kJ/mol]
  Total SAPT0                     -13.94185962 [mEh]      -8.74864899 [kcal/mol]     -36.60434739 [kJ/mol]
  Total SAPT2                      -9.87592783 [mEh]      -6.19723828 [kcal/mol]     -25.92924494 [kJ/mol]
  Total SAPT2+                    -11.93544723 [mEh]      -7.48960621 [kcal/mol]     -31.33651240 [kJ/mol]
  Total SAPT2+(3)                  -9.35121683 [mEh]      -5.86797715 [kcal/mol]     -24.55161641 [kJ/mol]
  Total SAPT2+dMP2                 -9.53880264 [mEh]      -5.98568902 [kcal/mol]     -25.04412288 [kJ/mol]
  Total SAPT2+(3)dMP2              -6.95457224 [mEh]      -4.36405996 [kcal/mol]     -18.25922689 [kJ/mol]

  Special recipe for scaled SAPT0 (see Manual):
    Electrostatics sSAPT0         -55.95530801 [mEh]     -35.11248588 [kcal/mol]    -146.91064094 [kJ/mol]
    Exchange sSAPT0                82.92785882 [mEh]      52.03801705 [kcal/mol]     217.72706333 [kJ/mol]
    Induction sSAPT0              -21.26589689 [mEh]     -13.34455177 [kcal/mol]     -55.83360459 [kJ/mol]
    Dispersion sSAPT0             -17.61434068 [mEh]     -11.05316565 [kcal/mol]     -46.24644508 [kJ/mol]
  Total sSAPT0                    -11.90768676 [mEh]      -7.47218625 [kcal/mol]     -31.26362728 [kJ/mol]
  --------------------------------------------------------------------------------------------------------

*** tstop() called on node111.bme.utexas.edu at Fri Mar 29 17:18:32 2024
Module time:
	user time   =   38399.20 seconds =     639.99 minutes
	system time =     166.93 seconds =       2.78 minutes
	total time  =       5218 seconds =      86.97 minutes
Total time:
	user time   =   39428.56 seconds =     657.14 minutes
	system time =     176.48 seconds =       2.94 minutes
	total time  =       5367 seconds =      89.45 minutes

    Psi4 stopped on: Friday, 29 March 2024 05:18PM
    Psi4 wall time for execution: 1:29:27.59

*** Psi4 exiting successfully. Buy a developer a beer!
