
    -----------------------------------------------------------------------
          Psi4: An Open-Source Ab Initio Electronic Structure Package
                               Psi4 1.5 release

                         Git: Rev {HEAD} e9f4d6d 


    D. G. A. Smith, L. A. Burns, A. C. Simmonett, R. M. Parrish,
    M. C. Schieber, R. Galvelis, P. Kraus, H. Kruse, R. Di Remigio,
    A. Alenaizan, A. M. James, S. Lehtola, J. P. Misiewicz, M. Scheurer,
    R. A. Shaw, J. B. Schriber, Y. Xie, Z. L. Glick, D. A. Sirianni,
    J. S. O'Brien, J. M. Waldrop, A. Kumar, E. G. Hohenstein,
    B. P. Pritchard, B. R. Brooks, H. F. Schaefer III, A. Yu. Sokolov,
    K. Patkowski, A. E. DePrince III, U. Bozkaya, R. A. King,
    F. A. Evangelista, J. M. Turney, T. D. Crawford, C. D. Sherrill,
    J. Chem. Phys. 152(18) 184108 (2020). https://doi.org/10.1063/5.0006002

                            Additional Code Authors
    E. T. Seidl, C. L. Janssen, E. F. Valeev, M. L. Leininger,
    J. F. Gonthier, R. M. Richard, H. R. McAlexander, M. Saitow, X. Wang,
    P. Verma, M. H. Lechner, and A. Jiang

             Previous Authors, Complete List of Code Contributors,
                       and Citations for Specific Modules
    https://github.com/psi4/psi4/blob/master/codemeta.json
    https://github.com/psi4/psi4/graphs/contributors
    http://psicode.org/psi4manual/master/introduction.html#citing-psifour

    -----------------------------------------------------------------------


    Psi4 started on: Sunday, 14 April 2024 10:15PM

    Process ID: 4182947
    Host:       node160.bme.utexas.edu
    PSIDATADIR: /opt/anaconda/envs/psi4v1.5/share/psi4
    Memory:     500.0 MiB
    Threads:    8
    
  ==> Input File <==

--------------------------------------------------------------------------
memory 50GB

molecule {
0 1
N -0.92227 0.64524 -0.00218
H -1.8368 1.11267 -0.0116
C -0.98525 -0.72873 -0.00478
O -2.04385 -1.36932 -0.01332
N 0.25537 -1.33309 0.00509
H 0.25173 -2.35022 0.00217
C 1.51985 -0.71966 0.0074
O 2.54425 -1.40069 0.01426
C 1.47564 0.73954 0.00017
C 0.26338 1.34706 -0.00589
H 0.1556 2.4281 -0.01349
C 2.77952 1.47406 -0.00291
H 2.61854 2.55534 -0.0095
H 3.37109 1.21034 0.87827
H 3.37248 1.20012 -0.87999
--
0 1
O -4.2012272 0.9310256 -0.05475733333333334
H -3.9639772 -0.019544399999999996 -0.11524733333333333
H -4.682837200000001 1.0058756 0.7838926666666667
 units angstrom
 no_reorient
 symmetry c1} 
set  {scf_type DF
 basis aug-cc-pvdz
 freeze_core True
 guess SAD}
energy('sapt2+(3)dmp2')
--------------------------------------------------------------------------

  Memory set to  46.566 GiB by Python driver.

Scratch directory: /tmp/
   => Loading Basis Set <=

    Name: AUG-CC-PVDZ
    Role: ORBITAL
    Keyword: BASIS
    atoms 1, 5                   entry N          line   218 file /opt/anaconda/envs/psi4v1.5/share/psi4/basis/aug-cc-pvdz.gbs 
    atoms 2, 6, 11, 13-15, 17-18 entry H          line    40 file /opt/anaconda/envs/psi4v1.5/share/psi4/basis/aug-cc-pvdz.gbs 
    atoms 3, 7, 9-10, 12         entry C          line   182 file /opt/anaconda/envs/psi4v1.5/share/psi4/basis/aug-cc-pvdz.gbs 
    atoms 4, 8, 16               entry O          line   254 file /opt/anaconda/envs/psi4v1.5/share/psi4/basis/aug-cc-pvdz.gbs 

   => Loading Basis Set <=

    Name: AUG-CC-PVDZ
    Role: ORBITAL
    Keyword: BASIS
    atoms 1, 5                   entry N          line   218 file /opt/anaconda/envs/psi4v1.5/share/psi4/basis/aug-cc-pvdz.gbs 
    atoms 2, 6, 11, 13-15, 17-18 entry H          line    40 file /opt/anaconda/envs/psi4v1.5/share/psi4/basis/aug-cc-pvdz.gbs 
    atoms 3, 7, 9-10, 12         entry C          line   182 file /opt/anaconda/envs/psi4v1.5/share/psi4/basis/aug-cc-pvdz.gbs 
    atoms 4, 8, 16               entry O          line   254 file /opt/anaconda/envs/psi4v1.5/share/psi4/basis/aug-cc-pvdz.gbs 


  //>>>>>>>>>>>>>>>>>>>>>>>>>>>>>>>>>>>//
  //              Dimer HF             //
  //<<<<<<<<<<<<<<<<<<<<<<<<<<<<<<<<<<<//


*** tstart() called on node160.bme.utexas.edu
*** at Sun Apr 14 22:15:12 2024

   => Loading Basis Set <=

    Name: AUG-CC-PVDZ
    Role: ORBITAL
    Keyword: BASIS
    atoms 1, 5                   entry N          line   218 file /opt/anaconda/envs/psi4v1.5/share/psi4/basis/aug-cc-pvdz.gbs 
    atoms 2, 6, 11, 13-15, 17-18 entry H          line    40 file /opt/anaconda/envs/psi4v1.5/share/psi4/basis/aug-cc-pvdz.gbs 
    atoms 3, 7, 9-10, 12         entry C          line   182 file /opt/anaconda/envs/psi4v1.5/share/psi4/basis/aug-cc-pvdz.gbs 
    atoms 4, 8, 16               entry O          line   254 file /opt/anaconda/envs/psi4v1.5/share/psi4/basis/aug-cc-pvdz.gbs 


         ---------------------------------------------------------
                                   SCF
               by Justin Turney, Rob Parrish, Andy Simmonett
                          and Daniel G. A. Smith
                              RHF Reference
                        8 Threads,  47683 MiB Core
         ---------------------------------------------------------

  ==> Geometry <==

    Molecular point group: c1
    Full point group: C1

    Geometry (in Angstrom), charge = 0, multiplicity = 1:

       Center              X                  Y                   Z               Mass       
    ------------   -----------------  -----------------  -----------------  -----------------
         N           -0.862464799516     0.690366292408    -0.000425760345    14.003074004430
         H           -1.776994799516     1.157796292408    -0.009845760345     1.007825032230
         C           -0.925444799516    -0.683603707592    -0.003025760345    12.000000000000
         O           -1.984044799516    -1.324193707592    -0.011565760345    15.994914619570
         N            0.315175200484    -1.287963707592     0.006844239655    14.003074004430
         H            0.311535200484    -2.305093707592     0.003924239655     1.007825032230
         C            1.579655200484    -0.674533707592     0.009154239655    12.000000000000
         O            2.604055200484    -1.355563707592     0.016014239655    15.994914619570
         C            1.535445200484     0.784666292408     0.001924239655    12.000000000000
         C            0.323185200484     1.392186292408    -0.004135760345    12.000000000000
         H            0.215405200484     2.473226292408    -0.011735760345     1.007825032230
         C            2.839325200484     1.519186292408    -0.001155760345    12.000000000000
         H            2.678345200484     2.600466292408    -0.007745760345     1.007825032230
         H            3.430895200484     1.255466292408     0.880024239655     1.007825032230
         H            3.432285200484     1.245246292408    -0.878235760345     1.007825032230
         O           -4.141421999516     0.976151892408    -0.053003093678    15.994914619570
         H           -3.904171999516     0.025581892408    -0.113493093678     1.007825032230
         H           -4.623031999516     1.051001892408     0.785646906322     1.007825032230

  Running in c1 symmetry.

  Rotational constants: A =      0.08535  B =      0.02414  C =      0.01892 [cm^-1]
  Rotational constants: A =   2558.65924  B =    723.84827  C =    567.06663 [MHz]
  Nuclear repulsion =  523.180472662453440

  Charge       = 0
  Multiplicity = 1
  Electrons    = 76
  Nalpha       = 38
  Nbeta        = 38

  ==> Algorithm <==

  SCF Algorithm Type is DF.
  DIIS enabled.
  MOM disabled.
  Fractional occupation disabled.
  Guess Type is SAD.
  Energy threshold   = 1.00e-08
  Density threshold  = 1.00e-08
  Integral threshold = 1.00e-12

  ==> Primary Basis <==

  Basis Set: AUG-CC-PVDZ
    Blend: AUG-CC-PVDZ
    Number of shells: 130
    Number of basis functions: 302
    Number of Cartesian functions: 322
    Spherical Harmonics?: true
    Max angular momentum: 2

   => Loading Basis Set <=

    Name: (AUG-CC-PVDZ AUX)
    Role: JKFIT
    Keyword: DF_BASIS_SCF
    atoms 1, 5                   entry N          line   212 file /opt/anaconda/envs/psi4v1.5/share/psi4/basis/aug-cc-pvdz-jkfit.gbs 
    atoms 2, 6, 11, 13-15, 17-18 entry H          line    70 file /opt/anaconda/envs/psi4v1.5/share/psi4/basis/aug-cc-pvdz-jkfit.gbs 
    atoms 3, 7, 9-10, 12         entry C          line   154 file /opt/anaconda/envs/psi4v1.5/share/psi4/basis/aug-cc-pvdz-jkfit.gbs 
    atoms 4, 8, 16               entry O          line   270 file /opt/anaconda/envs/psi4v1.5/share/psi4/basis/aug-cc-pvdz-jkfit.gbs 

  ==> Integral Setup <==

  ==> DiskDFJK: Density-Fitted J/K Matrices <==

    J tasked:                  Yes
    K tasked:                  Yes
    wK tasked:                  No
    OpenMP threads:              8
    Integrals threads:           8
    Memory [MiB]:            35762
    Algorithm:                Core
    Integral Cache:           SAVE
    Schwarz Cutoff:          1E-12
    Fitting Condition:       1E-10

   => Auxiliary Basis Set <=

  Basis Set: (AUG-CC-PVDZ AUX)
    Blend: AUG-CC-PVDZ-JKFIT
    Number of shells: 376
    Number of basis functions: 1116
    Number of Cartesian functions: 1290
    Spherical Harmonics?: true
    Max angular momentum: 3

  Minimum eigenvalue in the overlap matrix is 7.5586634698E-06.
  Reciprocal condition number of the overlap matrix is 5.1417304089E-07.
    Using symmetric orthogonalization.

  ==> Pre-Iterations <==

  SCF Guess: Superposition of Atomic Densities via on-the-fly atomic UHF (no occupation information).

   -------------------------
    Irrep   Nso     Nmo    
   -------------------------
     A        302     302 
   -------------------------
    Total     302     302
   -------------------------

  ==> Iterations <==

                           Total Energy        Delta E     RMS |[F,P]|

   @DF-RHF iter SAD:  -526.37504140320880   -5.26375e+02   0.00000e+00 
   @DF-RHF iter   1:  -527.25878179037591   -8.83740e-01   2.88766e-03 DIIS
   @DF-RHF iter   2:  -527.50282430885875   -2.44043e-01   1.82132e-03 DIIS
   @DF-RHF iter   3:  -527.61324711266707   -1.10423e-01   3.22559e-04 DIIS
   @DF-RHF iter   4:  -527.61858669234459   -5.33958e-03   1.43816e-04 DIIS
   @DF-RHF iter   5:  -527.61975378072566   -1.16709e-03   3.15544e-05 DIIS
   @DF-RHF iter   6:  -527.61986611065458   -1.12330e-04   1.56537e-05 DIIS
   @DF-RHF iter   7:  -527.61989841946433   -3.23088e-05   5.68075e-06 DIIS
   @DF-RHF iter   8:  -527.61990320333746   -4.78387e-06   2.04788e-06 DIIS
   @DF-RHF iter   9:  -527.61990367949159   -4.76154e-07   7.89623e-07 DIIS
   @DF-RHF iter  10:  -527.61990375209211   -7.26005e-08   3.17909e-07 DIIS
   @DF-RHF iter  11:  -527.61990376312281   -1.10307e-08   1.18471e-07 DIIS
   @DF-RHF iter  12:  -527.61990376470101   -1.57820e-09   3.40213e-08 DIIS
   @DF-RHF iter  13:  -527.61990376483823   -1.37220e-10   1.23145e-08 DIIS
   @DF-RHF iter  14:  -527.61990376486051   -2.22826e-11   5.90373e-09 DIIS
  Energy and wave function converged.


  ==> Post-Iterations <==

    Orbital Energies [Eh]
    ---------------------

    Doubly Occupied:                                                      

       1A    -20.583313     2A    -20.556736     3A    -20.554372  
       4A    -15.645753     5A    -15.636985     6A    -11.428895  
       7A    -11.388999     8A    -11.337203     9A    -11.267338  
      10A    -11.245823    11A     -1.431159    12A     -1.396547  
      13A     -1.352219    14A     -1.307890    15A     -1.243865  
      16A     -1.110087    17A     -0.972052    18A     -0.918345  
      19A     -0.894685    20A     -0.772641    21A     -0.766605  
      22A     -0.714495    23A     -0.708221    24A     -0.675113  
      25A     -0.665674    26A     -0.642169    27A     -0.616630  
      28A     -0.591043    29A     -0.588467    30A     -0.568638  
      31A     -0.557258    32A     -0.551387    33A     -0.515561  
      34A     -0.509498    35A     -0.480492    36A     -0.448364  
      37A     -0.435361    38A     -0.352806  

    Virtual:                                                              

      39A      0.025431    40A      0.037974    41A      0.045694  
      42A      0.051557    43A      0.055472    44A      0.065197  
      45A      0.073511    46A      0.081416    47A      0.089397  
      48A      0.092862    49A      0.097351    50A      0.113815  
      51A      0.123933    52A      0.128041    53A      0.136520  
      54A      0.143474    55A      0.145744    56A      0.152262  
      57A      0.153546    58A      0.157109    59A      0.165944  
      60A      0.167991    61A      0.173252    62A      0.179070  
      63A      0.190154    64A      0.193219    65A      0.206896  
      66A      0.211980    67A      0.214963    68A      0.225757  
      69A      0.235639    70A      0.252980    71A      0.256883  
      72A      0.260568    73A      0.263976    74A      0.270353  
      75A      0.275315    76A      0.277823    77A      0.288291  
      78A      0.295043    79A      0.310306    80A      0.311456  
      81A      0.316438    82A      0.318494    83A      0.329321  
      84A      0.334788    85A      0.346499    86A      0.351588  
      87A      0.361679    88A      0.366058    89A      0.372627  
      90A      0.378583    91A      0.381252    92A      0.395487  
      93A      0.399830    94A      0.404201    95A      0.409064  
      96A      0.425154    97A      0.427712    98A      0.434484  
      99A      0.437761   100A      0.439731   101A      0.462020  
     102A      0.468120   103A      0.473874   104A      0.477632  
     105A      0.490694   106A      0.501647   107A      0.507822  
     108A      0.513282   109A      0.515491   110A      0.529974  
     111A      0.532101   112A      0.537932   113A      0.546455  
     114A      0.553705   115A      0.571522   116A      0.581052  
     117A      0.595972   118A      0.601447   119A      0.613415  
     120A      0.618673   121A      0.623111   122A      0.631491  
     123A      0.636487   124A      0.650088   125A      0.655137  
     126A      0.663885   127A      0.665540   128A      0.674978  
     129A      0.675252   130A      0.692551   131A      0.698409  
     132A      0.727357   133A      0.737392   134A      0.740815  
     135A      0.759985   136A      0.766361   137A      0.779783  
     138A      0.785516   139A      0.796102   140A      0.797828  
     141A      0.807103   142A      0.812405   143A      0.820448  
     144A      0.822795   145A      0.851576   146A      0.855163  
     147A      0.867655   148A      0.869920   149A      0.881784  
     150A      0.886514   151A      0.889323   152A      0.904981  
     153A      0.916224   154A      0.933015   155A      0.942732  
     156A      0.959504   157A      0.983221   158A      1.000337  
     159A      1.010051   160A      1.023643   161A      1.039619  
     162A      1.053018   163A      1.060343   164A      1.071981  
     165A      1.078447   166A      1.084986   167A      1.086848  
     168A      1.093759   169A      1.112007   170A      1.147422  
     171A      1.156477   172A      1.162646   173A      1.187448  
     174A      1.191983   175A      1.207534   176A      1.212451  
     177A      1.225252   178A      1.244277   179A      1.263399  
     180A      1.276005   181A      1.286684   182A      1.303122  
     183A      1.307001   184A      1.310485   185A      1.341089  
     186A      1.360774   187A      1.362426   188A      1.384150  
     189A      1.398701   190A      1.464979   191A      1.466997  
     192A      1.479080   193A      1.485972   194A      1.522736  
     195A      1.524913   196A      1.556911   197A      1.569469  
     198A      1.609833   199A      1.619942   200A      1.644177  
     201A      1.651569   202A      1.666332   203A      1.669807  
     204A      1.682728   205A      1.700788   206A      1.712099  
     207A      1.753635   208A      1.758611   209A      1.766741  
     210A      1.808284   211A      1.836548   212A      1.842536  
     213A      1.851209   214A      1.854787   215A      1.886002  
     216A      1.896028   217A      1.950911   218A      1.952596  
     219A      1.961843   220A      1.975012   221A      1.979627  
     222A      2.010961   223A      2.024776   224A      2.048357  
     225A      2.065401   226A      2.073356   227A      2.091346  
     228A      2.096353   229A      2.115178   230A      2.122471  
     231A      2.149468   232A      2.190184   233A      2.206520  
     234A      2.213989   235A      2.249234   236A      2.257688  
     237A      2.261742   238A      2.291103   239A      2.308047  
     240A      2.315600   241A      2.334060   242A      2.353637  
     243A      2.372033   244A      2.385986   245A      2.406990  
     246A      2.442131   247A      2.445773   248A      2.451788  
     249A      2.478753   250A      2.492038   251A      2.507889  
     252A      2.518294   253A      2.540197   254A      2.587532  
     255A      2.637574   256A      2.653216   257A      2.670834  
     258A      2.673237   259A      2.693799   260A      2.731442  
     261A      2.741079   262A      2.755734   263A      2.781734  
     264A      2.790396   265A      2.812427   266A      2.846960  
     267A      2.853023   268A      2.892703   269A      2.911876  
     270A      2.928071   271A      2.968367   272A      2.993487  
     273A      3.007673   274A      3.062278   275A      3.081517  
     276A      3.121797   277A      3.168739   278A      3.194888  
     279A      3.221877   280A      3.277409   281A      3.330735  
     282A      3.385567   283A      3.507224   284A      3.556710  
     285A      3.645786   286A      3.706465   287A      3.759811  
     288A      3.771300   289A      3.782757   290A      3.790793  
     291A      3.803255   292A      3.822555   293A      3.827560  
     294A      3.869553   295A      3.908980   296A      4.015064  
     297A      4.033225   298A      4.041759   299A      4.108535  
     300A      4.163347   301A      4.272925   302A      4.327056  

    Final Occupation by Irrep:
              A 
    DOCC [    38 ]

  @DF-RHF Final Energy:  -527.61990376486051

   => Energetics <=

    Nuclear Repulsion Energy =            523.1804726624534396
    One-Electron Energy =               -1758.7353738561400860
    Two-Electron Energy =                 707.9349974288261365
    Total Energy =                       -527.6199037648605099

Computation Completed


Properties will be evaluated at   0.000000,   0.000000,   0.000000 [a0]

Properties computed using the SCF density matrix

  Nuclear Dipole Moment: [e a0]
     X:    -0.2363      Y:     7.0280      Z:     0.6077

  Electronic Dipole Moment: [e a0]
     X:    -0.1514      Y:    -5.5983      Z:    -0.1150

  Dipole Moment: [e a0]
     X:    -0.3877      Y:     1.4297      Z:     0.4928     Total:     1.5611

  Dipole Moment: [D]
     X:    -0.9855      Y:     3.6339      Z:     1.2525     Total:     3.9680


*** tstop() called on node160.bme.utexas.edu at Sun Apr 14 22:15:17 2024
Module time:
	user time   =      30.03 seconds =       0.50 minutes
	system time =       0.67 seconds =       0.01 minutes
	total time  =          5 seconds =       0.08 minutes
Total time:
	user time   =      30.03 seconds =       0.50 minutes
	system time =       0.67 seconds =       0.01 minutes
	total time  =          5 seconds =       0.08 minutes

*** tstart() called on node160.bme.utexas.edu
*** at Sun Apr 14 22:15:17 2024


  //>>>>>>>>>>>>>>>>>>>>>>>>>>>>>>>>>>>//
  //               DFMP2               //
  //<<<<<<<<<<<<<<<<<<<<<<<<<<<<<<<<<<<//

   => Loading Basis Set <=

    Name: (AUG-CC-PVDZ AUX)
    Role: RIFIT
    Keyword: DF_BASIS_MP2
    atoms 1, 5                   entry N          line   158 file /opt/anaconda/envs/psi4v1.5/share/psi4/basis/aug-cc-pvdz-ri.gbs 
    atoms 2, 6, 11, 13-15, 17-18 entry H          line    30 file /opt/anaconda/envs/psi4v1.5/share/psi4/basis/aug-cc-pvdz-ri.gbs 
    atoms 3, 7, 9-10, 12         entry C          line   112 file /opt/anaconda/envs/psi4v1.5/share/psi4/basis/aug-cc-pvdz-ri.gbs 
    atoms 4, 8, 16               entry O          line   204 file /opt/anaconda/envs/psi4v1.5/share/psi4/basis/aug-cc-pvdz-ri.gbs 

	 --------------------------------------------------------
	                          DF-MP2                         
	      2nd-Order Density-Fitted Moller-Plesset Theory     
	              RMP2 Wavefunction,   8 Threads             
	                                                         
	        Rob Parrish, Justin Turney, Andy Simmonett,      
	           Ed Hohenstein, and C. David Sherrill          
	 --------------------------------------------------------

   => Auxiliary Basis Set <=

  Basis Set: (AUG-CC-PVDZ AUX)
    Blend: AUG-CC-PVDZ-RI
    Number of shells: 292
    Number of basis functions: 904
    Number of Cartesian functions: 1060
    Spherical Harmonics?: true
    Max angular momentum: 3

	 --------------------------------------------------------
	                 NBF =   302, NAUX =   904
	 --------------------------------------------------------
	   CLASS    FOCC     OCC    AOCC    AVIR     VIR    FVIR
	   PAIRS      10      38      28     264     264       0
	 --------------------------------------------------------

	 Will save fitting metric to file 97.

	-----------------------------------------------------------
	 ==================> DF-MP2 Energies <==================== 
	-----------------------------------------------------------
	 Reference Energy          =    -527.6199037648605099 [Eh]
	 Singles Energy            =      -0.0000000000000000 [Eh]
	 Same-Spin Energy          =      -0.4374344542661465 [Eh]
	 Opposite-Spin Energy      =      -1.1900527859001779 [Eh]
	 Correlation Energy        =      -1.6274872401663245 [Eh]
	 Total Energy              =    -529.2473910050268842 [Eh]
	-----------------------------------------------------------
	 ================> DF-SCS-MP2 Energies <================== 
	-----------------------------------------------------------
	 SCS Same-Spin Scale       =       0.3333333333333333 [-]
	 SCS Opposite-Spin Scale   =       1.2000000000000000 [-]
	 SCS Same-Spin Energy      =      -0.1458114847553821 [Eh]
	 SCS Opposite-Spin Energy  =      -1.4280633430802134 [Eh]
	 SCS Correlation Energy    =      -1.5738748278355956 [Eh]
	 SCS Total Energy          =    -529.1937785926961624 [Eh]
	-----------------------------------------------------------


*** tstop() called on node160.bme.utexas.edu at Sun Apr 14 22:15:18 2024
Module time:
	user time   =       9.42 seconds =       0.16 minutes
	system time =       0.20 seconds =       0.00 minutes
	total time  =          1 seconds =       0.02 minutes
Total time:
	user time   =      39.45 seconds =       0.66 minutes
	system time =       0.87 seconds =       0.01 minutes
	total time  =          6 seconds =       0.10 minutes

  //>>>>>>>>>>>>>>>>>>>>>>>>>>>>>>>>>>>//
  //            Monomer A HF           //
  //<<<<<<<<<<<<<<<<<<<<<<<<<<<<<<<<<<<//


*** tstart() called on node160.bme.utexas.edu
*** at Sun Apr 14 22:15:18 2024

   => Loading Basis Set <=

    Name: AUG-CC-PVDZ
    Role: ORBITAL
    Keyword: BASIS
    atoms 1, 5                   entry N          line   218 file /opt/anaconda/envs/psi4v1.5/share/psi4/basis/aug-cc-pvdz.gbs 
    atoms 2, 6, 11, 13-15, 17-18 entry H          line    40 file /opt/anaconda/envs/psi4v1.5/share/psi4/basis/aug-cc-pvdz.gbs 
    atoms 3, 7, 9-10, 12         entry C          line   182 file /opt/anaconda/envs/psi4v1.5/share/psi4/basis/aug-cc-pvdz.gbs 
    atoms 4, 8, 16               entry O          line   254 file /opt/anaconda/envs/psi4v1.5/share/psi4/basis/aug-cc-pvdz.gbs 


         ---------------------------------------------------------
                                   SCF
               by Justin Turney, Rob Parrish, Andy Simmonett
                          and Daniel G. A. Smith
                              RHF Reference
                        8 Threads,  47683 MiB Core
         ---------------------------------------------------------

  ==> Geometry <==

    Molecular point group: c1
    Full point group: C1

    Geometry (in Angstrom), charge = 0, multiplicity = 1:

       Center              X                  Y                   Z               Mass       
    ------------   -----------------  -----------------  -----------------  -----------------
         N           -0.862464799516     0.690366292408    -0.000425760345    14.003074004430
         H           -1.776994799516     1.157796292408    -0.009845760345     1.007825032230
         C           -0.925444799516    -0.683603707592    -0.003025760345    12.000000000000
         O           -1.984044799516    -1.324193707592    -0.011565760345    15.994914619570
         N            0.315175200484    -1.287963707592     0.006844239655    14.003074004430
         H            0.311535200484    -2.305093707592     0.003924239655     1.007825032230
         C            1.579655200484    -0.674533707592     0.009154239655    12.000000000000
         O            2.604055200484    -1.355563707592     0.016014239655    15.994914619570
         C            1.535445200484     0.784666292408     0.001924239655    12.000000000000
         C            0.323185200484     1.392186292408    -0.004135760345    12.000000000000
         H            0.215405200484     2.473226292408    -0.011735760345     1.007825032230
         C            2.839325200484     1.519186292408    -0.001155760345    12.000000000000
         H            2.678345200484     2.600466292408    -0.007745760345     1.007825032230
         H            3.430895200484     1.255466292408     0.880024239655     1.007825032230
         H            3.432285200484     1.245246292408    -0.878235760345     1.007825032230
      Gh(O)          -4.141421999516     0.976151892408    -0.053003093678    15.994914619570
      Gh(H)          -3.904171999516     0.025581892408    -0.113493093678     1.007825032230
      Gh(H)          -4.623031999516     1.051001892408     0.785646906322     1.007825032230

  Running in c1 symmetry.

  Rotational constants: A =      0.08535  B =      0.02414  C =      0.01892 [cm^-1]
  Rotational constants: A =   2558.65924  B =    723.84827  C =    567.06663 [MHz]
  Nuclear repulsion =  438.296529764254899

  Charge       = 0
  Multiplicity = 1
  Electrons    = 66
  Nalpha       = 33
  Nbeta        = 33

  ==> Algorithm <==

  SCF Algorithm Type is DF.
  DIIS enabled.
  MOM disabled.
  Fractional occupation disabled.
  Guess Type is SAD.
  Energy threshold   = 1.00e-08
  Density threshold  = 1.00e-08
  Integral threshold = 1.00e-12

  ==> Primary Basis <==

  Basis Set: AUG-CC-PVDZ
    Blend: AUG-CC-PVDZ
    Number of shells: 130
    Number of basis functions: 302
    Number of Cartesian functions: 322
    Spherical Harmonics?: true
    Max angular momentum: 2

   => Loading Basis Set <=

    Name: (AUG-CC-PVDZ AUX)
    Role: JKFIT
    Keyword: DF_BASIS_SCF
    atoms 1, 5                   entry N          line   212 file /opt/anaconda/envs/psi4v1.5/share/psi4/basis/aug-cc-pvdz-jkfit.gbs 
    atoms 2, 6, 11, 13-15, 17-18 entry H          line    70 file /opt/anaconda/envs/psi4v1.5/share/psi4/basis/aug-cc-pvdz-jkfit.gbs 
    atoms 3, 7, 9-10, 12         entry C          line   154 file /opt/anaconda/envs/psi4v1.5/share/psi4/basis/aug-cc-pvdz-jkfit.gbs 
    atoms 4, 8, 16               entry O          line   270 file /opt/anaconda/envs/psi4v1.5/share/psi4/basis/aug-cc-pvdz-jkfit.gbs 

  ==> Integral Setup <==

  ==> DiskDFJK: Density-Fitted J/K Matrices <==

    J tasked:                  Yes
    K tasked:                  Yes
    wK tasked:                  No
    OpenMP threads:              8
    Integrals threads:           8
    Memory [MiB]:            35762
    Algorithm:                Core
    Integral Cache:           LOAD
    Schwarz Cutoff:          1E-12
    Fitting Condition:       1E-10

   => Auxiliary Basis Set <=

  Basis Set: (AUG-CC-PVDZ AUX)
    Blend: AUG-CC-PVDZ-JKFIT
    Number of shells: 376
    Number of basis functions: 1116
    Number of Cartesian functions: 1290
    Spherical Harmonics?: true
    Max angular momentum: 3

  Minimum eigenvalue in the overlap matrix is 7.5586634698E-06.
  Reciprocal condition number of the overlap matrix is 5.1417304089E-07.
    Using symmetric orthogonalization.

  ==> Pre-Iterations <==

  SCF Guess: Superposition of Atomic Densities via on-the-fly atomic UHF (no occupation information).

   -------------------------
    Irrep   Nso     Nmo    
   -------------------------
     A        302     302 
   -------------------------
    Total     302     302
   -------------------------

  ==> Iterations <==

                           Total Energy        Delta E     RMS |[F,P]|

   @DF-RHF iter SAD:  -450.85030421203084   -4.50850e+02   0.00000e+00 
   @DF-RHF iter   1:  -451.27485069849786   -4.24546e-01   2.53967e-03 DIIS
   @DF-RHF iter   2:  -451.47196043016947   -1.97110e-01   1.63252e-03 DIIS
   @DF-RHF iter   3:  -451.56149948152705   -8.95391e-02   3.26746e-04 DIIS
   @DF-RHF iter   4:  -451.56693203494819   -5.43255e-03   1.26100e-04 DIIS
   @DF-RHF iter   5:  -451.56796401997127   -1.03199e-03   2.52123e-05 DIIS
   @DF-RHF iter   6:  -451.56806727724154   -1.03257e-04   1.30458e-05 DIIS
   @DF-RHF iter   7:  -451.56808900436141   -2.17271e-05   5.38945e-06 DIIS
   @DF-RHF iter   8:  -451.56809260998119   -3.60562e-06   2.09649e-06 DIIS
   @DF-RHF iter   9:  -451.56809303337377   -4.23393e-07   6.73725e-07 DIIS
   @DF-RHF iter  10:  -451.56809309733308   -6.39593e-08   2.80972e-07 DIIS
   @DF-RHF iter  11:  -451.56809310522351   -7.89043e-09   1.00678e-07 DIIS
   @DF-RHF iter  12:  -451.56809310642518   -1.20167e-09   3.08661e-08 DIIS
   @DF-RHF iter  13:  -451.56809310652721   -1.02034e-10   1.06721e-08 DIIS
   @DF-RHF iter  14:  -451.56809310654279   -1.55751e-11   4.70803e-09 DIIS
  Energy and wave function converged.


  ==> Post-Iterations <==

    Orbital Energies [Eh]
    ---------------------

    Doubly Occupied:                                                      

       1A    -20.554954     2A    -20.551192     3A    -15.651215  
       4A    -15.635546     5A    -11.425607     6A    -11.389405  
       7A    -11.339852     8A    -11.269605     9A    -11.247496  
      10A     -1.428070    11A     -1.395577    12A     -1.307924  
      13A     -1.244076    14A     -1.111911    15A     -0.973768  
      16A     -0.919394    17A     -0.895471    18A     -0.774277  
      19A     -0.767669    20A     -0.709166    21A     -0.675502  
      22A     -0.665496    23A     -0.636568    24A     -0.617458  
      25A     -0.591425    26A     -0.569978    27A     -0.558358  
      28A     -0.552917    29A     -0.508911    30A     -0.476717  
      31A     -0.447239    32A     -0.432304    33A     -0.354523  

    Virtual:                                                              

      34A      0.018955    35A      0.035589    36A      0.045915  
      37A      0.051586    38A      0.054775    39A      0.064299  
      40A      0.070588    41A      0.079908    42A      0.086094  
      43A      0.089701    44A      0.096693    45A      0.111282  
      46A      0.119577    47A      0.123694    48A      0.134498  
      49A      0.139618    50A      0.143187    51A      0.150653  
      52A      0.153369    53A      0.153592    54A      0.160173  
      55A      0.165272    56A      0.168241    57A      0.171322  
      58A      0.180334    59A      0.190372    60A      0.194509  
      61A      0.196521    62A      0.213469    63A      0.217297  
      64A      0.231221    65A      0.237272    66A      0.243421  
      67A      0.253759    68A      0.261185    69A      0.270176  
      70A      0.272478    71A      0.284245    72A      0.293661  
      73A      0.295575    74A      0.306078    75A      0.310522  
      76A      0.318294    77A      0.327039    78A      0.328597  
      79A      0.339867    80A      0.346219    81A      0.354288  
      82A      0.360907    83A      0.362252    84A      0.377661  
      85A      0.380363    86A      0.381215    87A      0.394356  
      88A      0.402462    89A      0.411907    90A      0.423717  
      91A      0.430980    92A      0.434536    93A      0.438371  
      94A      0.441606    95A      0.445467    96A      0.457736  
      97A      0.469713    98A      0.472043    99A      0.477480  
     100A      0.482339   101A      0.503306   102A      0.504858  
     103A      0.512626   104A      0.514816   105A      0.528388  
     106A      0.532087   107A      0.537157   108A      0.542525  
     109A      0.551528   110A      0.555173   111A      0.582503  
     112A      0.587014   113A      0.593663   114A      0.606741  
     115A      0.612736   116A      0.620044   117A      0.627178  
     118A      0.631329   119A      0.643368   120A      0.654645  
     121A      0.663062   122A      0.668593   123A      0.673620  
     124A      0.675344   125A      0.690748   126A      0.702476  
     127A      0.704401   128A      0.727060   129A      0.732101  
     130A      0.747519   131A      0.758791   132A      0.764471  
     133A      0.777412   134A      0.789792   135A      0.794112  
     136A      0.799885   137A      0.806138   138A      0.817627  
     139A      0.827651   140A      0.839458   141A      0.861657  
     142A      0.867643   143A      0.873713   144A      0.883730  
     145A      0.887089   146A      0.888836   147A      0.905400  
     148A      0.924154   149A      0.935061   150A      0.955749  
     151A      0.958982   152A      0.986464   153A      1.001328  
     154A      1.017441   155A      1.021260   156A      1.050397  
     157A      1.059373   158A      1.068676   159A      1.076325  
     160A      1.078405   161A      1.085801   162A      1.089205  
     163A      1.105904   164A      1.120540   165A      1.153351  
     166A      1.157243   167A      1.175160   168A      1.186748  
     169A      1.196732   170A      1.204143   171A      1.224347  
     172A      1.249650   173A      1.264201   174A      1.269313  
     175A      1.274415   176A      1.292600   177A      1.304936  
     178A      1.319300   179A      1.321342   180A      1.334398  
     181A      1.355514   182A      1.364354   183A      1.381348  
     184A      1.394653   185A      1.404948   186A      1.422036  
     187A      1.464007   188A      1.481881   189A      1.484887  
     190A      1.489833   191A      1.532394   192A      1.544782  
     193A      1.555902   194A      1.591754   195A      1.609773  
     196A      1.642359   197A      1.643519   198A      1.668174  
     199A      1.671988   200A      1.697349   201A      1.699765  
     202A      1.721319   203A      1.752630   204A      1.757480  
     205A      1.788036   206A      1.809920   207A      1.838180  
     208A      1.852851   209A      1.853164   210A      1.855323  
     211A      1.894432   212A      1.920065   213A      1.952894  
     214A      1.958283   215A      1.974022   216A      1.982792  
     217A      2.002539   218A      2.047789   219A      2.063145  
     220A      2.071692   221A      2.073753   222A      2.098080  
     223A      2.109076   224A      2.116306   225A      2.156045  
     226A      2.202444   227A      2.211232   228A      2.239418  
     229A      2.251597   230A      2.259296   231A      2.288915  
     232A      2.302336   233A      2.315895   234A      2.323302  
     235A      2.335106   236A      2.357682   237A      2.365620  
     238A      2.390323   239A      2.429288   240A      2.439702  
     241A      2.445453   242A      2.470942   243A      2.480052  
     244A      2.503318   245A      2.507214   246A      2.530634  
     247A      2.550431   248A      2.566434   249A      2.612181  
     250A      2.636913   251A      2.653638   252A      2.667546  
     253A      2.671334   254A      2.728002   255A      2.732952  
     256A      2.748856   257A      2.768307   258A      2.787769  
     259A      2.811876   260A      2.841074   261A      2.851435  
     262A      2.892403   263A      2.911186   264A      2.928508  
     265A      2.968784   266A      2.991896   267A      3.007741  
     268A      3.065129   269A      3.117523   270A      3.167011  
     271A      3.190012   272A      3.219747   273A      3.273400  
     274A      3.328072   275A      3.380427   276A      3.466230  
     277A      3.508536   278A      3.556001   279A      3.649121  
     280A      3.765308   281A      3.782495   282A      3.806870  
     283A      3.825150   284A      3.825969   285A      3.867938  
     286A      3.896988   287A      3.951513   288A      4.017056  
     289A      4.033379   290A      4.093042   291A      4.125327  
     292A      4.173600   293A      4.277630   294A      4.969368  
     295A      4.989471   296A      5.023743   297A      5.166116  
     298A      5.455976   299A      5.925945   300A      6.530992  
     301A      6.963107   302A     33.550950  

    Final Occupation by Irrep:
              A 
    DOCC [    33 ]

  @DF-RHF Final Energy:  -451.56809310654279

   => Energetics <=

    Nuclear Repulsion Energy =            438.2965297642548990
    One-Electron Energy =               -1484.3700998354615876
    Two-Electron Energy =                 594.5054769646638988
    Total Energy =                       -451.5680931065427330

Computation Completed


Properties will be evaluated at   0.000000,   0.000000,   0.000000 [a0]

Properties computed using the SCF density matrix

  Nuclear Dipole Moment: [e a0]
     X:    78.4870      Y:    -9.7637      Z:     0.1388

  Electronic Dipole Moment: [e a0]
     X:   -78.6958      Y:    11.7604      Z:    -0.1499

  Dipole Moment: [e a0]
     X:    -0.2088      Y:     1.9967      Z:    -0.0110     Total:     2.0076

  Dipole Moment: [D]
     X:    -0.5306      Y:     5.0752      Z:    -0.0280     Total:     5.1029


*** tstop() called on node160.bme.utexas.edu at Sun Apr 14 22:15:22 2024
Module time:
	user time   =      23.02 seconds =       0.38 minutes
	system time =       0.47 seconds =       0.01 minutes
	total time  =          4 seconds =       0.07 minutes
Total time:
	user time   =      62.49 seconds =       1.04 minutes
	system time =       1.34 seconds =       0.02 minutes
	total time  =         10 seconds =       0.17 minutes

*** tstart() called on node160.bme.utexas.edu
*** at Sun Apr 14 22:15:22 2024


  //>>>>>>>>>>>>>>>>>>>>>>>>>>>>>>>>>>>//
  //               DFMP2               //
  //<<<<<<<<<<<<<<<<<<<<<<<<<<<<<<<<<<<//

   => Loading Basis Set <=

    Name: (AUG-CC-PVDZ AUX)
    Role: RIFIT
    Keyword: DF_BASIS_MP2
    atoms 1, 5                   entry N          line   158 file /opt/anaconda/envs/psi4v1.5/share/psi4/basis/aug-cc-pvdz-ri.gbs 
    atoms 2, 6, 11, 13-15, 17-18 entry H          line    30 file /opt/anaconda/envs/psi4v1.5/share/psi4/basis/aug-cc-pvdz-ri.gbs 
    atoms 3, 7, 9-10, 12         entry C          line   112 file /opt/anaconda/envs/psi4v1.5/share/psi4/basis/aug-cc-pvdz-ri.gbs 
    atoms 4, 8, 16               entry O          line   204 file /opt/anaconda/envs/psi4v1.5/share/psi4/basis/aug-cc-pvdz-ri.gbs 

	 --------------------------------------------------------
	                          DF-MP2                         
	      2nd-Order Density-Fitted Moller-Plesset Theory     
	              RMP2 Wavefunction,   8 Threads             
	                                                         
	        Rob Parrish, Justin Turney, Andy Simmonett,      
	           Ed Hohenstein, and C. David Sherrill          
	 --------------------------------------------------------

   => Auxiliary Basis Set <=

  Basis Set: (AUG-CC-PVDZ AUX)
    Blend: AUG-CC-PVDZ-RI
    Number of shells: 292
    Number of basis functions: 904
    Number of Cartesian functions: 1060
    Spherical Harmonics?: true
    Max angular momentum: 3

	 --------------------------------------------------------
	                 NBF =   302, NAUX =   904
	 --------------------------------------------------------
	   CLASS    FOCC     OCC    AOCC    AVIR     VIR    FVIR
	   PAIRS       9      33      24     269     269       0
	 --------------------------------------------------------

	 Will attempt to load fitting metric from file 97.

	-----------------------------------------------------------
	 ==================> DF-MP2 Energies <==================== 
	-----------------------------------------------------------
	 Reference Energy          =    -451.5680931065427899 [Eh]
	 Singles Energy            =      -0.0000000000000000 [Eh]
	 Same-Spin Energy          =      -0.3798119222796795 [Eh]
	 Opposite-Spin Energy      =      -1.0247147119999420 [Eh]
	 Correlation Energy        =      -1.4045266342796214 [Eh]
	 Total Energy              =    -452.9726197408224380 [Eh]
	-----------------------------------------------------------
	 ================> DF-SCS-MP2 Energies <================== 
	-----------------------------------------------------------
	 SCS Same-Spin Scale       =       0.3333333333333333 [-]
	 SCS Opposite-Spin Scale   =       1.2000000000000000 [-]
	 SCS Same-Spin Energy      =      -0.1266039740932265 [Eh]
	 SCS Opposite-Spin Energy  =      -1.2296576543999305 [Eh]
	 SCS Correlation Energy    =      -1.3562616284931570 [Eh]
	 SCS Total Energy          =    -452.9243547350359336 [Eh]
	-----------------------------------------------------------


*** tstop() called on node160.bme.utexas.edu at Sun Apr 14 22:15:23 2024
Module time:
	user time   =       7.45 seconds =       0.12 minutes
	system time =       0.20 seconds =       0.00 minutes
	total time  =          1 seconds =       0.02 minutes
Total time:
	user time   =      69.94 seconds =       1.17 minutes
	system time =       1.54 seconds =       0.03 minutes
	total time  =         11 seconds =       0.18 minutes

  //>>>>>>>>>>>>>>>>>>>>>>>>>>>>>>>>>>>//
  //            Monomer B HF           //
  //<<<<<<<<<<<<<<<<<<<<<<<<<<<<<<<<<<<//


*** tstart() called on node160.bme.utexas.edu
*** at Sun Apr 14 22:15:23 2024

   => Loading Basis Set <=

    Name: AUG-CC-PVDZ
    Role: ORBITAL
    Keyword: BASIS
    atoms 1, 5                   entry N          line   218 file /opt/anaconda/envs/psi4v1.5/share/psi4/basis/aug-cc-pvdz.gbs 
    atoms 2, 6, 11, 13-15, 17-18 entry H          line    40 file /opt/anaconda/envs/psi4v1.5/share/psi4/basis/aug-cc-pvdz.gbs 
    atoms 3, 7, 9-10, 12         entry C          line   182 file /opt/anaconda/envs/psi4v1.5/share/psi4/basis/aug-cc-pvdz.gbs 
    atoms 4, 8, 16               entry O          line   254 file /opt/anaconda/envs/psi4v1.5/share/psi4/basis/aug-cc-pvdz.gbs 


         ---------------------------------------------------------
                                   SCF
               by Justin Turney, Rob Parrish, Andy Simmonett
                          and Daniel G. A. Smith
                              RHF Reference
                        8 Threads,  47683 MiB Core
         ---------------------------------------------------------

  ==> Geometry <==

    Molecular point group: c1
    Full point group: C1

    Geometry (in Angstrom), charge = 0, multiplicity = 1:

       Center              X                  Y                   Z               Mass       
    ------------   -----------------  -----------------  -----------------  -----------------
      Gh(N)          -0.862464799516     0.690366292408    -0.000425760345    14.003074004430
      Gh(H)          -1.776994799516     1.157796292408    -0.009845760345     1.007825032230
      Gh(C)          -0.925444799516    -0.683603707592    -0.003025760345    12.000000000000
      Gh(O)          -1.984044799516    -1.324193707592    -0.011565760345    15.994914619570
      Gh(N)           0.315175200484    -1.287963707592     0.006844239655    14.003074004430
      Gh(H)           0.311535200484    -2.305093707592     0.003924239655     1.007825032230
      Gh(C)           1.579655200484    -0.674533707592     0.009154239655    12.000000000000
      Gh(O)           2.604055200484    -1.355563707592     0.016014239655    15.994914619570
      Gh(C)           1.535445200484     0.784666292408     0.001924239655    12.000000000000
      Gh(C)           0.323185200484     1.392186292408    -0.004135760345    12.000000000000
      Gh(H)           0.215405200484     2.473226292408    -0.011735760345     1.007825032230
      Gh(C)           2.839325200484     1.519186292408    -0.001155760345    12.000000000000
      Gh(H)           2.678345200484     2.600466292408    -0.007745760345     1.007825032230
      Gh(H)           3.430895200484     1.255466292408     0.880024239655     1.007825032230
      Gh(H)           3.432285200484     1.245246292408    -0.878235760345     1.007825032230
         O           -4.141421999516     0.976151892408    -0.053003093678    15.994914619570
         H           -3.904171999516     0.025581892408    -0.113493093678     1.007825032230
         H           -4.623031999516     1.051001892408     0.785646906322     1.007825032230

  Running in c1 symmetry.

  Rotational constants: A =      0.08535  B =      0.02414  C =      0.01892 [cm^-1]
  Rotational constants: A =   2558.65924  B =    723.84827  C =    567.06663 [MHz]
  Nuclear repulsion =    9.020428804714303

  Charge       = 0
  Multiplicity = 1
  Electrons    = 10
  Nalpha       = 5
  Nbeta        = 5

  ==> Algorithm <==

  SCF Algorithm Type is DF.
  DIIS enabled.
  MOM disabled.
  Fractional occupation disabled.
  Guess Type is SAD.
  Energy threshold   = 1.00e-08
  Density threshold  = 1.00e-08
  Integral threshold = 1.00e-12

  ==> Primary Basis <==

  Basis Set: AUG-CC-PVDZ
    Blend: AUG-CC-PVDZ
    Number of shells: 130
    Number of basis functions: 302
    Number of Cartesian functions: 322
    Spherical Harmonics?: true
    Max angular momentum: 2

   => Loading Basis Set <=

    Name: (AUG-CC-PVDZ AUX)
    Role: JKFIT
    Keyword: DF_BASIS_SCF
    atoms 1, 5                   entry N          line   212 file /opt/anaconda/envs/psi4v1.5/share/psi4/basis/aug-cc-pvdz-jkfit.gbs 
    atoms 2, 6, 11, 13-15, 17-18 entry H          line    70 file /opt/anaconda/envs/psi4v1.5/share/psi4/basis/aug-cc-pvdz-jkfit.gbs 
    atoms 3, 7, 9-10, 12         entry C          line   154 file /opt/anaconda/envs/psi4v1.5/share/psi4/basis/aug-cc-pvdz-jkfit.gbs 
    atoms 4, 8, 16               entry O          line   270 file /opt/anaconda/envs/psi4v1.5/share/psi4/basis/aug-cc-pvdz-jkfit.gbs 

  ==> Integral Setup <==

  ==> DiskDFJK: Density-Fitted J/K Matrices <==

    J tasked:                  Yes
    K tasked:                  Yes
    wK tasked:                  No
    OpenMP threads:              8
    Integrals threads:           8
    Memory [MiB]:            35762
    Algorithm:                Core
    Integral Cache:           LOAD
    Schwarz Cutoff:          1E-12
    Fitting Condition:       1E-10

   => Auxiliary Basis Set <=

  Basis Set: (AUG-CC-PVDZ AUX)
    Blend: AUG-CC-PVDZ-JKFIT
    Number of shells: 376
    Number of basis functions: 1116
    Number of Cartesian functions: 1290
    Spherical Harmonics?: true
    Max angular momentum: 3

  Minimum eigenvalue in the overlap matrix is 7.5586634698E-06.
  Reciprocal condition number of the overlap matrix is 5.1417304089E-07.
    Using symmetric orthogonalization.

  ==> Pre-Iterations <==

  SCF Guess: Superposition of Atomic Densities via on-the-fly atomic UHF (no occupation information).

   -------------------------
    Irrep   Nso     Nmo    
   -------------------------
     A        302     302 
   -------------------------
    Total     302     302
   -------------------------

  ==> Iterations <==

                           Total Energy        Delta E     RMS |[F,P]|

   @DF-RHF iter SAD:   -75.44430343444071   -7.54443e+01   0.00000e+00 
   @DF-RHF iter   1:   -75.95497148256196   -5.10668e-01   1.49856e-03 DIIS
   @DF-RHF iter   2:   -76.00766869985850   -5.26972e-02   9.98904e-04 DIIS
   @DF-RHF iter   3:   -76.03955068324773   -3.18820e-02   7.13434e-05 DIIS
   @DF-RHF iter   4:   -76.03995052589565   -3.99843e-04   1.66741e-05 DIIS
   @DF-RHF iter   5:   -76.03997521046325   -2.46846e-05   3.83661e-06 DIIS
   @DF-RHF iter   6:   -76.03997723473532   -2.02427e-06   7.73753e-07 DIIS
   @DF-RHF iter   7:   -76.03997732107520   -8.63399e-08   1.28102e-07 DIIS
   @DF-RHF iter   8:   -76.03997732323054   -2.15535e-09   2.08160e-08 DIIS
   @DF-RHF iter   9:   -76.03997732328097   -5.04201e-11   5.49831e-09 DIIS
  Energy and wave function converged.


  ==> Post-Iterations <==

    Orbital Energies [Eh]
    ---------------------

    Doubly Occupied:                                                      

       1A    -20.580558     2A     -1.347218     3A     -0.708787  
       4A     -0.582138     5A     -0.507852  

    Virtual:                                                              

       6A      0.020505     7A      0.032980     8A      0.039814  
       9A      0.051447    10A      0.053625    11A      0.060297  
      12A      0.069405    13A      0.078052    14A      0.087762  
      15A      0.090414    16A      0.102611    17A      0.109501  
      18A      0.112952    19A      0.118828    20A      0.124198  
      21A      0.131890    22A      0.139364    23A      0.149830  
      24A      0.154041    25A      0.162975    26A      0.165973  
      27A      0.174618    28A      0.180680    29A      0.186195  
      30A      0.187254    31A      0.199726    32A      0.206616  
      33A      0.210227    34A      0.219323    35A      0.224707  
      36A      0.229186    37A      0.232601    38A      0.242921  
      39A      0.248875    40A      0.251398    41A      0.259939  
      42A      0.269331    43A      0.279968    44A      0.284016  
      45A      0.293331    46A      0.300216    47A      0.303190  
      48A      0.319250    49A      0.326984    50A      0.333081  
      51A      0.342919    52A      0.350393    53A      0.359571  
      54A      0.369504    55A      0.377397    56A      0.390100  
      57A      0.405454    58A      0.406750    59A      0.411378  
      60A      0.422983    61A      0.439912    62A      0.446752  
      63A      0.449832    64A      0.462937    65A      0.469236  
      66A      0.474378    67A      0.484586    68A      0.494059  
      69A      0.501254    70A      0.509414    71A      0.512564  
      72A      0.517802    73A      0.530815    74A      0.533622  
      75A      0.539563    76A      0.554200    77A      0.558838  
      78A      0.560858    79A      0.566988    80A      0.579553  
      81A      0.592358    82A      0.600796    83A      0.609678  
      84A      0.614075    85A      0.619764    86A      0.633923  
      87A      0.640999    88A      0.645371    89A      0.657727  
      90A      0.663761    91A      0.676820    92A      0.686444  
      93A      0.696057    94A      0.712979    95A      0.719966  
      96A      0.735543    97A      0.739353    98A      0.749048  
      99A      0.759010   100A      0.784675   101A      0.790887  
     102A      0.810275   103A      0.815498   104A      0.824655  
     105A      0.841463   106A      0.846079   107A      0.854453  
     108A      0.858144   109A      0.879247   110A      0.885570  
     111A      0.891953   112A      0.900762   113A      0.905236  
     114A      0.920192   115A      0.927058   116A      0.937054  
     117A      0.939102   118A      0.961272   119A      0.977540  
     120A      1.009124   121A      1.012773   122A      1.018014  
     123A      1.033472   124A      1.047633   125A      1.070663  
     126A      1.086066   127A      1.103304   128A      1.124012  
     129A      1.126588   130A      1.146169   131A      1.150470  
     132A      1.165560   133A      1.167357   134A      1.182877  
     135A      1.183950   136A      1.201961   137A      1.222908  
     138A      1.231633   139A      1.240672   140A      1.254566  
     141A      1.273587   142A      1.277084   143A      1.279855  
     144A      1.305605   145A      1.329991   146A      1.337269  
     147A      1.342612   148A      1.375671   149A      1.382450  
     150A      1.386043   151A      1.398949   152A      1.416731  
     153A      1.425319   154A      1.436098   155A      1.445842  
     156A      1.459776   157A      1.476810   158A      1.481579  
     159A      1.505636   160A      1.525741   161A      1.560407  
     162A      1.568376   163A      1.585547   164A      1.589734  
     165A      1.603615   166A      1.613317   167A      1.663086  
     168A      1.683465   169A      1.703686   170A      1.756120  
     171A      1.770784   172A      1.806670   173A      1.928946  
     174A      1.938525   175A      1.956295   176A      1.979369  
     177A      2.011998   178A      2.022213   179A      2.124151  
     180A      2.168522   181A      2.174685   182A      2.197958  
     183A      2.238032   184A      2.270858   185A      2.279564  
     186A      2.306797   187A      2.311549   188A      2.323894  
     189A      2.356648   190A      2.357649   191A      2.382880  
     192A      2.394806   193A      2.407267   194A      2.421844  
     195A      2.432375   196A      2.469317   197A      2.481200  
     198A      2.500648   199A      2.524511   200A      2.527468  
     201A      2.537903   202A      2.546100   203A      2.572438  
     204A      2.576277   205A      2.599734   206A      2.655396  
     207A      2.708706   208A      2.713112   209A      2.733013  
     210A      2.754280   211A      2.774944   212A      2.780131  
     213A      2.789720   214A      2.851144   215A      2.855727  
     216A      2.862491   217A      2.900554   218A      2.944404  
     219A      2.958461   220A      3.004418   221A      3.060803  
     222A      3.099873   223A      3.108850   224A      3.133669  
     225A      3.214533   226A      3.232679   227A      3.249707  
     228A      3.283200   229A      3.346818   230A      3.369587  
     231A      3.438624   232A      3.463206   233A      3.471448  
     234A      3.492724   235A      3.509728   236A      3.542760  
     237A      3.548483   238A      3.641732   239A      3.677931  
     240A      3.687186   241A      3.718198   242A      3.749921  
     243A      3.768007   244A      3.782182   245A      3.783565  
     246A      3.796443   247A      3.811033   248A      3.886893  
     249A      3.890822   250A      3.932260   251A      3.956604  
     252A      4.069325   253A      4.097585   254A      4.157867  
     255A      4.213198   256A      4.319685   257A      4.332419  
     258A      4.412849   259A      4.462438   260A      4.569790  
     261A      4.608829   262A      4.658919   263A      4.665851  
     264A      4.694274   265A      4.761038   266A      4.887753  
     267A      4.909407   268A      4.979859   269A      5.014120  
     270A      5.018509   271A      5.046198   272A      5.058472  
     273A      5.080562   274A      5.087833   275A      5.138770  
     276A      5.175462   277A      5.236048   278A      5.295238  
     279A      5.379514   280A      5.489513   281A      5.619540  
     282A      5.745886   283A      5.902290   284A      5.933536  
     285A      5.951617   286A      6.055689   287A      6.060645  
     288A      6.153966   289A      6.209890   290A      6.423047  
     291A      6.560947   292A      6.998850   293A      7.210502  
     294A     18.160266   295A     18.668763   296A     18.809869  
     297A     18.829070   298A     19.630673   299A     25.456199  
     300A     25.461598   301A     33.522762   302A     33.543346  

    Final Occupation by Irrep:
              A 
    DOCC [     5 ]

  @DF-RHF Final Energy:   -76.03997732328097

   => Energetics <=

    Nuclear Repulsion Energy =              9.0204288047143031
    One-Electron Energy =                -122.6677028938528622
    Two-Electron Energy =                  37.6072967658575976
    Total Energy =                        -76.0399773232809650

Computation Completed


Properties will be evaluated at   0.000000,   0.000000,   0.000000 [a0]

Properties computed using the SCF density matrix

  Nuclear Dipole Moment: [e a0]
     X:   -78.7233      Y:    16.7917      Z:     0.4689

  Electronic Dipole Moment: [e a0]
     X:    78.5621      Y:   -17.3698      Z:     0.0468

  Dipole Moment: [e a0]
     X:    -0.1613      Y:    -0.5780      Z:     0.5156     Total:     0.7912

  Dipole Moment: [D]
     X:    -0.4099      Y:    -1.4692      Z:     1.3107     Total:     2.0111


*** tstop() called on node160.bme.utexas.edu at Sun Apr 14 22:15:25 2024
Module time:
	user time   =      12.56 seconds =       0.21 minutes
	system time =       0.19 seconds =       0.00 minutes
	total time  =          2 seconds =       0.03 minutes
Total time:
	user time   =      82.52 seconds =       1.38 minutes
	system time =       1.73 seconds =       0.03 minutes
	total time  =         13 seconds =       0.22 minutes

*** tstart() called on node160.bme.utexas.edu
*** at Sun Apr 14 22:15:25 2024


  //>>>>>>>>>>>>>>>>>>>>>>>>>>>>>>>>>>>//
  //               DFMP2               //
  //<<<<<<<<<<<<<<<<<<<<<<<<<<<<<<<<<<<//

   => Loading Basis Set <=

    Name: (AUG-CC-PVDZ AUX)
    Role: RIFIT
    Keyword: DF_BASIS_MP2
    atoms 1, 5                   entry N          line   158 file /opt/anaconda/envs/psi4v1.5/share/psi4/basis/aug-cc-pvdz-ri.gbs 
    atoms 2, 6, 11, 13-15, 17-18 entry H          line    30 file /opt/anaconda/envs/psi4v1.5/share/psi4/basis/aug-cc-pvdz-ri.gbs 
    atoms 3, 7, 9-10, 12         entry C          line   112 file /opt/anaconda/envs/psi4v1.5/share/psi4/basis/aug-cc-pvdz-ri.gbs 
    atoms 4, 8, 16               entry O          line   204 file /opt/anaconda/envs/psi4v1.5/share/psi4/basis/aug-cc-pvdz-ri.gbs 

	 --------------------------------------------------------
	                          DF-MP2                         
	      2nd-Order Density-Fitted Moller-Plesset Theory     
	              RMP2 Wavefunction,   8 Threads             
	                                                         
	        Rob Parrish, Justin Turney, Andy Simmonett,      
	           Ed Hohenstein, and C. David Sherrill          
	 --------------------------------------------------------

   => Auxiliary Basis Set <=

  Basis Set: (AUG-CC-PVDZ AUX)
    Blend: AUG-CC-PVDZ-RI
    Number of shells: 292
    Number of basis functions: 904
    Number of Cartesian functions: 1060
    Spherical Harmonics?: true
    Max angular momentum: 3

	 --------------------------------------------------------
	                 NBF =   302, NAUX =   904
	 --------------------------------------------------------
	   CLASS    FOCC     OCC    AOCC    AVIR     VIR    FVIR
	   PAIRS       1       5       4     297     297       0
	 --------------------------------------------------------

	 Will attempt to load fitting metric from file 97.

	-----------------------------------------------------------
	 ==================> DF-MP2 Energies <==================== 
	-----------------------------------------------------------
	 Reference Energy          =     -76.0399773232809650 [Eh]
	 Singles Energy            =      -0.0000000000000000 [Eh]
	 Same-Spin Energy          =      -0.0563462181196344 [Eh]
	 Opposite-Spin Energy      =      -0.1653118899596772 [Eh]
	 Correlation Energy        =      -0.2216581080793116 [Eh]
	 Total Energy              =     -76.2616354313602756 [Eh]
	-----------------------------------------------------------
	 ================> DF-SCS-MP2 Energies <================== 
	-----------------------------------------------------------
	 SCS Same-Spin Scale       =       0.3333333333333333 [-]
	 SCS Opposite-Spin Scale   =       1.2000000000000000 [-]
	 SCS Same-Spin Energy      =      -0.0187820727065448 [Eh]
	 SCS Opposite-Spin Energy  =      -0.1983742679516126 [Eh]
	 SCS Correlation Energy    =      -0.2171563406581574 [Eh]
	 SCS Total Energy          =     -76.2571336639391291 [Eh]
	-----------------------------------------------------------


*** tstop() called on node160.bme.utexas.edu at Sun Apr 14 22:15:26 2024
Module time:
	user time   =       6.08 seconds =       0.10 minutes
	system time =       0.10 seconds =       0.00 minutes
	total time  =          1 seconds =       0.02 minutes
Total time:
	user time   =      88.61 seconds =       1.48 minutes
	system time =       1.83 seconds =       0.03 minutes
	total time  =         14 seconds =       0.23 minutes
  Constructing Basis Sets for SAPT...

   => Loading Basis Set <=

    Name: (AUG-CC-PVDZ AUX)
    Role: RIFIT
    Keyword: DF_BASIS_SAPT
    atoms 1, 5                   entry N          line   158 file /opt/anaconda/envs/psi4v1.5/share/psi4/basis/aug-cc-pvdz-ri.gbs 
    atoms 2, 6, 11, 13-15, 17-18 entry H          line    30 file /opt/anaconda/envs/psi4v1.5/share/psi4/basis/aug-cc-pvdz-ri.gbs 
    atoms 3, 7, 9-10, 12         entry C          line   112 file /opt/anaconda/envs/psi4v1.5/share/psi4/basis/aug-cc-pvdz-ri.gbs 
    atoms 4, 8, 16               entry O          line   204 file /opt/anaconda/envs/psi4v1.5/share/psi4/basis/aug-cc-pvdz-ri.gbs 


  //>>>>>>>>>>>>>>>>>>>>>>>>>>>>>>>>>>>//
  //           SAPT2+(3)DMP2           //
  //<<<<<<<<<<<<<<<<<<<<<<<<<<<<<<<<<<<//


*** tstart() called on node160.bme.utexas.edu
*** at Sun Apr 14 22:15:26 2024

      SAPT2+(3)  
    Ed Hohenstein
     6 June 2009

      Orbital Information
  --------------------------
    NSO        =       302
    NMO        =       302
    NRI        =       904
    NOCC A     =        33
    NOCC B     =         5
    FOCC A     =         9
    FOCC B     =         1
    NVIR A     =       269
    NVIR B     =       297

    Estimated memory usage: 2943.4 MB

    Natural Orbital Cutoff:   1.000E-06
    Disp(T3) Truncation:            Yes
    CCD (vv|vv) Truncation:         Yes
    MBPT T2 Truncation:             Yes

    Monomer A: 49 virtual orbitals dropped
    Monomer B: 257 virtual orbitals dropped

    Elst10,r            =    -0.015715103327 [Eh]
    Exch10 (S^2)        =     0.006797500996 [Eh]
    Exch10              =     0.006816649050 [Eh]
    Ind20,r (A<-B)      =    -0.001688047715 [Eh]
    Ind20,r (B<-A)      =    -0.002076963651 [Eh]
    Ind20,r             =    -0.003765011365 [Eh]
    Exch-Ind20,r (A<-B) =     0.000860902873 [Eh]
    Exch-Ind20,r (B<-A) =     0.000819609096 [Eh]
    Exch-Ind20,r        =     0.001680511969 [Eh]
    Disp20              =    -0.003990542289 [Eh]
    Disp20 (NO)         =    -0.003554370659 [Eh]
    Exch-Disp20         =     0.000522480798 [Eh]
    Elst12,r            =     0.000581223150 [Eh]
    Exch11              =    -0.000033927386 [Eh]
    Exch12              =     0.001954531202 [Eh]
    Ind22               =    -0.000730039935 [Eh]
    Disp21              =     0.000221351050 [Eh]
    Disp22 (SDQ)        =    -0.000234518093 [Eh]

    (i =   1 of   4)         13 seconds
    (i =   2 of   4)         26 seconds
    (i =   3 of   4)         38 seconds
    (i =   4 of   4)         51 seconds

    Disp220 (T)         =    -0.000364183091 [Eh]

    (i =   1 of  24)          0 seconds
    (i =   2 of  24)          0 seconds
    (i =   3 of  24)          0 seconds
    (i =   4 of  24)          0 seconds
    (i =   5 of  24)          0 seconds
    (i =   6 of  24)          0 seconds
    (i =   7 of  24)          0 seconds
    (i =   8 of  24)          1 seconds
    (i =   9 of  24)          1 seconds
    (i =  10 of  24)          1 seconds
    (i =  11 of  24)          1 seconds
    (i =  12 of  24)          1 seconds
    (i =  13 of  24)          1 seconds
    (i =  14 of  24)          1 seconds
    (i =  15 of  24)          2 seconds
    (i =  16 of  24)          2 seconds
    (i =  17 of  24)          2 seconds
    (i =  18 of  24)          2 seconds
    (i =  19 of  24)          2 seconds
    (i =  20 of  24)          2 seconds
    (i =  21 of  24)          2 seconds
    (i =  22 of  24)          2 seconds
    (i =  23 of  24)          3 seconds
    (i =  24 of  24)          3 seconds

    Disp202 (T)         =    -0.000307346421 [Eh]

    Disp22 (T)          =    -0.000671529512 [Eh]

    Est. Disp220 (T)    =    -0.000408873515 [Eh]
    Est. Disp202 (T)    =    -0.000345062180 [Eh]

    Est. Disp22 (T)     =    -0.000753935695 [Eh]
    Elst13,r            =     0.000098623669 [Eh]
    Disp30              =     0.000059744274 [Eh]

    SAPT Results 
  --------------------------------------------------------------------------------------------------------
    Electrostatics                -15.03525651 [mEh]      -9.43476590 [kcal/mol]     -39.47506052 [kJ/mol]
      Elst10,r                    -15.71510333 [mEh]      -9.86137622 [kcal/mol]     -41.25999810 [kJ/mol]
      Elst12,r                      0.58122315 [mEh]       0.36472303 [kcal/mol]       1.52600117 [kJ/mol]
      Elst13,r                      0.09862367 [mEh]       0.06188729 [kcal/mol]       0.25893641 [kJ/mol]

    Exchange                        8.73725287 [mEh]       5.48270895 [kcal/mol]      22.93965424 [kJ/mol]
      Exch10                        6.81664905 [mEh]       4.27751186 [kcal/mol]      17.89710962 [kJ/mol]
      Exch10(S^2)                   6.79750100 [mEh]       4.26549627 [kcal/mol]      17.84683641 [kJ/mol]
      Exch11(S^2)                  -0.03392739 [mEh]      -0.02128976 [kcal/mol]      -0.08907634 [kJ/mol]
      Exch12(S^2)                   1.95453120 [mEh]       1.22648685 [kcal/mol]       5.13162097 [kJ/mol]

    Induction                      -3.27114404 [mEh]      -2.05267388 [kcal/mol]      -8.58838750 [kJ/mol]
      Ind20,r                      -3.76501137 [mEh]      -2.36258030 [kcal/mol]      -9.88503598 [kJ/mol]
      Ind22                        -0.73003994 [mEh]      -0.45810698 [kcal/mol]      -1.91671959 [kJ/mol]
      Exch-Ind20,r                  1.68051197 [mEh]       1.05453718 [kcal/mol]       4.41218357 [kJ/mol]
      Exch-Ind22                    0.32585316 [mEh]       0.20447594 [kcal/mol]       0.85552735 [kJ/mol]
      delta HF,r (2)               -0.85038136 [mEh]      -0.53362236 [kcal/mol]      -2.23267596 [kJ/mol]
      delta MP2,r (2)               0.06792349 [mEh]       0.04262263 [kcal/mol]       0.17833310 [kJ/mol]

    Dispersion                     -4.17541995 [mEh]      -2.62011558 [kcal/mol]     -10.96256358 [kJ/mol]
      Disp20                       -3.99054229 [mEh]      -2.50410309 [kcal/mol]     -10.47716734 [kJ/mol]
      Disp30                        0.05974427 [mEh]       0.03749010 [kcal/mol]       0.15685857 [kJ/mol]
      Disp21                        0.22135105 [mEh]       0.13889988 [kcal/mol]       0.58115710 [kJ/mol]
      Disp22 (SDQ)                 -0.23451809 [mEh]      -0.14716233 [kcal/mol]      -0.61572717 [kJ/mol]
      Disp22 (T)                   -0.67152951 [mEh]      -0.42139113 [kcal/mol]      -1.76310049 [kJ/mol]
      Est. Disp22 (T)              -0.75393570 [mEh]      -0.47310179 [kcal/mol]      -1.97945790 [kJ/mol]
      Exch-Disp20                   0.52248080 [mEh]       0.32786165 [kcal/mol]       1.37177315 [kJ/mol]

  Total HF                        -11.83333504 [mEh]      -7.42552984 [kcal/mol]     -31.06841686 [kJ/mol]
  Total SAPT0                     -15.30139653 [mEh]      -9.60177128 [kcal/mol]     -40.17381105 [kJ/mol]
  Total SAPT2                     -13.20375634 [mEh]      -8.28548219 [kcal/mol]     -34.66645748 [kJ/mol]
  Total SAPT2+                    -13.97085907 [mEh]      -8.76684643 [kcal/mol]     -36.68048545 [kJ/mol]
  Total SAPT2+(3)                 -13.81249113 [mEh]      -8.66746904 [kcal/mol]     -36.26469047 [kJ/mol]
  Total SAPT2+dMP2                -13.90293558 [mEh]      -8.72422379 [kcal/mol]     -36.50215234 [kJ/mol]
  Total SAPT2+(3)dMP2             -13.74456764 [mEh]      -8.62484641 [kcal/mol]     -36.08635737 [kJ/mol]

  Special recipe for scaled SAPT0 (see Manual):
    Electrostatics sSAPT0         -15.71510333 [mEh]      -9.86137622 [kcal/mol]     -41.25999810 [kJ/mol]
    Exchange sSAPT0                 6.81664905 [mEh]       4.27751186 [kcal/mol]      17.89710962 [kJ/mol]
    Induction sSAPT0               -2.92063909 [mEh]      -1.83272870 [kcal/mol]      -7.66813686 [kJ/mol]
    Dispersion sSAPT0              -3.46363367 [mEh]      -2.17346294 [kcal/mol]      -9.09376895 [kJ/mol]
  Total sSAPT0                    -15.28272704 [mEh]      -9.59005600 [kcal/mol]     -40.12479430 [kJ/mol]
  --------------------------------------------------------------------------------------------------------

*** tstop() called on node160.bme.utexas.edu at Sun Apr 14 22:18:01 2024
Module time:
	user time   =    1191.62 seconds =      19.86 minutes
	system time =      18.57 seconds =       0.31 minutes
	total time  =        155 seconds =       2.58 minutes
Total time:
	user time   =    1280.73 seconds =      21.35 minutes
	system time =      20.41 seconds =       0.34 minutes
	total time  =        169 seconds =       2.82 minutes

    Psi4 stopped on: Sunday, 14 April 2024 10:18PM
    Psi4 wall time for execution: 0:02:48.97

*** Psi4 exiting successfully. Buy a developer a beer!
