
    -----------------------------------------------------------------------
          Psi4: An Open-Source Ab Initio Electronic Structure Package
                               Psi4 1.5 release

                         Git: Rev {HEAD} e9f4d6d 


    D. G. A. Smith, L. A. Burns, A. C. Simmonett, R. M. Parrish,
    M. C. Schieber, R. Galvelis, P. Kraus, H. Kruse, R. Di Remigio,
    A. Alenaizan, A. M. James, S. Lehtola, J. P. Misiewicz, M. Scheurer,
    R. A. Shaw, J. B. Schriber, Y. Xie, Z. L. Glick, D. A. Sirianni,
    J. S. O'Brien, J. M. Waldrop, A. Kumar, E. G. Hohenstein,
    B. P. Pritchard, B. R. Brooks, H. F. Schaefer III, A. Yu. Sokolov,
    K. Patkowski, A. E. DePrince III, U. Bozkaya, R. A. King,
    F. A. Evangelista, J. M. Turney, T. D. Crawford, C. D. Sherrill,
    J. Chem. Phys. 152(18) 184108 (2020). https://doi.org/10.1063/5.0006002

                            Additional Code Authors
    E. T. Seidl, C. L. Janssen, E. F. Valeev, M. L. Leininger,
    J. F. Gonthier, R. M. Richard, H. R. McAlexander, M. Saitow, X. Wang,
    P. Verma, M. H. Lechner, and A. Jiang

             Previous Authors, Complete List of Code Contributors,
                       and Citations for Specific Modules
    https://github.com/psi4/psi4/blob/master/codemeta.json
    https://github.com/psi4/psi4/graphs/contributors
    http://psicode.org/psi4manual/master/introduction.html#citing-psifour

    -----------------------------------------------------------------------


    Psi4 started on: Sunday, 14 April 2024 10:13PM

    Process ID: 3715839
    Host:       node154.bme.utexas.edu
    PSIDATADIR: /opt/anaconda/envs/psi4v1.5/share/psi4
    Memory:     500.0 MiB
    Threads:    8
    
  ==> Input File <==

--------------------------------------------------------------------------
memory 50GB

molecule {
0 1
N -0.92227 0.64524 -0.00218
H -1.8368 1.11267 -0.0116
C -0.98525 -0.72873 -0.00478
O -2.04385 -1.36932 -0.01332
N 0.25537 -1.33309 0.00509
H 0.25173 -2.35022 0.00217
C 1.51985 -0.71966 0.0074
O 2.54425 -1.40069 0.01426
C 1.47564 0.73954 0.00017
C 0.26338 1.34706 -0.00589
H 0.1556 2.4281 -0.01349
C 2.77952 1.47406 -0.00291
H 2.61854 2.55534 -0.0095
H 3.37109 1.21034 0.87827
H 3.37248 1.20012 -0.87999
--
0 1
O -4.2012272 0.9310256 -0.05475733333333334
H -3.9639772 -0.019544399999999996 -0.11524733333333333
H -4.682837200000001 1.0058756 0.7838926666666667
 units angstrom
 no_reorient
 symmetry c1} 
set  {scf_type DF
 basis jun-cc-pvdz
 freeze_core True
 guess SAD}
energy('sapt2+(3)dmp2')
--------------------------------------------------------------------------

  Memory set to  46.566 GiB by Python driver.

Scratch directory: /tmp/
   => Loading Basis Set <=

    Name: JUN-CC-PVDZ
    Role: ORBITAL
    Keyword: BASIS
    atoms 1, 5                   entry N          line   198 file /opt/anaconda/envs/psi4v1.5/share/psi4/basis/jun-cc-pvdz.gbs 
    atoms 2, 6, 11, 13-15, 17-18 entry H          line    36 file /opt/anaconda/envs/psi4v1.5/share/psi4/basis/jun-cc-pvdz.gbs 
    atoms 3, 7, 9-10, 12         entry C          line   164 file /opt/anaconda/envs/psi4v1.5/share/psi4/basis/jun-cc-pvdz.gbs 
    atoms 4, 8, 16               entry O          line   232 file /opt/anaconda/envs/psi4v1.5/share/psi4/basis/jun-cc-pvdz.gbs 

   => Loading Basis Set <=

    Name: JUN-CC-PVDZ
    Role: ORBITAL
    Keyword: BASIS
    atoms 1, 5                   entry N          line   198 file /opt/anaconda/envs/psi4v1.5/share/psi4/basis/jun-cc-pvdz.gbs 
    atoms 2, 6, 11, 13-15, 17-18 entry H          line    36 file /opt/anaconda/envs/psi4v1.5/share/psi4/basis/jun-cc-pvdz.gbs 
    atoms 3, 7, 9-10, 12         entry C          line   164 file /opt/anaconda/envs/psi4v1.5/share/psi4/basis/jun-cc-pvdz.gbs 
    atoms 4, 8, 16               entry O          line   232 file /opt/anaconda/envs/psi4v1.5/share/psi4/basis/jun-cc-pvdz.gbs 


  //>>>>>>>>>>>>>>>>>>>>>>>>>>>>>>>>>>>//
  //              Dimer HF             //
  //<<<<<<<<<<<<<<<<<<<<<<<<<<<<<<<<<<<//


*** tstart() called on node154.bme.utexas.edu
*** at Sun Apr 14 22:13:43 2024

   => Loading Basis Set <=

    Name: JUN-CC-PVDZ
    Role: ORBITAL
    Keyword: BASIS
    atoms 1, 5                   entry N          line   198 file /opt/anaconda/envs/psi4v1.5/share/psi4/basis/jun-cc-pvdz.gbs 
    atoms 2, 6, 11, 13-15, 17-18 entry H          line    36 file /opt/anaconda/envs/psi4v1.5/share/psi4/basis/jun-cc-pvdz.gbs 
    atoms 3, 7, 9-10, 12         entry C          line   164 file /opt/anaconda/envs/psi4v1.5/share/psi4/basis/jun-cc-pvdz.gbs 
    atoms 4, 8, 16               entry O          line   232 file /opt/anaconda/envs/psi4v1.5/share/psi4/basis/jun-cc-pvdz.gbs 


         ---------------------------------------------------------
                                   SCF
               by Justin Turney, Rob Parrish, Andy Simmonett
                          and Daniel G. A. Smith
                              RHF Reference
                        8 Threads,  47683 MiB Core
         ---------------------------------------------------------

  ==> Geometry <==

    Molecular point group: c1
    Full point group: C1

    Geometry (in Angstrom), charge = 0, multiplicity = 1:

       Center              X                  Y                   Z               Mass       
    ------------   -----------------  -----------------  -----------------  -----------------
         N           -0.862464799516     0.690366292408    -0.000425760345    14.003074004430
         H           -1.776994799516     1.157796292408    -0.009845760345     1.007825032230
         C           -0.925444799516    -0.683603707592    -0.003025760345    12.000000000000
         O           -1.984044799516    -1.324193707592    -0.011565760345    15.994914619570
         N            0.315175200484    -1.287963707592     0.006844239655    14.003074004430
         H            0.311535200484    -2.305093707592     0.003924239655     1.007825032230
         C            1.579655200484    -0.674533707592     0.009154239655    12.000000000000
         O            2.604055200484    -1.355563707592     0.016014239655    15.994914619570
         C            1.535445200484     0.784666292408     0.001924239655    12.000000000000
         C            0.323185200484     1.392186292408    -0.004135760345    12.000000000000
         H            0.215405200484     2.473226292408    -0.011735760345     1.007825032230
         C            2.839325200484     1.519186292408    -0.001155760345    12.000000000000
         H            2.678345200484     2.600466292408    -0.007745760345     1.007825032230
         H            3.430895200484     1.255466292408     0.880024239655     1.007825032230
         H            3.432285200484     1.245246292408    -0.878235760345     1.007825032230
         O           -4.141421999516     0.976151892408    -0.053003093678    15.994914619570
         H           -3.904171999516     0.025581892408    -0.113493093678     1.007825032230
         H           -4.623031999516     1.051001892408     0.785646906322     1.007825032230

  Running in c1 symmetry.

  Rotational constants: A =      0.08535  B =      0.02414  C =      0.01892 [cm^-1]
  Rotational constants: A =   2558.65924  B =    723.84827  C =    567.06663 [MHz]
  Nuclear repulsion =  523.180472662453440

  Charge       = 0
  Multiplicity = 1
  Electrons    = 76
  Nalpha       = 38
  Nbeta        = 38

  ==> Algorithm <==

  SCF Algorithm Type is DF.
  DIIS enabled.
  MOM disabled.
  Fractional occupation disabled.
  Guess Type is SAD.
  Energy threshold   = 1.00e-08
  Density threshold  = 1.00e-08
  Integral threshold = 1.00e-12

  ==> Primary Basis <==

  Basis Set: JUN-CC-PVDZ
    Blend: JUN-CC-PVDZ
    Number of shells: 104
    Number of basis functions: 220
    Number of Cartesian functions: 230
    Spherical Harmonics?: true
    Max angular momentum: 2

   => Loading Basis Set <=

    Name: (JUN-CC-PVDZ AUX)
    Role: JKFIT
    Keyword: DF_BASIS_SCF
    atoms 1, 5                   entry N          line   202 file /opt/anaconda/envs/psi4v1.5/share/psi4/basis/jun-cc-pvdz-jkfit.gbs 
    atoms 2, 6, 11, 13-15, 17-18 entry H          line    70 file /opt/anaconda/envs/psi4v1.5/share/psi4/basis/jun-cc-pvdz-jkfit.gbs 
    atoms 3, 7, 9-10, 12         entry C          line   146 file /opt/anaconda/envs/psi4v1.5/share/psi4/basis/jun-cc-pvdz-jkfit.gbs 
    atoms 4, 8, 16               entry O          line   258 file /opt/anaconda/envs/psi4v1.5/share/psi4/basis/jun-cc-pvdz-jkfit.gbs 

  ==> Integral Setup <==

  ==> DiskDFJK: Density-Fitted J/K Matrices <==

    J tasked:                  Yes
    K tasked:                  Yes
    wK tasked:                  No
    OpenMP threads:              8
    Integrals threads:           8
    Memory [MiB]:            35762
    Algorithm:                Core
    Integral Cache:           SAVE
    Schwarz Cutoff:          1E-12
    Fitting Condition:       1E-10

   => Auxiliary Basis Set <=

  Basis Set: (JUN-CC-PVDZ AUX)
    Blend: JUN-CC-PVDZ-JKFIT
    Number of shells: 342
    Number of basis functions: 974
    Number of Cartesian functions: 1110
    Spherical Harmonics?: true
    Max angular momentum: 3

  Minimum eigenvalue in the overlap matrix is 3.5453646196E-05.
  Reciprocal condition number of the overlap matrix is 2.9664070702E-06.
    Using symmetric orthogonalization.

  ==> Pre-Iterations <==

  SCF Guess: Superposition of Atomic Densities via on-the-fly atomic UHF (no occupation information).

   -------------------------
    Irrep   Nso     Nmo    
   -------------------------
     A        220     220 
   -------------------------
    Total     220     220
   -------------------------

  ==> Iterations <==

                           Total Energy        Delta E     RMS |[F,P]|

   @DF-RHF iter SAD:  -526.40012544541253   -5.26400e+02   0.00000e+00 
   @DF-RHF iter   1:  -527.25692674053766   -8.56801e-01   3.88127e-03 DIIS
   @DF-RHF iter   2:  -527.48967695188651   -2.32750e-01   2.47806e-03 DIIS
   @DF-RHF iter   3:  -527.59836968011280   -1.08693e-01   4.40024e-04 DIIS
   @DF-RHF iter   4:  -527.60359476987071   -5.22509e-03   1.91927e-04 DIIS
   @DF-RHF iter   5:  -527.60470655464962   -1.11178e-03   4.21051e-05 DIIS
   @DF-RHF iter   6:  -527.60481829642390   -1.11742e-04   2.10899e-05 DIIS
   @DF-RHF iter   7:  -527.60484987687653   -3.15805e-05   7.81075e-06 DIIS
   @DF-RHF iter   8:  -527.60485449778207   -4.62091e-06   2.79223e-06 DIIS
   @DF-RHF iter   9:  -527.60485492581847   -4.28036e-07   1.09002e-06 DIIS
   @DF-RHF iter  10:  -527.60485499444871   -6.86302e-08   4.35368e-07 DIIS
   @DF-RHF iter  11:  -527.60485500541040   -1.09617e-08   1.55212e-07 DIIS
   @DF-RHF iter  12:  -527.60485500681762   -1.40722e-09   4.43792e-08 DIIS
   @DF-RHF iter  13:  -527.60485500693676   -1.19144e-10   1.58174e-08 DIIS
   @DF-RHF iter  14:  -527.60485500695472   -1.79625e-11   7.53192e-09 DIIS
  Energy and wave function converged.


  ==> Post-Iterations <==

    Orbital Energies [Eh]
    ---------------------

    Doubly Occupied:                                                      

       1A    -20.583526     2A    -20.556498     3A    -20.553708  
       4A    -15.648037     5A    -15.638318     6A    -11.430943  
       7A    -11.390536     8A    -11.340346     9A    -11.269192  
      10A    -11.247843    11A     -1.433572    12A     -1.398602  
      13A     -1.352675    14A     -1.310674    15A     -1.246300  
      16A     -1.112438    17A     -0.973934    18A     -0.920477  
      19A     -0.896990    20A     -0.774786    21A     -0.768759  
      22A     -0.715110    23A     -0.710225    24A     -0.676264  
      25A     -0.667557    26A     -0.643411    27A     -0.617981  
      28A     -0.592118    29A     -0.588249    30A     -0.570178  
      31A     -0.558892    32A     -0.552530    33A     -0.515686  
      34A     -0.511333    35A     -0.482051    36A     -0.449829  
      37A     -0.436841    38A     -0.354804  

    Virtual:                                                              

      39A      0.047415    40A      0.058985    41A      0.064972  
      42A      0.070626    43A      0.086680    44A      0.090478  
      45A      0.098561    46A      0.107472    47A      0.113180  
      48A      0.125672    49A      0.127787    50A      0.133915  
      51A      0.150247    52A      0.152099    53A      0.158907  
      54A      0.168902    55A      0.170133    56A      0.190388  
      57A      0.196474    58A      0.207697    59A      0.209465  
      60A      0.214105    61A      0.220467    62A      0.243144  
      63A      0.244609    64A      0.255422    65A      0.261313  
      66A      0.272654    67A      0.276209    68A      0.277945  
      69A      0.289996    70A      0.296021    71A      0.307361  
      72A      0.316145    73A      0.318994    74A      0.331661  
      75A      0.335830    76A      0.339741    77A      0.347496  
      78A      0.358754    79A      0.366430    80A      0.375004  
      81A      0.376638    82A      0.381883    83A      0.393433  
      84A      0.410932    85A      0.420781    86A      0.437610  
      87A      0.445719    88A      0.465129    89A      0.480106  
      90A      0.482452    91A      0.510552    92A      0.535130  
      93A      0.543951    94A      0.562520    95A      0.600675  
      96A      0.689336    97A      0.701602    98A      0.727197  
      99A      0.743129   100A      0.796377   101A      0.822326  
     102A      0.827893   103A      0.851204   104A      0.858276  
     105A      0.871793   106A      0.886592   107A      0.889556  
     108A      0.917630   109A      0.935267   110A      0.941366  
     111A      0.954567   112A      0.963919   113A      0.979594  
     114A      1.015657   115A      1.045889   116A      1.058189  
     117A      1.085420   118A      1.085742   119A      1.089778  
     120A      1.120732   121A      1.135190   122A      1.142266  
     123A      1.162768   124A      1.174230   125A      1.193759  
     126A      1.218434   127A      1.244116   128A      1.261218  
     129A      1.270647   130A      1.291526   131A      1.331164  
     132A      1.344488   133A      1.349184   134A      1.361027  
     135A      1.381339   136A      1.389644   137A      1.432123  
     138A      1.455443   139A      1.467467   140A      1.505696  
     141A      1.510951   142A      1.519083   143A      1.534334  
     144A      1.535518   145A      1.543153   146A      1.567436  
     147A      1.575492   148A      1.600855   149A      1.658069  
     150A      1.675975   151A      1.680372   152A      1.727598  
     153A      1.746922   154A      1.756364   155A      1.780137  
     156A      1.811903   157A      1.830451   158A      1.855905  
     159A      1.873482   160A      1.891313   161A      1.920056  
     162A      1.928066   163A      1.940314   164A      1.959500  
     165A      1.992207   166A      2.003837   167A      2.026066  
     168A      2.049403   169A      2.063901   170A      2.081403  
     171A      2.088218   172A      2.114011   173A      2.153978  
     174A      2.190395   175A      2.214297   176A      2.231163  
     177A      2.246815   178A      2.287927   179A      2.353043  
     180A      2.380730   181A      2.416544   182A      2.431766  
     183A      2.446735   184A      2.451592   185A      2.469589  
     186A      2.481024   187A      2.507929   188A      2.526375  
     189A      2.530760   190A      2.640872   191A      2.649774  
     192A      2.653217   193A      2.784962   194A      2.809482  
     195A      2.832519   196A      2.839348   197A      2.858916  
     198A      2.898888   199A      2.956405   200A      2.990380  
     201A      3.017738   202A      3.048932   203A      3.102212  
     204A      3.117702   205A      3.161996   206A      3.245878  
     207A      3.248952   208A      3.271394   209A      3.304988  
     210A      3.435246   211A      3.453287   212A      3.477107  
     213A      3.497376   214A      3.770439   215A      3.834439  
     216A      3.866107   217A      3.890387   218A      4.035701  
     219A      4.072031   220A      4.150738  

    Final Occupation by Irrep:
              A 
    DOCC [    38 ]

  @DF-RHF Final Energy:  -527.60485500695472

   => Energetics <=

    Nuclear Repulsion Energy =            523.1804726624534396
    One-Electron Energy =               -1758.5882295352644178
    Two-Electron Energy =                 707.8029018658562563
    Total Energy =                       -527.6048550069547218

Computation Completed


Properties will be evaluated at   0.000000,   0.000000,   0.000000 [a0]

Properties computed using the SCF density matrix

  Nuclear Dipole Moment: [e a0]
     X:    -0.2363      Y:     7.0280      Z:     0.6077

  Electronic Dipole Moment: [e a0]
     X:    -0.1508      Y:    -5.5755      Z:    -0.0720

  Dipole Moment: [e a0]
     X:    -0.3871      Y:     1.4525      Z:     0.5357     Total:     1.5958

  Dipole Moment: [D]
     X:    -0.9839      Y:     3.6919      Z:     1.3616     Total:     4.0561


*** tstop() called on node154.bme.utexas.edu at Sun Apr 14 22:13:46 2024
Module time:
	user time   =      15.03 seconds =       0.25 minutes
	system time =       0.37 seconds =       0.01 minutes
	total time  =          3 seconds =       0.05 minutes
Total time:
	user time   =      15.03 seconds =       0.25 minutes
	system time =       0.37 seconds =       0.01 minutes
	total time  =          3 seconds =       0.05 minutes

*** tstart() called on node154.bme.utexas.edu
*** at Sun Apr 14 22:13:46 2024


  //>>>>>>>>>>>>>>>>>>>>>>>>>>>>>>>>>>>//
  //               DFMP2               //
  //<<<<<<<<<<<<<<<<<<<<<<<<<<<<<<<<<<<//

   => Loading Basis Set <=

    Name: (JUN-CC-PVDZ AUX)
    Role: RIFIT
    Keyword: DF_BASIS_MP2
    atoms 1, 5                   entry N          line   144 file /opt/anaconda/envs/psi4v1.5/share/psi4/basis/jun-cc-pvdz-ri.gbs 
    atoms 2, 6, 11, 13-15, 17-18 entry H          line    30 file /opt/anaconda/envs/psi4v1.5/share/psi4/basis/jun-cc-pvdz-ri.gbs 
    atoms 3, 7, 9-10, 12         entry C          line   100 file /opt/anaconda/envs/psi4v1.5/share/psi4/basis/jun-cc-pvdz-ri.gbs 
    atoms 4, 8, 16               entry O          line   188 file /opt/anaconda/envs/psi4v1.5/share/psi4/basis/jun-cc-pvdz-ri.gbs 

	 --------------------------------------------------------
	                          DF-MP2                         
	      2nd-Order Density-Fitted Moller-Plesset Theory     
	              RMP2 Wavefunction,   8 Threads             
	                                                         
	        Rob Parrish, Justin Turney, Andy Simmonett,      
	           Ed Hohenstein, and C. David Sherrill          
	 --------------------------------------------------------

   => Auxiliary Basis Set <=

  Basis Set: (JUN-CC-PVDZ AUX)
    Blend: JUN-CC-PVDZ-RI
    Number of shells: 258
    Number of basis functions: 762
    Number of Cartesian functions: 880
    Spherical Harmonics?: true
    Max angular momentum: 3

	 --------------------------------------------------------
	                 NBF =   220, NAUX =   762
	 --------------------------------------------------------
	   CLASS    FOCC     OCC    AOCC    AVIR     VIR    FVIR
	   PAIRS      10      38      28     182     182       0
	 --------------------------------------------------------

	 Will save fitting metric to file 97.

	-----------------------------------------------------------
	 ==================> DF-MP2 Energies <==================== 
	-----------------------------------------------------------
	 Reference Energy          =    -527.6048550069547218 [Eh]
	 Singles Energy            =      -0.0000000000000000 [Eh]
	 Same-Spin Energy          =      -0.4202365887712802 [Eh]
	 Opposite-Spin Energy      =      -1.1421648748141364 [Eh]
	 Correlation Energy        =      -1.5624014635854166 [Eh]
	 Total Energy              =    -529.1672564705401101 [Eh]
	-----------------------------------------------------------
	 ================> DF-SCS-MP2 Energies <================== 
	-----------------------------------------------------------
	 SCS Same-Spin Scale       =       0.3333333333333333 [-]
	 SCS Opposite-Spin Scale   =       1.2000000000000000 [-]
	 SCS Same-Spin Energy      =      -0.1400788629237601 [Eh]
	 SCS Opposite-Spin Energy  =      -1.3705978497769638 [Eh]
	 SCS Correlation Energy    =      -1.5106767127007239 [Eh]
	 SCS Total Energy          =    -529.1155317196554506 [Eh]
	-----------------------------------------------------------


*** tstop() called on node154.bme.utexas.edu at Sun Apr 14 22:13:47 2024
Module time:
	user time   =       5.96 seconds =       0.10 minutes
	system time =       0.12 seconds =       0.00 minutes
	total time  =          1 seconds =       0.02 minutes
Total time:
	user time   =      21.00 seconds =       0.35 minutes
	system time =       0.49 seconds =       0.01 minutes
	total time  =          4 seconds =       0.07 minutes

  //>>>>>>>>>>>>>>>>>>>>>>>>>>>>>>>>>>>//
  //            Monomer A HF           //
  //<<<<<<<<<<<<<<<<<<<<<<<<<<<<<<<<<<<//


*** tstart() called on node154.bme.utexas.edu
*** at Sun Apr 14 22:13:47 2024

   => Loading Basis Set <=

    Name: JUN-CC-PVDZ
    Role: ORBITAL
    Keyword: BASIS
    atoms 1, 5                   entry N          line   198 file /opt/anaconda/envs/psi4v1.5/share/psi4/basis/jun-cc-pvdz.gbs 
    atoms 2, 6, 11, 13-15, 17-18 entry H          line    36 file /opt/anaconda/envs/psi4v1.5/share/psi4/basis/jun-cc-pvdz.gbs 
    atoms 3, 7, 9-10, 12         entry C          line   164 file /opt/anaconda/envs/psi4v1.5/share/psi4/basis/jun-cc-pvdz.gbs 
    atoms 4, 8, 16               entry O          line   232 file /opt/anaconda/envs/psi4v1.5/share/psi4/basis/jun-cc-pvdz.gbs 


         ---------------------------------------------------------
                                   SCF
               by Justin Turney, Rob Parrish, Andy Simmonett
                          and Daniel G. A. Smith
                              RHF Reference
                        8 Threads,  47683 MiB Core
         ---------------------------------------------------------

  ==> Geometry <==

    Molecular point group: c1
    Full point group: C1

    Geometry (in Angstrom), charge = 0, multiplicity = 1:

       Center              X                  Y                   Z               Mass       
    ------------   -----------------  -----------------  -----------------  -----------------
         N           -0.862464799516     0.690366292408    -0.000425760345    14.003074004430
         H           -1.776994799516     1.157796292408    -0.009845760345     1.007825032230
         C           -0.925444799516    -0.683603707592    -0.003025760345    12.000000000000
         O           -1.984044799516    -1.324193707592    -0.011565760345    15.994914619570
         N            0.315175200484    -1.287963707592     0.006844239655    14.003074004430
         H            0.311535200484    -2.305093707592     0.003924239655     1.007825032230
         C            1.579655200484    -0.674533707592     0.009154239655    12.000000000000
         O            2.604055200484    -1.355563707592     0.016014239655    15.994914619570
         C            1.535445200484     0.784666292408     0.001924239655    12.000000000000
         C            0.323185200484     1.392186292408    -0.004135760345    12.000000000000
         H            0.215405200484     2.473226292408    -0.011735760345     1.007825032230
         C            2.839325200484     1.519186292408    -0.001155760345    12.000000000000
         H            2.678345200484     2.600466292408    -0.007745760345     1.007825032230
         H            3.430895200484     1.255466292408     0.880024239655     1.007825032230
         H            3.432285200484     1.245246292408    -0.878235760345     1.007825032230
      Gh(O)          -4.141421999516     0.976151892408    -0.053003093678    15.994914619570
      Gh(H)          -3.904171999516     0.025581892408    -0.113493093678     1.007825032230
      Gh(H)          -4.623031999516     1.051001892408     0.785646906322     1.007825032230

  Running in c1 symmetry.

  Rotational constants: A =      0.08535  B =      0.02414  C =      0.01892 [cm^-1]
  Rotational constants: A =   2558.65924  B =    723.84827  C =    567.06663 [MHz]
  Nuclear repulsion =  438.296529764254899

  Charge       = 0
  Multiplicity = 1
  Electrons    = 66
  Nalpha       = 33
  Nbeta        = 33

  ==> Algorithm <==

  SCF Algorithm Type is DF.
  DIIS enabled.
  MOM disabled.
  Fractional occupation disabled.
  Guess Type is SAD.
  Energy threshold   = 1.00e-08
  Density threshold  = 1.00e-08
  Integral threshold = 1.00e-12

  ==> Primary Basis <==

  Basis Set: JUN-CC-PVDZ
    Blend: JUN-CC-PVDZ
    Number of shells: 104
    Number of basis functions: 220
    Number of Cartesian functions: 230
    Spherical Harmonics?: true
    Max angular momentum: 2

   => Loading Basis Set <=

    Name: (JUN-CC-PVDZ AUX)
    Role: JKFIT
    Keyword: DF_BASIS_SCF
    atoms 1, 5                   entry N          line   202 file /opt/anaconda/envs/psi4v1.5/share/psi4/basis/jun-cc-pvdz-jkfit.gbs 
    atoms 2, 6, 11, 13-15, 17-18 entry H          line    70 file /opt/anaconda/envs/psi4v1.5/share/psi4/basis/jun-cc-pvdz-jkfit.gbs 
    atoms 3, 7, 9-10, 12         entry C          line   146 file /opt/anaconda/envs/psi4v1.5/share/psi4/basis/jun-cc-pvdz-jkfit.gbs 
    atoms 4, 8, 16               entry O          line   258 file /opt/anaconda/envs/psi4v1.5/share/psi4/basis/jun-cc-pvdz-jkfit.gbs 

  ==> Integral Setup <==

  ==> DiskDFJK: Density-Fitted J/K Matrices <==

    J tasked:                  Yes
    K tasked:                  Yes
    wK tasked:                  No
    OpenMP threads:              8
    Integrals threads:           8
    Memory [MiB]:            35762
    Algorithm:                Core
    Integral Cache:           LOAD
    Schwarz Cutoff:          1E-12
    Fitting Condition:       1E-10

   => Auxiliary Basis Set <=

  Basis Set: (JUN-CC-PVDZ AUX)
    Blend: JUN-CC-PVDZ-JKFIT
    Number of shells: 342
    Number of basis functions: 974
    Number of Cartesian functions: 1110
    Spherical Harmonics?: true
    Max angular momentum: 3

  Minimum eigenvalue in the overlap matrix is 3.5453646196E-05.
  Reciprocal condition number of the overlap matrix is 2.9664070702E-06.
    Using symmetric orthogonalization.

  ==> Pre-Iterations <==

  SCF Guess: Superposition of Atomic Densities via on-the-fly atomic UHF (no occupation information).

   -------------------------
    Irrep   Nso     Nmo    
   -------------------------
     A        220     220 
   -------------------------
    Total     220     220
   -------------------------

  ==> Iterations <==

                           Total Energy        Delta E     RMS |[F,P]|

   @DF-RHF iter SAD:  -450.85112162169412   -4.50851e+02   0.00000e+00 
   @DF-RHF iter   1:  -451.26972613862756   -4.18605e-01   3.44288e-03 DIIS
   @DF-RHF iter   2:  -451.45770218998723   -1.87976e-01   2.27224e-03 DIIS
   @DF-RHF iter   3:  -451.54995814722452   -9.22560e-02   4.36595e-04 DIIS
   @DF-RHF iter   4:  -451.55518723820546   -5.22909e-03   1.67333e-04 DIIS
   @DF-RHF iter   5:  -451.55616214299607   -9.74905e-04   3.47290e-05 DIIS
   @DF-RHF iter   6:  -451.55626705730037   -1.04914e-04   1.82186e-05 DIIS
   @DF-RHF iter   7:  -451.55628929197860   -2.22347e-05   7.34905e-06 DIIS
   @DF-RHF iter   8:  -451.55629268920472   -3.39723e-06   2.83442e-06 DIIS
   @DF-RHF iter   9:  -451.55629308211684   -3.92912e-07   9.03467e-07 DIIS
   @DF-RHF iter  10:  -451.55629314037276   -5.82559e-08   3.89558e-07 DIIS
   @DF-RHF iter  11:  -451.55629314819021   -7.81745e-09   1.31624e-07 DIIS
   @DF-RHF iter  12:  -451.55629314925039   -1.06019e-09   4.02033e-08 DIIS
   @DF-RHF iter  13:  -451.55629314933799   -8.75957e-11   1.37643e-08 DIIS
   @DF-RHF iter  14:  -451.55629314935283   -1.48361e-11   5.92469e-09 DIIS
  Energy and wave function converged.


  ==> Post-Iterations <==

    Orbital Energies [Eh]
    ---------------------

    Doubly Occupied:                                                      

       1A    -20.554179     2A    -20.550440     3A    -15.653261  
       4A    -15.636676     5A    -11.427240     6A    -11.390821  
       7A    -11.342944     8A    -11.271356     9A    -11.249483  
      10A     -1.430266    11A     -1.397494    12A     -1.310463  
      13A     -1.246325    14A     -1.114156    15A     -0.975548  
      16A     -0.921402    17A     -0.897628    18A     -0.776266  
      19A     -0.769695    20A     -0.711090    21A     -0.676507  
      22A     -0.667206    23A     -0.637423    24A     -0.618729  
      25A     -0.592471    26A     -0.571443    27A     -0.559919  
      28A     -0.554029    29A     -0.510523    30A     -0.478005  
      31A     -0.448517    32A     -0.433507    33A     -0.356385  

    Virtual:                                                              

      34A      0.037393    35A      0.054378    36A      0.062438  
      37A      0.070750    38A      0.082419    39A      0.086673  
      40A      0.096944    41A      0.104376    42A      0.111023  
      43A      0.119795    44A      0.123583    45A      0.131719  
      46A      0.144834    47A      0.149681    48A      0.157047  
      49A      0.163523    50A      0.166508    51A      0.176779  
      52A      0.181572    53A      0.183823    54A      0.201250  
      55A      0.202583    56A      0.216850    57A      0.234217  
      58A      0.240114    59A      0.246433    60A      0.249829  
      61A      0.270674    62A      0.271958    63A      0.281856  
      64A      0.282274    65A      0.305966    66A      0.308271  
      67A      0.317191    68A      0.322119    69A      0.333341  
      70A      0.340502    71A      0.342268    72A      0.352798  
      73A      0.364558    74A      0.369493    75A      0.372714  
      76A      0.381685    77A      0.387994    78A      0.395989  
      79A      0.411955    80A      0.419161    81A      0.439260  
      82A      0.445538    83A      0.461303    84A      0.479827  
      85A      0.481380    86A      0.512236    87A      0.540984  
      88A      0.546391    89A      0.563149    90A      0.599079  
      91A      0.676093    92A      0.696757    93A      0.725550  
      94A      0.744320    95A      0.764057    96A      0.797618  
      97A      0.819029    98A      0.825694    99A      0.841067  
     100A      0.851259   101A      0.857251   102A      0.869317  
     103A      0.880383   104A      0.887003   105A      0.902955  
     106A      0.918930   107A      0.935943   108A      0.942532  
     109A      0.958123   110A      0.971576   111A      0.985896  
     112A      1.024056   113A      1.059189   114A      1.083669  
     115A      1.087905   116A      1.109506   117A      1.122733  
     118A      1.133195   119A      1.160690   120A      1.164906  
     121A      1.174618   122A      1.193754   123A      1.231646  
     124A      1.244481   125A      1.257812   126A      1.299298  
     127A      1.330440   128A      1.346005   129A      1.349522  
     130A      1.390585   131A      1.396558   132A      1.456450  
     133A      1.490536   134A      1.510632   135A      1.516701  
     136A      1.530557   137A      1.537218   138A      1.541958  
     139A      1.565755   140A      1.590349   141A      1.630953  
     142A      1.672208   143A      1.674406   144A      1.736592  
     145A      1.753955   146A      1.769708   147A      1.803461  
     148A      1.818673   149A      1.825541   150A      1.846089  
     151A      1.865004   152A      1.873124   153A      1.896251  
     154A      1.926611   155A      1.935843   156A      1.962646  
     157A      1.988742   158A      2.000641   159A      2.003353  
     160A      2.028160   161A      2.047991   162A      2.061763  
     163A      2.076735   164A      2.080255   165A      2.104117  
     166A      2.138041   167A      2.162188   168A      2.186484  
     169A      2.221554   170A      2.229082   171A      2.247542  
     172A      2.292073   173A      2.345158   174A      2.356269  
     175A      2.378858   176A      2.415751   177A      2.431480  
     178A      2.449481   179A      2.463109   180A      2.506454  
     181A      2.525318   182A      2.527784   183A      2.610795  
     184A      2.639061   185A      2.647169   186A      2.652878  
     187A      2.782336   188A      2.794199   189A      2.829201  
     190A      2.837668   191A      2.845086   192A      2.880711  
     193A      2.900620   194A      2.958781   195A      2.994446  
     196A      3.017424   197A      3.052368   198A      3.103148  
     199A      3.121734   200A      3.159554   201A      3.231708  
     202A      3.252818   203A      3.263127   204A      3.439305  
     205A      3.450903   206A      3.500248   207A      3.772021  
     208A      3.836469   209A      3.869050   210A      4.037628  
     211A      4.075565   212A      4.428177   213A      4.500635  
     214A      4.691993   215A      4.841512   216A      5.041089  
     217A      5.528130   218A      6.472691   219A      6.892199  
     220A     33.510156  

    Final Occupation by Irrep:
              A 
    DOCC [    33 ]

  @DF-RHF Final Energy:  -451.55629314935283

   => Energetics <=

    Nuclear Repulsion Energy =            438.2965297642548990
    One-Electron Energy =               -1484.2428493667332532
    Two-Electron Energy =                 594.3900264531254152
    Total Energy =                       -451.5562931493528822

Computation Completed


Properties will be evaluated at   0.000000,   0.000000,   0.000000 [a0]

Properties computed using the SCF density matrix

  Nuclear Dipole Moment: [e a0]
     X:    78.4870      Y:    -9.7637      Z:     0.1388

  Electronic Dipole Moment: [e a0]
     X:   -78.6949      Y:    11.8141      Z:    -0.1504

  Dipole Moment: [e a0]
     X:    -0.2079      Y:     2.0505      Z:    -0.0115     Total:     2.0610

  Dipole Moment: [D]
     X:    -0.5285      Y:     5.2117      Z:    -0.0293     Total:     5.2385


*** tstop() called on node154.bme.utexas.edu at Sun Apr 14 22:13:48 2024
Module time:
	user time   =      11.76 seconds =       0.20 minutes
	system time =       0.26 seconds =       0.00 minutes
	total time  =          1 seconds =       0.02 minutes
Total time:
	user time   =      32.79 seconds =       0.55 minutes
	system time =       0.75 seconds =       0.01 minutes
	total time  =          5 seconds =       0.08 minutes

*** tstart() called on node154.bme.utexas.edu
*** at Sun Apr 14 22:13:48 2024


  //>>>>>>>>>>>>>>>>>>>>>>>>>>>>>>>>>>>//
  //               DFMP2               //
  //<<<<<<<<<<<<<<<<<<<<<<<<<<<<<<<<<<<//

   => Loading Basis Set <=

    Name: (JUN-CC-PVDZ AUX)
    Role: RIFIT
    Keyword: DF_BASIS_MP2
    atoms 1, 5                   entry N          line   144 file /opt/anaconda/envs/psi4v1.5/share/psi4/basis/jun-cc-pvdz-ri.gbs 
    atoms 2, 6, 11, 13-15, 17-18 entry H          line    30 file /opt/anaconda/envs/psi4v1.5/share/psi4/basis/jun-cc-pvdz-ri.gbs 
    atoms 3, 7, 9-10, 12         entry C          line   100 file /opt/anaconda/envs/psi4v1.5/share/psi4/basis/jun-cc-pvdz-ri.gbs 
    atoms 4, 8, 16               entry O          line   188 file /opt/anaconda/envs/psi4v1.5/share/psi4/basis/jun-cc-pvdz-ri.gbs 

	 --------------------------------------------------------
	                          DF-MP2                         
	      2nd-Order Density-Fitted Moller-Plesset Theory     
	              RMP2 Wavefunction,   8 Threads             
	                                                         
	        Rob Parrish, Justin Turney, Andy Simmonett,      
	           Ed Hohenstein, and C. David Sherrill          
	 --------------------------------------------------------

   => Auxiliary Basis Set <=

  Basis Set: (JUN-CC-PVDZ AUX)
    Blend: JUN-CC-PVDZ-RI
    Number of shells: 258
    Number of basis functions: 762
    Number of Cartesian functions: 880
    Spherical Harmonics?: true
    Max angular momentum: 3

	 --------------------------------------------------------
	                 NBF =   220, NAUX =   762
	 --------------------------------------------------------
	   CLASS    FOCC     OCC    AOCC    AVIR     VIR    FVIR
	   PAIRS       9      33      24     187     187       0
	 --------------------------------------------------------

	 Will attempt to load fitting metric from file 97.

	-----------------------------------------------------------
	 ==================> DF-MP2 Energies <==================== 
	-----------------------------------------------------------
	 Reference Energy          =    -451.5562931493528254 [Eh]
	 Singles Energy            =      -0.0000000000000000 [Eh]
	 Same-Spin Energy          =      -0.3660345075667243 [Eh]
	 Opposite-Spin Energy      =      -0.9858086352120411 [Eh]
	 Correlation Energy        =      -1.3518431427787654 [Eh]
	 Total Energy              =    -452.9081362921315872 [Eh]
	-----------------------------------------------------------
	 ================> DF-SCS-MP2 Energies <================== 
	-----------------------------------------------------------
	 SCS Same-Spin Scale       =       0.3333333333333333 [-]
	 SCS Opposite-Spin Scale   =       1.2000000000000000 [-]
	 SCS Same-Spin Energy      =      -0.1220115025222414 [Eh]
	 SCS Opposite-Spin Energy  =      -1.1829703622544492 [Eh]
	 SCS Correlation Energy    =      -1.3049818647766906 [Eh]
	 SCS Total Energy          =    -452.8612750141294896 [Eh]
	-----------------------------------------------------------


*** tstop() called on node154.bme.utexas.edu at Sun Apr 14 22:13:49 2024
Module time:
	user time   =       4.94 seconds =       0.08 minutes
	system time =       0.09 seconds =       0.00 minutes
	total time  =          1 seconds =       0.02 minutes
Total time:
	user time   =      37.74 seconds =       0.63 minutes
	system time =       0.84 seconds =       0.01 minutes
	total time  =          6 seconds =       0.10 minutes

  //>>>>>>>>>>>>>>>>>>>>>>>>>>>>>>>>>>>//
  //            Monomer B HF           //
  //<<<<<<<<<<<<<<<<<<<<<<<<<<<<<<<<<<<//


*** tstart() called on node154.bme.utexas.edu
*** at Sun Apr 14 22:13:49 2024

   => Loading Basis Set <=

    Name: JUN-CC-PVDZ
    Role: ORBITAL
    Keyword: BASIS
    atoms 1, 5                   entry N          line   198 file /opt/anaconda/envs/psi4v1.5/share/psi4/basis/jun-cc-pvdz.gbs 
    atoms 2, 6, 11, 13-15, 17-18 entry H          line    36 file /opt/anaconda/envs/psi4v1.5/share/psi4/basis/jun-cc-pvdz.gbs 
    atoms 3, 7, 9-10, 12         entry C          line   164 file /opt/anaconda/envs/psi4v1.5/share/psi4/basis/jun-cc-pvdz.gbs 
    atoms 4, 8, 16               entry O          line   232 file /opt/anaconda/envs/psi4v1.5/share/psi4/basis/jun-cc-pvdz.gbs 


         ---------------------------------------------------------
                                   SCF
               by Justin Turney, Rob Parrish, Andy Simmonett
                          and Daniel G. A. Smith
                              RHF Reference
                        8 Threads,  47683 MiB Core
         ---------------------------------------------------------

  ==> Geometry <==

    Molecular point group: c1
    Full point group: C1

    Geometry (in Angstrom), charge = 0, multiplicity = 1:

       Center              X                  Y                   Z               Mass       
    ------------   -----------------  -----------------  -----------------  -----------------
      Gh(N)          -0.862464799516     0.690366292408    -0.000425760345    14.003074004430
      Gh(H)          -1.776994799516     1.157796292408    -0.009845760345     1.007825032230
      Gh(C)          -0.925444799516    -0.683603707592    -0.003025760345    12.000000000000
      Gh(O)          -1.984044799516    -1.324193707592    -0.011565760345    15.994914619570
      Gh(N)           0.315175200484    -1.287963707592     0.006844239655    14.003074004430
      Gh(H)           0.311535200484    -2.305093707592     0.003924239655     1.007825032230
      Gh(C)           1.579655200484    -0.674533707592     0.009154239655    12.000000000000
      Gh(O)           2.604055200484    -1.355563707592     0.016014239655    15.994914619570
      Gh(C)           1.535445200484     0.784666292408     0.001924239655    12.000000000000
      Gh(C)           0.323185200484     1.392186292408    -0.004135760345    12.000000000000
      Gh(H)           0.215405200484     2.473226292408    -0.011735760345     1.007825032230
      Gh(C)           2.839325200484     1.519186292408    -0.001155760345    12.000000000000
      Gh(H)           2.678345200484     2.600466292408    -0.007745760345     1.007825032230
      Gh(H)           3.430895200484     1.255466292408     0.880024239655     1.007825032230
      Gh(H)           3.432285200484     1.245246292408    -0.878235760345     1.007825032230
         O           -4.141421999516     0.976151892408    -0.053003093678    15.994914619570
         H           -3.904171999516     0.025581892408    -0.113493093678     1.007825032230
         H           -4.623031999516     1.051001892408     0.785646906322     1.007825032230

  Running in c1 symmetry.

  Rotational constants: A =      0.08535  B =      0.02414  C =      0.01892 [cm^-1]
  Rotational constants: A =   2558.65924  B =    723.84827  C =    567.06663 [MHz]
  Nuclear repulsion =    9.020428804714303

  Charge       = 0
  Multiplicity = 1
  Electrons    = 10
  Nalpha       = 5
  Nbeta        = 5

  ==> Algorithm <==

  SCF Algorithm Type is DF.
  DIIS enabled.
  MOM disabled.
  Fractional occupation disabled.
  Guess Type is SAD.
  Energy threshold   = 1.00e-08
  Density threshold  = 1.00e-08
  Integral threshold = 1.00e-12

  ==> Primary Basis <==

  Basis Set: JUN-CC-PVDZ
    Blend: JUN-CC-PVDZ
    Number of shells: 104
    Number of basis functions: 220
    Number of Cartesian functions: 230
    Spherical Harmonics?: true
    Max angular momentum: 2

   => Loading Basis Set <=

    Name: (JUN-CC-PVDZ AUX)
    Role: JKFIT
    Keyword: DF_BASIS_SCF
    atoms 1, 5                   entry N          line   202 file /opt/anaconda/envs/psi4v1.5/share/psi4/basis/jun-cc-pvdz-jkfit.gbs 
    atoms 2, 6, 11, 13-15, 17-18 entry H          line    70 file /opt/anaconda/envs/psi4v1.5/share/psi4/basis/jun-cc-pvdz-jkfit.gbs 
    atoms 3, 7, 9-10, 12         entry C          line   146 file /opt/anaconda/envs/psi4v1.5/share/psi4/basis/jun-cc-pvdz-jkfit.gbs 
    atoms 4, 8, 16               entry O          line   258 file /opt/anaconda/envs/psi4v1.5/share/psi4/basis/jun-cc-pvdz-jkfit.gbs 

  ==> Integral Setup <==

  ==> DiskDFJK: Density-Fitted J/K Matrices <==

    J tasked:                  Yes
    K tasked:                  Yes
    wK tasked:                  No
    OpenMP threads:              8
    Integrals threads:           8
    Memory [MiB]:            35762
    Algorithm:                Core
    Integral Cache:           LOAD
    Schwarz Cutoff:          1E-12
    Fitting Condition:       1E-10

   => Auxiliary Basis Set <=

  Basis Set: (JUN-CC-PVDZ AUX)
    Blend: JUN-CC-PVDZ-JKFIT
    Number of shells: 342
    Number of basis functions: 974
    Number of Cartesian functions: 1110
    Spherical Harmonics?: true
    Max angular momentum: 3

  Minimum eigenvalue in the overlap matrix is 3.5453646196E-05.
  Reciprocal condition number of the overlap matrix is 2.9664070702E-06.
    Using symmetric orthogonalization.

  ==> Pre-Iterations <==

  SCF Guess: Superposition of Atomic Densities via on-the-fly atomic UHF (no occupation information).

   -------------------------
    Irrep   Nso     Nmo    
   -------------------------
     A        220     220 
   -------------------------
    Total     220     220
   -------------------------

  ==> Iterations <==

                           Total Energy        Delta E     RMS |[F,P]|

   @DF-RHF iter SAD:   -75.49044302024762   -7.54904e+01   0.00000e+00 
   @DF-RHF iter   1:   -75.95815710512129   -4.67714e-01   1.96377e-03 DIIS
   @DF-RHF iter   2:   -76.00884012633969   -5.06830e-02   1.26472e-03 DIIS
   @DF-RHF iter   3:   -76.03589583092916   -2.70557e-02   1.01339e-04 DIIS
   @DF-RHF iter   4:   -76.03628127820095   -3.85447e-04   2.33374e-05 DIIS
   @DF-RHF iter   5:   -76.03630371729275   -2.24391e-05   4.65477e-06 DIIS
   @DF-RHF iter   6:   -76.03630517355899   -1.45627e-06   1.02025e-06 DIIS
   @DF-RHF iter   7:   -76.03630525373558   -8.01766e-08   1.30739e-07 DIIS
   @DF-RHF iter   8:   -76.03630525487377   -1.13819e-09   2.38939e-08 DIIS
   @DF-RHF iter   9:   -76.03630525491063   -3.68630e-11   6.36482e-09 DIIS
  Energy and wave function converged.


  ==> Post-Iterations <==

    Orbital Energies [Eh]
    ---------------------

    Doubly Occupied:                                                      

       1A    -20.580146     2A     -1.347435     3A     -0.709118  
       4A     -0.581215     5A     -0.507544  

    Virtual:                                                              

       6A      0.032440     7A      0.043988     8A      0.056296  
       9A      0.065851    10A      0.075681    11A      0.092767  
      12A      0.098661    13A      0.101758    14A      0.120302  
      15A      0.121982    16A      0.123946    17A      0.139019  
      18A      0.152282    19A      0.160349    20A      0.169400  
      21A      0.177308    22A      0.178492    23A      0.180879  
      24A      0.185959    25A      0.194116    26A      0.198676  
      27A      0.207390    28A      0.222400    29A      0.227192  
      30A      0.232379    31A      0.247701    32A      0.252128  
      33A      0.256702    34A      0.259001    35A      0.264372  
      36A      0.285268    37A      0.287211    38A      0.297245  
      39A      0.300309    40A      0.307055    41A      0.322306  
      42A      0.328260    43A      0.344407    44A      0.363170  
      45A      0.371922    46A      0.390311    47A      0.403389  
      48A      0.414739    49A      0.446579    50A      0.462677  
      51A      0.483153    52A      0.485878    53A      0.494115  
      54A      0.506565    55A      0.522488    56A      0.532193  
      57A      0.549251    58A      0.554603    59A      0.570445  
      60A      0.579065    61A      0.587582    62A      0.608645  
      63A      0.625831    64A      0.633978    65A      0.652861  
      66A      0.692585    67A      0.704334    68A      0.743316  
      69A      0.782324    70A      0.788178    71A      0.808129  
      72A      0.835525    73A      0.843708    74A      0.869998  
      75A      0.909628    76A      0.928548    77A      0.957204  
      78A      0.977779    79A      0.990597    80A      1.012252  
      81A      1.023184    82A      1.051680    83A      1.089658  
      84A      1.126077    85A      1.153373    86A      1.176881  
      87A      1.236074    88A      1.268705    89A      1.278045  
      90A      1.294749    91A      1.332491    92A      1.355269  
      93A      1.363552    94A      1.433522    95A      1.532209  
      96A      1.570054    97A      1.586108    98A      1.621671  
      99A      1.661336   100A      1.720677   101A      1.778641  
     102A      1.798577   103A      1.842534   104A      1.850292  
     105A      1.851823   106A      1.876478   107A      1.913812  
     108A      1.915891   109A      1.958948   110A      1.969776  
     111A      1.996200   112A      2.009756   113A      2.014458  
     114A      2.023937   115A      2.037215   116A      2.048198  
     117A      2.062331   118A      2.089430   119A      2.123515  
     120A      2.152793   121A      2.153785   122A      2.174940  
     123A      2.181601   124A      2.194666   125A      2.203667  
     126A      2.218045   127A      2.297961   128A      2.301715  
     129A      2.317400   130A      2.378410   131A      2.380911  
     132A      2.402996   133A      2.417499   134A      2.435918  
     135A      2.447283   136A      2.455616   137A      2.478043  
     138A      2.498561   139A      2.501691   140A      2.524707  
     141A      2.561630   142A      2.563292   143A      2.586431  
     144A      2.629513   145A      2.688478   146A      2.723142  
     147A      2.750764   148A      2.751310   149A      2.783261  
     150A      2.797268   151A      2.845595   152A      2.871578  
     153A      2.893874   154A      3.004909   155A      3.050220  
     156A      3.082549   157A      3.108739   158A      3.197961  
     159A      3.207501   160A      3.248220   161A      3.254584  
     162A      3.266800   163A      3.302914   164A      3.310241  
     165A      3.375160   166A      3.405527   167A      3.481779  
     168A      3.516189   169A      3.531932   170A      3.631908  
     171A      3.634600   172A      3.652953   173A      3.732867  
     174A      3.855519   175A      3.892330   176A      3.943070  
     177A      4.052174   178A      4.078096   179A      4.126261  
     180A      4.153309   181A      4.180174   182A      4.197407  
     183A      4.255226   184A      4.293696   185A      4.295971  
     186A      4.302313   187A      4.307874   188A      4.421571  
     189A      4.682293   190A      4.703853   191A      4.713275  
     192A      4.759305   193A      4.772739   194A      4.877448  
     195A      4.961497   196A      5.032643   197A      5.082373  
     198A      5.124023   199A      5.296107   200A      5.473177  
     201A      5.589275   202A      5.620614   203A      5.623926  
     204A      5.660308   205A      5.728622   206A      5.793909  
     207A      5.952109   208A      6.026591   209A      6.231726  
     210A      6.767571   211A      6.921949   212A     18.065007  
     213A     18.437595   214A     18.460963   215A     18.530749  
     216A     18.889941   217A     25.393250   218A     25.413781  
     219A     33.491194   220A     33.512547  

    Final Occupation by Irrep:
              A 
    DOCC [     5 ]

  @DF-RHF Final Energy:   -76.03630525491063

   => Energetics <=

    Nuclear Repulsion Energy =              9.0204288047143031
    One-Electron Energy =                -122.6625506091905891
    Two-Electron Energy =                  37.6058165495656525
    Total Energy =                        -76.0363052549106442

Computation Completed


Properties will be evaluated at   0.000000,   0.000000,   0.000000 [a0]

Properties computed using the SCF density matrix

  Nuclear Dipole Moment: [e a0]
     X:   -78.7233      Y:    16.7917      Z:     0.4689

  Electronic Dipole Moment: [e a0]
     X:    78.5494      Y:   -17.4165      Z:     0.0920

  Dipole Moment: [e a0]
     X:    -0.1739      Y:    -0.6248      Z:     0.5609     Total:     0.8575

  Dipole Moment: [D]
     X:    -0.4420      Y:    -1.5881      Z:     1.4258     Total:     2.1795


*** tstop() called on node154.bme.utexas.edu at Sun Apr 14 22:13:50 2024
Module time:
	user time   =       6.85 seconds =       0.11 minutes
	system time =       0.09 seconds =       0.00 minutes
	total time  =          1 seconds =       0.02 minutes
Total time:
	user time   =      44.60 seconds =       0.74 minutes
	system time =       0.93 seconds =       0.02 minutes
	total time  =          7 seconds =       0.12 minutes

*** tstart() called on node154.bme.utexas.edu
*** at Sun Apr 14 22:13:50 2024


  //>>>>>>>>>>>>>>>>>>>>>>>>>>>>>>>>>>>//
  //               DFMP2               //
  //<<<<<<<<<<<<<<<<<<<<<<<<<<<<<<<<<<<//

   => Loading Basis Set <=

    Name: (JUN-CC-PVDZ AUX)
    Role: RIFIT
    Keyword: DF_BASIS_MP2
    atoms 1, 5                   entry N          line   144 file /opt/anaconda/envs/psi4v1.5/share/psi4/basis/jun-cc-pvdz-ri.gbs 
    atoms 2, 6, 11, 13-15, 17-18 entry H          line    30 file /opt/anaconda/envs/psi4v1.5/share/psi4/basis/jun-cc-pvdz-ri.gbs 
    atoms 3, 7, 9-10, 12         entry C          line   100 file /opt/anaconda/envs/psi4v1.5/share/psi4/basis/jun-cc-pvdz-ri.gbs 
    atoms 4, 8, 16               entry O          line   188 file /opt/anaconda/envs/psi4v1.5/share/psi4/basis/jun-cc-pvdz-ri.gbs 

	 --------------------------------------------------------
	                          DF-MP2                         
	      2nd-Order Density-Fitted Moller-Plesset Theory     
	              RMP2 Wavefunction,   8 Threads             
	                                                         
	        Rob Parrish, Justin Turney, Andy Simmonett,      
	           Ed Hohenstein, and C. David Sherrill          
	 --------------------------------------------------------

   => Auxiliary Basis Set <=

  Basis Set: (JUN-CC-PVDZ AUX)
    Blend: JUN-CC-PVDZ-RI
    Number of shells: 258
    Number of basis functions: 762
    Number of Cartesian functions: 880
    Spherical Harmonics?: true
    Max angular momentum: 3

	 --------------------------------------------------------
	                 NBF =   220, NAUX =   762
	 --------------------------------------------------------
	   CLASS    FOCC     OCC    AOCC    AVIR     VIR    FVIR
	   PAIRS       1       5       4     215     215       0
	 --------------------------------------------------------

	 Will attempt to load fitting metric from file 97.

	-----------------------------------------------------------
	 ==================> DF-MP2 Energies <==================== 
	-----------------------------------------------------------
	 Reference Energy          =     -76.0363052549106300 [Eh]
	 Singles Energy            =      -0.0000000000000000 [Eh]
	 Same-Spin Energy          =      -0.0534139100103951 [Eh]
	 Opposite-Spin Energy      =      -0.1570031765321076 [Eh]
	 Correlation Energy        =      -0.2104170865425027 [Eh]
	 Total Energy              =     -76.2467223414531361 [Eh]
	-----------------------------------------------------------
	 ================> DF-SCS-MP2 Energies <================== 
	-----------------------------------------------------------
	 SCS Same-Spin Scale       =       0.3333333333333333 [-]
	 SCS Opposite-Spin Scale   =       1.2000000000000000 [-]
	 SCS Same-Spin Energy      =      -0.0178046366701317 [Eh]
	 SCS Opposite-Spin Energy  =      -0.1884038118385291 [Eh]
	 SCS Correlation Energy    =      -0.2062084485086608 [Eh]
	 SCS Total Energy          =     -76.2425137034192915 [Eh]
	-----------------------------------------------------------


*** tstop() called on node154.bme.utexas.edu at Sun Apr 14 22:13:51 2024
Module time:
	user time   =       4.33 seconds =       0.07 minutes
	system time =       0.06 seconds =       0.00 minutes
	total time  =          1 seconds =       0.02 minutes
Total time:
	user time   =      48.93 seconds =       0.82 minutes
	system time =       0.99 seconds =       0.02 minutes
	total time  =          8 seconds =       0.13 minutes
  Constructing Basis Sets for SAPT...

   => Loading Basis Set <=

    Name: (JUN-CC-PVDZ AUX)
    Role: RIFIT
    Keyword: DF_BASIS_SAPT
    atoms 1, 5                   entry N          line   144 file /opt/anaconda/envs/psi4v1.5/share/psi4/basis/jun-cc-pvdz-ri.gbs 
    atoms 2, 6, 11, 13-15, 17-18 entry H          line    30 file /opt/anaconda/envs/psi4v1.5/share/psi4/basis/jun-cc-pvdz-ri.gbs 
    atoms 3, 7, 9-10, 12         entry C          line   100 file /opt/anaconda/envs/psi4v1.5/share/psi4/basis/jun-cc-pvdz-ri.gbs 
    atoms 4, 8, 16               entry O          line   188 file /opt/anaconda/envs/psi4v1.5/share/psi4/basis/jun-cc-pvdz-ri.gbs 


  //>>>>>>>>>>>>>>>>>>>>>>>>>>>>>>>>>>>//
  //           SAPT2+(3)DMP2           //
  //<<<<<<<<<<<<<<<<<<<<<<<<<<<<<<<<<<<//


*** tstart() called on node154.bme.utexas.edu
*** at Sun Apr 14 22:13:51 2024

      SAPT2+(3)  
    Ed Hohenstein
     6 June 2009

      Orbital Information
  --------------------------
    NSO        =       220
    NMO        =       220
    NRI        =       762
    NOCC A     =        33
    NOCC B     =         5
    FOCC A     =         9
    FOCC B     =         1
    NVIR A     =       187
    NVIR B     =       215

    Estimated memory usage: 1489.9 MB

    Natural Orbital Cutoff:   1.000E-06
    Disp(T3) Truncation:            Yes
    CCD (vv|vv) Truncation:         Yes
    MBPT T2 Truncation:             Yes

    Monomer A: 25 virtual orbitals dropped
    Monomer B: 185 virtual orbitals dropped

    Elst10,r            =    -0.016367660952 [Eh]
    Exch10 (S^2)        =     0.006842907027 [Eh]
    Exch10              =     0.006861942915 [Eh]
    Ind20,r (A<-B)      =    -0.001656974786 [Eh]
    Ind20,r (B<-A)      =    -0.001970125461 [Eh]
    Ind20,r             =    -0.003627100247 [Eh]
    Exch-Ind20,r (A<-B) =     0.000857706360 [Eh]
    Exch-Ind20,r (B<-A) =     0.000831850198 [Eh]
    Exch-Ind20,r        =     0.001689556558 [Eh]
    Disp20              =    -0.002870906547 [Eh]
    Disp20 (NO)         =    -0.002555099361 [Eh]
    Exch-Disp20         =     0.000428003541 [Eh]
    Elst12,r            =     0.000705478899 [Eh]
    Exch11              =    -0.000123999686 [Eh]
    Exch12              =     0.001944467378 [Eh]
    Ind22               =    -0.000710749987 [Eh]
    Disp21              =     0.000124055561 [Eh]
    Disp22 (SDQ)        =    -0.000188116951 [Eh]

    (i =   1 of   4)          5 seconds
    (i =   2 of   4)          9 seconds
    (i =   3 of   4)         13 seconds
    (i =   4 of   4)         18 seconds

    Disp220 (T)         =    -0.000253325338 [Eh]

    (i =   1 of  24)          0 seconds
    (i =   2 of  24)          0 seconds
    (i =   3 of  24)          0 seconds
    (i =   4 of  24)          0 seconds
    (i =   5 of  24)          0 seconds
    (i =   6 of  24)          0 seconds
    (i =   7 of  24)          0 seconds
    (i =   8 of  24)          0 seconds
    (i =   9 of  24)          0 seconds
    (i =  10 of  24)          0 seconds
    (i =  11 of  24)          0 seconds
    (i =  12 of  24)          0 seconds
    (i =  13 of  24)          1 seconds
    (i =  14 of  24)          1 seconds
    (i =  15 of  24)          1 seconds
    (i =  16 of  24)          1 seconds
    (i =  17 of  24)          1 seconds
    (i =  18 of  24)          1 seconds
    (i =  19 of  24)          1 seconds
    (i =  20 of  24)          1 seconds
    (i =  21 of  24)          1 seconds
    (i =  22 of  24)          1 seconds
    (i =  23 of  24)          1 seconds
    (i =  24 of  24)          1 seconds

    Disp202 (T)         =    -0.000198566306 [Eh]

    Disp22 (T)          =    -0.000451891644 [Eh]

    Est. Disp220 (T)    =    -0.000284636043 [Eh]
    Est. Disp202 (T)    =    -0.000223108861 [Eh]

    Est. Disp22 (T)     =    -0.000507744903 [Eh]
    Elst13,r            =     0.000158416661 [Eh]
    Disp30              =     0.000025769422 [Eh]

    SAPT Results 
  --------------------------------------------------------------------------------------------------------
    Electrostatics                -15.50376539 [mEh]      -9.72875966 [kcal/mol]     -40.70513043 [kJ/mol]
      Elst10,r                    -16.36766095 [mEh]     -10.27086231 [kcal/mol]     -42.97328791 [kJ/mol]
      Elst12,r                      0.70547890 [mEh]       0.44269469 [kcal/mol]       1.85223459 [kJ/mol]
      Elst13,r                      0.15841666 [mEh]       0.09940796 [kcal/mol]       0.41592289 [kJ/mol]

    Exchange                        8.68241061 [mEh]       5.44829491 [kcal/mol]      22.79566591 [kJ/mol]
      Exch10                        6.86194291 [mEh]       4.30593419 [kcal/mol]      18.01602864 [kJ/mol]
      Exch10(S^2)                   6.84290703 [mEh]       4.29398899 [kcal/mol]      17.96604992 [kJ/mol]
      Exch11(S^2)                  -0.12399969 [mEh]      -0.07781098 [kcal/mol]      -0.32556113 [kJ/mol]
      Exch12(S^2)                   1.94446738 [mEh]       1.22017170 [kcal/mol]       5.10519840 [kJ/mol]

    Induction                      -2.97516250 [mEh]      -1.86694266 [kcal/mol]      -7.81128807 [kJ/mol]
      Ind20,r                      -3.62710025 [mEh]      -2.27603977 [kcal/mol]      -9.52295039 [kJ/mol]
      Ind22                        -0.71074999 [mEh]      -0.44600235 [kcal/mol]      -1.86607383 [kJ/mol]
      Exch-Ind20,r                  1.68955656 [mEh]       1.06021275 [kcal/mol]       4.43593013 [kJ/mol]
      Exch-Ind22                    0.33107778 [mEh]       0.20775444 [kcal/mol]       0.86924459 [kJ/mol]
      delta HF,r (2)               -0.81334096 [mEh]      -0.51037916 [kcal/mol]      -2.13542641 [kJ/mol]
      delta MP2,r (2)               0.15539436 [mEh]       0.09751143 [kcal/mol]       0.40798783 [kJ/mol]

    Dispersion                     -2.98893988 [mEh]      -1.87558809 [kcal/mol]      -7.84746057 [kJ/mol]
      Disp20                       -2.87090655 [mEh]      -1.80152106 [kcal/mol]      -7.53756410 [kJ/mol]
      Disp30                        0.02576942 [mEh]       0.01617056 [kcal/mol]       0.06765761 [kJ/mol]
      Disp21                        0.12405556 [mEh]       0.07784604 [kcal/mol]       0.32570783 [kJ/mol]
      Disp22 (SDQ)                 -0.18811695 [mEh]      -0.11804517 [kcal/mol]      -0.49390099 [kJ/mol]
      Disp22 (T)                   -0.45189164 [mEh]      -0.28356629 [kcal/mol]      -1.18644135 [kJ/mol]
      Est. Disp22 (T)              -0.50774490 [mEh]      -0.31861474 [kcal/mol]      -1.33308406 [kJ/mol]
      Exch-Disp20                   0.42800354 [mEh]       0.26857628 [kcal/mol]       1.12372314 [kJ/mol]

  Total HF                        -12.25660269 [mEh]      -7.69113431 [kcal/mol]     -32.17970593 [kJ/mol]
  Total SAPT0                     -14.69950570 [mEh]      -9.22407909 [kcal/mol]     -38.59354689 [kJ/mol]
  Total SAPT2                     -12.55323131 [mEh]      -7.87727157 [kcal/mol]     -32.95850427 [kJ/mol]
  Total SAPT2+                    -13.12503761 [mEh]      -8.23608544 [kcal/mol]     -34.45978148 [kJ/mol]
  Total SAPT2+(3)                 -12.94085152 [mEh]      -8.12050693 [kcal/mol]     -33.97620099 [kJ/mol]
  Total SAPT2+dMP2                -12.96964325 [mEh]      -8.13857401 [kcal/mol]     -34.05179366 [kJ/mol]
  Total SAPT2+(3)dMP2             -12.78545716 [mEh]      -8.02299550 [kcal/mol]     -33.56821316 [kJ/mol]

  Special recipe for scaled SAPT0 (see Manual):
    Electrostatics sSAPT0         -16.36766095 [mEh]     -10.27086231 [kcal/mol]     -42.97328791 [kJ/mol]
    Exchange sSAPT0                 6.86194291 [mEh]       4.30593419 [kcal/mol]      18.01602864 [kJ/mol]
    Induction sSAPT0               -2.73674515 [mEh]      -1.71733351 [kcal/mol]      -7.18532341 [kJ/mol]
    Dispersion sSAPT0              -2.43932115 [mEh]      -1.53069713 [kcal/mol]      -6.40443679 [kJ/mol]
  Total sSAPT0                    -14.68178434 [mEh]      -9.21295876 [kcal/mol]     -38.54701947 [kJ/mol]
  --------------------------------------------------------------------------------------------------------

*** tstop() called on node154.bme.utexas.edu at Sun Apr 14 22:14:47 2024
Module time:
	user time   =     430.76 seconds =       7.18 minutes
	system time =       7.87 seconds =       0.13 minutes
	total time  =         56 seconds =       0.93 minutes
Total time:
	user time   =     480.20 seconds =       8.00 minutes
	system time =       8.88 seconds =       0.15 minutes
	total time  =         64 seconds =       1.07 minutes

    Psi4 stopped on: Sunday, 14 April 2024 10:14PM
    Psi4 wall time for execution: 0:01:03.56

*** Psi4 exiting successfully. Buy a developer a beer!
