
    -----------------------------------------------------------------------
          Psi4: An Open-Source Ab Initio Electronic Structure Package
                               Psi4 1.5 release

                         Git: Rev {HEAD} e9f4d6d 


    D. G. A. Smith, L. A. Burns, A. C. Simmonett, R. M. Parrish,
    M. C. Schieber, R. Galvelis, P. Kraus, H. Kruse, R. Di Remigio,
    A. Alenaizan, A. M. James, S. Lehtola, J. P. Misiewicz, M. Scheurer,
    R. A. Shaw, J. B. Schriber, Y. Xie, Z. L. Glick, D. A. Sirianni,
    J. S. O'Brien, J. M. Waldrop, A. Kumar, E. G. Hohenstein,
    B. P. Pritchard, B. R. Brooks, H. F. Schaefer III, A. Yu. Sokolov,
    K. Patkowski, A. E. DePrince III, U. Bozkaya, R. A. King,
    F. A. Evangelista, J. M. Turney, T. D. Crawford, C. D. Sherrill,
    J. Chem. Phys. 152(18) 184108 (2020). https://doi.org/10.1063/5.0006002

                            Additional Code Authors
    E. T. Seidl, C. L. Janssen, E. F. Valeev, M. L. Leininger,
    J. F. Gonthier, R. M. Richard, H. R. McAlexander, M. Saitow, X. Wang,
    P. Verma, M. H. Lechner, and A. Jiang

             Previous Authors, Complete List of Code Contributors,
                       and Citations for Specific Modules
    https://github.com/psi4/psi4/blob/master/codemeta.json
    https://github.com/psi4/psi4/graphs/contributors
    http://psicode.org/psi4manual/master/introduction.html#citing-psifour

    -----------------------------------------------------------------------


    Psi4 started on: Monday, 13 May 2024 10:02AM

    Process ID: 975299
    Host:       node194.bme.utexas.edu
    PSIDATADIR: /opt/anaconda/envs/psi4v1.5/share/psi4
    Memory:     500.0 MiB
    Threads:    8
    
  ==> Input File <==

--------------------------------------------------------------------------
memory 50GB

molecule {
0 1
N 0.97963 1.79292 0.00672
H 1.29726 2.7551 0.00979
C -0.39981 1.6343 -0.00326
O -1.18124 2.57676 -0.00162
N -0.78126 0.3019 -0.01172
H -1.79358 0.10951 -0.03135
C 0.04378 -0.81874 -0.00651
O -0.43215 -1.96559 -0.01046
C 1.47623 -0.54588 0.00427
C 1.87708 0.74897 0.00895
H 2.92517 1.03519 0.01519
C 2.41443 -1.71195 0.00678
H 3.45463 -1.37529 0.00945
H 2.2452 -2.34058 0.88543
H 2.24911 -2.33997 -0.87296
--
0 1
O -2.7699274666666667 -1.0978746666666668 -0.09808700000000001
H -3.178527466666667 -1.2728846666666667 0.7638630000000001
H -1.9875174666666666 -1.6886146666666668 -0.12438700000000001
 units angstrom
 no_reorient
 symmetry c1} 
set  {scf_type DF
 basis aug-cc-pvdz
 freeze_core True
 guess SAD}
energy('sapt2+(3)dmp2')
--------------------------------------------------------------------------

  Memory set to  46.566 GiB by Python driver.

Scratch directory: /tmp/
   => Loading Basis Set <=

    Name: AUG-CC-PVDZ
    Role: ORBITAL
    Keyword: BASIS
    atoms 1, 5                   entry N          line   218 file /opt/anaconda/envs/psi4v1.5/share/psi4/basis/aug-cc-pvdz.gbs 
    atoms 2, 6, 11, 13-15, 17-18 entry H          line    40 file /opt/anaconda/envs/psi4v1.5/share/psi4/basis/aug-cc-pvdz.gbs 
    atoms 3, 7, 9-10, 12         entry C          line   182 file /opt/anaconda/envs/psi4v1.5/share/psi4/basis/aug-cc-pvdz.gbs 
    atoms 4, 8, 16               entry O          line   254 file /opt/anaconda/envs/psi4v1.5/share/psi4/basis/aug-cc-pvdz.gbs 

   => Loading Basis Set <=

    Name: AUG-CC-PVDZ
    Role: ORBITAL
    Keyword: BASIS
    atoms 1, 5                   entry N          line   218 file /opt/anaconda/envs/psi4v1.5/share/psi4/basis/aug-cc-pvdz.gbs 
    atoms 2, 6, 11, 13-15, 17-18 entry H          line    40 file /opt/anaconda/envs/psi4v1.5/share/psi4/basis/aug-cc-pvdz.gbs 
    atoms 3, 7, 9-10, 12         entry C          line   182 file /opt/anaconda/envs/psi4v1.5/share/psi4/basis/aug-cc-pvdz.gbs 
    atoms 4, 8, 16               entry O          line   254 file /opt/anaconda/envs/psi4v1.5/share/psi4/basis/aug-cc-pvdz.gbs 


  //>>>>>>>>>>>>>>>>>>>>>>>>>>>>>>>>>>>//
  //              Dimer HF             //
  //<<<<<<<<<<<<<<<<<<<<<<<<<<<<<<<<<<<//


*** tstart() called on node194.bme.utexas.edu
*** at Mon May 13 10:02:19 2024

   => Loading Basis Set <=

    Name: AUG-CC-PVDZ
    Role: ORBITAL
    Keyword: BASIS
    atoms 1, 5                   entry N          line   218 file /opt/anaconda/envs/psi4v1.5/share/psi4/basis/aug-cc-pvdz.gbs 
    atoms 2, 6, 11, 13-15, 17-18 entry H          line    40 file /opt/anaconda/envs/psi4v1.5/share/psi4/basis/aug-cc-pvdz.gbs 
    atoms 3, 7, 9-10, 12         entry C          line   182 file /opt/anaconda/envs/psi4v1.5/share/psi4/basis/aug-cc-pvdz.gbs 
    atoms 4, 8, 16               entry O          line   254 file /opt/anaconda/envs/psi4v1.5/share/psi4/basis/aug-cc-pvdz.gbs 


         ---------------------------------------------------------
                                   SCF
               by Justin Turney, Rob Parrish, Andy Simmonett
                          and Daniel G. A. Smith
                              RHF Reference
                        8 Threads,  47683 MiB Core
         ---------------------------------------------------------

  ==> Geometry <==

    Molecular point group: c1
    Full point group: C1

    Geometry (in Angstrom), charge = 0, multiplicity = 1:

       Center              X                  Y                   Z               Mass       
    ------------   -----------------  -----------------  -----------------  -----------------
         N            0.959775928724     1.736885706523     0.014003513325    14.003074004430
         H            1.277405928724     2.699065706523     0.017073513325     1.007825032230
         C           -0.419664071276     1.578265706523     0.004023513325    12.000000000000
         O           -1.201094071276     2.520725706523     0.005663513325    15.994914619570
         N           -0.801114071276     0.245865706523    -0.004436486675    14.003074004430
         H           -1.813434071276     0.053475706523    -0.024066486675     1.007825032230
         C            0.023925928724    -0.874774293477     0.000773513325    12.000000000000
         O           -0.452004071276    -2.021624293477    -0.003176486675    15.994914619570
         C            1.456375928724    -0.601914293477     0.011553513325    12.000000000000
         C            1.857225928724     0.692935706523     0.016233513325    12.000000000000
         H            2.905315928724     0.979155706523     0.022473513325     1.007825032230
         C            2.394575928724    -1.767984293477     0.014063513325    12.000000000000
         H            3.434775928724    -1.431324293477     0.016733513325     1.007825032230
         H            2.225345928724    -2.396614293477     0.892713513325     1.007825032230
         H            2.229255928724    -2.396004293477    -0.865676486675     1.007825032230
         O           -2.789781537943    -1.153908960144    -0.090803486675    15.994914619570
         H           -3.198381537943    -1.328918960144     0.771146513325     1.007825032230
         H           -2.007371537943    -1.744648960144    -0.117103486675     1.007825032230

  Running in c1 symmetry.

  Rotational constants: A =      0.05020  B =      0.04508  C =      0.02391 [cm^-1]
  Rotational constants: A =   1505.10649  B =   1351.58153  C =    716.71894 [MHz]
  Nuclear repulsion =  546.230018763594103

  Charge       = 0
  Multiplicity = 1
  Electrons    = 76
  Nalpha       = 38
  Nbeta        = 38

  ==> Algorithm <==

  SCF Algorithm Type is DF.
  DIIS enabled.
  MOM disabled.
  Fractional occupation disabled.
  Guess Type is SAD.
  Energy threshold   = 1.00e-08
  Density threshold  = 1.00e-08
  Integral threshold = 1.00e-12

  ==> Primary Basis <==

  Basis Set: AUG-CC-PVDZ
    Blend: AUG-CC-PVDZ
    Number of shells: 130
    Number of basis functions: 302
    Number of Cartesian functions: 322
    Spherical Harmonics?: true
    Max angular momentum: 2

   => Loading Basis Set <=

    Name: (AUG-CC-PVDZ AUX)
    Role: JKFIT
    Keyword: DF_BASIS_SCF
    atoms 1, 5                   entry N          line   212 file /opt/anaconda/envs/psi4v1.5/share/psi4/basis/aug-cc-pvdz-jkfit.gbs 
    atoms 2, 6, 11, 13-15, 17-18 entry H          line    70 file /opt/anaconda/envs/psi4v1.5/share/psi4/basis/aug-cc-pvdz-jkfit.gbs 
    atoms 3, 7, 9-10, 12         entry C          line   154 file /opt/anaconda/envs/psi4v1.5/share/psi4/basis/aug-cc-pvdz-jkfit.gbs 
    atoms 4, 8, 16               entry O          line   270 file /opt/anaconda/envs/psi4v1.5/share/psi4/basis/aug-cc-pvdz-jkfit.gbs 

  ==> Integral Setup <==

  ==> DiskDFJK: Density-Fitted J/K Matrices <==

    J tasked:                  Yes
    K tasked:                  Yes
    wK tasked:                  No
    OpenMP threads:              8
    Integrals threads:           8
    Memory [MiB]:            35762
    Algorithm:                Core
    Integral Cache:           SAVE
    Schwarz Cutoff:          1E-12
    Fitting Condition:       1E-10

   => Auxiliary Basis Set <=

  Basis Set: (AUG-CC-PVDZ AUX)
    Blend: AUG-CC-PVDZ-JKFIT
    Number of shells: 376
    Number of basis functions: 1116
    Number of Cartesian functions: 1290
    Spherical Harmonics?: true
    Max angular momentum: 3

  Minimum eigenvalue in the overlap matrix is 5.7983891607E-06.
  Reciprocal condition number of the overlap matrix is 3.8048746014E-07.
    Using symmetric orthogonalization.

  ==> Pre-Iterations <==

  SCF Guess: Superposition of Atomic Densities via on-the-fly atomic UHF (no occupation information).

   -------------------------
    Irrep   Nso     Nmo    
   -------------------------
     A        302     302 
   -------------------------
    Total     302     302
   -------------------------

  ==> Iterations <==

                           Total Energy        Delta E     RMS |[F,P]|

   @DF-RHF iter SAD:  -526.77778384322164   -5.26778e+02   0.00000e+00 
   @DF-RHF iter   1:  -527.25907711566424   -4.81293e-01   2.81320e-03 DIIS
   @DF-RHF iter   2:  -527.50118428991061   -2.42107e-01   1.67678e-03 DIIS
   @DF-RHF iter   3:  -527.59454226004061   -9.33580e-02   3.20659e-04 DIIS
   @DF-RHF iter   4:  -527.59972266653892   -5.18041e-03   1.40059e-04 DIIS
   @DF-RHF iter   5:  -527.60082232258310   -1.09966e-03   2.87735e-05 DIIS
   @DF-RHF iter   6:  -527.60092754065704   -1.05218e-04   1.48993e-05 DIIS
   @DF-RHF iter   7:  -527.60095508819302   -2.75475e-05   5.28851e-06 DIIS
   @DF-RHF iter   8:  -527.60095930479770   -4.21660e-06   2.01994e-06 DIIS
   @DF-RHF iter   9:  -527.60095974024864   -4.35451e-07   7.00912e-07 DIIS
   @DF-RHF iter  10:  -527.60095979729579   -5.70471e-08   2.98175e-07 DIIS
   @DF-RHF iter  11:  -527.60095980619371   -8.89793e-09   1.01853e-07 DIIS
   @DF-RHF iter  12:  -527.60095980739379   -1.20008e-09   2.63816e-08 DIIS
   @DF-RHF iter  13:  -527.60095980749270   -9.89075e-11   1.03271e-08 DIIS
   @DF-RHF iter  14:  -527.60095980750589   -1.31877e-11   3.97969e-09 DIIS
  Energy and wave function converged.


  ==> Post-Iterations <==

    Orbital Energies [Eh]
    ---------------------

    Doubly Occupied:                                                      

       1A    -20.562732     2A    -20.559076     3A    -20.548640  
       4A    -15.645311     5A    -15.613411     6A    -11.419150  
       7A    -11.395427     8A    -11.340243     9A    -11.267287  
      10A    -11.248009    11A     -1.431300    12A     -1.408067  
      13A     -1.348109    14A     -1.305741    15A     -1.237114  
      16A     -1.110885    17A     -0.972040    18A     -0.917112  
      19A     -0.894281    20A     -0.777285    21A     -0.771226  
      22A     -0.725669    23A     -0.704907    24A     -0.681087  
      25A     -0.660660    26A     -0.638125    27A     -0.621950  
      28A     -0.593386    29A     -0.590418    30A     -0.565284  
      31A     -0.559837    32A     -0.550973    33A     -0.507277  
      34A     -0.503211    35A     -0.465317    36A     -0.452018  
      37A     -0.431085    38A     -0.353682  

    Virtual:                                                              

      39A      0.020786    40A      0.036597    41A      0.044597  
      42A      0.052565    43A      0.057272    44A      0.070056  
      45A      0.074990    46A      0.077125    47A      0.085139  
      48A      0.092666    49A      0.103328    50A      0.115752  
      51A      0.123403    52A      0.126127    53A      0.133580  
      54A      0.139273    55A      0.146004    56A      0.155244  
      57A      0.157080    58A      0.157702    59A      0.163669  
      60A      0.169490    61A      0.174670    62A      0.183515  
      63A      0.190827    64A      0.203152    65A      0.205373  
      66A      0.211188    67A      0.224345    68A      0.226478  
      69A      0.242093    70A      0.257645    71A      0.258235  
      72A      0.266866    73A      0.272991    74A      0.283741  
      75A      0.284641    76A      0.288365    77A      0.296268  
      78A      0.305408    79A      0.315780    80A      0.322767  
      81A      0.325393    82A      0.330864    83A      0.334412  
      84A      0.344173    85A      0.346827    86A      0.348439  
      87A      0.365615    88A      0.369545    89A      0.375633  
      90A      0.377568    91A      0.399016    92A      0.405167  
      93A      0.413449    94A      0.421102    95A      0.426304  
      96A      0.435297    97A      0.438556    98A      0.442898  
      99A      0.450015   100A      0.459586   101A      0.469122  
     102A      0.479597   103A      0.491508   104A      0.499428  
     105A      0.501698   106A      0.503875   107A      0.523254  
     108A      0.527832   109A      0.538220   110A      0.543534  
     111A      0.548854   112A      0.553850   113A      0.565624  
     114A      0.579799   115A      0.592193   116A      0.603047  
     117A      0.607680   118A      0.611851   119A      0.613720  
     120A      0.620876   121A      0.630284   122A      0.643861  
     123A      0.647825   124A      0.666779   125A      0.668030  
     126A      0.674155   127A      0.682282   128A      0.693836  
     129A      0.702333   130A      0.713506   131A      0.718819  
     132A      0.730021   133A      0.735915   134A      0.748167  
     135A      0.772794   136A      0.776960   137A      0.779923  
     138A      0.796583   139A      0.798495   140A      0.804934  
     141A      0.811395   142A      0.823212   143A      0.830514  
     144A      0.842791   145A      0.845004   146A      0.848372  
     147A      0.873735   148A      0.877893   149A      0.889528  
     150A      0.900864   151A      0.912782   152A      0.923409  
     153A      0.944913   154A      0.958714   155A      0.968990  
     156A      0.974759   157A      0.998516   158A      1.016575  
     159A      1.026084   160A      1.034299   161A      1.048374  
     162A      1.063776   163A      1.071974   164A      1.079920  
     165A      1.089982   166A      1.099669   167A      1.132478  
     168A      1.135506   169A      1.152033   170A      1.171323  
     171A      1.176640   172A      1.184026   173A      1.195739  
     174A      1.221397   175A      1.225659   176A      1.235085  
     177A      1.237562   178A      1.255489   179A      1.267066  
     180A      1.280628   181A      1.300749   182A      1.326993  
     183A      1.333335   184A      1.346156   185A      1.363382  
     186A      1.381792   187A      1.433252   188A      1.449722  
     189A      1.455050   190A      1.483497   191A      1.484661  
     192A      1.510736   193A      1.524991   194A      1.556608  
     195A      1.580743   196A      1.585617   197A      1.609034  
     198A      1.618031   199A      1.648097   200A      1.666161  
     201A      1.674836   202A      1.691336   203A      1.700956  
     204A      1.712428   205A      1.723069   206A      1.750968  
     207A      1.761552   208A      1.779239   209A      1.814232  
     210A      1.827796   211A      1.844770   212A      1.854583  
     213A      1.859249   214A      1.883467   215A      1.899080  
     216A      1.911408   217A      1.956880   218A      1.969658  
     219A      1.970871   220A      1.985849   221A      2.022761  
     222A      2.043945   223A      2.060503   224A      2.064947  
     225A      2.068128   226A      2.097685   227A      2.106744  
     228A      2.116037   229A      2.138698   230A      2.153788  
     231A      2.177451   232A      2.222168   233A      2.236820  
     234A      2.241299   235A      2.252642   236A      2.289903  
     237A      2.306716   238A      2.310620   239A      2.328883  
     240A      2.358146   241A      2.365056   242A      2.381941  
     243A      2.383950   244A      2.431892   245A      2.435420  
     246A      2.450175   247A      2.458781   248A      2.463456  
     249A      2.500060   250A      2.527391   251A      2.540808  
     252A      2.571821   253A      2.600101   254A      2.635481  
     255A      2.655599   256A      2.671770   257A      2.705535  
     258A      2.725812   259A      2.756219   260A      2.779180  
     261A      2.787169   262A      2.795807   263A      2.840995  
     264A      2.846981   265A      2.890932   266A      2.907173  
     267A      2.908848   268A      2.919030   269A      2.973019  
     270A      2.993834   271A      3.037983   272A      3.052445  
     273A      3.090680   274A      3.102231   275A      3.123994  
     276A      3.183498   277A      3.209745   278A      3.268632  
     279A      3.296379   280A      3.325143   281A      3.397730  
     282A      3.479823   283A      3.546978   284A      3.633094  
     285A      3.689179   286A      3.741557   287A      3.757635  
     288A      3.791766   289A      3.822323   290A      3.830454  
     291A      3.854355   292A      3.871052   293A      3.901191  
     294A      3.956545   295A      3.988956   296A      4.023378  
     297A      4.093731   298A      4.156702   299A      4.170418  
     300A      4.229593   301A      4.288739   302A      4.510072  

    Final Occupation by Irrep:
              A 
    DOCC [    38 ]

  @DF-RHF Final Energy:  -527.60095980750589

   => Energetics <=

    Nuclear Repulsion Energy =            546.2300187635941029
    One-Electron Energy =               -1804.9072974275356955
    Two-Electron Energy =                 731.0763188564358188
    Total Energy =                       -527.6009598075058875

Computation Completed


Properties will be evaluated at   0.000000,   0.000000,   0.000000 [a0]

Properties computed using the SCF density matrix

  Nuclear Dipole Moment: [e a0]
     X:     4.7151      Y:    -5.2267      Z:     0.6682

  Electronic Dipole Moment: [e a0]
     X:    -2.6370      Y:     5.3300      Z:    -0.1372

  Dipole Moment: [e a0]
     X:     2.0781      Y:     0.1033      Z:     0.5311     Total:     2.1474

  Dipole Moment: [D]
     X:     5.2821      Y:     0.2626      Z:     1.3498     Total:     5.4581


*** tstop() called on node194.bme.utexas.edu at Mon May 13 10:02:24 2024
Module time:
	user time   =      33.87 seconds =       0.56 minutes
	system time =       0.42 seconds =       0.01 minutes
	total time  =          5 seconds =       0.08 minutes
Total time:
	user time   =      33.87 seconds =       0.56 minutes
	system time =       0.42 seconds =       0.01 minutes
	total time  =          5 seconds =       0.08 minutes

*** tstart() called on node194.bme.utexas.edu
*** at Mon May 13 10:02:24 2024


  //>>>>>>>>>>>>>>>>>>>>>>>>>>>>>>>>>>>//
  //               DFMP2               //
  //<<<<<<<<<<<<<<<<<<<<<<<<<<<<<<<<<<<//

   => Loading Basis Set <=

    Name: (AUG-CC-PVDZ AUX)
    Role: RIFIT
    Keyword: DF_BASIS_MP2
    atoms 1, 5                   entry N          line   158 file /opt/anaconda/envs/psi4v1.5/share/psi4/basis/aug-cc-pvdz-ri.gbs 
    atoms 2, 6, 11, 13-15, 17-18 entry H          line    30 file /opt/anaconda/envs/psi4v1.5/share/psi4/basis/aug-cc-pvdz-ri.gbs 
    atoms 3, 7, 9-10, 12         entry C          line   112 file /opt/anaconda/envs/psi4v1.5/share/psi4/basis/aug-cc-pvdz-ri.gbs 
    atoms 4, 8, 16               entry O          line   204 file /opt/anaconda/envs/psi4v1.5/share/psi4/basis/aug-cc-pvdz-ri.gbs 

	 --------------------------------------------------------
	                          DF-MP2                         
	      2nd-Order Density-Fitted Moller-Plesset Theory     
	              RMP2 Wavefunction,   8 Threads             
	                                                         
	        Rob Parrish, Justin Turney, Andy Simmonett,      
	           Ed Hohenstein, and C. David Sherrill          
	 --------------------------------------------------------

   => Auxiliary Basis Set <=

  Basis Set: (AUG-CC-PVDZ AUX)
    Blend: AUG-CC-PVDZ-RI
    Number of shells: 292
    Number of basis functions: 904
    Number of Cartesian functions: 1060
    Spherical Harmonics?: true
    Max angular momentum: 3

	 --------------------------------------------------------
	                 NBF =   302, NAUX =   904
	 --------------------------------------------------------
	   CLASS    FOCC     OCC    AOCC    AVIR     VIR    FVIR
	   PAIRS      10      38      28     264     264       0
	 --------------------------------------------------------

	 Will save fitting metric to file 97.

	-----------------------------------------------------------
	 ==================> DF-MP2 Energies <==================== 
	-----------------------------------------------------------
	 Reference Energy          =    -527.6009598075058875 [Eh]
	 Singles Energy            =      -0.0000000000000000 [Eh]
	 Same-Spin Energy          =      -0.4428157700610569 [Eh]
	 Opposite-Spin Energy      =      -1.1931243198376604 [Eh]
	 Correlation Energy        =      -1.6359400898987173 [Eh]
	 Total Energy              =    -529.2368998974045553 [Eh]
	-----------------------------------------------------------
	 ================> DF-SCS-MP2 Energies <================== 
	-----------------------------------------------------------
	 SCS Same-Spin Scale       =       0.3333333333333333 [-]
	 SCS Opposite-Spin Scale   =       1.2000000000000000 [-]
	 SCS Same-Spin Energy      =      -0.1476052566870190 [Eh]
	 SCS Opposite-Spin Energy  =      -1.4317491838051926 [Eh]
	 SCS Correlation Energy    =      -1.5793544404922115 [Eh]
	 SCS Total Energy          =    -529.1803142479981261 [Eh]
	-----------------------------------------------------------


*** tstop() called on node194.bme.utexas.edu at Mon May 13 10:02:25 2024
Module time:
	user time   =       6.77 seconds =       0.11 minutes
	system time =       0.12 seconds =       0.00 minutes
	total time  =          1 seconds =       0.02 minutes
Total time:
	user time   =      40.65 seconds =       0.68 minutes
	system time =       0.54 seconds =       0.01 minutes
	total time  =          6 seconds =       0.10 minutes

  //>>>>>>>>>>>>>>>>>>>>>>>>>>>>>>>>>>>//
  //            Monomer A HF           //
  //<<<<<<<<<<<<<<<<<<<<<<<<<<<<<<<<<<<//


*** tstart() called on node194.bme.utexas.edu
*** at Mon May 13 10:02:25 2024

   => Loading Basis Set <=

    Name: AUG-CC-PVDZ
    Role: ORBITAL
    Keyword: BASIS
    atoms 1, 5                   entry N          line   218 file /opt/anaconda/envs/psi4v1.5/share/psi4/basis/aug-cc-pvdz.gbs 
    atoms 2, 6, 11, 13-15, 17-18 entry H          line    40 file /opt/anaconda/envs/psi4v1.5/share/psi4/basis/aug-cc-pvdz.gbs 
    atoms 3, 7, 9-10, 12         entry C          line   182 file /opt/anaconda/envs/psi4v1.5/share/psi4/basis/aug-cc-pvdz.gbs 
    atoms 4, 8, 16               entry O          line   254 file /opt/anaconda/envs/psi4v1.5/share/psi4/basis/aug-cc-pvdz.gbs 


         ---------------------------------------------------------
                                   SCF
               by Justin Turney, Rob Parrish, Andy Simmonett
                          and Daniel G. A. Smith
                              RHF Reference
                        8 Threads,  47683 MiB Core
         ---------------------------------------------------------

  ==> Geometry <==

    Molecular point group: c1
    Full point group: C1

    Geometry (in Angstrom), charge = 0, multiplicity = 1:

       Center              X                  Y                   Z               Mass       
    ------------   -----------------  -----------------  -----------------  -----------------
         N            0.959775928724     1.736885706523     0.014003513325    14.003074004430
         H            1.277405928724     2.699065706523     0.017073513325     1.007825032230
         C           -0.419664071276     1.578265706523     0.004023513325    12.000000000000
         O           -1.201094071276     2.520725706523     0.005663513325    15.994914619570
         N           -0.801114071276     0.245865706523    -0.004436486675    14.003074004430
         H           -1.813434071276     0.053475706523    -0.024066486675     1.007825032230
         C            0.023925928724    -0.874774293477     0.000773513325    12.000000000000
         O           -0.452004071276    -2.021624293477    -0.003176486675    15.994914619570
         C            1.456375928724    -0.601914293477     0.011553513325    12.000000000000
         C            1.857225928724     0.692935706523     0.016233513325    12.000000000000
         H            2.905315928724     0.979155706523     0.022473513325     1.007825032230
         C            2.394575928724    -1.767984293477     0.014063513325    12.000000000000
         H            3.434775928724    -1.431324293477     0.016733513325     1.007825032230
         H            2.225345928724    -2.396614293477     0.892713513325     1.007825032230
         H            2.229255928724    -2.396004293477    -0.865676486675     1.007825032230
      Gh(O)          -2.789781537943    -1.153908960144    -0.090803486675    15.994914619570
      Gh(H)          -3.198381537943    -1.328918960144     0.771146513325     1.007825032230
      Gh(H)          -2.007371537943    -1.744648960144    -0.117103486675     1.007825032230

  Running in c1 symmetry.

  Rotational constants: A =      0.05020  B =      0.04508  C =      0.02391 [cm^-1]
  Rotational constants: A =   1505.10649  B =   1351.58153  C =    716.71894 [MHz]
  Nuclear repulsion =  438.375291037449017

  Charge       = 0
  Multiplicity = 1
  Electrons    = 66
  Nalpha       = 33
  Nbeta        = 33

  ==> Algorithm <==

  SCF Algorithm Type is DF.
  DIIS enabled.
  MOM disabled.
  Fractional occupation disabled.
  Guess Type is SAD.
  Energy threshold   = 1.00e-08
  Density threshold  = 1.00e-08
  Integral threshold = 1.00e-12

  ==> Primary Basis <==

  Basis Set: AUG-CC-PVDZ
    Blend: AUG-CC-PVDZ
    Number of shells: 130
    Number of basis functions: 302
    Number of Cartesian functions: 322
    Spherical Harmonics?: true
    Max angular momentum: 2

   => Loading Basis Set <=

    Name: (AUG-CC-PVDZ AUX)
    Role: JKFIT
    Keyword: DF_BASIS_SCF
    atoms 1, 5                   entry N          line   212 file /opt/anaconda/envs/psi4v1.5/share/psi4/basis/aug-cc-pvdz-jkfit.gbs 
    atoms 2, 6, 11, 13-15, 17-18 entry H          line    70 file /opt/anaconda/envs/psi4v1.5/share/psi4/basis/aug-cc-pvdz-jkfit.gbs 
    atoms 3, 7, 9-10, 12         entry C          line   154 file /opt/anaconda/envs/psi4v1.5/share/psi4/basis/aug-cc-pvdz-jkfit.gbs 
    atoms 4, 8, 16               entry O          line   270 file /opt/anaconda/envs/psi4v1.5/share/psi4/basis/aug-cc-pvdz-jkfit.gbs 

  ==> Integral Setup <==

  ==> DiskDFJK: Density-Fitted J/K Matrices <==

    J tasked:                  Yes
    K tasked:                  Yes
    wK tasked:                  No
    OpenMP threads:              8
    Integrals threads:           8
    Memory [MiB]:            35762
    Algorithm:                Core
    Integral Cache:           LOAD
    Schwarz Cutoff:          1E-12
    Fitting Condition:       1E-10

   => Auxiliary Basis Set <=

  Basis Set: (AUG-CC-PVDZ AUX)
    Blend: AUG-CC-PVDZ-JKFIT
    Number of shells: 376
    Number of basis functions: 1116
    Number of Cartesian functions: 1290
    Spherical Harmonics?: true
    Max angular momentum: 3

  Minimum eigenvalue in the overlap matrix is 5.7983891607E-06.
  Reciprocal condition number of the overlap matrix is 3.8048746014E-07.
    Using symmetric orthogonalization.

  ==> Pre-Iterations <==

  SCF Guess: Superposition of Atomic Densities via on-the-fly atomic UHF (no occupation information).

   -------------------------
    Irrep   Nso     Nmo    
   -------------------------
     A        302     302 
   -------------------------
    Total     302     302
   -------------------------

  ==> Iterations <==

                           Total Energy        Delta E     RMS |[F,P]|

   @DF-RHF iter SAD:  -450.84805976835418   -4.50848e+02   0.00000e+00 
   @DF-RHF iter   1:  -451.27342245939337   -4.25363e-01   2.54634e-03 DIIS
   @DF-RHF iter   2:  -451.47067943556931   -1.97257e-01   1.64360e-03 DIIS
   @DF-RHF iter   3:  -451.56155697752837   -9.08775e-02   3.28034e-04 DIIS
   @DF-RHF iter   4:  -451.56702829540342   -5.47132e-03   1.26918e-04 DIIS
   @DF-RHF iter   5:  -451.56807178715854   -1.04349e-03   2.55580e-05 DIIS
   @DF-RHF iter   6:  -451.56817611082039   -1.04324e-04   1.33697e-05 DIIS
   @DF-RHF iter   7:  -451.56819874847031   -2.26376e-05   5.57929e-06 DIIS
   @DF-RHF iter   8:  -451.56820253021704   -3.78175e-06   2.15044e-06 DIIS
   @DF-RHF iter   9:  -451.56820298731583   -4.57099e-07   6.84271e-07 DIIS
   @DF-RHF iter  10:  -451.56820305414726   -6.68314e-08   2.84982e-07 DIIS
   @DF-RHF iter  11:  -451.56820306246055   -8.31329e-09   1.02068e-07 DIIS
   @DF-RHF iter  12:  -451.56820306373544   -1.27488e-09   3.25908e-08 DIIS
   @DF-RHF iter  13:  -451.56820306384611   -1.10674e-10   1.11860e-08 DIIS
   @DF-RHF iter  14:  -451.56820306386527   -1.91562e-11   4.94110e-09 DIIS
  Energy and wave function converged.


  ==> Post-Iterations <==

    Orbital Energies [Eh]
    ---------------------

    Doubly Occupied:                                                      

       1A    -20.556887     2A    -20.551043     3A    -15.648387  
       4A    -15.639785     5A    -11.429213     6A    -11.387479  
       7A    -11.337812     8A    -11.266975     9A    -11.245495  
      10A     -1.433161    11A     -1.390374    12A     -1.309327  
      13A     -1.245550    14A     -1.109521    15A     -0.971723  
      16A     -0.917448    17A     -0.897871    18A     -0.772549  
      19A     -0.767916    20A     -0.709788    21A     -0.675147  
      22A     -0.666130    23A     -0.641495    24A     -0.613840  
      25A     -0.590077    26A     -0.568043    27A     -0.555937  
      28A     -0.549897    29A     -0.511495    30A     -0.479250  
      31A     -0.446841    32A     -0.433377    33A     -0.352267  

    Virtual:                                                              

      34A      0.020629    35A      0.038026    36A      0.043957  
      37A      0.053159    38A      0.056868    39A      0.070543  
      40A      0.073423    41A      0.079328    42A      0.081812  
      43A      0.093033    44A      0.098863    45A      0.115517  
      46A      0.122958    47A      0.126219    48A      0.134446  
      49A      0.138385    50A      0.145679    51A      0.152509  
      52A      0.153596    53A      0.157010    54A      0.158600  
      55A      0.163177    56A      0.171047    57A      0.173875  
      58A      0.192409    59A      0.197615    60A      0.202755  
      61A      0.206318    62A      0.215166    63A      0.217319  
      64A      0.235975    65A      0.239341    66A      0.252964  
      67A      0.258027    68A      0.272816    69A      0.280450  
      70A      0.282726    71A      0.284538    72A      0.295817  
      73A      0.301595    74A      0.307969    75A      0.313668  
      76A      0.326179    77A      0.328112    78A      0.332984  
      79A      0.342282    80A      0.350625    81A      0.356417  
      82A      0.360607    83A      0.365599    84A      0.376779  
      85A      0.381658    86A      0.395041    87A      0.405149  
      88A      0.406853    89A      0.418703    90A      0.424975  
      91A      0.435635    92A      0.436994    93A      0.439739  
      94A      0.458055    95A      0.468360    96A      0.472302  
      97A      0.473232    98A      0.479688    99A      0.495941  
     100A      0.500049   101A      0.508332   102A      0.514162  
     103A      0.520868   104A      0.529837   105A      0.537326  
     106A      0.543542   107A      0.558469   108A      0.563613  
     109A      0.567463   110A      0.588800   111A      0.596617  
     112A      0.610760   113A      0.611440   114A      0.616272  
     115A      0.617911   116A      0.627596   117A      0.637680  
     118A      0.640249   119A      0.664150   120A      0.669947  
     121A      0.675639   122A      0.681666   123A      0.692900  
     124A      0.699983   125A      0.715502   126A      0.715762  
     127A      0.732955   128A      0.745323   129A      0.763150  
     130A      0.769910   131A      0.779462   132A      0.782644  
     133A      0.787461   134A      0.801057   135A      0.805656  
     136A      0.810175   137A      0.825981   138A      0.829065  
     139A      0.841390   140A      0.843842   141A      0.847733  
     142A      0.876106   143A      0.877681   144A      0.880707  
     145A      0.900102   146A      0.904740   147A      0.921964  
     148A      0.946909   149A      0.956453   150A      0.971074  
     151A      0.980517   152A      1.010526   153A      1.016112  
     154A      1.025854   155A      1.037643   156A      1.052626  
     157A      1.067929   158A      1.076455   159A      1.084513  
     160A      1.093647   161A      1.127466   162A      1.136384  
     163A      1.150961   164A      1.152747   165A      1.171245  
     166A      1.176553   167A      1.188897   168A      1.203845  
     169A      1.219971   170A      1.232549   171A      1.240945  
     172A      1.255362   173A      1.268832   174A      1.279686  
     175A      1.288917   176A      1.319064   177A      1.330102  
     178A      1.346408   179A      1.362507   180A      1.393567  
     181A      1.404361   182A      1.408049   183A      1.415600  
     184A      1.444798   185A      1.464048   186A      1.477648  
     187A      1.501264   188A      1.512946   189A      1.529976  
     190A      1.545819   191A      1.574959   192A      1.587272  
     193A      1.606780   194A      1.610093   195A      1.628480  
     196A      1.656781   197A      1.669091   198A      1.681682  
     199A      1.689007   200A      1.704000   201A      1.715468  
     202A      1.737214   203A      1.763299   204A      1.767971  
     205A      1.819799   206A      1.837804   207A      1.850354  
     208A      1.859748   209A      1.860812   210A      1.875280  
     211A      1.895031   212A      1.903444   213A      1.955774  
     214A      1.969877   215A      1.981657   216A      1.988507  
     217A      2.019143   218A      2.064451   219A      2.073280  
     220A      2.084266   221A      2.093050   222A      2.105722  
     223A      2.120492   224A      2.148697   225A      2.203067  
     226A      2.217480   227A      2.242149   228A      2.250434  
     229A      2.257232   230A      2.273279   231A      2.296707  
     232A      2.308506   233A      2.341707   234A      2.367767  
     235A      2.371735   236A      2.375437   237A      2.396269  
     238A      2.424338   239A      2.430040   240A      2.444532  
     241A      2.464607   242A      2.484480   243A      2.502771  
     244A      2.527609   245A      2.540805   246A      2.556634  
     247A      2.608331   248A      2.635221   249A      2.652094  
     250A      2.673683   251A      2.707525   252A      2.729922  
     253A      2.749815   254A      2.761282   255A      2.779915  
     256A      2.791154   257A      2.835872   258A      2.844578  
     259A      2.874318   260A      2.898353   261A      2.910138  
     262A      2.917375   263A      2.952623   264A      2.996628  
     265A      3.014058   266A      3.045480   267A      3.063548  
     268A      3.102884   269A      3.165724   270A      3.196506  
     271A      3.235261   272A      3.268420   273A      3.312470  
     274A      3.338058   275A      3.427806   276A      3.518615  
     277A      3.582885   278A      3.629578   279A      3.735121  
     280A      3.798579   281A      3.800103   282A      3.825347  
     283A      3.827778   284A      3.888152   285A      3.927412  
     286A      3.973576   287A      4.023357   288A      4.053907  
     289A      4.131642   290A      4.174964   291A      4.209172  
     292A      4.271655   293A      4.390838   294A      5.011633  
     295A      5.063302   296A      5.165979   297A      5.264486  
     298A      5.611076   299A      6.340152   300A      6.787136  
     301A      7.111970   302A     33.582221  

    Final Occupation by Irrep:
              A 
    DOCC [    33 ]

  @DF-RHF Final Energy:  -451.56820306386527

   => Energetics <=

    Nuclear Repulsion Energy =            438.3752910374490170
    One-Electron Energy =               -1484.5427853037856494
    Two-Electron Energy =                 594.5992912024714769
    Total Energy =                       -451.5682030638652122

Computation Completed


Properties will be evaluated at   0.000000,   0.000000,   0.000000 [a0]

Properties computed using the SCF density matrix

  Nuclear Dipole Moment: [e a0]
     X:    56.7280      Y:    18.0261      Z:     0.8050

  Electronic Dipole Moment: [e a0]
     X:   -54.9034      Y:   -17.4004      Z:    -0.8058

  Dipole Moment: [e a0]
     X:     1.8245      Y:     0.6257      Z:    -0.0007     Total:     1.9288

  Dipole Moment: [D]
     X:     4.6375      Y:     1.5903      Z:    -0.0019     Total:     4.9026


*** tstop() called on node194.bme.utexas.edu at Mon May 13 10:02:29 2024
Module time:
	user time   =      29.69 seconds =       0.49 minutes
	system time =       0.22 seconds =       0.00 minutes
	total time  =          4 seconds =       0.07 minutes
Total time:
	user time   =      70.35 seconds =       1.17 minutes
	system time =       0.76 seconds =       0.01 minutes
	total time  =         10 seconds =       0.17 minutes

*** tstart() called on node194.bme.utexas.edu
*** at Mon May 13 10:02:29 2024


  //>>>>>>>>>>>>>>>>>>>>>>>>>>>>>>>>>>>//
  //               DFMP2               //
  //<<<<<<<<<<<<<<<<<<<<<<<<<<<<<<<<<<<//

   => Loading Basis Set <=

    Name: (AUG-CC-PVDZ AUX)
    Role: RIFIT
    Keyword: DF_BASIS_MP2
    atoms 1, 5                   entry N          line   158 file /opt/anaconda/envs/psi4v1.5/share/psi4/basis/aug-cc-pvdz-ri.gbs 
    atoms 2, 6, 11, 13-15, 17-18 entry H          line    30 file /opt/anaconda/envs/psi4v1.5/share/psi4/basis/aug-cc-pvdz-ri.gbs 
    atoms 3, 7, 9-10, 12         entry C          line   112 file /opt/anaconda/envs/psi4v1.5/share/psi4/basis/aug-cc-pvdz-ri.gbs 
    atoms 4, 8, 16               entry O          line   204 file /opt/anaconda/envs/psi4v1.5/share/psi4/basis/aug-cc-pvdz-ri.gbs 

	 --------------------------------------------------------
	                          DF-MP2                         
	      2nd-Order Density-Fitted Moller-Plesset Theory     
	              RMP2 Wavefunction,   8 Threads             
	                                                         
	        Rob Parrish, Justin Turney, Andy Simmonett,      
	           Ed Hohenstein, and C. David Sherrill          
	 --------------------------------------------------------

   => Auxiliary Basis Set <=

  Basis Set: (AUG-CC-PVDZ AUX)
    Blend: AUG-CC-PVDZ-RI
    Number of shells: 292
    Number of basis functions: 904
    Number of Cartesian functions: 1060
    Spherical Harmonics?: true
    Max angular momentum: 3

	 --------------------------------------------------------
	                 NBF =   302, NAUX =   904
	 --------------------------------------------------------
	   CLASS    FOCC     OCC    AOCC    AVIR     VIR    FVIR
	   PAIRS       9      33      24     269     269       0
	 --------------------------------------------------------

	 Will attempt to load fitting metric from file 97.

	-----------------------------------------------------------
	 ==================> DF-MP2 Energies <==================== 
	-----------------------------------------------------------
	 Reference Energy          =    -451.5682030638652691 [Eh]
	 Singles Energy            =      -0.0000000000000000 [Eh]
	 Same-Spin Energy          =      -0.3801125988841649 [Eh]
	 Opposite-Spin Energy      =      -1.0258183005413146 [Eh]
	 Correlation Energy        =      -1.4059308994254796 [Eh]
	 Total Energy              =    -452.9741339632907398 [Eh]
	-----------------------------------------------------------
	 ================> DF-SCS-MP2 Energies <================== 
	-----------------------------------------------------------
	 SCS Same-Spin Scale       =       0.3333333333333333 [-]
	 SCS Opposite-Spin Scale   =       1.2000000000000000 [-]
	 SCS Same-Spin Energy      =      -0.1267041996280550 [Eh]
	 SCS Opposite-Spin Energy  =      -1.2309819606495775 [Eh]
	 SCS Correlation Energy    =      -1.3576861602776324 [Eh]
	 SCS Total Energy          =    -452.9258892241429066 [Eh]
	-----------------------------------------------------------


*** tstop() called on node194.bme.utexas.edu at Mon May 13 10:02:30 2024
Module time:
	user time   =       6.08 seconds =       0.10 minutes
	system time =       0.11 seconds =       0.00 minutes
	total time  =          1 seconds =       0.02 minutes
Total time:
	user time   =      76.43 seconds =       1.27 minutes
	system time =       0.87 seconds =       0.01 minutes
	total time  =         11 seconds =       0.18 minutes

  //>>>>>>>>>>>>>>>>>>>>>>>>>>>>>>>>>>>//
  //            Monomer B HF           //
  //<<<<<<<<<<<<<<<<<<<<<<<<<<<<<<<<<<<//


*** tstart() called on node194.bme.utexas.edu
*** at Mon May 13 10:02:30 2024

   => Loading Basis Set <=

    Name: AUG-CC-PVDZ
    Role: ORBITAL
    Keyword: BASIS
    atoms 1, 5                   entry N          line   218 file /opt/anaconda/envs/psi4v1.5/share/psi4/basis/aug-cc-pvdz.gbs 
    atoms 2, 6, 11, 13-15, 17-18 entry H          line    40 file /opt/anaconda/envs/psi4v1.5/share/psi4/basis/aug-cc-pvdz.gbs 
    atoms 3, 7, 9-10, 12         entry C          line   182 file /opt/anaconda/envs/psi4v1.5/share/psi4/basis/aug-cc-pvdz.gbs 
    atoms 4, 8, 16               entry O          line   254 file /opt/anaconda/envs/psi4v1.5/share/psi4/basis/aug-cc-pvdz.gbs 


         ---------------------------------------------------------
                                   SCF
               by Justin Turney, Rob Parrish, Andy Simmonett
                          and Daniel G. A. Smith
                              RHF Reference
                        8 Threads,  47683 MiB Core
         ---------------------------------------------------------

  ==> Geometry <==

    Molecular point group: c1
    Full point group: C1

    Geometry (in Angstrom), charge = 0, multiplicity = 1:

       Center              X                  Y                   Z               Mass       
    ------------   -----------------  -----------------  -----------------  -----------------
      Gh(N)           0.959775928724     1.736885706523     0.014003513325    14.003074004430
      Gh(H)           1.277405928724     2.699065706523     0.017073513325     1.007825032230
      Gh(C)          -0.419664071276     1.578265706523     0.004023513325    12.000000000000
      Gh(O)          -1.201094071276     2.520725706523     0.005663513325    15.994914619570
      Gh(N)          -0.801114071276     0.245865706523    -0.004436486675    14.003074004430
      Gh(H)          -1.813434071276     0.053475706523    -0.024066486675     1.007825032230
      Gh(C)           0.023925928724    -0.874774293477     0.000773513325    12.000000000000
      Gh(O)          -0.452004071276    -2.021624293477    -0.003176486675    15.994914619570
      Gh(C)           1.456375928724    -0.601914293477     0.011553513325    12.000000000000
      Gh(C)           1.857225928724     0.692935706523     0.016233513325    12.000000000000
      Gh(H)           2.905315928724     0.979155706523     0.022473513325     1.007825032230
      Gh(C)           2.394575928724    -1.767984293477     0.014063513325    12.000000000000
      Gh(H)           3.434775928724    -1.431324293477     0.016733513325     1.007825032230
      Gh(H)           2.225345928724    -2.396614293477     0.892713513325     1.007825032230
      Gh(H)           2.229255928724    -2.396004293477    -0.865676486675     1.007825032230
         O           -2.789781537943    -1.153908960144    -0.090803486675    15.994914619570
         H           -3.198381537943    -1.328918960144     0.771146513325     1.007825032230
         H           -2.007371537943    -1.744648960144    -0.117103486675     1.007825032230

  Running in c1 symmetry.

  Rotational constants: A =      0.05020  B =      0.04508  C =      0.02391 [cm^-1]
  Rotational constants: A =   1505.10649  B =   1351.58153  C =    716.71894 [MHz]
  Nuclear repulsion =    9.024773588795787

  Charge       = 0
  Multiplicity = 1
  Electrons    = 10
  Nalpha       = 5
  Nbeta        = 5

  ==> Algorithm <==

  SCF Algorithm Type is DF.
  DIIS enabled.
  MOM disabled.
  Fractional occupation disabled.
  Guess Type is SAD.
  Energy threshold   = 1.00e-08
  Density threshold  = 1.00e-08
  Integral threshold = 1.00e-12

  ==> Primary Basis <==

  Basis Set: AUG-CC-PVDZ
    Blend: AUG-CC-PVDZ
    Number of shells: 130
    Number of basis functions: 302
    Number of Cartesian functions: 322
    Spherical Harmonics?: true
    Max angular momentum: 2

   => Loading Basis Set <=

    Name: (AUG-CC-PVDZ AUX)
    Role: JKFIT
    Keyword: DF_BASIS_SCF
    atoms 1, 5                   entry N          line   212 file /opt/anaconda/envs/psi4v1.5/share/psi4/basis/aug-cc-pvdz-jkfit.gbs 
    atoms 2, 6, 11, 13-15, 17-18 entry H          line    70 file /opt/anaconda/envs/psi4v1.5/share/psi4/basis/aug-cc-pvdz-jkfit.gbs 
    atoms 3, 7, 9-10, 12         entry C          line   154 file /opt/anaconda/envs/psi4v1.5/share/psi4/basis/aug-cc-pvdz-jkfit.gbs 
    atoms 4, 8, 16               entry O          line   270 file /opt/anaconda/envs/psi4v1.5/share/psi4/basis/aug-cc-pvdz-jkfit.gbs 

  ==> Integral Setup <==

  ==> DiskDFJK: Density-Fitted J/K Matrices <==

    J tasked:                  Yes
    K tasked:                  Yes
    wK tasked:                  No
    OpenMP threads:              8
    Integrals threads:           8
    Memory [MiB]:            35762
    Algorithm:                Core
    Integral Cache:           LOAD
    Schwarz Cutoff:          1E-12
    Fitting Condition:       1E-10

   => Auxiliary Basis Set <=

  Basis Set: (AUG-CC-PVDZ AUX)
    Blend: AUG-CC-PVDZ-JKFIT
    Number of shells: 376
    Number of basis functions: 1116
    Number of Cartesian functions: 1290
    Spherical Harmonics?: true
    Max angular momentum: 3

  Minimum eigenvalue in the overlap matrix is 5.7983891607E-06.
  Reciprocal condition number of the overlap matrix is 3.8048746014E-07.
    Using symmetric orthogonalization.

  ==> Pre-Iterations <==

  SCF Guess: Superposition of Atomic Densities via on-the-fly atomic UHF (no occupation information).

   -------------------------
    Irrep   Nso     Nmo    
   -------------------------
     A        302     302 
   -------------------------
    Total     302     302
   -------------------------

  ==> Iterations <==

                           Total Energy        Delta E     RMS |[F,P]|

   @DF-RHF iter SAD:   -75.44473732318380   -7.54447e+01   0.00000e+00 
   @DF-RHF iter   1:   -75.95572590588131   -5.10989e-01   1.50081e-03 DIIS
   @DF-RHF iter   2:   -76.00843810083110   -5.27122e-02   1.00120e-03 DIIS
   @DF-RHF iter   3:   -76.04022470061244   -3.17866e-02   7.11881e-05 DIIS
   @DF-RHF iter   4:   -76.04062311731211   -3.98417e-04   1.66684e-05 DIIS
   @DF-RHF iter   5:   -76.04064772997091   -2.46127e-05   3.83304e-06 DIIS
   @DF-RHF iter   6:   -76.04064975247664   -2.02251e-06   7.77275e-07 DIIS
   @DF-RHF iter   7:   -76.04064984009467   -8.76180e-08   1.29772e-07 DIIS
   @DF-RHF iter   8:   -76.04064984231752   -2.22285e-09   2.14902e-08 DIIS
   @DF-RHF iter   9:   -76.04064984237129   -5.37739e-11   5.58211e-09 DIIS
  Energy and wave function converged.


  ==> Post-Iterations <==

    Orbital Energies [Eh]
    ---------------------

    Doubly Occupied:                                                      

       1A    -20.580705     2A     -1.347150     3A     -0.709204  
       4A     -0.581548     5A     -0.507648  

    Virtual:                                                              

       6A      0.018595     7A      0.034966     8A      0.038818  
       9A      0.049126    10A      0.056919    11A      0.062254  
      12A      0.070397    13A      0.078988    14A      0.085251  
      15A      0.090552    16A      0.103278    17A      0.104770  
      18A      0.112179    19A      0.120255    20A      0.129374  
      21A      0.135444    22A      0.137512    23A      0.148786  
      24A      0.154974    25A      0.161216    26A      0.166732  
      27A      0.169153    28A      0.173946    29A      0.189025  
      30A      0.193784    31A      0.203027    32A      0.211067  
      33A      0.217604    34A      0.224822    35A      0.227142  
      36A      0.229215    37A      0.239106    38A      0.245414  
      39A      0.249937    40A      0.260598    41A      0.264820  
      42A      0.279247    43A      0.283826    44A      0.286496  
      45A      0.294195    46A      0.296668    47A      0.319111  
      48A      0.329995    49A      0.330913    50A      0.336688  
      51A      0.342215    52A      0.351743    53A      0.366443  
      54A      0.370090    55A      0.393220    56A      0.398748  
      57A      0.404415    58A      0.418169    59A      0.423568  
      60A      0.429610    61A      0.441242    62A      0.452586  
      63A      0.466111    64A      0.469494    65A      0.474970  
      66A      0.477970    67A      0.492073    68A      0.494084  
      69A      0.496445    70A      0.519828    71A      0.523592  
      72A      0.534856    73A      0.541270    74A      0.547174  
      75A      0.561608    76A      0.563749    77A      0.573697  
      78A      0.576999    79A      0.584696    80A      0.596158  
      81A      0.600483    82A      0.611922    83A      0.614932  
      84A      0.630105    85A      0.636266    86A      0.644133  
      87A      0.652304    88A      0.663235    89A      0.671529  
      90A      0.681501    91A      0.698406    92A      0.709571  
      93A      0.717609    94A      0.719259    95A      0.734632  
      96A      0.745055    97A      0.755102    98A      0.768138  
      99A      0.786834   100A      0.799807   101A      0.805721  
     102A      0.806316   103A      0.817534   104A      0.824827  
     105A      0.842546   106A      0.858128   107A      0.870564  
     108A      0.875262   109A      0.887180   110A      0.891436  
     111A      0.901269   112A      0.911951   113A      0.916819  
     114A      0.932736   115A      0.942131   116A      0.970262  
     117A      0.976184   118A      0.982554   119A      1.009133  
     120A      1.021458   121A      1.041649   122A      1.046618  
     123A      1.049190   124A      1.059904   125A      1.091344  
     126A      1.107238   127A      1.115157   128A      1.121367  
     129A      1.137956   130A      1.149912   131A      1.161408  
     132A      1.166874   133A      1.177185   134A      1.188424  
     135A      1.201128   136A      1.218474   137A      1.230828  
     138A      1.240956   139A      1.258668   140A      1.273209  
     141A      1.286533   142A      1.296929   143A      1.310690  
     144A      1.315714   145A      1.328930   146A      1.333322  
     147A      1.372161   148A      1.389024   149A      1.402722  
     150A      1.411852   151A      1.428735   152A      1.438534  
     153A      1.444199   154A      1.462583   155A      1.474143  
     156A      1.491358   157A      1.516635   158A      1.518495  
     159A      1.539505   160A      1.561772   161A      1.574088  
     162A      1.584186   163A      1.597965   164A      1.624000  
     165A      1.656603   166A      1.676656   167A      1.713834  
     168A      1.734339   169A      1.777764   170A      1.810468  
     171A      1.843259   172A      1.894392   173A      1.944040  
     174A      1.953303   175A      1.983564   176A      1.988256  
     177A      2.067678   178A      2.139665   179A      2.161695  
     180A      2.179500   181A      2.211597   182A      2.238439  
     183A      2.265951   184A      2.272702   185A      2.278673  
     186A      2.308492   187A      2.320818   188A      2.349379  
     189A      2.354150   190A      2.371737   191A      2.389424  
     192A      2.419752   193A      2.430960   194A      2.440127  
     195A      2.462870   196A      2.477736   197A      2.505213  
     198A      2.524511   199A      2.532101   200A      2.539073  
     201A      2.559865   202A      2.609420   203A      2.619474  
     204A      2.626975   205A      2.662868   206A      2.726904  
     207A      2.742823   208A      2.758397   209A      2.775966  
     210A      2.788474   211A      2.835158   212A      2.857990  
     213A      2.865720   214A      2.874036   215A      2.884068  
     216A      2.909615   217A      2.962872   218A      2.975469  
     219A      3.001789   220A      3.090026   221A      3.098154  
     222A      3.132839   223A      3.205059   224A      3.209739  
     225A      3.243680   226A      3.258454   227A      3.300525  
     228A      3.314830   229A      3.369001   230A      3.388451  
     231A      3.435779   232A      3.464059   233A      3.491082  
     234A      3.509628   235A      3.543505   236A      3.545245  
     237A      3.590577   238A      3.665566   239A      3.714090  
     240A      3.727689   241A      3.749221   242A      3.751355  
     243A      3.775619   244A      3.808257   245A      3.817540  
     246A      3.856605   247A      3.880515   248A      3.888738  
     249A      3.919008   250A      3.957744   251A      4.000063  
     252A      4.136106   253A      4.142795   254A      4.223316  
     255A      4.342805   256A      4.367492   257A      4.421910  
     258A      4.433074   259A      4.487242   260A      4.579792  
     261A      4.651116   262A      4.664843   263A      4.699070  
     264A      4.742228   265A      4.784260   266A      4.896829  
     267A      4.980773   268A      5.007535   269A      5.010051  
     270A      5.043890   271A      5.046853   272A      5.069262  
     273A      5.079814   274A      5.128278   275A      5.181379  
     276A      5.204007   277A      5.293939   278A      5.318188  
     279A      5.389869   280A      5.482736   281A      5.636802  
     282A      5.764748   283A      5.917700   284A      5.968376  
     285A      5.992917   286A      6.059962   287A      6.078435  
     288A      6.146066   289A      6.238972   290A      6.508352  
     291A      6.713159   292A      7.027369   293A      7.239643  
     294A     18.156482   295A     18.661733   296A     18.817531  
     297A     18.857045   298A     19.702304   299A     25.452575  
     300A     25.488320   301A     33.513486   302A     33.548692  

    Final Occupation by Irrep:
              A 
    DOCC [     5 ]

  @DF-RHF Final Energy:   -76.04064984237129

   => Energetics <=

    Nuclear Repulsion Energy =              9.0247735887957869
    One-Electron Energy =                -122.6783325489497543
    Two-Electron Energy =                  37.6129091177826780
    Total Energy =                        -76.0406498423712947

Computation Completed


Properties will be evaluated at   0.000000,   0.000000,   0.000000 [a0]

Properties computed using the SCF density matrix

  Nuclear Dipole Moment: [e a0]
     X:   -52.0128      Y:   -23.2528      Z:    -0.1368

  Electronic Dipole Moment: [e a0]
     X:    52.2594      Y:    22.7491      Z:     0.6884

  Dipole Moment: [e a0]
     X:     0.2465      Y:    -0.5037      Z:     0.5516     Total:     0.7866

  Dipole Moment: [D]
     X:     0.6266      Y:    -1.2802      Z:     1.4021     Total:     1.9993


*** tstop() called on node194.bme.utexas.edu at Mon May 13 10:02:32 2024
Module time:
	user time   =      17.31 seconds =       0.29 minutes
	system time =       0.10 seconds =       0.00 minutes
	total time  =          2 seconds =       0.03 minutes
Total time:
	user time   =      93.76 seconds =       1.56 minutes
	system time =       0.97 seconds =       0.02 minutes
	total time  =         13 seconds =       0.22 minutes

*** tstart() called on node194.bme.utexas.edu
*** at Mon May 13 10:02:32 2024


  //>>>>>>>>>>>>>>>>>>>>>>>>>>>>>>>>>>>//
  //               DFMP2               //
  //<<<<<<<<<<<<<<<<<<<<<<<<<<<<<<<<<<<//

   => Loading Basis Set <=

    Name: (AUG-CC-PVDZ AUX)
    Role: RIFIT
    Keyword: DF_BASIS_MP2
    atoms 1, 5                   entry N          line   158 file /opt/anaconda/envs/psi4v1.5/share/psi4/basis/aug-cc-pvdz-ri.gbs 
    atoms 2, 6, 11, 13-15, 17-18 entry H          line    30 file /opt/anaconda/envs/psi4v1.5/share/psi4/basis/aug-cc-pvdz-ri.gbs 
    atoms 3, 7, 9-10, 12         entry C          line   112 file /opt/anaconda/envs/psi4v1.5/share/psi4/basis/aug-cc-pvdz-ri.gbs 
    atoms 4, 8, 16               entry O          line   204 file /opt/anaconda/envs/psi4v1.5/share/psi4/basis/aug-cc-pvdz-ri.gbs 

	 --------------------------------------------------------
	                          DF-MP2                         
	      2nd-Order Density-Fitted Moller-Plesset Theory     
	              RMP2 Wavefunction,   8 Threads             
	                                                         
	        Rob Parrish, Justin Turney, Andy Simmonett,      
	           Ed Hohenstein, and C. David Sherrill          
	 --------------------------------------------------------

   => Auxiliary Basis Set <=

  Basis Set: (AUG-CC-PVDZ AUX)
    Blend: AUG-CC-PVDZ-RI
    Number of shells: 292
    Number of basis functions: 904
    Number of Cartesian functions: 1060
    Spherical Harmonics?: true
    Max angular momentum: 3

	 --------------------------------------------------------
	                 NBF =   302, NAUX =   904
	 --------------------------------------------------------
	   CLASS    FOCC     OCC    AOCC    AVIR     VIR    FVIR
	   PAIRS       1       5       4     297     297       0
	 --------------------------------------------------------

	 Will attempt to load fitting metric from file 97.

	-----------------------------------------------------------
	 ==================> DF-MP2 Energies <==================== 
	-----------------------------------------------------------
	 Reference Energy          =     -76.0406498423712947 [Eh]
	 Singles Energy            =      -0.0000000000000000 [Eh]
	 Same-Spin Energy          =      -0.0565822707998619 [Eh]
	 Opposite-Spin Energy      =      -0.1664099338703040 [Eh]
	 Correlation Energy        =      -0.2229922046701659 [Eh]
	 Total Energy              =     -76.2636420470414578 [Eh]
	-----------------------------------------------------------
	 ================> DF-SCS-MP2 Energies <================== 
	-----------------------------------------------------------
	 SCS Same-Spin Scale       =       0.3333333333333333 [-]
	 SCS Opposite-Spin Scale   =       1.2000000000000000 [-]
	 SCS Same-Spin Energy      =      -0.0188607569332873 [Eh]
	 SCS Opposite-Spin Energy  =      -0.1996919206443648 [Eh]
	 SCS Correlation Energy    =      -0.2185526775776521 [Eh]
	 SCS Total Energy          =     -76.2592025199489427 [Eh]
	-----------------------------------------------------------


*** tstop() called on node194.bme.utexas.edu at Mon May 13 10:02:33 2024
Module time:
	user time   =       4.50 seconds =       0.07 minutes
	system time =       0.06 seconds =       0.00 minutes
	total time  =          1 seconds =       0.02 minutes
Total time:
	user time   =      98.26 seconds =       1.64 minutes
	system time =       1.03 seconds =       0.02 minutes
	total time  =         14 seconds =       0.23 minutes
  Constructing Basis Sets for SAPT...

   => Loading Basis Set <=

    Name: (AUG-CC-PVDZ AUX)
    Role: RIFIT
    Keyword: DF_BASIS_SAPT
    atoms 1, 5                   entry N          line   158 file /opt/anaconda/envs/psi4v1.5/share/psi4/basis/aug-cc-pvdz-ri.gbs 
    atoms 2, 6, 11, 13-15, 17-18 entry H          line    30 file /opt/anaconda/envs/psi4v1.5/share/psi4/basis/aug-cc-pvdz-ri.gbs 
    atoms 3, 7, 9-10, 12         entry C          line   112 file /opt/anaconda/envs/psi4v1.5/share/psi4/basis/aug-cc-pvdz-ri.gbs 
    atoms 4, 8, 16               entry O          line   204 file /opt/anaconda/envs/psi4v1.5/share/psi4/basis/aug-cc-pvdz-ri.gbs 


  //>>>>>>>>>>>>>>>>>>>>>>>>>>>>>>>>>>>//
  //           SAPT2+(3)DMP2           //
  //<<<<<<<<<<<<<<<<<<<<<<<<<<<<<<<<<<<//


*** tstart() called on node194.bme.utexas.edu
*** at Mon May 13 10:02:33 2024

      SAPT2+(3)  
    Ed Hohenstein
     6 June 2009

      Orbital Information
  --------------------------
    NSO        =       302
    NMO        =       302
    NRI        =       904
    NOCC A     =        33
    NOCC B     =         5
    FOCC A     =         9
    FOCC B     =         1
    NVIR A     =       269
    NVIR B     =       297

    Estimated memory usage: 2943.4 MB

    Natural Orbital Cutoff:   1.000E-06
    Disp(T3) Truncation:            Yes
    CCD (vv|vv) Truncation:         Yes
    MBPT T2 Truncation:             Yes

    Monomer A: 41 virtual orbitals dropped
    Monomer B: 249 virtual orbitals dropped

    Elst10,r            =    -0.068830732527 [Eh]
    Exch10 (S^2)        =     0.105593463987 [Eh]
    Exch10              =     0.108626639505 [Eh]
    Ind20,r (A<-B)      =    -0.024749826107 [Eh]
    Ind20,r (B<-A)      =    -0.028020478784 [Eh]
    Ind20,r             =    -0.052770304891 [Eh]
    Exch-Ind20,r (A<-B) =     0.016006219859 [Eh]
    Exch-Ind20,r (B<-A) =     0.018226164476 [Eh]
    Exch-Ind20,r        =     0.034232384335 [Eh]
    Disp20              =    -0.023270161102 [Eh]
    Disp20 (NO)         =    -0.021474910395 [Eh]
    Exch-Disp20         =     0.005959924335 [Eh]
    Elst12,r            =    -0.003066243639 [Eh]
    Exch11              =    -0.000665542326 [Eh]
    Exch12              =     0.014558355467 [Eh]
    Ind22               =    -0.009946312328 [Eh]
    Disp21              =     0.002433675850 [Eh]
    Disp22 (SDQ)        =    -0.001224930765 [Eh]

    (i =   1 of   4)         15 seconds
    (i =   2 of   4)         30 seconds
    (i =   3 of   4)         45 seconds
    (i =   4 of   4)         60 seconds

    Disp220 (T)         =    -0.001835889446 [Eh]

    (i =   1 of  24)          0 seconds
    (i =   2 of  24)          0 seconds
    (i =   3 of  24)          0 seconds
    (i =   4 of  24)          0 seconds
    (i =   5 of  24)          0 seconds
    (i =   6 of  24)          1 seconds
    (i =   7 of  24)          1 seconds
    (i =   8 of  24)          1 seconds
    (i =   9 of  24)          1 seconds
    (i =  10 of  24)          1 seconds
    (i =  11 of  24)          1 seconds
    (i =  12 of  24)          1 seconds
    (i =  13 of  24)          2 seconds
    (i =  14 of  24)          2 seconds
    (i =  15 of  24)          2 seconds
    (i =  16 of  24)          2 seconds
    (i =  17 of  24)          2 seconds
    (i =  18 of  24)          2 seconds
    (i =  19 of  24)          3 seconds
    (i =  20 of  24)          3 seconds
    (i =  21 of  24)          3 seconds
    (i =  22 of  24)          3 seconds
    (i =  23 of  24)          3 seconds
    (i =  24 of  24)          3 seconds

    Disp202 (T)         =    -0.001599797672 [Eh]

    Disp22 (T)          =    -0.003435687118 [Eh]

    Est. Disp220 (T)    =    -0.001989365376 [Eh]
    Est. Disp202 (T)    =    -0.001733536898 [Eh]

    Est. Disp22 (T)     =    -0.003722902273 [Eh]
    Elst13,r            =     0.001901059675 [Eh]
    Disp30              =     0.000352925647 [Eh]

    SAPT Results 
  --------------------------------------------------------------------------------------------------------
    Electrostatics                -69.99591649 [mEh]     -43.92310072 [kcal/mol]    -183.77425343 [kJ/mol]
      Elst10,r                    -68.83073253 [mEh]     -43.19193675 [kcal/mol]    -180.71506335 [kJ/mol]
      Elst12,r                     -3.06624364 [mEh]      -1.92409693 [kcal/mol]      -8.05042157 [kJ/mol]
      Elst13,r                      1.90105967 [mEh]       1.19293296 [kcal/mol]       4.99123149 [kJ/mol]

    Exchange                      122.51945265 [mEh]      76.88211726 [kcal/mol]     321.67477861 [kJ/mol]
      Exch10                      108.62663950 [mEh]      68.16424539 [kcal/mol]     285.19920273 [kJ/mol]
      Exch10(S^2)                 105.59346399 [mEh]      66.26089902 [kcal/mol]     277.23560150 [kJ/mol]
      Exch11(S^2)                  -0.66554233 [mEh]      -0.41763411 [kcal/mol]      -1.74738114 [kJ/mol]
      Exch12(S^2)                  14.55835547 [mEh]       9.13550598 [kcal/mol]      38.22295701 [kJ/mol]

    Induction                     -32.43612678 [mEh]     -20.35397685 [kcal/mol]     -85.16103914 [kJ/mol]
      Ind20,r                     -52.77030489 [mEh]     -33.11386625 [kcal/mol]    -138.54841640 [kJ/mol]
      Ind22                        -9.94631233 [mEh]      -6.24140521 [kcal/mol]     -26.11403942 [kJ/mol]
      Exch-Ind20,r                 34.23238433 [mEh]      21.48114548 [kcal/mol]      89.87711269 [kJ/mol]
      Exch-Ind22                    6.45222701 [mEh]       4.04883357 [kcal/mol]      16.94031967 [kJ/mol]
      delta HF,r (2)              -13.36488769 [mEh]      -8.38659364 [kcal/mol]     -35.08950780 [kJ/mol]
      delta MP2,r (2)               2.96076678 [mEh]       1.85790921 [kcal/mol]       7.77349212 [kJ/mol]

    Dispersion                    -19.47146831 [mEh]     -12.21853083 [kcal/mol]     -51.12233300 [kJ/mol]
      Disp20                      -23.27016110 [mEh]     -14.60224655 [kcal/mol]     -61.09579956 [kJ/mol]
      Disp30                        0.35292565 [mEh]       0.22146419 [kcal/mol]       0.92660616 [kJ/mol]
      Disp21                        2.43367585 [mEh]       1.52715465 [kcal/mol]       6.38961506 [kJ/mol]
      Disp22 (SDQ)                 -1.22493077 [mEh]      -0.76865566 [kcal/mol]      -3.21605528 [kJ/mol]
      Disp22 (T)                   -3.43568712 [mEh]      -2.15592622 [kcal/mol]      -9.02039529 [kJ/mol]
      Est. Disp22 (T)              -3.72290227 [mEh]      -2.33615645 [kcal/mol]      -9.77447857 [kJ/mol]
      Exch-Disp20                   5.95992433 [mEh]       3.73990898 [kcal/mol]      15.64777918 [kJ/mol]

  Total HF                          7.89309873 [mEh]       4.95299423 [kcal/mol]      20.72332786 [kJ/mol]
  Total SAPT0                      -9.41713804 [mEh]      -5.90934333 [kcal/mol]     -24.72469251 [kJ/mol]
  Total SAPT2                      -2.08465386 [mEh]      -1.30814004 [kcal/mol]      -5.47325795 [kJ/mol]
  Total SAPT2+                     -4.59881105 [mEh]      -2.88579750 [kcal/mol]     -12.07417674 [kJ/mol]
  Total SAPT2+(3)                  -2.34482572 [mEh]      -1.47140036 [kcal/mol]      -6.15633909 [kJ/mol]
  Total SAPT2+dMP2                 -1.63804426 [mEh]      -1.02788829 [kcal/mol]      -4.30068462 [kJ/mol]
  Total SAPT2+(3)dMP2               0.61594106 [mEh]       0.38650885 [kcal/mol]       1.61715303 [kJ/mol]

  Special recipe for scaled SAPT0 (see Manual):
    Electrostatics sSAPT0         -68.83073253 [mEh]     -43.19193675 [kcal/mol]    -180.71506335 [kJ/mol]
    Exchange sSAPT0               108.62663950 [mEh]      68.16424539 [kcal/mol]     285.19920273 [kJ/mol]
    Induction sSAPT0              -28.86727975 [mEh]     -18.11449152 [kcal/mol]     -75.79103253 [kJ/mol]
    Dispersion sSAPT0             -16.78174538 [mEh]     -10.53070421 [kcal/mol]     -44.06046643 [kJ/mol]
  Total sSAPT0                     -5.85311815 [mEh]      -3.67288709 [kcal/mol]     -15.36735959 [kJ/mol]
  --------------------------------------------------------------------------------------------------------

*** tstop() called on node194.bme.utexas.edu at Mon May 13 10:05:00 2024
Module time:
	user time   =    1152.16 seconds =      19.20 minutes
	system time =      13.49 seconds =       0.22 minutes
	total time  =        147 seconds =       2.45 minutes
Total time:
	user time   =    1250.78 seconds =      20.85 minutes
	system time =      14.52 seconds =       0.24 minutes
	total time  =        161 seconds =       2.68 minutes

    Psi4 stopped on: Monday, 13 May 2024 10:05AM
    Psi4 wall time for execution: 0:02:41.40

*** Psi4 exiting successfully. Buy a developer a beer!
