
    -----------------------------------------------------------------------
          Psi4: An Open-Source Ab Initio Electronic Structure Package
                               Psi4 1.5 release

                         Git: Rev {HEAD} e9f4d6d 


    D. G. A. Smith, L. A. Burns, A. C. Simmonett, R. M. Parrish,
    M. C. Schieber, R. Galvelis, P. Kraus, H. Kruse, R. Di Remigio,
    A. Alenaizan, A. M. James, S. Lehtola, J. P. Misiewicz, M. Scheurer,
    R. A. Shaw, J. B. Schriber, Y. Xie, Z. L. Glick, D. A. Sirianni,
    J. S. O'Brien, J. M. Waldrop, A. Kumar, E. G. Hohenstein,
    B. P. Pritchard, B. R. Brooks, H. F. Schaefer III, A. Yu. Sokolov,
    K. Patkowski, A. E. DePrince III, U. Bozkaya, R. A. King,
    F. A. Evangelista, J. M. Turney, T. D. Crawford, C. D. Sherrill,
    J. Chem. Phys. 152(18) 184108 (2020). https://doi.org/10.1063/5.0006002

                            Additional Code Authors
    E. T. Seidl, C. L. Janssen, E. F. Valeev, M. L. Leininger,
    J. F. Gonthier, R. M. Richard, H. R. McAlexander, M. Saitow, X. Wang,
    P. Verma, M. H. Lechner, and A. Jiang

             Previous Authors, Complete List of Code Contributors,
                       and Citations for Specific Modules
    https://github.com/psi4/psi4/blob/master/codemeta.json
    https://github.com/psi4/psi4/graphs/contributors
    http://psicode.org/psi4manual/master/introduction.html#citing-psifour

    -----------------------------------------------------------------------


    Psi4 started on: Thursday, 28 March 2024 12:42PM

    Process ID: 588614
    Host:       node215.bme.utexas.edu
    PSIDATADIR: /opt/anaconda/envs/psi4v1.5/share/psi4
    Memory:     500.0 MiB
    Threads:    8
    
  ==> Input File <==

--------------------------------------------------------------------------
memory 50GB

molecule {
0 1
N 1.99977 0.3558 0.00673
H 2.86582 0.88171 0.00875
C 0.84404 1.13325 -0.00396
O 0.87029 2.35642 -0.00428
N -0.31391 0.37393 -0.0105
C -0.42517 -1.01766 -0.0039
O -1.53457 -1.56924 -0.00766
C 0.84475 -1.72291 0.0086
H 0.83593 -2.80464 0.01192
C 1.99902 -1.01742 0.01154
H 2.97739 -1.4873 0.01848
H -1.20519 0.89117 -0.03122
--
0 1
O -3.5328220833333335 0.8481100833333334 -0.0595295
H -3.960812083333334 0.9852900833333333 0.7998705
H -3.3332220833333333 -0.11166991666666665 -0.08513949999999999
 units angstrom
 no_reorient
 symmetry c1} 
set  {scf_type DF
 basis aug-cc-pvtz
 freeze_core True
 guess SAD}
energy('sapt2+(3)dmp2')
--------------------------------------------------------------------------

  Memory set to  46.566 GiB by Python driver.

Scratch directory: /tmp/
   => Loading Basis Set <=

    Name: AUG-CC-PVTZ
    Role: ORBITAL
    Keyword: BASIS
    atoms 1, 5               entry N          line   285 file /opt/anaconda/envs/psi4v1.5/share/psi4/basis/aug-cc-pvtz.gbs 
    atoms 2, 9, 11-12, 14-15 entry H          line    40 file /opt/anaconda/envs/psi4v1.5/share/psi4/basis/aug-cc-pvtz.gbs 
    atoms 3, 6, 8, 10        entry C          line   239 file /opt/anaconda/envs/psi4v1.5/share/psi4/basis/aug-cc-pvtz.gbs 
    atoms 4, 7, 13           entry O          line   331 file /opt/anaconda/envs/psi4v1.5/share/psi4/basis/aug-cc-pvtz.gbs 

   => Loading Basis Set <=

    Name: AUG-CC-PVTZ
    Role: ORBITAL
    Keyword: BASIS
    atoms 1, 5               entry N          line   285 file /opt/anaconda/envs/psi4v1.5/share/psi4/basis/aug-cc-pvtz.gbs 
    atoms 2, 9, 11-12, 14-15 entry H          line    40 file /opt/anaconda/envs/psi4v1.5/share/psi4/basis/aug-cc-pvtz.gbs 
    atoms 3, 6, 8, 10        entry C          line   239 file /opt/anaconda/envs/psi4v1.5/share/psi4/basis/aug-cc-pvtz.gbs 
    atoms 4, 7, 13           entry O          line   331 file /opt/anaconda/envs/psi4v1.5/share/psi4/basis/aug-cc-pvtz.gbs 


  //>>>>>>>>>>>>>>>>>>>>>>>>>>>>>>>>>>>//
  //              Dimer HF             //
  //<<<<<<<<<<<<<<<<<<<<<<<<<<<<<<<<<<<//


*** tstart() called on node215.bme.utexas.edu
*** at Thu Mar 28 12:42:33 2024

   => Loading Basis Set <=

    Name: AUG-CC-PVTZ
    Role: ORBITAL
    Keyword: BASIS
    atoms 1, 5               entry N          line   285 file /opt/anaconda/envs/psi4v1.5/share/psi4/basis/aug-cc-pvtz.gbs 
    atoms 2, 9, 11-12, 14-15 entry H          line    40 file /opt/anaconda/envs/psi4v1.5/share/psi4/basis/aug-cc-pvtz.gbs 
    atoms 3, 6, 8, 10        entry C          line   239 file /opt/anaconda/envs/psi4v1.5/share/psi4/basis/aug-cc-pvtz.gbs 
    atoms 4, 7, 13           entry O          line   331 file /opt/anaconda/envs/psi4v1.5/share/psi4/basis/aug-cc-pvtz.gbs 


         ---------------------------------------------------------
                                   SCF
               by Justin Turney, Rob Parrish, Andy Simmonett
                          and Daniel G. A. Smith
                              RHF Reference
                        8 Threads,  47683 MiB Core
         ---------------------------------------------------------

  ==> Geometry <==

    Molecular point group: c1
    Full point group: C1

    Geometry (in Angstrom), charge = 0, multiplicity = 1:

       Center              X                  Y                   Z               Mass       
    ------------   -----------------  -----------------  -----------------  -----------------
         N            2.047507746313     0.331041107125     0.009192854571    14.003074004430
         H            2.913557746313     0.856951107125     0.011212854571     1.007825032230
         C            0.891777746313     1.108491107125    -0.001497145429    12.000000000000
         O            0.918027746313     2.331661107125    -0.001817145429    15.994914619570
         N           -0.266172253687     0.349171107125    -0.008037145429    14.003074004430
         C           -0.377432253687    -1.042418892875    -0.001437145429    12.000000000000
         O           -1.486832253687    -1.593998892875    -0.005197145429    15.994914619570
         C            0.892487746313    -1.747668892875     0.011062854571    12.000000000000
         H            0.883667746313    -2.829398892875     0.014382854571     1.007825032230
         C            2.046757746313    -1.042178892875     0.014002854571    12.000000000000
         H            3.025127746313    -1.512058892875     0.020942854571     1.007825032230
         H           -1.157452253687     0.866411107125    -0.028757145429     1.007825032230
         O           -3.485084337021     0.823351190458    -0.057066645429    15.994914619570
         H           -3.913074337021     0.960531190458     0.802333354571     1.007825032230
         H           -3.285484337021    -0.136428809542    -0.082676645429     1.007825032230

  Running in c1 symmetry.

  Rotational constants: A =      0.07246  B =      0.04006  C =      0.02585 [cm^-1]
  Rotational constants: A =   2172.20660  B =   1200.83043  C =    775.01141 [MHz]
  Nuclear repulsion =  437.683522209227249

  Charge       = 0
  Multiplicity = 1
  Electrons    = 68
  Nalpha       = 34
  Nbeta        = 34

  ==> Algorithm <==

  SCF Algorithm Type is DF.
  DIIS enabled.
  MOM disabled.
  Fractional occupation disabled.
  Guess Type is SAD.
  Energy threshold   = 1.00e-08
  Density threshold  = 1.00e-08
  Integral threshold = 1.00e-12

  ==> Primary Basis <==

  Basis Set: AUG-CC-PVTZ
    Blend: AUG-CC-PVTZ
    Number of shells: 180
    Number of basis functions: 552
    Number of Cartesian functions: 645
    Spherical Harmonics?: true
    Max angular momentum: 3

   => Loading Basis Set <=

    Name: (AUG-CC-PVTZ AUX)
    Role: JKFIT
    Keyword: DF_BASIS_SCF
    atoms 1, 5               entry N          line   224 file /opt/anaconda/envs/psi4v1.5/share/psi4/basis/aug-cc-pvtz-jkfit.gbs 
    atoms 2, 9, 11-12, 14-15 entry H          line    70 file /opt/anaconda/envs/psi4v1.5/share/psi4/basis/aug-cc-pvtz-jkfit.gbs 
    atoms 3, 6, 8, 10        entry C          line   162 file /opt/anaconda/envs/psi4v1.5/share/psi4/basis/aug-cc-pvtz-jkfit.gbs 
    atoms 4, 7, 13           entry O          line   286 file /opt/anaconda/envs/psi4v1.5/share/psi4/basis/aug-cc-pvtz-jkfit.gbs 

  ==> Integral Setup <==

  ==> DiskDFJK: Density-Fitted J/K Matrices <==

    J tasked:                  Yes
    K tasked:                  Yes
    wK tasked:                  No
    OpenMP threads:              8
    Integrals threads:           8
    Memory [MiB]:            35762
    Algorithm:                Core
    Integral Cache:           SAVE
    Schwarz Cutoff:          1E-12
    Fitting Condition:       1E-10

   => Auxiliary Basis Set <=

  Basis Set: (AUG-CC-PVTZ AUX)
    Blend: AUG-CC-PVTZ-JKFIT
    Number of shells: 354
    Number of basis functions: 1212
    Number of Cartesian functions: 1509
    Spherical Harmonics?: true
    Max angular momentum: 4

  Minimum eigenvalue in the overlap matrix is 3.4483486171E-06.
  Reciprocal condition number of the overlap matrix is 2.1398664254E-07.
    Using symmetric orthogonalization.

  ==> Pre-Iterations <==

  SCF Guess: Superposition of Atomic Densities via on-the-fly atomic UHF (no occupation information).

   -------------------------
    Irrep   Nso     Nmo    
   -------------------------
     A        552     552 
   -------------------------
    Total     552     552
   -------------------------

  ==> Iterations <==

                           Total Energy        Delta E     RMS |[F,P]|

   @DF-RHF iter SAD:  -487.39901401436350   -4.87399e+02   0.00000e+00 
   @DF-RHF iter   1:  -488.37045641369718   -9.71442e-01   1.56375e-03 DIIS
   @DF-RHF iter   2:  -488.57771172841234   -2.07255e-01   1.03814e-03 DIIS
   @DF-RHF iter   3:  -488.68262883567888   -1.04917e-01   1.64063e-04 DIIS
   @DF-RHF iter   4:  -488.68701689235502   -4.38806e-03   7.79208e-05 DIIS
   @DF-RHF iter   5:  -488.68807990823746   -1.06302e-03   1.72859e-05 DIIS
   @DF-RHF iter   6:  -488.68819463919357   -1.14731e-04   8.79027e-06 DIIS
   @DF-RHF iter   7:  -488.68822692370640   -3.22845e-05   3.09741e-06 DIIS
   @DF-RHF iter   8:  -488.68823183930687   -4.91560e-06   1.03665e-06 DIIS
   @DF-RHF iter   9:  -488.68823221249710   -3.73190e-07   4.38743e-07 DIIS
   @DF-RHF iter  10:  -488.68823228292047   -7.04234e-08   1.71814e-07 DIIS
   @DF-RHF iter  11:  -488.68823229464874   -1.17283e-08   6.24057e-08 DIIS
   @DF-RHF iter  12:  -488.68823229587838   -1.22964e-09   1.83643e-08 DIIS
   @DF-RHF iter  13:  -488.68823229601770   -1.39323e-10   5.68252e-09 DIIS
  Energy and wave function converged.


  ==> Post-Iterations <==

    Orbital Energies [Eh]
    ---------------------

    Doubly Occupied:                                                      

       1A    -20.561357     2A    -20.547598     3A    -20.545110  
       4A    -15.647367     5A    -15.629665     6A    -11.421910  
       7A    -11.387438     8A    -11.345355     9A    -11.258972  
      10A     -1.430387    11A     -1.391626    12A     -1.338212  
      13A     -1.310308    14A     -1.243861    15A     -1.088119  
      16A     -0.931852    17A     -0.902063    18A     -0.803668  
      19A     -0.764583    20A     -0.715175    21A     -0.700162  
      22A     -0.678238    23A     -0.666112    24A     -0.651088  
      25A     -0.614002    26A     -0.601145    27A     -0.575992  
      28A     -0.569028    29A     -0.524547    30A     -0.506192  
      31A     -0.480911    32A     -0.452947    33A     -0.436680  
      34A     -0.370218  

    Virtual:                                                              

      35A      0.013889    36A      0.032703    37A      0.038565  
      38A      0.047093    39A      0.056990    40A      0.061517  
      41A      0.067821    42A      0.076233    43A      0.087162  
      44A      0.093346    45A      0.096694    46A      0.103102  
      47A      0.107079    48A      0.116380    49A      0.120340  
      50A      0.125119    51A      0.130165    52A      0.135585  
      53A      0.145480    54A      0.149407    55A      0.156722  
      56A      0.157666    57A      0.163380    58A      0.167399  
      59A      0.175730    60A      0.182981    61A      0.201388  
      62A      0.203512    63A      0.211841    64A      0.224093  
      65A      0.228248    66A      0.228883    67A      0.237192  
      68A      0.246612    69A      0.251115    70A      0.255718  
      71A      0.263920    72A      0.264336    73A      0.270118  
      74A      0.279472    75A      0.281088    76A      0.282642  
      77A      0.288681    78A      0.292634    79A      0.298983  
      80A      0.306462    81A      0.315174    82A      0.330325  
      83A      0.331321    84A      0.335210    85A      0.338054  
      86A      0.346606    87A      0.352976    88A      0.364100  
      89A      0.366874    90A      0.371873    91A      0.375722  
      92A      0.383582    93A      0.394662    94A      0.403771  
      95A      0.405964    96A      0.415134    97A      0.419151  
      98A      0.426689    99A      0.428451   100A      0.445613  
     101A      0.452507   102A      0.456032   103A      0.458911  
     104A      0.464580   105A      0.470430   106A      0.474597  
     107A      0.477004   108A      0.482979   109A      0.488805  
     110A      0.493859   111A      0.500111   112A      0.503388  
     113A      0.515080   114A      0.523998   115A      0.529405  
     116A      0.544238   117A      0.548746   118A      0.552552  
     119A      0.581573   120A      0.592228   121A      0.600431  
     122A      0.607934   123A      0.615439   124A      0.624006  
     125A      0.631800   126A      0.642643   127A      0.644790  
     128A      0.652339   129A      0.660857   130A      0.674389  
     131A      0.678787   132A      0.679252   133A      0.685669  
     134A      0.703826   135A      0.709232   136A      0.715464  
     137A      0.723336   138A      0.732676   139A      0.740367  
     140A      0.753374   141A      0.753565   142A      0.760994  
     143A      0.765674   144A      0.782084   145A      0.793410  
     146A      0.798194   147A      0.812566   148A      0.825645  
     149A      0.830331   150A      0.839181   151A      0.845452  
     152A      0.851999   153A      0.860785   154A      0.870534  
     155A      0.880087   156A      0.887781   157A      0.891984  
     158A      0.893139   159A      0.900671   160A      0.904150  
     161A      0.923055   162A      0.928415   163A      0.930522  
     164A      0.934467   165A      0.937109   166A      0.942439  
     167A      0.948936   168A      0.963491   169A      0.970741  
     170A      0.972537   171A      0.979007   172A      0.989891  
     173A      0.997572   174A      1.009106   175A      1.010376  
     176A      1.018426   177A      1.020170   178A      1.034769  
     179A      1.051394   180A      1.056200   181A      1.067718  
     182A      1.073918   183A      1.080403   184A      1.090955  
     185A      1.098635   186A      1.103395   187A      1.104673  
     188A      1.115231   189A      1.117836   190A      1.133034  
     191A      1.145687   192A      1.157617   193A      1.158420  
     194A      1.167783   195A      1.172433   196A      1.175072  
     197A      1.178051   198A      1.186603   199A      1.191874  
     200A      1.195138   201A      1.204223   202A      1.221234  
     203A      1.226191   204A      1.233237   205A      1.250959  
     206A      1.260365   207A      1.266937   208A      1.274598  
     209A      1.286901   210A      1.289012   211A      1.305169  
     212A      1.312780   213A      1.329019   214A      1.340163  
     215A      1.358012   216A      1.362523   217A      1.377851  
     218A      1.394271   219A      1.395815   220A      1.398758  
     221A      1.412717   222A      1.423121   223A      1.435488  
     224A      1.443608   225A      1.455607   226A      1.465558  
     227A      1.470299   228A      1.478601   229A      1.486239  
     230A      1.489954   231A      1.494711   232A      1.515109  
     233A      1.527096   234A      1.537435   235A      1.541255  
     236A      1.555385   237A      1.558896   238A      1.572162  
     239A      1.587221   240A      1.603368   241A      1.625152  
     242A      1.638617   243A      1.641125   244A      1.650101  
     245A      1.660576   246A      1.676396   247A      1.696098  
     248A      1.699636   249A      1.706528   250A      1.728222  
     251A      1.744908   252A      1.753990   253A      1.765850  
     254A      1.781876   255A      1.805762   256A      1.810326  
     257A      1.830482   258A      1.834975   259A      1.857415  
     260A      1.866245   261A      1.872745   262A      1.882162  
     263A      1.890220   264A      1.911464   265A      1.918849  
     266A      1.939281   267A      1.950164   268A      1.978446  
     269A      1.992641   270A      2.010146   271A      2.019916  
     272A      2.046932   273A      2.066122   274A      2.099198  
     275A      2.109508   276A      2.119115   277A      2.135026  
     278A      2.137860   279A      2.151789   280A      2.166129  
     281A      2.186667   282A      2.206234   283A      2.215760  
     284A      2.223289   285A      2.232787   286A      2.252934  
     287A      2.262601   288A      2.280860   289A      2.301436  
     290A      2.308125   291A      2.313985   292A      2.340355  
     293A      2.383068   294A      2.384118   295A      2.401509  
     296A      2.415437   297A      2.422480   298A      2.437072  
     299A      2.448642   300A      2.459439   301A      2.483840  
     302A      2.486752   303A      2.490500   304A      2.506552  
     305A      2.507677   306A      2.522452   307A      2.526274  
     308A      2.540644   309A      2.560947   310A      2.572896  
     311A      2.582886   312A      2.590474   313A      2.602600  
     314A      2.609787   315A      2.620440   316A      2.628054  
     317A      2.649433   318A      2.655613   319A      2.668719  
     320A      2.693561   321A      2.705126   322A      2.708089  
     323A      2.737872   324A      2.770622   325A      2.779375  
     326A      2.788656   327A      2.798344   328A      2.816172  
     329A      2.831259   330A      2.839424   331A      2.848404  
     332A      2.864749   333A      2.886560   334A      2.896251  
     335A      2.914176   336A      2.927621   337A      2.943366  
     338A      2.964480   339A      2.985242   340A      2.993265  
     341A      3.024385   342A      3.028278   343A      3.046518  
     344A      3.061919   345A      3.113264   346A      3.127443  
     347A      3.150368   348A      3.189191   349A      3.210807  
     350A      3.259794   351A      3.266917   352A      3.287724  
     353A      3.292998   354A      3.341722   355A      3.357886  
     356A      3.367935   357A      3.371371   358A      3.434024  
     359A      3.446017   360A      3.461362   361A      3.476786  
     362A      3.505908   363A      3.528425   364A      3.533461  
     365A      3.566002   366A      3.607630   367A      3.610776  
     368A      3.627657   369A      3.650987   370A      3.654762  
     371A      3.690454   372A      3.694962   373A      3.722708  
     374A      3.742827   375A      3.756538   376A      3.774729  
     377A      3.790102   378A      3.823298   379A      3.828786  
     380A      3.849214   381A      3.885005   382A      3.888031  
     383A      3.910536   384A      3.923331   385A      3.941432  
     386A      3.950161   387A      3.965898   388A      3.985019  
     389A      4.013491   390A      4.065081   391A      4.077317  
     392A      4.084892   393A      4.106299   394A      4.132569  
     395A      4.143229   396A      4.154105   397A      4.177354  
     398A      4.200646   399A      4.215826   400A      4.231995  
     401A      4.249805   402A      4.252848   403A      4.273655  
     404A      4.283079   405A      4.290956   406A      4.293186  
     407A      4.300584   408A      4.327953   409A      4.349490  
     410A      4.352106   411A      4.368825   412A      4.400306  
     413A      4.419113   414A      4.420756   415A      4.428979  
     416A      4.433918   417A      4.460147   418A      4.473630  
     419A      4.516734   420A      4.526408   421A      4.556673  
     422A      4.575307   423A      4.579102   424A      4.607892  
     425A      4.628433   426A      4.648515   427A      4.657721  
     428A      4.683579   429A      4.699662   430A      4.722318  
     431A      4.750089   432A      4.751494   433A      4.755991  
     434A      4.803876   435A      4.835843   436A      4.848068  
     437A      4.886139   438A      4.903937   439A      4.907593  
     440A      4.933830   441A      4.947735   442A      4.995637  
     443A      5.019094   444A      5.038491   445A      5.056586  
     446A      5.060001   447A      5.085790   448A      5.093507  
     449A      5.108273   450A      5.124401   451A      5.141058  
     452A      5.173998   453A      5.207747   454A      5.214614  
     455A      5.233530   456A      5.279216   457A      5.307339  
     458A      5.326973   459A      5.349335   460A      5.370043  
     461A      5.406331   462A      5.450780   463A      5.484574  
     464A      5.493847   465A      5.502491   466A      5.530776  
     467A      5.554234   468A      5.566359   469A      5.607163  
     470A      5.622672   471A      5.653450   472A      5.664598  
     473A      5.709699   474A      5.752508   475A      5.768732  
     476A      5.777612   477A      5.779247   478A      5.807364  
     479A      5.814458   480A      5.869470   481A      5.906241  
     482A      5.970373   483A      6.003295   484A      6.014676  
     485A      6.032997   486A      6.059826   487A      6.113517  
     488A      6.147292   489A      6.192118   490A      6.252106  
     491A      6.266045   492A      6.292767   493A      6.494001  
     494A      6.537341   495A      6.574770   496A      6.606832  
     497A      6.630803   498A      6.659172   499A      6.719218  
     500A      6.738836   501A      6.753832   502A      6.784832  
     503A      6.800326   504A      6.823785   505A      6.837012  
     506A      6.870456   507A      6.872548   508A      6.947818  
     509A      6.948904   510A      6.984121   511A      6.996448  
     512A      7.004330   513A      7.098738   514A      7.114574  
     515A      7.176925   516A      7.230132   517A      7.236244  
     518A      7.322941   519A      7.336873   520A      7.357896  
     521A      7.363242   522A      7.372537   523A      7.376547  
     524A      7.385107   525A      7.401570   526A      7.423608  
     527A      7.476241   528A      7.495090   529A      7.629594  
     530A      7.638098   531A      7.680266   532A      7.683984  
     533A      7.790586   534A      7.819694   535A      7.866422  
     536A      7.906800   537A      7.935091   538A      7.951802  
     539A      7.991772   540A      8.005619   541A      8.056058  
     542A      8.110609   543A      8.840280   544A     15.831271  
     545A     15.934761   546A     16.067146   547A     16.195876  
     548A     16.808582   549A     18.195470   550A     19.371200  
     551A     19.784194   552A     20.543720  

    Final Occupation by Irrep:
              A 
    DOCC [    34 ]

  @DF-RHF Final Energy:  -488.68823229601770

   => Energetics <=

    Nuclear Repulsion Energy =            437.6835222092272488
    One-Electron Energy =               -1536.5597352262761888
    Two-Electron Energy =                 610.1879807210311810
    Total Energy =                       -488.6882322960177589

Computation Completed


Properties will be evaluated at   0.000000,   0.000000,   0.000000 [a0]

Properties computed using the SCF density matrix

  Nuclear Dipole Moment: [e a0]
     X:    -1.4624      Y:    -1.6763      Z:     0.6910

  Electronic Dipole Moment: [e a0]
     X:     3.2607      Y:     0.6747      Z:    -0.1573

  Dipole Moment: [e a0]
     X:     1.7982      Y:    -1.0016      Z:     0.5337     Total:     2.1264

  Dipole Moment: [D]
     X:     4.5707      Y:    -2.5459      Z:     1.3566     Total:     5.4049


*** tstop() called on node215.bme.utexas.edu at Thu Mar 28 12:42:52 2024
Module time:
	user time   =     127.31 seconds =       2.12 minutes
	system time =       3.52 seconds =       0.06 minutes
	total time  =         19 seconds =       0.32 minutes
Total time:
	user time   =     127.31 seconds =       2.12 minutes
	system time =       3.52 seconds =       0.06 minutes
	total time  =         19 seconds =       0.32 minutes

*** tstart() called on node215.bme.utexas.edu
*** at Thu Mar 28 12:42:52 2024


  //>>>>>>>>>>>>>>>>>>>>>>>>>>>>>>>>>>>//
  //               DFMP2               //
  //<<<<<<<<<<<<<<<<<<<<<<<<<<<<<<<<<<<//

   => Loading Basis Set <=

    Name: (AUG-CC-PVTZ AUX)
    Role: RIFIT
    Keyword: DF_BASIS_MP2
    atoms 1, 5               entry N          line   206 file /opt/anaconda/envs/psi4v1.5/share/psi4/basis/aug-cc-pvtz-ri.gbs 
    atoms 2, 9, 11-12, 14-15 entry H          line    30 file /opt/anaconda/envs/psi4v1.5/share/psi4/basis/aug-cc-pvtz-ri.gbs 
    atoms 3, 6, 8, 10        entry C          line   148 file /opt/anaconda/envs/psi4v1.5/share/psi4/basis/aug-cc-pvtz-ri.gbs 
    atoms 4, 7, 13           entry O          line   264 file /opt/anaconda/envs/psi4v1.5/share/psi4/basis/aug-cc-pvtz-ri.gbs 

	 --------------------------------------------------------
	                          DF-MP2                         
	      2nd-Order Density-Fitted Moller-Plesset Theory     
	              RMP2 Wavefunction,   8 Threads             
	                                                         
	        Rob Parrish, Justin Turney, Andy Simmonett,      
	           Ed Hohenstein, and C. David Sherrill          
	 --------------------------------------------------------

   => Auxiliary Basis Set <=

  Basis Set: (AUG-CC-PVTZ AUX)
    Blend: AUG-CC-PVTZ-RI
    Number of shells: 336
    Number of basis functions: 1230
    Number of Cartesian functions: 1554
    Spherical Harmonics?: true
    Max angular momentum: 4

	 --------------------------------------------------------
	                 NBF =   552, NAUX =  1230
	 --------------------------------------------------------
	   CLASS    FOCC     OCC    AOCC    AVIR     VIR    FVIR
	   PAIRS       9      34      25     518     518       0
	 --------------------------------------------------------

	 Will save fitting metric to file 97.

	-----------------------------------------------------------
	 ==================> DF-MP2 Energies <==================== 
	-----------------------------------------------------------
	 Reference Energy          =    -488.6882322960177021 [Eh]
	 Singles Energy            =      -0.0000000000000000 [Eh]
	 Same-Spin Energy          =      -0.4598161961933721 [Eh]
	 Opposite-Spin Energy      =      -1.3175427959865775 [Eh]
	 Correlation Energy        =      -1.7773589921799497 [Eh]
	 Total Energy              =    -490.4655912881976292 [Eh]
	-----------------------------------------------------------
	 ================> DF-SCS-MP2 Energies <================== 
	-----------------------------------------------------------
	 SCS Same-Spin Scale       =       0.3333333333333333 [-]
	 SCS Opposite-Spin Scale   =       1.2000000000000000 [-]
	 SCS Same-Spin Energy      =      -0.1532720653977907 [Eh]
	 SCS Opposite-Spin Energy  =      -1.5810513551838929 [Eh]
	 SCS Correlation Energy    =      -1.7343234205816835 [Eh]
	 SCS Total Energy          =    -490.4225557165993905 [Eh]
	-----------------------------------------------------------


*** tstop() called on node215.bme.utexas.edu at Thu Mar 28 12:42:59 2024
Module time:
	user time   =      39.73 seconds =       0.66 minutes
	system time =       1.39 seconds =       0.02 minutes
	total time  =          7 seconds =       0.12 minutes
Total time:
	user time   =     167.05 seconds =       2.78 minutes
	system time =       4.91 seconds =       0.08 minutes
	total time  =         26 seconds =       0.43 minutes

  //>>>>>>>>>>>>>>>>>>>>>>>>>>>>>>>>>>>//
  //            Monomer A HF           //
  //<<<<<<<<<<<<<<<<<<<<<<<<<<<<<<<<<<<//


*** tstart() called on node215.bme.utexas.edu
*** at Thu Mar 28 12:42:59 2024

   => Loading Basis Set <=

    Name: AUG-CC-PVTZ
    Role: ORBITAL
    Keyword: BASIS
    atoms 1, 5               entry N          line   285 file /opt/anaconda/envs/psi4v1.5/share/psi4/basis/aug-cc-pvtz.gbs 
    atoms 2, 9, 11-12, 14-15 entry H          line    40 file /opt/anaconda/envs/psi4v1.5/share/psi4/basis/aug-cc-pvtz.gbs 
    atoms 3, 6, 8, 10        entry C          line   239 file /opt/anaconda/envs/psi4v1.5/share/psi4/basis/aug-cc-pvtz.gbs 
    atoms 4, 7, 13           entry O          line   331 file /opt/anaconda/envs/psi4v1.5/share/psi4/basis/aug-cc-pvtz.gbs 


         ---------------------------------------------------------
                                   SCF
               by Justin Turney, Rob Parrish, Andy Simmonett
                          and Daniel G. A. Smith
                              RHF Reference
                        8 Threads,  47683 MiB Core
         ---------------------------------------------------------

  ==> Geometry <==

    Molecular point group: c1
    Full point group: C1

    Geometry (in Angstrom), charge = 0, multiplicity = 1:

       Center              X                  Y                   Z               Mass       
    ------------   -----------------  -----------------  -----------------  -----------------
         N            2.047507746313     0.331041107125     0.009192854571    14.003074004430
         H            2.913557746313     0.856951107125     0.011212854571     1.007825032230
         C            0.891777746313     1.108491107125    -0.001497145429    12.000000000000
         O            0.918027746313     2.331661107125    -0.001817145429    15.994914619570
         N           -0.266172253687     0.349171107125    -0.008037145429    14.003074004430
         C           -0.377432253687    -1.042418892875    -0.001437145429    12.000000000000
         O           -1.486832253687    -1.593998892875    -0.005197145429    15.994914619570
         C            0.892487746313    -1.747668892875     0.011062854571    12.000000000000
         H            0.883667746313    -2.829398892875     0.014382854571     1.007825032230
         C            2.046757746313    -1.042178892875     0.014002854571    12.000000000000
         H            3.025127746313    -1.512058892875     0.020942854571     1.007825032230
         H           -1.157452253687     0.866411107125    -0.028757145429     1.007825032230
      Gh(O)          -3.485084337021     0.823351190458    -0.057066645429    15.994914619570
      Gh(H)          -3.913074337021     0.960531190458     0.802333354571     1.007825032230
      Gh(H)          -3.285484337021    -0.136428809542    -0.082676645429     1.007825032230

  Running in c1 symmetry.

  Rotational constants: A =      0.07246  B =      0.04006  C =      0.02585 [cm^-1]
  Rotational constants: A =   2172.20660  B =   1200.83043  C =    775.01141 [MHz]
  Nuclear repulsion =  355.493481409988249

  Charge       = 0
  Multiplicity = 1
  Electrons    = 58
  Nalpha       = 29
  Nbeta        = 29

  ==> Algorithm <==

  SCF Algorithm Type is DF.
  DIIS enabled.
  MOM disabled.
  Fractional occupation disabled.
  Guess Type is SAD.
  Energy threshold   = 1.00e-08
  Density threshold  = 1.00e-08
  Integral threshold = 1.00e-12

  ==> Primary Basis <==

  Basis Set: AUG-CC-PVTZ
    Blend: AUG-CC-PVTZ
    Number of shells: 180
    Number of basis functions: 552
    Number of Cartesian functions: 645
    Spherical Harmonics?: true
    Max angular momentum: 3

   => Loading Basis Set <=

    Name: (AUG-CC-PVTZ AUX)
    Role: JKFIT
    Keyword: DF_BASIS_SCF
    atoms 1, 5               entry N          line   224 file /opt/anaconda/envs/psi4v1.5/share/psi4/basis/aug-cc-pvtz-jkfit.gbs 
    atoms 2, 9, 11-12, 14-15 entry H          line    70 file /opt/anaconda/envs/psi4v1.5/share/psi4/basis/aug-cc-pvtz-jkfit.gbs 
    atoms 3, 6, 8, 10        entry C          line   162 file /opt/anaconda/envs/psi4v1.5/share/psi4/basis/aug-cc-pvtz-jkfit.gbs 
    atoms 4, 7, 13           entry O          line   286 file /opt/anaconda/envs/psi4v1.5/share/psi4/basis/aug-cc-pvtz-jkfit.gbs 

  ==> Integral Setup <==

  ==> DiskDFJK: Density-Fitted J/K Matrices <==

    J tasked:                  Yes
    K tasked:                  Yes
    wK tasked:                  No
    OpenMP threads:              8
    Integrals threads:           8
    Memory [MiB]:            35762
    Algorithm:                Core
    Integral Cache:           LOAD
    Schwarz Cutoff:          1E-12
    Fitting Condition:       1E-10

   => Auxiliary Basis Set <=

  Basis Set: (AUG-CC-PVTZ AUX)
    Blend: AUG-CC-PVTZ-JKFIT
    Number of shells: 354
    Number of basis functions: 1212
    Number of Cartesian functions: 1509
    Spherical Harmonics?: true
    Max angular momentum: 4

  Minimum eigenvalue in the overlap matrix is 3.4483486171E-06.
  Reciprocal condition number of the overlap matrix is 2.1398664254E-07.
    Using symmetric orthogonalization.

  ==> Pre-Iterations <==

  SCF Guess: Superposition of Atomic Densities via on-the-fly atomic UHF (no occupation information).

   -------------------------
    Irrep   Nso     Nmo    
   -------------------------
     A        552     552 
   -------------------------
    Total     552     552
   -------------------------

  ==> Iterations <==

                           Total Energy        Delta E     RMS |[F,P]|

   @DF-RHF iter SAD:  -411.85430066243697   -4.11854e+02   0.00000e+00 
   @DF-RHF iter   1:  -412.36995012427593   -5.15649e-01   1.35540e-03 DIIS
   @DF-RHF iter   2:  -412.53057065974116   -1.60621e-01   9.18544e-04 DIIS
   @DF-RHF iter   3:  -412.61401668293280   -8.34460e-02   1.64554e-04 DIIS
   @DF-RHF iter   4:  -412.61841542295303   -4.39874e-03   6.73149e-05 DIIS
   @DF-RHF iter   5:  -412.61933510190096   -9.19679e-04   1.38979e-05 DIIS
   @DF-RHF iter   6:  -412.61944436741635   -1.09266e-04   7.06739e-06 DIIS
   @DF-RHF iter   7:  -412.61946442626930   -2.00589e-05   2.92355e-06 DIIS
   @DF-RHF iter   8:  -412.61946804445120   -3.61818e-06   1.03265e-06 DIIS
   @DF-RHF iter   9:  -412.61946834683238   -3.02381e-07   4.19134e-07 DIIS
   @DF-RHF iter  10:  -412.61946842228559   -7.54532e-08   1.39223e-07 DIIS
   @DF-RHF iter  11:  -412.61946843139680   -9.11120e-09   4.52174e-08 DIIS
   @DF-RHF iter  12:  -412.61946843208739   -6.90591e-10   1.51103e-08 DIIS
   @DF-RHF iter  13:  -412.61946843216901   -8.16271e-11   5.35170e-09 DIIS
  Energy and wave function converged.


  ==> Post-Iterations <==

    Orbital Energies [Eh]
    ---------------------

    Doubly Occupied:                                                      

       1A    -20.550945     2A    -20.540489     3A    -15.648070  
       4A    -15.635339     5A    -11.425104     6A    -11.383805  
       7A    -11.344041     8A    -11.258553     9A     -1.432959  
      10A     -1.387062    11A     -1.311355    12A     -1.246145  
      13A     -1.087612    14A     -0.932421    15A     -0.903232  
      16A     -0.805093    17A     -0.764140    18A     -0.714940  
      19A     -0.676038    20A     -0.668153    21A     -0.652236  
      22A     -0.610812    23A     -0.600011    24A     -0.566582  
      25A     -0.526461    26A     -0.484368    27A     -0.449200  
      28A     -0.437141    29A     -0.369034  

    Virtual:                                                              

      30A      0.013873    31A      0.033515    32A      0.036741  
      33A      0.047844    34A      0.054707    35A      0.060585  
      36A      0.067746    37A      0.077410    38A      0.085173  
      39A      0.091739    40A      0.095491    41A      0.102903  
      42A      0.108294    43A      0.113594    44A      0.118921  
      45A      0.120044    46A      0.127689    47A      0.135517  
      48A      0.139190    49A      0.142625    50A      0.150050  
      51A      0.156096    52A      0.156505    53A      0.165149  
      54A      0.170938    55A      0.178874    56A      0.190171  
      57A      0.199033    58A      0.204717    59A      0.217242  
      60A      0.226098    61A      0.228429    62A      0.234886  
      63A      0.245961    64A      0.254475    65A      0.259175  
      66A      0.263079    67A      0.267288    68A      0.269873  
      69A      0.276019    70A      0.281509    71A      0.283429  
      72A      0.287778    73A      0.292025    74A      0.305027  
      75A      0.310435    76A      0.313697    77A      0.322898  
      78A      0.329520    79A      0.335047    80A      0.338361  
      81A      0.345703    82A      0.352706    83A      0.355391  
      84A      0.365108    85A      0.367982    86A      0.374045  
      87A      0.379383    88A      0.388155    89A      0.395281  
      90A      0.407115    91A      0.409013    92A      0.416763  
      93A      0.419221    94A      0.426853    95A      0.439540  
      96A      0.448105    97A      0.450376    98A      0.457121  
      99A      0.461732   100A      0.465744   101A      0.472687  
     102A      0.478206   103A      0.483652   104A      0.489840  
     105A      0.495521   106A      0.502254   107A      0.510608  
     108A      0.515110   109A      0.520286   110A      0.523722  
     111A      0.540056   112A      0.551081   113A      0.552626  
     114A      0.554311   115A      0.586181   116A      0.598173  
     117A      0.607580   118A      0.610213   119A      0.623904  
     120A      0.628612   121A      0.630657   122A      0.646229  
     123A      0.652427   124A      0.656873   125A      0.665921  
     126A      0.677925   127A      0.685074   128A      0.702045  
     129A      0.704055   130A      0.707823   131A      0.734618  
     132A      0.740603   133A      0.742964   134A      0.747146  
     135A      0.756508   136A      0.764179   137A      0.770025  
     138A      0.772825   139A      0.775963   140A      0.804691  
     141A      0.817625   142A      0.824631   143A      0.834067  
     144A      0.836955   145A      0.844829   146A      0.852086  
     147A      0.859544   148A      0.866108   149A      0.872193  
     150A      0.875877   151A      0.878060   152A      0.893670  
     153A      0.899662   154A      0.904114   155A      0.910345  
     156A      0.913692   157A      0.923165   158A      0.932653  
     159A      0.934365   160A      0.941968   161A      0.944403  
     162A      0.947550   163A      0.952805   164A      0.959551  
     165A      0.971026   166A      0.973191   167A      0.982732  
     168A      0.993802   169A      0.997890   170A      1.010128  
     171A      1.018600   172A      1.021370   173A      1.036328  
     174A      1.041999   175A      1.050507   176A      1.068486  
     177A      1.070060   178A      1.079728   179A      1.087109  
     180A      1.092416   181A      1.095236   182A      1.102721  
     183A      1.112778   184A      1.124452   185A      1.129539  
     186A      1.141593   187A      1.146212   188A      1.162199  
     189A      1.166925   190A      1.169942   191A      1.175364  
     192A      1.180628   193A      1.184339   194A      1.195357  
     195A      1.201971   196A      1.207706   197A      1.216308  
     198A      1.228442   199A      1.234487   200A      1.251342  
     201A      1.263615   202A      1.265953   203A      1.285391  
     204A      1.291633   205A      1.292697   206A      1.304918  
     207A      1.326373   208A      1.330772   209A      1.336940  
     210A      1.351563   211A      1.382896   212A      1.388522  
     213A      1.397206   214A      1.401688   215A      1.407700  
     216A      1.421971   217A      1.426482   218A      1.437512  
     219A      1.448269   220A      1.455532   221A      1.466197  
     222A      1.469507   223A      1.479113   224A      1.488592  
     225A      1.496198   226A      1.505222   227A      1.514231  
     228A      1.528524   229A      1.537102   230A      1.543514  
     231A      1.553664   232A      1.561391   233A      1.580757  
     234A      1.604708   235A      1.612738   236A      1.626736  
     237A      1.642185   238A      1.645889   239A      1.664412  
     240A      1.670110   241A      1.683049   242A      1.693299  
     243A      1.708230   244A      1.714592   245A      1.736055  
     246A      1.753073   247A      1.758626   248A      1.771922  
     249A      1.786666   250A      1.803003   251A      1.817861  
     252A      1.833072   253A      1.837440   254A      1.859781  
     255A      1.868842   256A      1.873774   257A      1.881973  
     258A      1.885306   259A      1.910317   260A      1.920395  
     261A      1.932534   262A      1.950988   263A      1.971035  
     264A      1.980745   265A      2.009729   266A      2.013192  
     267A      2.040170   268A      2.053539   269A      2.090093  
     270A      2.096602   271A      2.117584   272A      2.120818  
     273A      2.135929   274A      2.137109   275A      2.157993  
     276A      2.168614   277A      2.187121   278A      2.198933  
     279A      2.220212   280A      2.225946   281A      2.239079  
     282A      2.254260   283A      2.282345   284A      2.294421  
     285A      2.308026   286A      2.312569   287A      2.352879  
     288A      2.368005   289A      2.388090   290A      2.404043  
     291A      2.427695   292A      2.445917   293A      2.460901  
     294A      2.482928   295A      2.491032   296A      2.494472  
     297A      2.504751   298A      2.508452   299A      2.511915  
     300A      2.521054   301A      2.538433   302A      2.546207  
     303A      2.558774   304A      2.576513   305A      2.586145  
     306A      2.591463   307A      2.613882   308A      2.617735  
     309A      2.627461   310A      2.643132   311A      2.658758  
     312A      2.667118   313A      2.680692   314A      2.699804  
     315A      2.702874   316A      2.717277   317A      2.739304  
     318A      2.774392   319A      2.788957   320A      2.799126  
     321A      2.802544   322A      2.835328   323A      2.842560  
     324A      2.846478   325A      2.877323   326A      2.893727  
     327A      2.935542   328A      2.940925   329A      2.946807  
     330A      2.961071   331A      2.983465   332A      3.009029  
     333A      3.029635   334A      3.044895   335A      3.052588  
     336A      3.060633   337A      3.106244   338A      3.129782  
     339A      3.151524   340A      3.195021   341A      3.208418  
     342A      3.222073   343A      3.229610   344A      3.238378  
     345A      3.261404   346A      3.275175   347A      3.291556  
     348A      3.294263   349A      3.347706   350A      3.354205  
     351A      3.372525   352A      3.388270   353A      3.422359  
     354A      3.437003   355A      3.449603   356A      3.468614  
     357A      3.477872   358A      3.510257   359A      3.532252  
     360A      3.534685   361A      3.545202   362A      3.572776  
     363A      3.598469   364A      3.611479   365A      3.614057  
     366A      3.646812   367A      3.654814   368A      3.664301  
     369A      3.694936   370A      3.695518   371A      3.733238  
     372A      3.742397   373A      3.761313   374A      3.781516  
     375A      3.798767   376A      3.809261   377A      3.824334  
     378A      3.846346   379A      3.874173   380A      3.885613  
     381A      3.907041   382A      3.931131   383A      3.952174  
     384A      3.957435   385A      3.984508   386A      4.011702  
     387A      4.069659   388A      4.080533   389A      4.085963  
     390A      4.129512   391A      4.144596   392A      4.156569  
     393A      4.178755   394A      4.201724   395A      4.217195  
     396A      4.230090   397A      4.246722   398A      4.261502  
     399A      4.279303   400A      4.292571   401A      4.297359  
     402A      4.324405   403A      4.347778   404A      4.354751  
     405A      4.387444   406A      4.413634   407A      4.417476  
     408A      4.431352   409A      4.433515   410A      4.446402  
     411A      4.458380   412A      4.517587   413A      4.562255  
     414A      4.580901   415A      4.593930   416A      4.604734  
     417A      4.624021   418A      4.639128   419A      4.648659  
     420A      4.672708   421A      4.688084   422A      4.710076  
     423A      4.735188   424A      4.740149   425A      4.751634  
     426A      4.764984   427A      4.800445   428A      4.811037  
     429A      4.848624   430A      4.883784   431A      4.903901  
     432A      4.905697   433A      4.939308   434A      4.980381  
     435A      5.003529   436A      5.022674   437A      5.024499  
     438A      5.049474   439A      5.062054   440A      5.073213  
     441A      5.090148   442A      5.107286   443A      5.110379  
     444A      5.133015   445A      5.158171   446A      5.166013  
     447A      5.218431   448A      5.225305   449A      5.275159  
     450A      5.297123   451A      5.310800   452A      5.363073  
     453A      5.405341   454A      5.428813   455A      5.482749  
     456A      5.487553   457A      5.497489   458A      5.510902  
     459A      5.529716   460A      5.553555   461A      5.562478  
     462A      5.604282   463A      5.620933   464A      5.643584  
     465A      5.660518   466A      5.679289   467A      5.716754  
     468A      5.760798   469A      5.766567   470A      5.781436  
     471A      5.802106   472A      5.809937   473A      5.872269  
     474A      5.903649   475A      5.916848   476A      5.974125  
     477A      6.001117   478A      6.014273   479A      6.032211  
     480A      6.055140   481A      6.108725   482A      6.144577  
     483A      6.191878   484A      6.261207   485A      6.278434  
     486A      6.295155   487A      6.398541   488A      6.501997  
     489A      6.543208   490A      6.581082   491A      6.625418  
     492A      6.647008   493A      6.655602   494A      6.721249  
     495A      6.750854   496A      6.765657   497A      6.784200  
     498A      6.822440   499A      6.841304   500A      6.857417  
     501A      6.886783   502A      6.949245   503A      6.950615  
     504A      6.973304   505A      7.004282   506A      7.069806  
     507A      7.101716   508A      7.117675   509A      7.203563  
     510A      7.234592   511A      7.335213   512A      7.369043  
     513A      7.370507   514A      7.389227   515A      7.408249  
     516A      7.471549   517A      7.629911   518A      7.635231  
     519A      7.687416   520A      7.722442   521A      7.752766  
     522A      7.820027   523A      7.856406   524A      7.877414  
     525A      7.913577   526A      7.944941   527A      7.999360  
     528A      8.037512   529A      8.096208   530A      8.145912  
     531A      8.215080   532A      8.326475   533A      8.739121  
     534A      8.852189   535A      9.832931   536A      9.982776  
     537A     10.094082   538A     10.253484   539A     11.168048  
     540A     11.958143   541A     12.144702   542A     13.519781  
     543A     13.955069   544A     15.905374   545A     16.067426  
     546A     16.154806   547A     16.808450   548A     18.193240  
     549A     19.370023   550A     19.774393   551A     20.540417  
     552A     65.084574  

    Final Occupation by Irrep:
              A 
    DOCC [    29 ]

  @DF-RHF Final Energy:  -412.61946843216901

   => Energetics <=

    Nuclear Repulsion Energy =            355.4934814099882487
    One-Electron Energy =               -1267.4032154202402580
    Two-Electron Energy =                 499.2902655780829946
    Total Energy =                       -412.6194684321690147

Computation Completed


Properties will be evaluated at   0.000000,   0.000000,   0.000000 [a0]

Properties computed using the SCF density matrix

  Nuclear Dipole Moment: [e a0]
     X:    64.8277      Y:   -15.6809      Z:     0.1938

  Electronic Dipole Moment: [e a0]
     X:   -62.9045      Y:    15.1866      Z:    -0.1935

  Dipole Moment: [e a0]
     X:     1.9232      Y:    -0.4943      Z:     0.0003     Total:     1.9857

  Dipole Moment: [D]
     X:     4.8883      Y:    -1.2563      Z:     0.0006     Total:     5.0472


*** tstop() called on node215.bme.utexas.edu at Thu Mar 28 12:43:14 2024
Module time:
	user time   =     102.79 seconds =       1.71 minutes
	system time =       2.24 seconds =       0.04 minutes
	total time  =         15 seconds =       0.25 minutes
Total time:
	user time   =     269.89 seconds =       4.50 minutes
	system time =       7.15 seconds =       0.12 minutes
	total time  =         41 seconds =       0.68 minutes

*** tstart() called on node215.bme.utexas.edu
*** at Thu Mar 28 12:43:14 2024


  //>>>>>>>>>>>>>>>>>>>>>>>>>>>>>>>>>>>//
  //               DFMP2               //
  //<<<<<<<<<<<<<<<<<<<<<<<<<<<<<<<<<<<//

   => Loading Basis Set <=

    Name: (AUG-CC-PVTZ AUX)
    Role: RIFIT
    Keyword: DF_BASIS_MP2
    atoms 1, 5               entry N          line   206 file /opt/anaconda/envs/psi4v1.5/share/psi4/basis/aug-cc-pvtz-ri.gbs 
    atoms 2, 9, 11-12, 14-15 entry H          line    30 file /opt/anaconda/envs/psi4v1.5/share/psi4/basis/aug-cc-pvtz-ri.gbs 
    atoms 3, 6, 8, 10        entry C          line   148 file /opt/anaconda/envs/psi4v1.5/share/psi4/basis/aug-cc-pvtz-ri.gbs 
    atoms 4, 7, 13           entry O          line   264 file /opt/anaconda/envs/psi4v1.5/share/psi4/basis/aug-cc-pvtz-ri.gbs 

	 --------------------------------------------------------
	                          DF-MP2                         
	      2nd-Order Density-Fitted Moller-Plesset Theory     
	              RMP2 Wavefunction,   8 Threads             
	                                                         
	        Rob Parrish, Justin Turney, Andy Simmonett,      
	           Ed Hohenstein, and C. David Sherrill          
	 --------------------------------------------------------

   => Auxiliary Basis Set <=

  Basis Set: (AUG-CC-PVTZ AUX)
    Blend: AUG-CC-PVTZ-RI
    Number of shells: 336
    Number of basis functions: 1230
    Number of Cartesian functions: 1554
    Spherical Harmonics?: true
    Max angular momentum: 4

	 --------------------------------------------------------
	                 NBF =   552, NAUX =  1230
	 --------------------------------------------------------
	   CLASS    FOCC     OCC    AOCC    AVIR     VIR    FVIR
	   PAIRS       8      29      21     523     523       0
	 --------------------------------------------------------

	 Will attempt to load fitting metric from file 97.

	-----------------------------------------------------------
	 ==================> DF-MP2 Energies <==================== 
	-----------------------------------------------------------
	 Reference Energy          =    -412.6194684321690147 [Eh]
	 Singles Energy            =      -0.0000000000000000 [Eh]
	 Same-Spin Energy          =      -0.3926662513069368 [Eh]
	 Opposite-Spin Energy      =      -1.1122875873144111 [Eh]
	 Correlation Energy        =      -1.5049538386213479 [Eh]
	 Total Energy              =    -414.1244222707903759 [Eh]
	-----------------------------------------------------------
	 ================> DF-SCS-MP2 Energies <================== 
	-----------------------------------------------------------
	 SCS Same-Spin Scale       =       0.3333333333333333 [-]
	 SCS Opposite-Spin Scale   =       1.2000000000000000 [-]
	 SCS Same-Spin Energy      =      -0.1308887504356456 [Eh]
	 SCS Opposite-Spin Energy  =      -1.3347451047772934 [Eh]
	 SCS Correlation Energy    =      -1.4656338552129389 [Eh]
	 SCS Total Energy          =    -414.0851022873819716 [Eh]
	-----------------------------------------------------------


*** tstop() called on node215.bme.utexas.edu at Thu Mar 28 12:43:21 2024
Module time:
	user time   =      35.83 seconds =       0.60 minutes
	system time =       1.82 seconds =       0.03 minutes
	total time  =          7 seconds =       0.12 minutes
Total time:
	user time   =     305.73 seconds =       5.10 minutes
	system time =       8.97 seconds =       0.15 minutes
	total time  =         48 seconds =       0.80 minutes

  //>>>>>>>>>>>>>>>>>>>>>>>>>>>>>>>>>>>//
  //            Monomer B HF           //
  //<<<<<<<<<<<<<<<<<<<<<<<<<<<<<<<<<<<//


*** tstart() called on node215.bme.utexas.edu
*** at Thu Mar 28 12:43:21 2024

   => Loading Basis Set <=

    Name: AUG-CC-PVTZ
    Role: ORBITAL
    Keyword: BASIS
    atoms 1, 5               entry N          line   285 file /opt/anaconda/envs/psi4v1.5/share/psi4/basis/aug-cc-pvtz.gbs 
    atoms 2, 9, 11-12, 14-15 entry H          line    40 file /opt/anaconda/envs/psi4v1.5/share/psi4/basis/aug-cc-pvtz.gbs 
    atoms 3, 6, 8, 10        entry C          line   239 file /opt/anaconda/envs/psi4v1.5/share/psi4/basis/aug-cc-pvtz.gbs 
    atoms 4, 7, 13           entry O          line   331 file /opt/anaconda/envs/psi4v1.5/share/psi4/basis/aug-cc-pvtz.gbs 


         ---------------------------------------------------------
                                   SCF
               by Justin Turney, Rob Parrish, Andy Simmonett
                          and Daniel G. A. Smith
                              RHF Reference
                        8 Threads,  47683 MiB Core
         ---------------------------------------------------------

  ==> Geometry <==

    Molecular point group: c1
    Full point group: C1

    Geometry (in Angstrom), charge = 0, multiplicity = 1:

       Center              X                  Y                   Z               Mass       
    ------------   -----------------  -----------------  -----------------  -----------------
      Gh(N)           2.047507746313     0.331041107125     0.009192854571    14.003074004430
      Gh(H)           2.913557746313     0.856951107125     0.011212854571     1.007825032230
      Gh(C)           0.891777746313     1.108491107125    -0.001497145429    12.000000000000
      Gh(O)           0.918027746313     2.331661107125    -0.001817145429    15.994914619570
      Gh(N)          -0.266172253687     0.349171107125    -0.008037145429    14.003074004430
      Gh(C)          -0.377432253687    -1.042418892875    -0.001437145429    12.000000000000
      Gh(O)          -1.486832253687    -1.593998892875    -0.005197145429    15.994914619570
      Gh(C)           0.892487746313    -1.747668892875     0.011062854571    12.000000000000
      Gh(H)           0.883667746313    -2.829398892875     0.014382854571     1.007825032230
      Gh(C)           2.046757746313    -1.042178892875     0.014002854571    12.000000000000
      Gh(H)           3.025127746313    -1.512058892875     0.020942854571     1.007825032230
      Gh(H)          -1.157452253687     0.866411107125    -0.028757145429     1.007825032230
         O           -3.485084337021     0.823351190458    -0.057066645429    15.994914619570
         H           -3.913074337021     0.960531190458     0.802333354571     1.007825032230
         H           -3.285484337021    -0.136428809542    -0.082676645429     1.007825032230

  Running in c1 symmetry.

  Rotational constants: A =      0.07246  B =      0.04006  C =      0.02585 [cm^-1]
  Rotational constants: A =   2172.20660  B =   1200.83043  C =    775.01141 [MHz]
  Nuclear repulsion =    9.025067665653525

  Charge       = 0
  Multiplicity = 1
  Electrons    = 10
  Nalpha       = 5
  Nbeta        = 5

  ==> Algorithm <==

  SCF Algorithm Type is DF.
  DIIS enabled.
  MOM disabled.
  Fractional occupation disabled.
  Guess Type is SAD.
  Energy threshold   = 1.00e-08
  Density threshold  = 1.00e-08
  Integral threshold = 1.00e-12

  ==> Primary Basis <==

  Basis Set: AUG-CC-PVTZ
    Blend: AUG-CC-PVTZ
    Number of shells: 180
    Number of basis functions: 552
    Number of Cartesian functions: 645
    Spherical Harmonics?: true
    Max angular momentum: 3

   => Loading Basis Set <=

    Name: (AUG-CC-PVTZ AUX)
    Role: JKFIT
    Keyword: DF_BASIS_SCF
    atoms 1, 5               entry N          line   224 file /opt/anaconda/envs/psi4v1.5/share/psi4/basis/aug-cc-pvtz-jkfit.gbs 
    atoms 2, 9, 11-12, 14-15 entry H          line    70 file /opt/anaconda/envs/psi4v1.5/share/psi4/basis/aug-cc-pvtz-jkfit.gbs 
    atoms 3, 6, 8, 10        entry C          line   162 file /opt/anaconda/envs/psi4v1.5/share/psi4/basis/aug-cc-pvtz-jkfit.gbs 
    atoms 4, 7, 13           entry O          line   286 file /opt/anaconda/envs/psi4v1.5/share/psi4/basis/aug-cc-pvtz-jkfit.gbs 

  ==> Integral Setup <==

  ==> DiskDFJK: Density-Fitted J/K Matrices <==

    J tasked:                  Yes
    K tasked:                  Yes
    wK tasked:                  No
    OpenMP threads:              8
    Integrals threads:           8
    Memory [MiB]:            35762
    Algorithm:                Core
    Integral Cache:           LOAD
    Schwarz Cutoff:          1E-12
    Fitting Condition:       1E-10

   => Auxiliary Basis Set <=

  Basis Set: (AUG-CC-PVTZ AUX)
    Blend: AUG-CC-PVTZ-JKFIT
    Number of shells: 354
    Number of basis functions: 1212
    Number of Cartesian functions: 1509
    Spherical Harmonics?: true
    Max angular momentum: 4

  Minimum eigenvalue in the overlap matrix is 3.4483486171E-06.
  Reciprocal condition number of the overlap matrix is 2.1398664254E-07.
    Using symmetric orthogonalization.

  ==> Pre-Iterations <==

  SCF Guess: Superposition of Atomic Densities via on-the-fly atomic UHF (no occupation information).

   -------------------------
    Irrep   Nso     Nmo    
   -------------------------
     A        552     552 
   -------------------------
    Total     552     552
   -------------------------

  ==> Iterations <==

                           Total Energy        Delta E     RMS |[F,P]|

   @DF-RHF iter SAD:   -75.45705119830910   -7.54571e+01   0.00000e+00 
   @DF-RHF iter   1:   -75.97383330154810   -5.16782e-01   8.46373e-04 DIIS
   @DF-RHF iter   2:   -76.02581135596181   -5.19781e-02   5.87125e-04 DIIS
   @DF-RHF iter   3:   -76.05844005061539   -3.26287e-02   4.00267e-05 DIIS
   @DF-RHF iter   4:   -76.05885225479969   -4.12204e-04   9.92891e-06 DIIS
   @DF-RHF iter   5:   -76.05888021891766   -2.79641e-05   2.28747e-06 DIIS
   @DF-RHF iter   6:   -76.05888256516877   -2.34625e-06   5.03580e-07 DIIS
   @DF-RHF iter   7:   -76.05888268924167   -1.24073e-07   8.99599e-08 DIIS
   @DF-RHF iter   8:   -76.05888269269367   -3.45200e-09   1.54093e-08 DIIS
   @DF-RHF iter   9:   -76.05888269277470   -8.10303e-11   3.91044e-09 DIIS
  Energy and wave function converged.


  ==> Post-Iterations <==

    Orbital Energies [Eh]
    ---------------------

    Doubly Occupied:                                                      

       1A    -20.570092     2A     -1.344350     3A     -0.708049  
       4A     -0.581265     5A     -0.508864  

    Virtual:                                                              

       6A      0.017186     7A      0.030035     8A      0.034889  
       9A      0.046421    10A      0.051504    11A      0.058338  
      12A      0.063331    13A      0.076083    14A      0.084095  
      15A      0.093276    16A      0.098416    17A      0.100234  
      18A      0.104969    19A      0.108840    20A      0.118719  
      21A      0.121774    22A      0.133138    23A      0.138459  
      24A      0.144064    25A      0.153469    26A      0.161004  
      27A      0.164750    28A      0.168403    29A      0.170646  
      30A      0.178480    31A      0.186016    32A      0.191543  
      33A      0.197110    34A      0.206411    35A      0.214057  
      36A      0.221876    37A      0.230327    38A      0.231274  
      39A      0.233981    40A      0.236711    41A      0.248440  
      42A      0.254200    43A      0.257901    44A      0.268866  
      45A      0.272667    46A      0.280799    47A      0.293128  
      48A      0.298038    49A      0.302886    50A      0.309073  
      51A      0.319956    52A      0.331195    53A      0.334180  
      54A      0.341827    55A      0.349278    56A      0.359218  
      57A      0.363478    58A      0.364933    59A      0.382072  
      60A      0.383690    61A      0.385968    62A      0.394229  
      63A      0.397564    64A      0.401546    65A      0.407815  
      66A      0.413096    67A      0.414967    68A      0.423303  
      69A      0.426437    70A      0.431564    71A      0.434858  
      72A      0.447609    73A      0.452772    74A      0.469032  
      75A      0.471721    76A      0.476154    77A      0.483561  
      78A      0.490899    79A      0.499807    80A      0.514239  
      81A      0.522783    82A      0.527401    83A      0.527958  
      84A      0.541238    85A      0.555250    86A      0.570970  
      87A      0.574246    88A      0.586806    89A      0.602723  
      90A      0.607688    91A      0.619187    92A      0.623490  
      93A      0.631888    94A      0.651399    95A      0.655529  
      96A      0.665512    97A      0.668860    98A      0.673137  
      99A      0.690866   100A      0.699636   101A      0.707575  
     102A      0.722965   103A      0.734721   104A      0.742308  
     105A      0.748756   106A      0.755888   107A      0.766393  
     108A      0.778954   109A      0.781605   110A      0.786668  
     111A      0.794705   112A      0.802770   113A      0.807607  
     114A      0.820983   115A      0.822312   116A      0.836319  
     117A      0.843064   118A      0.845093   119A      0.851267  
     120A      0.863769   121A      0.870259   122A      0.873894  
     123A      0.882067   124A      0.884079   125A      0.895680  
     126A      0.909727   127A      0.922079   128A      0.926477  
     129A      0.936237   130A      0.939837   131A      0.944128  
     132A      0.946039   133A      0.950033   134A      0.958311  
     135A      0.967768   136A      0.971639   137A      0.973989  
     138A      0.991494   139A      0.999384   140A      1.004696  
     141A      1.018864   142A      1.023677   143A      1.035529  
     144A      1.045313   145A      1.048605   146A      1.068019  
     147A      1.070461   148A      1.072563   149A      1.077301  
     150A      1.087217   151A      1.091220   152A      1.100627  
     153A      1.111372   154A      1.120104   155A      1.122600  
     156A      1.138720   157A      1.148517   158A      1.157665  
     159A      1.174916   160A      1.184282   161A      1.187688  
     162A      1.191206   163A      1.198241   164A      1.204118  
     165A      1.205811   166A      1.211099   167A      1.232154  
     168A      1.238807   169A      1.253466   170A      1.268228  
     171A      1.278997   172A      1.292166   173A      1.304679  
     174A      1.305203   175A      1.320082   176A      1.325572  
     177A      1.329340   178A      1.342296   179A      1.352082  
     180A      1.366259   181A      1.371962   182A      1.379055  
     183A      1.386783   184A      1.391837   185A      1.398513  
     186A      1.417962   187A      1.434961   188A      1.454152  
     189A      1.463436   190A      1.477188   191A      1.490701  
     192A      1.510213   193A      1.525934   194A      1.540613  
     195A      1.551923   196A      1.553247   197A      1.571143  
     198A      1.580227   199A      1.591239   200A      1.600300  
     201A      1.614298   202A      1.635955   203A      1.663421  
     204A      1.671445   205A      1.676076   206A      1.685405  
     207A      1.696256   208A      1.700736   209A      1.707949  
     210A      1.723902   211A      1.742870   212A      1.747463  
     213A      1.751735   214A      1.764397   215A      1.766994  
     216A      1.775471   217A      1.793503   218A      1.803744  
     219A      1.809805   220A      1.819506   221A      1.826003  
     222A      1.848515   223A      1.853088   224A      1.864328  
     225A      1.874623   226A      1.881881   227A      1.888385  
     228A      1.898594   229A      1.910446   230A      1.943090  
     231A      1.946595   232A      1.975418   233A      1.985100  
     234A      1.997729   235A      2.003738   236A      2.010847  
     237A      2.023761   238A      2.029359   239A      2.042838  
     240A      2.076140   241A      2.120343   242A      2.143592  
     243A      2.148226   244A      2.187368   245A      2.195615  
     246A      2.210865   247A      2.223378   248A      2.230554  
     249A      2.234469   250A      2.260604   251A      2.274963  
     252A      2.278801   253A      2.289611   254A      2.324478  
     255A      2.325791   256A      2.337179   257A      2.340491  
     258A      2.358362   259A      2.375732   260A      2.384675  
     261A      2.399182   262A      2.429251   263A      2.446355  
     264A      2.461178   265A      2.492975   266A      2.510994  
     267A      2.517350   268A      2.536028   269A      2.547537  
     270A      2.559371   271A      2.568544   272A      2.577702  
     273A      2.586833   274A      2.604063   275A      2.608460  
     276A      2.614249   277A      2.628765   278A      2.640415  
     279A      2.652290   280A      2.671924   281A      2.682628  
     282A      2.687210   283A      2.698427   284A      2.723028  
     285A      2.734466   286A      2.744556   287A      2.760999  
     288A      2.767811   289A      2.779116   290A      2.779826  
     291A      2.788525   292A      2.802076   293A      2.815607  
     294A      2.828189   295A      2.830239   296A      2.847430  
     297A      2.866656   298A      2.873074   299A      2.893856  
     300A      2.902191   301A      2.910847   302A      2.924417  
     303A      2.936963   304A      2.959981   305A      2.971130  
     306A      3.001785   307A      3.041683   308A      3.045102  
     309A      3.053576   310A      3.059080   311A      3.074337  
     312A      3.084745   313A      3.086340   314A      3.167808  
     315A      3.185120   316A      3.194078   317A      3.207130  
     318A      3.242234   319A      3.267313   320A      3.276252  
     321A      3.298525   322A      3.311434   323A      3.356897  
     324A      3.371053   325A      3.429137   326A      3.471675  
     327A      3.515719   328A      3.566349   329A      3.612976  
     330A      3.636030   331A      3.651002   332A      3.669854  
     333A      3.732034   334A      3.732557   335A      3.772196  
     336A      3.818474   337A      3.849754   338A      3.870313  
     339A      3.888564   340A      3.972545   341A      3.994266  
     342A      4.008616   343A      4.034170   344A      4.050838  
     345A      4.060511   346A      4.082545   347A      4.104452  
     348A      4.121429   349A      4.136919   350A      4.187969  
     351A      4.194709   352A      4.205562   353A      4.237759  
     354A      4.258954   355A      4.265615   356A      4.277451  
     357A      4.316560   358A      4.332024   359A      4.344162  
     360A      4.369860   361A      4.382546   362A      4.401672  
     363A      4.417326   364A      4.446048   365A      4.476178  
     366A      4.500393   367A      4.514616   368A      4.529274  
     369A      4.531425   370A      4.551146   371A      4.568143  
     372A      4.594006   373A      4.619385   374A      4.621463  
     375A      4.653239   376A      4.680800   377A      4.696435  
     378A      4.720853   379A      4.729111   380A      4.782744  
     381A      4.800672   382A      4.819525   383A      4.824782  
     384A      4.837487   385A      4.862963   386A      4.881071  
     387A      4.893999   388A      4.915892   389A      4.931273  
     390A      4.951689   391A      4.984748   392A      4.996429  
     393A      5.008761   394A      5.013973   395A      5.029050  
     396A      5.030349   397A      5.056359   398A      5.121243  
     399A      5.125029   400A      5.129998   401A      5.139439  
     402A      5.148738   403A      5.180989   404A      5.211704  
     405A      5.240215   406A      5.242437   407A      5.267050  
     408A      5.299666   409A      5.331459   410A      5.342563  
     411A      5.363998   412A      5.374575   413A      5.397417  
     414A      5.406967   415A      5.465624   416A      5.468953  
     417A      5.512697   418A      5.524652   419A      5.564867  
     420A      5.580338   421A      5.618023   422A      5.655728  
     423A      5.672426   424A      5.713358   425A      5.739369  
     426A      5.762884   427A      5.814431   428A      5.849528  
     429A      5.851499   430A      5.900948   431A      5.911699  
     432A      5.957653   433A      5.980907   434A      6.061010  
     435A      6.125507   436A      6.149704   437A      6.194572  
     438A      6.216995   439A      6.249815   440A      6.274257  
     441A      6.383688   442A      6.396613   443A      6.443072  
     444A      6.447555   445A      6.503183   446A      6.512471  
     447A      6.567346   448A      6.587456   449A      6.591336  
     450A      6.608718   451A      6.644738   452A      6.716210  
     453A      6.752158   454A      6.780197   455A      6.813220  
     456A      6.826132   457A      6.880280   458A      6.885822  
     459A      6.896868   460A      6.956641   461A      6.965841  
     462A      7.094807   463A      7.115527   464A      7.197106  
     465A      7.243874   466A      7.314208   467A      7.322195  
     468A      7.349816   469A      7.365622   470A      7.374718  
     471A      7.411701   472A      7.434099   473A      7.471305  
     474A      7.536978   475A      7.588063   476A      7.596528  
     477A      7.614047   478A      7.620813   479A      7.633314  
     480A      7.642265   481A      7.661407   482A      7.673637  
     483A      7.742096   484A      7.765688   485A      7.822185  
     486A      7.826088   487A      7.853274   488A      7.863509  
     489A      7.884506   490A      7.900064   491A      7.933160  
     492A      7.952303   493A      7.977078   494A      7.986948  
     495A      8.025754   496A      8.046502   497A      8.144548  
     498A      8.161664   499A      8.236652   500A      8.260310  
     501A      8.311480   502A      8.410034   503A      8.566712  
     504A      8.645642   505A      8.691911   506A      8.728091  
     507A      8.830363   508A      8.868987   509A      9.014678  
     510A      9.116469   511A      9.197252   512A      9.267699  
     513A      9.460394   514A      9.507908   515A      9.514564  
     516A      9.746271   517A      9.853616   518A      9.936655  
     519A      9.960711   520A     10.017134   521A     10.112035  
     522A     10.149125   523A     10.257615   524A     10.369651  
     525A     10.440460   526A     10.508628   527A     10.543460  
     528A     10.960831   529A     11.246929   530A     11.284309  
     531A     11.460178   532A     11.958087   533A     11.999789  
     534A     12.016407   535A     12.057643   536A     12.337481  
     537A     12.454222   538A     12.656106   539A     12.874222  
     540A     13.227464   541A     13.503039   542A     14.142455  
     543A     14.162735   544A     15.932502   545A     51.597624  
     546A     51.756459   547A     54.077764   548A     54.916361  
     549A     60.366284   550A     60.585177   551A     68.671580  
     552A     69.394915  

    Final Occupation by Irrep:
              A 
    DOCC [     5 ]

  @DF-RHF Final Energy:   -76.05888269277470

   => Energetics <=

    Nuclear Repulsion Energy =              9.0250676656535251
    One-Electron Energy =                -122.7426574277307054
    Two-Electron Energy =                  37.6587070693024657
    Total Energy =                        -76.0588826927747164

Computation Completed


Properties will be evaluated at   0.000000,   0.000000,   0.000000 [a0]

Properties computed using the SCF density matrix

  Nuclear Dipole Moment: [e a0]
     X:   -66.2901      Y:    14.0046      Z:     0.4972

  Electronic Dipole Moment: [e a0]
     X:    66.1390      Y:   -14.5444      Z:     0.0518

  Dipole Moment: [e a0]
     X:    -0.1512      Y:    -0.5398      Z:     0.5490     Total:     0.7847

  Dipole Moment: [D]
     X:    -0.3842      Y:    -1.3721      Z:     1.3955     Total:     1.9944


*** tstop() called on node215.bme.utexas.edu at Thu Mar 28 12:43:31 2024
Module time:
	user time   =      60.68 seconds =       1.01 minutes
	system time =       1.36 seconds =       0.02 minutes
	total time  =         10 seconds =       0.17 minutes
Total time:
	user time   =     366.45 seconds =       6.11 minutes
	system time =      10.33 seconds =       0.17 minutes
	total time  =         58 seconds =       0.97 minutes

*** tstart() called on node215.bme.utexas.edu
*** at Thu Mar 28 12:43:31 2024


  //>>>>>>>>>>>>>>>>>>>>>>>>>>>>>>>>>>>//
  //               DFMP2               //
  //<<<<<<<<<<<<<<<<<<<<<<<<<<<<<<<<<<<//

   => Loading Basis Set <=

    Name: (AUG-CC-PVTZ AUX)
    Role: RIFIT
    Keyword: DF_BASIS_MP2
    atoms 1, 5               entry N          line   206 file /opt/anaconda/envs/psi4v1.5/share/psi4/basis/aug-cc-pvtz-ri.gbs 
    atoms 2, 9, 11-12, 14-15 entry H          line    30 file /opt/anaconda/envs/psi4v1.5/share/psi4/basis/aug-cc-pvtz-ri.gbs 
    atoms 3, 6, 8, 10        entry C          line   148 file /opt/anaconda/envs/psi4v1.5/share/psi4/basis/aug-cc-pvtz-ri.gbs 
    atoms 4, 7, 13           entry O          line   264 file /opt/anaconda/envs/psi4v1.5/share/psi4/basis/aug-cc-pvtz-ri.gbs 

	 --------------------------------------------------------
	                          DF-MP2                         
	      2nd-Order Density-Fitted Moller-Plesset Theory     
	              RMP2 Wavefunction,   8 Threads             
	                                                         
	        Rob Parrish, Justin Turney, Andy Simmonett,      
	           Ed Hohenstein, and C. David Sherrill          
	 --------------------------------------------------------

   => Auxiliary Basis Set <=

  Basis Set: (AUG-CC-PVTZ AUX)
    Blend: AUG-CC-PVTZ-RI
    Number of shells: 336
    Number of basis functions: 1230
    Number of Cartesian functions: 1554
    Spherical Harmonics?: true
    Max angular momentum: 4

	 --------------------------------------------------------
	                 NBF =   552, NAUX =  1230
	 --------------------------------------------------------
	   CLASS    FOCC     OCC    AOCC    AVIR     VIR    FVIR
	   PAIRS       1       5       4     547     547       0
	 --------------------------------------------------------

	 Will attempt to load fitting metric from file 97.

	-----------------------------------------------------------
	 ==================> DF-MP2 Energies <==================== 
	-----------------------------------------------------------
	 Reference Energy          =     -76.0588826927747022 [Eh]
	 Singles Energy            =      -0.0000000000000000 [Eh]
	 Same-Spin Energy          =      -0.0655153546855125 [Eh]
	 Opposite-Spin Energy      =      -0.2046948951126129 [Eh]
	 Correlation Energy        =      -0.2702102497981254 [Eh]
	 Total Energy              =     -76.3290929425728280 [Eh]
	-----------------------------------------------------------
	 ================> DF-SCS-MP2 Energies <================== 
	-----------------------------------------------------------
	 SCS Same-Spin Scale       =       0.3333333333333333 [-]
	 SCS Opposite-Spin Scale   =       1.2000000000000000 [-]
	 SCS Same-Spin Energy      =      -0.0218384515618375 [Eh]
	 SCS Opposite-Spin Energy  =      -0.2456338741351355 [Eh]
	 SCS Correlation Energy    =      -0.2674723256969730 [Eh]
	 SCS Total Energy          =     -76.3263550184716735 [Eh]
	-----------------------------------------------------------


*** tstop() called on node215.bme.utexas.edu at Thu Mar 28 12:43:37 2024
Module time:
	user time   =      28.69 seconds =       0.48 minutes
	system time =       0.89 seconds =       0.01 minutes
	total time  =          6 seconds =       0.10 minutes
Total time:
	user time   =     395.15 seconds =       6.59 minutes
	system time =      11.22 seconds =       0.19 minutes
	total time  =         64 seconds =       1.07 minutes
  Constructing Basis Sets for SAPT...

   => Loading Basis Set <=

    Name: (AUG-CC-PVTZ AUX)
    Role: RIFIT
    Keyword: DF_BASIS_SAPT
    atoms 1, 5               entry N          line   206 file /opt/anaconda/envs/psi4v1.5/share/psi4/basis/aug-cc-pvtz-ri.gbs 
    atoms 2, 9, 11-12, 14-15 entry H          line    30 file /opt/anaconda/envs/psi4v1.5/share/psi4/basis/aug-cc-pvtz-ri.gbs 
    atoms 3, 6, 8, 10        entry C          line   148 file /opt/anaconda/envs/psi4v1.5/share/psi4/basis/aug-cc-pvtz-ri.gbs 
    atoms 4, 7, 13           entry O          line   264 file /opt/anaconda/envs/psi4v1.5/share/psi4/basis/aug-cc-pvtz-ri.gbs 


  //>>>>>>>>>>>>>>>>>>>>>>>>>>>>>>>>>>>//
  //           SAPT2+(3)DMP2           //
  //<<<<<<<<<<<<<<<<<<<<<<<<<<<<<<<<<<<//


*** tstart() called on node215.bme.utexas.edu
*** at Thu Mar 28 12:43:37 2024

      SAPT2+(3)  
    Ed Hohenstein
     6 June 2009

      Orbital Information
  --------------------------
    NSO        =       552
    NMO        =       552
    NRI        =      1230
    NOCC A     =        29
    NOCC B     =         5
    FOCC A     =         8
    FOCC B     =         1
    NVIR A     =       523
    NVIR B     =       547

    Estimated memory usage: 8983.5 MB

    Natural Orbital Cutoff:   1.000E-06
    Disp(T3) Truncation:            Yes
    CCD (vv|vv) Truncation:         Yes
    MBPT T2 Truncation:             Yes

    Monomer A: 132 virtual orbitals dropped
    Monomer B: 465 virtual orbitals dropped

    Elst10,r            =    -0.014664746076 [Eh]
    Exch10 (S^2)        =     0.007776224496 [Eh]
    Exch10              =     0.007801439521 [Eh]
    Ind20,r (A<-B)      =    -0.002000218827 [Eh]
    Ind20,r (B<-A)      =    -0.002104400621 [Eh]
    Ind20,r             =    -0.004104619448 [Eh]
    Exch-Ind20,r (A<-B) =     0.001059143963 [Eh]
    Exch-Ind20,r (B<-A) =     0.000996902460 [Eh]
    Exch-Ind20,r        =     0.002056046424 [Eh]
    Disp20              =    -0.004824239675 [Eh]
    Disp20 (NO)         =    -0.004215691905 [Eh]
    Exch-Disp20         =     0.000672214807 [Eh]
    Elst12,r            =     0.000302952824 [Eh]
    Exch11              =     0.000029155673 [Eh]
    Exch12              =     0.001827155774 [Eh]
    Ind22               =    -0.000792909023 [Eh]
    Disp21              =     0.000210604478 [Eh]
    Disp22 (SDQ)        =    -0.000120787571 [Eh]

    (i =   1 of   4)        144 seconds
    (i =   2 of   4)        284 seconds
    (i =   3 of   4)        423 seconds
    (i =   4 of   4)        562 seconds

    Disp220 (T)         =    -0.000458089099 [Eh]

    (i =   1 of  21)          3 seconds
    (i =   2 of  21)          5 seconds
    (i =   3 of  21)          7 seconds
    (i =   4 of  21)         10 seconds
    (i =   5 of  21)         12 seconds
    (i =   6 of  21)         14 seconds
    (i =   7 of  21)         17 seconds
    (i =   8 of  21)         19 seconds
    (i =   9 of  21)         21 seconds
    (i =  10 of  21)         24 seconds
    (i =  11 of  21)         26 seconds
    (i =  12 of  21)         28 seconds
    (i =  13 of  21)         31 seconds
    (i =  14 of  21)         33 seconds
    (i =  15 of  21)         35 seconds
    (i =  16 of  21)         37 seconds
    (i =  17 of  21)         40 seconds
    (i =  18 of  21)         42 seconds
    (i =  19 of  21)         44 seconds
    (i =  20 of  21)         47 seconds
    (i =  21 of  21)         49 seconds

    Disp202 (T)         =    -0.000393833813 [Eh]

    Disp22 (T)          =    -0.000851922911 [Eh]

    Est. Disp220 (T)    =    -0.000524215634 [Eh]
    Est. Disp202 (T)    =    -0.000450684905 [Eh]

    Est. Disp22 (T)     =    -0.000974900539 [Eh]
    Elst13,r            =     0.000252826136 [Eh]
    Disp30              =     0.000147526539 [Eh]

    SAPT Results 
  --------------------------------------------------------------------------------------------------------
    Electrostatics                -14.10896712 [mEh]      -8.85351053 [kcal/mol]     -37.04308806 [kJ/mol]
      Elst10,r                    -14.66474608 [mEh]      -9.20226709 [kcal/mol]     -38.50228552 [kJ/mol]
      Elst12,r                      0.30295282 [mEh]       0.19010577 [kcal/mol]       0.79540253 [kJ/mol]
      Elst13,r                      0.25282614 [mEh]       0.15865080 [kcal/mol]       0.66379493 [kJ/mol]

    Exchange                        9.65775097 [mEh]       6.06033023 [kcal/mol]      25.35642167 [kJ/mol]
      Exch10                        7.80143952 [mEh]       4.89547721 [kcal/mol]      20.48267664 [kJ/mol]
      Exch10(S^2)                   7.77622450 [mEh]       4.87965454 [kcal/mol]      20.41647460 [kJ/mol]
      Exch11(S^2)                   0.02915567 [mEh]       0.01829546 [kcal/mol]       0.07654821 [kJ/mol]
      Exch12(S^2)                   1.82715577 [mEh]       1.14655756 [kcal/mol]       4.79719682 [kJ/mol]

    Induction                      -3.22000768 [mEh]      -2.02058533 [kcal/mol]      -8.45412901 [kJ/mol]
      Ind20,r                      -4.10461945 [mEh]      -2.57568759 [kcal/mol]     -10.77667688 [kJ/mol]
      Ind22                        -0.79290902 [mEh]      -0.49755792 [kcal/mol]      -2.08178235 [kJ/mol]
      Exch-Ind20,r                  2.05604642 [mEh]       1.29018861 [kcal/mol]       5.39814914 [kJ/mol]
      Exch-Ind22                    0.39717635 [mEh]       0.24923192 [kcal/mol]       1.04278636 [kJ/mol]
      delta HF,r (2)               -0.96929149 [mEh]      -0.60823960 [kcal/mol]      -2.54487447 [kJ/mol]
      delta MP2,r (2)               0.19358951 [mEh]       0.12147925 [kcal/mol]       0.50826920 [kJ/mol]

    Dispersion                     -4.88958196 [mEh]      -3.06825900 [kcal/mol]     -12.83759567 [kJ/mol]
      Disp20                       -4.82423967 [mEh]      -3.02725610 [kcal/mol]     -12.66603952 [kJ/mol]
      Disp30                        0.14752654 [mEh]       0.09257430 [kcal/mol]       0.38733087 [kJ/mol]
      Disp21                        0.21060448 [mEh]       0.13215631 [kcal/mol]       0.55294198 [kJ/mol]
      Disp22 (SDQ)                 -0.12078757 [mEh]      -0.07579534 [kcal/mol]      -0.31712772 [kJ/mol]
      Disp22 (T)                   -0.85192291 [mEh]      -0.53458970 [kcal/mol]      -2.23672330 [kJ/mol]
      Est. Disp22 (T)              -0.97490054 [mEh]      -0.61175932 [kcal/mol]      -2.55960101 [kJ/mol]
      Exch-Disp20                   0.67221481 [mEh]       0.42182116 [kcal/mol]       1.76489973 [kJ/mol]

  Total HF                         -9.88117107 [mEh]      -6.20052846 [kcal/mol]     -25.94301108 [kJ/mol]
  Total SAPT0                     -14.03319594 [mEh]      -8.80596340 [kcal/mol]     -36.84415087 [kJ/mol]
  Total SAPT2                     -12.26966435 [mEh]      -7.69933062 [kcal/mol]     -32.21399931 [kJ/mol]
  Total SAPT2+                    -13.15474798 [mEh]      -8.25472898 [kcal/mol]     -34.53778606 [kJ/mol]
  Total SAPT2+(3)                 -12.75439530 [mEh]      -8.00350389 [kcal/mol]     -33.48666026 [kJ/mol]
  Total SAPT2+dMP2                -12.96115847 [mEh]      -8.13324973 [kcal/mol]     -34.02951686 [kJ/mol]
  Total SAPT2+(3)dMP2             -12.56080579 [mEh]      -7.88202463 [kcal/mol]     -32.97839106 [kJ/mol]

  Special recipe for scaled SAPT0 (see Manual):
    Electrostatics sSAPT0         -14.66474608 [mEh]      -9.20226709 [kcal/mol]     -38.50228552 [kJ/mol]
    Exchange sSAPT0                 7.80143952 [mEh]       4.89547721 [kcal/mol]      20.48267664 [kJ/mol]
    Induction sSAPT0               -2.99779891 [mEh]      -1.88114722 [kcal/mol]      -7.87071997 [kJ/mol]
    Dispersion sSAPT0              -4.14546451 [mEh]      -2.60131825 [kcal/mol]     -10.88391558 [kJ/mol]
  Total sSAPT0                    -14.00656998 [mEh]      -8.78925536 [kcal/mol]     -36.77424442 [kJ/mol]
  --------------------------------------------------------------------------------------------------------

*** tstop() called on node215.bme.utexas.edu at Thu Mar 28 13:12:57 2024
Module time:
	user time   =   12042.60 seconds =     200.71 minutes
	system time =     224.07 seconds =       3.73 minutes
	total time  =       1760 seconds =      29.33 minutes
Total time:
	user time   =   12438.66 seconds =     207.31 minutes
	system time =     235.33 seconds =       3.92 minutes
	total time  =       1824 seconds =      30.40 minutes

    Psi4 stopped on: Thursday, 28 March 2024 01:12PM
    Psi4 wall time for execution: 0:30:24.07

*** Psi4 exiting successfully. Buy a developer a beer!
