
    -----------------------------------------------------------------------
          Psi4: An Open-Source Ab Initio Electronic Structure Package
                               Psi4 1.5 release

                         Git: Rev {HEAD} e9f4d6d 


    D. G. A. Smith, L. A. Burns, A. C. Simmonett, R. M. Parrish,
    M. C. Schieber, R. Galvelis, P. Kraus, H. Kruse, R. Di Remigio,
    A. Alenaizan, A. M. James, S. Lehtola, J. P. Misiewicz, M. Scheurer,
    R. A. Shaw, J. B. Schriber, Y. Xie, Z. L. Glick, D. A. Sirianni,
    J. S. O'Brien, J. M. Waldrop, A. Kumar, E. G. Hohenstein,
    B. P. Pritchard, B. R. Brooks, H. F. Schaefer III, A. Yu. Sokolov,
    K. Patkowski, A. E. DePrince III, U. Bozkaya, R. A. King,
    F. A. Evangelista, J. M. Turney, T. D. Crawford, C. D. Sherrill,
    J. Chem. Phys. 152(18) 184108 (2020). https://doi.org/10.1063/5.0006002

                            Additional Code Authors
    E. T. Seidl, C. L. Janssen, E. F. Valeev, M. L. Leininger,
    J. F. Gonthier, R. M. Richard, H. R. McAlexander, M. Saitow, X. Wang,
    P. Verma, M. H. Lechner, and A. Jiang

             Previous Authors, Complete List of Code Contributors,
                       and Citations for Specific Modules
    https://github.com/psi4/psi4/blob/master/codemeta.json
    https://github.com/psi4/psi4/graphs/contributors
    http://psicode.org/psi4manual/master/introduction.html#citing-psifour

    -----------------------------------------------------------------------


    Psi4 started on: Wednesday, 17 April 2024 12:31PM

    Process ID: 2605418
    Host:       bme-rna.bme.utexas.edu
    PSIDATADIR: /opt/anaconda/envs/psi4v1.5/share/psi4
    Memory:     500.0 MiB
    Threads:    8
    
  ==> Input File <==

--------------------------------------------------------------------------
memory 50GB

molecule {
0 1
N -0.74211 0.69023 -0.00264
H -1.73703 0.94685 -0.01197
C -0.50316 -0.66851 -0.00433
O -1.40104 -1.51815 -0.01204
N 0.8372 -0.99299 0.00531
C 1.9487 -0.12435 0.00661
O 3.08953 -0.57725 0.01348
C 1.5717 1.28047 -0.00169
H 2.35737 2.0244 -0.00543
C 0.26348 1.62708 -0.00782
H -0.0694 2.66008 -0.01624
H 1.04917 -1.98775 0.00306
--
0 1
O -3.3326126250000003 0.357587125 -0.08255575000000001
H -2.9107126250000004 -0.5262828749999999 -0.14126575
H -3.827292625 0.334577125 0.75152425
 units angstrom
 no_reorient
 symmetry c1} 
set  {scf_type DF
 basis jun-cc-pvdz
 freeze_core True
 guess SAD}
energy('sapt2+(3)dmp2')
--------------------------------------------------------------------------

  Memory set to  46.566 GiB by Python driver.

Scratch directory: /tmp/
   => Loading Basis Set <=

    Name: JUN-CC-PVDZ
    Role: ORBITAL
    Keyword: BASIS
    atoms 1, 5               entry N          line   198 file /opt/anaconda/envs/psi4v1.5/share/psi4/basis/jun-cc-pvdz.gbs 
    atoms 2, 9, 11-12, 14-15 entry H          line    36 file /opt/anaconda/envs/psi4v1.5/share/psi4/basis/jun-cc-pvdz.gbs 
    atoms 3, 6, 8, 10        entry C          line   164 file /opt/anaconda/envs/psi4v1.5/share/psi4/basis/jun-cc-pvdz.gbs 
    atoms 4, 7, 13           entry O          line   232 file /opt/anaconda/envs/psi4v1.5/share/psi4/basis/jun-cc-pvdz.gbs 

   => Loading Basis Set <=

    Name: JUN-CC-PVDZ
    Role: ORBITAL
    Keyword: BASIS
    atoms 1, 5               entry N          line   198 file /opt/anaconda/envs/psi4v1.5/share/psi4/basis/jun-cc-pvdz.gbs 
    atoms 2, 9, 11-12, 14-15 entry H          line    36 file /opt/anaconda/envs/psi4v1.5/share/psi4/basis/jun-cc-pvdz.gbs 
    atoms 3, 6, 8, 10        entry C          line   164 file /opt/anaconda/envs/psi4v1.5/share/psi4/basis/jun-cc-pvdz.gbs 
    atoms 4, 7, 13           entry O          line   232 file /opt/anaconda/envs/psi4v1.5/share/psi4/basis/jun-cc-pvdz.gbs 


  //>>>>>>>>>>>>>>>>>>>>>>>>>>>>>>>>>>>//
  //              Dimer HF             //
  //<<<<<<<<<<<<<<<<<<<<<<<<<<<<<<<<<<<//


*** tstart() called on bme-rna.bme.utexas.edu
*** at Wed Apr 17 12:31:59 2024

   => Loading Basis Set <=

    Name: JUN-CC-PVDZ
    Role: ORBITAL
    Keyword: BASIS
    atoms 1, 5               entry N          line   198 file /opt/anaconda/envs/psi4v1.5/share/psi4/basis/jun-cc-pvdz.gbs 
    atoms 2, 9, 11-12, 14-15 entry H          line    36 file /opt/anaconda/envs/psi4v1.5/share/psi4/basis/jun-cc-pvdz.gbs 
    atoms 3, 6, 8, 10        entry C          line   164 file /opt/anaconda/envs/psi4v1.5/share/psi4/basis/jun-cc-pvdz.gbs 
    atoms 4, 7, 13           entry O          line   232 file /opt/anaconda/envs/psi4v1.5/share/psi4/basis/jun-cc-pvdz.gbs 


         ---------------------------------------------------------
                                   SCF
               by Justin Turney, Rob Parrish, Andy Simmonett
                          and Daniel G. A. Smith
                              RHF Reference
                        8 Threads,  47683 MiB Core
         ---------------------------------------------------------

  ==> Geometry <==

    Molecular point group: c1
    Full point group: C1

    Geometry (in Angstrom), charge = 0, multiplicity = 1:

       Center              X                  Y                   Z               Mass       
    ------------   -----------------  -----------------  -----------------  -----------------
         N           -0.813046980374     0.714688833816     0.003224422025    14.003074004430
         H           -1.807966980374     0.971308833816    -0.006105577975     1.007825032230
         C           -0.574096980374    -0.644051166184     0.001534422025    12.000000000000
         O           -1.471976980374    -1.493691166184    -0.006175577975    15.994914619570
         N            0.766263019626    -0.968531166184     0.011174422025    14.003074004430
         C            1.877763019626    -0.099891166184     0.012474422025    12.000000000000
         O            3.018593019626    -0.552791166184     0.019344422025    15.994914619570
         C            1.500763019626     1.304928833816     0.004174422025    12.000000000000
         H            2.286433019626     2.048858833816     0.000434422025     1.007825032230
         C            0.192543019626     1.651538833816    -0.001955577975    12.000000000000
         H           -0.140336980374     2.684538833816    -0.010375577975     1.007825032230
         H            0.978233019626    -1.963291166184     0.008924422025     1.007825032230
         O           -3.403549605374     0.382045958816    -0.076691327975    15.994914619570
         H           -2.981649605374    -0.501824041184    -0.135401327975     1.007825032230
         H           -3.898229605374     0.359035958816     0.757388672025     1.007825032230

  Running in c1 symmetry.

  Rotational constants: A =      0.12141  B =      0.03430  C =      0.02680 [cm^-1]
  Rotational constants: A =   3639.67600  B =   1028.38419  C =    803.56477 [MHz]
  Nuclear repulsion =  447.184847913449005

  Charge       = 0
  Multiplicity = 1
  Electrons    = 68
  Nalpha       = 34
  Nbeta        = 34

  ==> Algorithm <==

  SCF Algorithm Type is DF.
  DIIS enabled.
  MOM disabled.
  Fractional occupation disabled.
  Guess Type is SAD.
  Energy threshold   = 1.00e-08
  Density threshold  = 1.00e-08
  Integral threshold = 1.00e-12

  ==> Primary Basis <==

  Basis Set: JUN-CC-PVDZ
    Blend: JUN-CC-PVDZ
    Number of shells: 90
    Number of basis functions: 192
    Number of Cartesian functions: 201
    Spherical Harmonics?: true
    Max angular momentum: 2

   => Loading Basis Set <=

    Name: (JUN-CC-PVDZ AUX)
    Role: JKFIT
    Keyword: DF_BASIS_SCF
    atoms 1, 5               entry N          line   202 file /opt/anaconda/envs/psi4v1.5/share/psi4/basis/jun-cc-pvdz-jkfit.gbs 
    atoms 2, 9, 11-12, 14-15 entry H          line    70 file /opt/anaconda/envs/psi4v1.5/share/psi4/basis/jun-cc-pvdz-jkfit.gbs 
    atoms 3, 6, 8, 10        entry C          line   146 file /opt/anaconda/envs/psi4v1.5/share/psi4/basis/jun-cc-pvdz-jkfit.gbs 
    atoms 4, 7, 13           entry O          line   258 file /opt/anaconda/envs/psi4v1.5/share/psi4/basis/jun-cc-pvdz-jkfit.gbs 

  ==> Integral Setup <==

  ==> DiskDFJK: Density-Fitted J/K Matrices <==

    J tasked:                  Yes
    K tasked:                  Yes
    wK tasked:                  No
    OpenMP threads:              8
    Integrals threads:           8
    Memory [MiB]:            35762
    Algorithm:                Core
    Integral Cache:           SAVE
    Schwarz Cutoff:          1E-12
    Fitting Condition:       1E-10

   => Auxiliary Basis Set <=

  Basis Set: (JUN-CC-PVDZ AUX)
    Blend: JUN-CC-PVDZ-JKFIT
    Number of shells: 297
    Number of basis functions: 849
    Number of Cartesian functions: 969
    Spherical Harmonics?: true
    Max angular momentum: 3

  Minimum eigenvalue in the overlap matrix is 5.7357826527E-05.
  Reciprocal condition number of the overlap matrix is 4.9993295076E-06.
    Using symmetric orthogonalization.

  ==> Pre-Iterations <==

  SCF Guess: Superposition of Atomic Densities via on-the-fly atomic UHF (no occupation information).

   -------------------------
    Irrep   Nso     Nmo    
   -------------------------
     A        192     192 
   -------------------------
    Total     192     192
   -------------------------

  ==> Iterations <==

                           Total Energy        Delta E     RMS |[F,P]|

   @DF-RHF iter SAD:  -487.57136012782081   -4.87571e+02   0.00000e+00 
   @DF-RHF iter   1:  -488.26947072527520   -6.98111e-01   4.14299e-03 DIIS
   @DF-RHF iter   2:  -488.46595182766299   -1.96481e-01   2.59322e-03 DIIS
   @DF-RHF iter   3:  -488.55400821080013   -8.80564e-02   4.69224e-04 DIIS
   @DF-RHF iter   4:  -488.55841453168006   -4.40632e-03   2.02463e-04 DIIS
   @DF-RHF iter   5:  -488.55935996546208   -9.45434e-04   4.42802e-05 DIIS
   @DF-RHF iter   6:  -488.55946520025617   -1.05235e-04   2.31548e-05 DIIS
   @DF-RHF iter   7:  -488.55949435458450   -2.91543e-05   8.04561e-06 DIIS
   @DF-RHF iter   8:  -488.55949826489933   -3.91031e-06   2.63815e-06 DIIS
   @DF-RHF iter   9:  -488.55949855486602   -2.89967e-07   1.11932e-06 DIIS
   @DF-RHF iter  10:  -488.55949861264020   -5.77742e-08   3.95827e-07 DIIS
   @DF-RHF iter  11:  -488.55949862050676   -7.86656e-09   1.57846e-07 DIIS
   @DF-RHF iter  12:  -488.55949862135628   -8.49525e-10   4.56762e-08 DIIS
   @DF-RHF iter  13:  -488.55949862145837   -1.02091e-10   1.51840e-08 DIIS
   @DF-RHF iter  14:  -488.55949862147367   -1.52909e-11   8.07546e-09 DIIS
  Energy and wave function converged.


  ==> Post-Iterations <==

    Orbital Energies [Eh]
    ---------------------

    Doubly Occupied:                                                      

       1A    -20.587773     2A    -20.567429     3A    -20.552785  
       4A    -15.640935     5A    -15.640745     6A    -11.438203  
       7A    -11.393412     8A    -11.348403     9A    -11.263910  
      10A     -1.444216    11A     -1.401237    12A     -1.368219  
      13A     -1.315018    14A     -1.247834    15A     -1.090226  
      16A     -0.934500    17A     -0.905942    18A     -0.808683  
      19A     -0.767090    20A     -0.733230    21A     -0.715950  
      22A     -0.678355    23A     -0.668887    24A     -0.662631  
      25A     -0.621391    26A     -0.603276    27A     -0.593359  
      28A     -0.569584    29A     -0.524484    30A     -0.523461  
      31A     -0.488325    32A     -0.451573    33A     -0.442489  
      34A     -0.367365  

    Virtual:                                                              

      35A      0.046484    36A      0.065760    37A      0.071527  
      38A      0.074025    39A      0.083610    40A      0.091098  
      41A      0.101658    42A      0.115840    43A      0.121499  
      44A      0.130104    45A      0.134713    46A      0.144460  
      47A      0.149304    48A      0.167988    49A      0.175391  
      50A      0.176875    51A      0.204303    52A      0.206245  
      53A      0.211410    54A      0.221401    55A      0.241004  
      56A      0.246102    57A      0.253192    58A      0.270734  
      59A      0.273113    60A      0.277716    61A      0.289773  
      62A      0.295208    63A      0.299952    64A      0.309054  
      65A      0.331763    66A      0.332963    67A      0.338605  
      68A      0.344634    69A      0.361716    70A      0.366842  
      71A      0.371911    72A      0.373920    73A      0.386069  
      74A      0.396365    75A      0.411494    76A      0.426420  
      77A      0.441989    78A      0.461029    79A      0.475886  
      80A      0.512174    81A      0.518840    82A      0.527375  
      83A      0.551784    84A      0.582890    85A      0.672791  
      86A      0.703330    87A      0.750021    88A      0.768875  
      89A      0.792471    90A      0.825684    91A      0.857175  
      92A      0.860423    93A      0.874597    94A      0.877698  
      95A      0.925030    96A      0.926812    97A      0.948580  
      98A      0.966432    99A      0.990748   100A      1.022007  
     101A      1.046644   102A      1.059674   103A      1.094923  
     104A      1.121623   105A      1.131252   106A      1.135023  
     107A      1.147669   108A      1.153170   109A      1.192924  
     110A      1.219124   111A      1.249231   112A      1.259167  
     113A      1.285398   114A      1.305337   115A      1.316511  
     116A      1.332549   117A      1.347714   118A      1.382028  
     119A      1.384606   120A      1.389086   121A      1.444393  
     122A      1.484988   123A      1.485985   124A      1.493349  
     125A      1.510817   126A      1.532767   127A      1.534257  
     128A      1.537103   129A      1.570129   130A      1.603895  
     131A      1.663958   132A      1.708554   133A      1.731627  
     134A      1.742919   135A      1.796908   136A      1.823140  
     137A      1.830405   138A      1.853840   139A      1.872424  
     140A      1.881497   141A      1.926808   142A      1.934476  
     143A      1.949544   144A      1.957067   145A      1.990970  
     146A      2.025972   147A      2.047102   148A      2.067667  
     149A      2.088314   150A      2.128586   151A      2.147886  
     152A      2.204312   153A      2.221351   154A      2.279903  
     155A      2.331354   156A      2.357019   157A      2.409488  
     158A      2.437605   159A      2.457141   160A      2.470970  
     161A      2.476856   162A      2.551721   163A      2.563777  
     164A      2.619388   165A      2.644493   166A      2.669049  
     167A      2.738607   168A      2.780942   169A      2.850271  
     170A      2.903123   171A      2.920600   172A      2.974326  
     173A      3.022188   174A      3.044911   175A      3.103040  
     176A      3.112731   177A      3.159273   178A      3.221188  
     179A      3.286198   180A      3.328843   181A      3.419850  
     182A      3.434330   183A      3.464107   184A      3.493025  
     185A      3.519643   186A      3.771865   187A      3.864034  
     188A      3.879129   189A      3.909258   190A      4.025446  
     191A      4.091884   192A      4.188103  

    Final Occupation by Irrep:
              A 
    DOCC [    34 ]

  @DF-RHF Final Energy:  -488.55949862147367

   => Energetics <=

    Nuclear Repulsion Energy =            447.1848479134490049
    One-Electron Energy =               -1554.7668566467530127
    Two-Electron Energy =                 619.0225101118303428
    Total Energy =                       -488.5594986214737219

Computation Completed


Properties will be evaluated at   0.000000,   0.000000,   0.000000 [a0]

Properties computed using the SCF density matrix

  Nuclear Dipole Moment: [e a0]
     X:    -5.2244      Y:     3.3663      Z:     0.5761

  Electronic Dipole Moment: [e a0]
     X:     4.1769      Y:    -2.1041      Z:    -0.0447

  Dipole Moment: [e a0]
     X:    -1.0475      Y:     1.2622      Z:     0.5314     Total:     1.7242

  Dipole Moment: [D]
     X:    -2.6626      Y:     3.2083      Z:     1.3506     Total:     4.3826


*** tstop() called on bme-rna.bme.utexas.edu at Wed Apr 17 12:32:00 2024
Module time:
	user time   =       4.08 seconds =       0.07 minutes
	system time =       0.23 seconds =       0.00 minutes
	total time  =          1 seconds =       0.02 minutes
Total time:
	user time   =       4.08 seconds =       0.07 minutes
	system time =       0.23 seconds =       0.00 minutes
	total time  =          1 seconds =       0.02 minutes

*** tstart() called on bme-rna.bme.utexas.edu
*** at Wed Apr 17 12:32:00 2024


  //>>>>>>>>>>>>>>>>>>>>>>>>>>>>>>>>>>>//
  //               DFMP2               //
  //<<<<<<<<<<<<<<<<<<<<<<<<<<<<<<<<<<<//

   => Loading Basis Set <=

    Name: (JUN-CC-PVDZ AUX)
    Role: RIFIT
    Keyword: DF_BASIS_MP2
    atoms 1, 5               entry N          line   144 file /opt/anaconda/envs/psi4v1.5/share/psi4/basis/jun-cc-pvdz-ri.gbs 
    atoms 2, 9, 11-12, 14-15 entry H          line    30 file /opt/anaconda/envs/psi4v1.5/share/psi4/basis/jun-cc-pvdz-ri.gbs 
    atoms 3, 6, 8, 10        entry C          line   100 file /opt/anaconda/envs/psi4v1.5/share/psi4/basis/jun-cc-pvdz-ri.gbs 
    atoms 4, 7, 13           entry O          line   188 file /opt/anaconda/envs/psi4v1.5/share/psi4/basis/jun-cc-pvdz-ri.gbs 

	 --------------------------------------------------------
	                          DF-MP2                         
	      2nd-Order Density-Fitted Moller-Plesset Theory     
	              RMP2 Wavefunction,   8 Threads             
	                                                         
	        Rob Parrish, Justin Turney, Andy Simmonett,      
	           Ed Hohenstein, and C. David Sherrill          
	 --------------------------------------------------------

   => Auxiliary Basis Set <=

  Basis Set: (JUN-CC-PVDZ AUX)
    Blend: JUN-CC-PVDZ-RI
    Number of shells: 225
    Number of basis functions: 669
    Number of Cartesian functions: 774
    Spherical Harmonics?: true
    Max angular momentum: 3

	 --------------------------------------------------------
	                 NBF =   192, NAUX =   669
	 --------------------------------------------------------
	   CLASS    FOCC     OCC    AOCC    AVIR     VIR    FVIR
	   PAIRS       9      34      25     158     158       0
	 --------------------------------------------------------

	 Will save fitting metric to file 97.

	-----------------------------------------------------------
	 ==================> DF-MP2 Energies <==================== 
	-----------------------------------------------------------
	 Reference Energy          =    -488.5594986214736650 [Eh]
	 Singles Energy            =      -0.0000000000000000 [Eh]
	 Same-Spin Energy          =      -0.3879662282910236 [Eh]
	 Opposite-Spin Energy      =      -1.0321569482188440 [Eh]
	 Correlation Energy        =      -1.4201231765098674 [Eh]
	 Total Energy              =    -489.9796217979835546 [Eh]
	-----------------------------------------------------------
	 ================> DF-SCS-MP2 Energies <================== 
	-----------------------------------------------------------
	 SCS Same-Spin Scale       =       0.3333333333333333 [-]
	 SCS Opposite-Spin Scale   =       1.2000000000000000 [-]
	 SCS Same-Spin Energy      =      -0.1293220760970079 [Eh]
	 SCS Opposite-Spin Energy  =      -1.2385883378626128 [Eh]
	 SCS Correlation Energy    =      -1.3679104139596205 [Eh]
	 SCS Total Energy          =    -489.9274090354332998 [Eh]
	-----------------------------------------------------------


*** tstop() called on bme-rna.bme.utexas.edu at Wed Apr 17 12:32:01 2024
Module time:
	user time   =       1.21 seconds =       0.02 minutes
	system time =       0.07 seconds =       0.00 minutes
	total time  =          1 seconds =       0.02 minutes
Total time:
	user time   =       5.29 seconds =       0.09 minutes
	system time =       0.30 seconds =       0.01 minutes
	total time  =          2 seconds =       0.03 minutes

  //>>>>>>>>>>>>>>>>>>>>>>>>>>>>>>>>>>>//
  //            Monomer A HF           //
  //<<<<<<<<<<<<<<<<<<<<<<<<<<<<<<<<<<<//


*** tstart() called on bme-rna.bme.utexas.edu
*** at Wed Apr 17 12:32:01 2024

   => Loading Basis Set <=

    Name: JUN-CC-PVDZ
    Role: ORBITAL
    Keyword: BASIS
    atoms 1, 5               entry N          line   198 file /opt/anaconda/envs/psi4v1.5/share/psi4/basis/jun-cc-pvdz.gbs 
    atoms 2, 9, 11-12, 14-15 entry H          line    36 file /opt/anaconda/envs/psi4v1.5/share/psi4/basis/jun-cc-pvdz.gbs 
    atoms 3, 6, 8, 10        entry C          line   164 file /opt/anaconda/envs/psi4v1.5/share/psi4/basis/jun-cc-pvdz.gbs 
    atoms 4, 7, 13           entry O          line   232 file /opt/anaconda/envs/psi4v1.5/share/psi4/basis/jun-cc-pvdz.gbs 


         ---------------------------------------------------------
                                   SCF
               by Justin Turney, Rob Parrish, Andy Simmonett
                          and Daniel G. A. Smith
                              RHF Reference
                        8 Threads,  47683 MiB Core
         ---------------------------------------------------------

  ==> Geometry <==

    Molecular point group: c1
    Full point group: C1

    Geometry (in Angstrom), charge = 0, multiplicity = 1:

       Center              X                  Y                   Z               Mass       
    ------------   -----------------  -----------------  -----------------  -----------------
         N           -0.813046980374     0.714688833816     0.003224422025    14.003074004430
         H           -1.807966980374     0.971308833816    -0.006105577975     1.007825032230
         C           -0.574096980374    -0.644051166184     0.001534422025    12.000000000000
         O           -1.471976980374    -1.493691166184    -0.006175577975    15.994914619570
         N            0.766263019626    -0.968531166184     0.011174422025    14.003074004430
         C            1.877763019626    -0.099891166184     0.012474422025    12.000000000000
         O            3.018593019626    -0.552791166184     0.019344422025    15.994914619570
         C            1.500763019626     1.304928833816     0.004174422025    12.000000000000
         H            2.286433019626     2.048858833816     0.000434422025     1.007825032230
         C            0.192543019626     1.651538833816    -0.001955577975    12.000000000000
         H           -0.140336980374     2.684538833816    -0.010375577975     1.007825032230
         H            0.978233019626    -1.963291166184     0.008924422025     1.007825032230
      Gh(O)          -3.403549605374     0.382045958816    -0.076691327975    15.994914619570
      Gh(H)          -2.981649605374    -0.501824041184    -0.135401327975     1.007825032230
      Gh(H)          -3.898229605374     0.359035958816     0.757388672025     1.007825032230

  Running in c1 symmetry.

  Rotational constants: A =      0.12141  B =      0.03430  C =      0.02680 [cm^-1]
  Rotational constants: A =   3639.67600  B =   1028.38419  C =    803.56477 [MHz]
  Nuclear repulsion =  355.475633321890200

  Charge       = 0
  Multiplicity = 1
  Electrons    = 58
  Nalpha       = 29
  Nbeta        = 29

  ==> Algorithm <==

  SCF Algorithm Type is DF.
  DIIS enabled.
  MOM disabled.
  Fractional occupation disabled.
  Guess Type is SAD.
  Energy threshold   = 1.00e-08
  Density threshold  = 1.00e-08
  Integral threshold = 1.00e-12

  ==> Primary Basis <==

  Basis Set: JUN-CC-PVDZ
    Blend: JUN-CC-PVDZ
    Number of shells: 90
    Number of basis functions: 192
    Number of Cartesian functions: 201
    Spherical Harmonics?: true
    Max angular momentum: 2

   => Loading Basis Set <=

    Name: (JUN-CC-PVDZ AUX)
    Role: JKFIT
    Keyword: DF_BASIS_SCF
    atoms 1, 5               entry N          line   202 file /opt/anaconda/envs/psi4v1.5/share/psi4/basis/jun-cc-pvdz-jkfit.gbs 
    atoms 2, 9, 11-12, 14-15 entry H          line    70 file /opt/anaconda/envs/psi4v1.5/share/psi4/basis/jun-cc-pvdz-jkfit.gbs 
    atoms 3, 6, 8, 10        entry C          line   146 file /opt/anaconda/envs/psi4v1.5/share/psi4/basis/jun-cc-pvdz-jkfit.gbs 
    atoms 4, 7, 13           entry O          line   258 file /opt/anaconda/envs/psi4v1.5/share/psi4/basis/jun-cc-pvdz-jkfit.gbs 

  ==> Integral Setup <==

  ==> DiskDFJK: Density-Fitted J/K Matrices <==

    J tasked:                  Yes
    K tasked:                  Yes
    wK tasked:                  No
    OpenMP threads:              8
    Integrals threads:           8
    Memory [MiB]:            35762
    Algorithm:                Core
    Integral Cache:           LOAD
    Schwarz Cutoff:          1E-12
    Fitting Condition:       1E-10

   => Auxiliary Basis Set <=

  Basis Set: (JUN-CC-PVDZ AUX)
    Blend: JUN-CC-PVDZ-JKFIT
    Number of shells: 297
    Number of basis functions: 849
    Number of Cartesian functions: 969
    Spherical Harmonics?: true
    Max angular momentum: 3

  Minimum eigenvalue in the overlap matrix is 5.7357826527E-05.
  Reciprocal condition number of the overlap matrix is 4.9993295076E-06.
    Using symmetric orthogonalization.

  ==> Pre-Iterations <==

  SCF Guess: Superposition of Atomic Densities via on-the-fly atomic UHF (no occupation information).

   -------------------------
    Irrep   Nso     Nmo    
   -------------------------
     A        192     192 
   -------------------------
    Total     192     192
   -------------------------

  ==> Iterations <==

                           Total Energy        Delta E     RMS |[F,P]|

   @DF-RHF iter SAD:  -411.78830778467267   -4.11788e+02   0.00000e+00 
   @DF-RHF iter   1:  -412.26795733679319   -4.79650e-01   3.74522e-03 DIIS
   @DF-RHF iter   2:  -412.42452246272092   -1.56565e-01   2.54247e-03 DIIS
   @DF-RHF iter   3:  -412.50971970289032   -8.51972e-02   4.55952e-04 DIIS
   @DF-RHF iter   4:  -412.51404779633663   -4.32809e-03   1.76459e-04 DIIS
   @DF-RHF iter   5:  -412.51488269778770   -8.34901e-04   3.80289e-05 DIIS
   @DF-RHF iter   6:  -412.51498618630319   -1.03489e-04   1.97470e-05 DIIS
   @DF-RHF iter   7:  -412.51500551534451   -1.93290e-05   7.21864e-06 DIIS
   @DF-RHF iter   8:  -412.51500827398070   -2.75864e-06   2.70690e-06 DIIS
   @DF-RHF iter   9:  -412.51500850533154   -2.31351e-07   1.05749e-06 DIIS
   @DF-RHF iter  10:  -412.51500856404988   -5.87183e-08   3.58437e-07 DIIS
   @DF-RHF iter  11:  -412.51500857050553   -6.45565e-09   1.21631e-07 DIIS
   @DF-RHF iter  12:  -412.51500857106316   -5.57634e-10   3.37772e-08 DIIS
   @DF-RHF iter  13:  -412.51500857111785   -5.46834e-11   1.22770e-08 DIIS
   @DF-RHF iter  14:  -412.51500857112728   -9.43601e-12   6.09259e-09 DIIS
  Energy and wave function converged.


  ==> Post-Iterations <==

    Orbital Energies [Eh]
    ---------------------

    Doubly Occupied:                                                      

       1A    -20.555726     2A    -20.554983     3A    -15.660048  
       4A    -15.638751     5A    -11.432156     6A    -11.395109  
       7A    -11.355815     8A    -11.269825     9A     -1.434473  
      10A     -1.399721    11A     -1.316398    12A     -1.249651  
      13A     -1.095003    14A     -0.939388    15A     -0.905371  
      16A     -0.809413    17A     -0.768021    18A     -0.716955  
      19A     -0.679055    20A     -0.668719    21A     -0.651544  
      22A     -0.617012    23A     -0.603041    24A     -0.570263  
      25A     -0.524734    26A     -0.482913    27A     -0.450772  
      28A     -0.435934    29A     -0.372582  

    Virtual:                                                              

      30A      0.034502    31A      0.060506    32A      0.067438  
      33A      0.071092    34A      0.081619    35A      0.087176  
      36A      0.101809    37A      0.108914    38A      0.120592  
      39A      0.122670    40A      0.129639    41A      0.140709  
      42A      0.151122    43A      0.160501    44A      0.173705  
      45A      0.176546    46A      0.182366    47A      0.183792  
      48A      0.201581    49A      0.208438    50A      0.221873  
      51A      0.243147    52A      0.246329    53A      0.263052  
      54A      0.269868    55A      0.277658    56A      0.283626  
      57A      0.292914    58A      0.301958    59A      0.307154  
      60A      0.326245    61A      0.337205    62A      0.339654  
      63A      0.349059    64A      0.360022    65A      0.363081  
      66A      0.367765    67A      0.376245    68A      0.395366  
      69A      0.397491    70A      0.407981    71A      0.417483  
      72A      0.434326    73A      0.463108    74A      0.469769  
      75A      0.492127    76A      0.518944    77A      0.543554  
      78A      0.548660    79A      0.579785    80A      0.659833  
      81A      0.702554    82A      0.744969    83A      0.763372  
      84A      0.782622    85A      0.810485    86A      0.822103  
      87A      0.837826    88A      0.853458    89A      0.858597  
      90A      0.866033    91A      0.885650    92A      0.919406  
      93A      0.928858    94A      0.962455    95A      0.970300  
      96A      0.992996    97A      1.024016    98A      1.043515  
      99A      1.069865   100A      1.090729   101A      1.117096  
     102A      1.130921   103A      1.133505   104A      1.152656  
     105A      1.159005   106A      1.193833   107A      1.220709  
     108A      1.267722   109A      1.292037   110A      1.299548  
     111A      1.327021   112A      1.329841   113A      1.344006  
     114A      1.389438   115A      1.397829   116A      1.467410  
     117A      1.490170   118A      1.504056   119A      1.517929  
     120A      1.537410   121A      1.538204   122A      1.544426  
     123A      1.616816   124A      1.681756   125A      1.719133  
     126A      1.733017   127A      1.799162   128A      1.807969  
     129A      1.823304   130A      1.825608   131A      1.849755  
     132A      1.876986   133A      1.922609   134A      1.924150  
     135A      1.933227   136A      1.967476   137A      1.986199  
     138A      2.020501   139A      2.034973   140A      2.062634  
     141A      2.068901   142A      2.084556   143A      2.133425  
     144A      2.170972   145A      2.187222   146A      2.197377  
     147A      2.222140   148A      2.284862   149A      2.307105  
     150A      2.352030   151A      2.373615   152A      2.389802  
     153A      2.433439   154A      2.465747   155A      2.472806  
     156A      2.500374   157A      2.568897   158A      2.600015  
     159A      2.643985   160A      2.678765   161A      2.732479  
     162A      2.783161   163A      2.800264   164A      2.863030  
     165A      2.899221   166A      2.927988   167A      3.031027  
     168A      3.050437   169A      3.063782   170A      3.113288  
     171A      3.120734   172A      3.168246   173A      3.264145  
     174A      3.300778   175A      3.428135   176A      3.438207  
     177A      3.481263   178A      3.498892   179A      3.775478  
     180A      3.868765   181A      3.886665   182A      4.029729  
     183A      4.091541   184A      4.428495   185A      4.537566  
     186A      4.698489   187A      4.858898   188A      5.083991  
     189A      5.656356   190A      6.528836   191A      6.917634  
     192A     33.508712  

    Final Occupation by Irrep:
              A 
    DOCC [    29 ]

  @DF-RHF Final Energy:  -412.51500857112728

   => Energetics <=

    Nuclear Repulsion Energy =            355.4756333218902000
    One-Electron Energy =               -1266.8745270859440097
    Two-Electron Energy =                 498.8838851929265275
    Total Energy =                       -412.5150085711272823

Computation Completed


Properties will be evaluated at   0.000000,   0.000000,   0.000000 [a0]

Properties computed using the SCF density matrix

  Nuclear Dipole Moment: [e a0]
     X:    59.2309      Y:    -2.1395      Z:     0.5601

  Electronic Dipole Moment: [e a0]
     X:   -60.1338      Y:     4.0401      Z:    -0.5741

  Dipole Moment: [e a0]
     X:    -0.9029      Y:     1.9005      Z:    -0.0140     Total:     2.1042

  Dipole Moment: [D]
     X:    -2.2950      Y:     4.8307      Z:    -0.0355     Total:     5.3483


*** tstop() called on bme-rna.bme.utexas.edu at Wed Apr 17 12:32:01 2024
Module time:
	user time   =       3.09 seconds =       0.05 minutes
	system time =       0.12 seconds =       0.00 minutes
	total time  =          0 seconds =       0.00 minutes
Total time:
	user time   =       8.38 seconds =       0.14 minutes
	system time =       0.42 seconds =       0.01 minutes
	total time  =          2 seconds =       0.03 minutes

*** tstart() called on bme-rna.bme.utexas.edu
*** at Wed Apr 17 12:32:01 2024


  //>>>>>>>>>>>>>>>>>>>>>>>>>>>>>>>>>>>//
  //               DFMP2               //
  //<<<<<<<<<<<<<<<<<<<<<<<<<<<<<<<<<<<//

   => Loading Basis Set <=

    Name: (JUN-CC-PVDZ AUX)
    Role: RIFIT
    Keyword: DF_BASIS_MP2
    atoms 1, 5               entry N          line   144 file /opt/anaconda/envs/psi4v1.5/share/psi4/basis/jun-cc-pvdz-ri.gbs 
    atoms 2, 9, 11-12, 14-15 entry H          line    30 file /opt/anaconda/envs/psi4v1.5/share/psi4/basis/jun-cc-pvdz-ri.gbs 
    atoms 3, 6, 8, 10        entry C          line   100 file /opt/anaconda/envs/psi4v1.5/share/psi4/basis/jun-cc-pvdz-ri.gbs 
    atoms 4, 7, 13           entry O          line   188 file /opt/anaconda/envs/psi4v1.5/share/psi4/basis/jun-cc-pvdz-ri.gbs 

	 --------------------------------------------------------
	                          DF-MP2                         
	      2nd-Order Density-Fitted Moller-Plesset Theory     
	              RMP2 Wavefunction,   8 Threads             
	                                                         
	        Rob Parrish, Justin Turney, Andy Simmonett,      
	           Ed Hohenstein, and C. David Sherrill          
	 --------------------------------------------------------

   => Auxiliary Basis Set <=

  Basis Set: (JUN-CC-PVDZ AUX)
    Blend: JUN-CC-PVDZ-RI
    Number of shells: 225
    Number of basis functions: 669
    Number of Cartesian functions: 774
    Spherical Harmonics?: true
    Max angular momentum: 3

	 --------------------------------------------------------
	                 NBF =   192, NAUX =   669
	 --------------------------------------------------------
	   CLASS    FOCC     OCC    AOCC    AVIR     VIR    FVIR
	   PAIRS       8      29      21     163     163       0
	 --------------------------------------------------------

	 Will attempt to load fitting metric from file 97.

	-----------------------------------------------------------
	 ==================> DF-MP2 Energies <==================== 
	-----------------------------------------------------------
	 Reference Energy          =    -412.5150085711272823 [Eh]
	 Singles Energy            =      -0.0000000000000000 [Eh]
	 Same-Spin Energy          =      -0.3311159821220047 [Eh]
	 Opposite-Spin Energy      =      -0.8751666828085563 [Eh]
	 Correlation Energy        =      -1.2062826649305609 [Eh]
	 Total Energy              =    -413.7212912360578230 [Eh]
	-----------------------------------------------------------
	 ================> DF-SCS-MP2 Energies <================== 
	-----------------------------------------------------------
	 SCS Same-Spin Scale       =       0.3333333333333333 [-]
	 SCS Opposite-Spin Scale   =       1.2000000000000000 [-]
	 SCS Same-Spin Energy      =      -0.1103719940406682 [Eh]
	 SCS Opposite-Spin Energy  =      -1.0502000193702674 [Eh]
	 SCS Correlation Energy    =      -1.1605720134109356 [Eh]
	 SCS Total Energy          =    -413.6755805845382383 [Eh]
	-----------------------------------------------------------


*** tstop() called on bme-rna.bme.utexas.edu at Wed Apr 17 12:32:02 2024
Module time:
	user time   =       1.06 seconds =       0.02 minutes
	system time =       0.03 seconds =       0.00 minutes
	total time  =          1 seconds =       0.02 minutes
Total time:
	user time   =       9.44 seconds =       0.16 minutes
	system time =       0.45 seconds =       0.01 minutes
	total time  =          3 seconds =       0.05 minutes

  //>>>>>>>>>>>>>>>>>>>>>>>>>>>>>>>>>>>//
  //            Monomer B HF           //
  //<<<<<<<<<<<<<<<<<<<<<<<<<<<<<<<<<<<//


*** tstart() called on bme-rna.bme.utexas.edu
*** at Wed Apr 17 12:32:02 2024

   => Loading Basis Set <=

    Name: JUN-CC-PVDZ
    Role: ORBITAL
    Keyword: BASIS
    atoms 1, 5               entry N          line   198 file /opt/anaconda/envs/psi4v1.5/share/psi4/basis/jun-cc-pvdz.gbs 
    atoms 2, 9, 11-12, 14-15 entry H          line    36 file /opt/anaconda/envs/psi4v1.5/share/psi4/basis/jun-cc-pvdz.gbs 
    atoms 3, 6, 8, 10        entry C          line   164 file /opt/anaconda/envs/psi4v1.5/share/psi4/basis/jun-cc-pvdz.gbs 
    atoms 4, 7, 13           entry O          line   232 file /opt/anaconda/envs/psi4v1.5/share/psi4/basis/jun-cc-pvdz.gbs 


         ---------------------------------------------------------
                                   SCF
               by Justin Turney, Rob Parrish, Andy Simmonett
                          and Daniel G. A. Smith
                              RHF Reference
                        8 Threads,  47683 MiB Core
         ---------------------------------------------------------

  ==> Geometry <==

    Molecular point group: c1
    Full point group: C1

    Geometry (in Angstrom), charge = 0, multiplicity = 1:

       Center              X                  Y                   Z               Mass       
    ------------   -----------------  -----------------  -----------------  -----------------
      Gh(N)          -0.813046980374     0.714688833816     0.003224422025    14.003074004430
      Gh(H)          -1.807966980374     0.971308833816    -0.006105577975     1.007825032230
      Gh(C)          -0.574096980374    -0.644051166184     0.001534422025    12.000000000000
      Gh(O)          -1.471976980374    -1.493691166184    -0.006175577975    15.994914619570
      Gh(N)           0.766263019626    -0.968531166184     0.011174422025    14.003074004430
      Gh(C)           1.877763019626    -0.099891166184     0.012474422025    12.000000000000
      Gh(O)           3.018593019626    -0.552791166184     0.019344422025    15.994914619570
      Gh(C)           1.500763019626     1.304928833816     0.004174422025    12.000000000000
      Gh(H)           2.286433019626     2.048858833816     0.000434422025     1.007825032230
      Gh(C)           0.192543019626     1.651538833816    -0.001955577975    12.000000000000
      Gh(H)          -0.140336980374     2.684538833816    -0.010375577975     1.007825032230
      Gh(H)           0.978233019626    -1.963291166184     0.008924422025     1.007825032230
         O           -3.403549605374     0.382045958816    -0.076691327975    15.994914619570
         H           -2.981649605374    -0.501824041184    -0.135401327975     1.007825032230
         H           -3.898229605374     0.359035958816     0.757388672025     1.007825032230

  Running in c1 symmetry.

  Rotational constants: A =      0.12141  B =      0.03430  C =      0.02680 [cm^-1]
  Rotational constants: A =   3639.67600  B =   1028.38419  C =    803.56477 [MHz]
  Nuclear repulsion =    9.022136099562996

  Charge       = 0
  Multiplicity = 1
  Electrons    = 10
  Nalpha       = 5
  Nbeta        = 5

  ==> Algorithm <==

  SCF Algorithm Type is DF.
  DIIS enabled.
  MOM disabled.
  Fractional occupation disabled.
  Guess Type is SAD.
  Energy threshold   = 1.00e-08
  Density threshold  = 1.00e-08
  Integral threshold = 1.00e-12

  ==> Primary Basis <==

  Basis Set: JUN-CC-PVDZ
    Blend: JUN-CC-PVDZ
    Number of shells: 90
    Number of basis functions: 192
    Number of Cartesian functions: 201
    Spherical Harmonics?: true
    Max angular momentum: 2

   => Loading Basis Set <=

    Name: (JUN-CC-PVDZ AUX)
    Role: JKFIT
    Keyword: DF_BASIS_SCF
    atoms 1, 5               entry N          line   202 file /opt/anaconda/envs/psi4v1.5/share/psi4/basis/jun-cc-pvdz-jkfit.gbs 
    atoms 2, 9, 11-12, 14-15 entry H          line    70 file /opt/anaconda/envs/psi4v1.5/share/psi4/basis/jun-cc-pvdz-jkfit.gbs 
    atoms 3, 6, 8, 10        entry C          line   146 file /opt/anaconda/envs/psi4v1.5/share/psi4/basis/jun-cc-pvdz-jkfit.gbs 
    atoms 4, 7, 13           entry O          line   258 file /opt/anaconda/envs/psi4v1.5/share/psi4/basis/jun-cc-pvdz-jkfit.gbs 

  ==> Integral Setup <==

  ==> DiskDFJK: Density-Fitted J/K Matrices <==

    J tasked:                  Yes
    K tasked:                  Yes
    wK tasked:                  No
    OpenMP threads:              8
    Integrals threads:           8
    Memory [MiB]:            35762
    Algorithm:                Core
    Integral Cache:           LOAD
    Schwarz Cutoff:          1E-12
    Fitting Condition:       1E-10

   => Auxiliary Basis Set <=

  Basis Set: (JUN-CC-PVDZ AUX)
    Blend: JUN-CC-PVDZ-JKFIT
    Number of shells: 297
    Number of basis functions: 849
    Number of Cartesian functions: 969
    Spherical Harmonics?: true
    Max angular momentum: 3

  Minimum eigenvalue in the overlap matrix is 5.7357826527E-05.
  Reciprocal condition number of the overlap matrix is 4.9993295076E-06.
    Using symmetric orthogonalization.

  ==> Pre-Iterations <==

  SCF Guess: Superposition of Atomic Densities via on-the-fly atomic UHF (no occupation information).

   -------------------------
    Irrep   Nso     Nmo    
   -------------------------
     A        192     192 
   -------------------------
    Total     192     192
   -------------------------

  ==> Iterations <==

                           Total Energy        Delta E     RMS |[F,P]|

   @DF-RHF iter SAD:   -75.49063384858270   -7.54906e+01   0.00000e+00 
   @DF-RHF iter   1:   -75.95873703371227   -4.68103e-01   2.25043e-03 DIIS
   @DF-RHF iter   2:   -76.00921281400792   -5.04758e-02   1.45389e-03 DIIS
   @DF-RHF iter   3:   -76.03639232221610   -2.71795e-02   1.15626e-04 DIIS
   @DF-RHF iter   4:   -76.03677641188922   -3.84090e-04   2.66728e-05 DIIS
   @DF-RHF iter   5:   -76.03679894643895   -2.25345e-05   5.38630e-06 DIIS
   @DF-RHF iter   6:   -76.03680045045016   -1.50401e-06   1.18094e-06 DIIS
   @DF-RHF iter   7:   -76.03680053270402   -8.22539e-08   1.55170e-07 DIIS
   @DF-RHF iter   8:   -76.03680053393479   -1.23077e-09   2.80316e-08 DIIS
   @DF-RHF iter   9:   -76.03680053397352   -3.87246e-11   7.48536e-09 DIIS
  Energy and wave function converged.


  ==> Post-Iterations <==

    Orbital Energies [Eh]
    ---------------------

    Doubly Occupied:                                                      

       1A    -20.580489     2A     -1.347372     3A     -0.709274  
       4A     -0.581135     5A     -0.507573  

    Virtual:                                                              

       6A      0.032974     7A      0.051245     8A      0.057277  
       9A      0.070558    10A      0.088112    11A      0.095822  
      12A      0.104406    13A      0.117179    14A      0.123749  
      15A      0.132828    16A      0.142339    17A      0.158420  
      18A      0.164678    19A      0.165417    20A      0.176043  
      21A      0.183115    22A      0.192069    23A      0.207480  
      24A      0.212891    25A      0.222673    26A      0.227678  
      27A      0.228792    28A      0.241405    29A      0.253699  
      30A      0.257779    31A      0.261419    32A      0.278729  
      33A      0.286413    34A      0.298121    35A      0.301223  
      36A      0.304550    37A      0.317210    38A      0.330771  
      39A      0.341584    40A      0.374236    41A      0.404261  
      42A      0.414894    43A      0.437339    44A      0.450232  
      45A      0.469017    46A      0.476030    47A      0.497654  
      48A      0.516311    49A      0.526150    50A      0.538591  
      51A      0.542997    52A      0.556428    53A      0.579341  
      54A      0.583398    55A      0.636874    56A      0.641558  
      57A      0.648169    58A      0.681902    59A      0.729133  
      60A      0.758520    61A      0.786852    62A      0.793631  
      63A      0.834654    64A      0.843110    65A      0.860340  
      66A      0.877835    67A      0.923694    68A      0.970379  
      69A      0.979153    70A      0.999616    71A      1.010987  
      72A      1.044697    73A      1.058574    74A      1.107460  
      75A      1.143572    76A      1.165064    77A      1.229807  
      78A      1.250769    79A      1.275329    80A      1.291322  
      81A      1.331024    82A      1.345620    83A      1.390487  
      84A      1.464004    85A      1.579212    86A      1.630894  
      87A      1.723293    88A      1.752619    89A      1.757275  
      90A      1.773057    91A      1.851094    92A      1.881905  
      93A      1.893650    94A      1.918583    95A      1.930106  
      96A      1.964728    97A      1.968456    98A      1.983891  
      99A      2.019729   100A      2.033238   101A      2.050970  
     102A      2.079773   103A      2.108288   104A      2.148836  
     105A      2.174002   106A      2.182764   107A      2.231452  
     108A      2.240072   109A      2.245923   110A      2.284100  
     111A      2.309345   112A      2.368684   113A      2.373410  
     114A      2.414401   115A      2.419456   116A      2.434102  
     117A      2.439472   118A      2.471256   119A      2.510213  
     120A      2.543986   121A      2.566342   122A      2.569639  
     123A      2.619135   124A      2.659396   125A      2.716441  
     126A      2.731254   127A      2.754856   128A      2.760405  
     129A      2.820627   130A      2.900413   131A      2.905690  
     132A      3.044472   133A      3.051989   134A      3.090671  
     135A      3.133677   136A      3.176845   137A      3.221489  
     138A      3.276197   139A      3.295667   140A      3.370220  
     141A      3.387786   142A      3.415471   143A      3.507309  
     144A      3.522595   145A      3.533738   146A      3.638724  
     147A      3.650175   148A      3.702448   149A      3.721585  
     150A      3.863924   151A      3.909521   152A      3.937144  
     153A      4.075208   154A      4.140269   155A      4.154256  
     156A      4.175664   157A      4.229547   158A      4.253253  
     159A      4.279467   160A      4.294348   161A      4.307125  
     162A      4.318978   163A      4.437395   164A      4.678209  
     165A      4.707661   166A      4.716068   167A      4.759621  
     168A      4.760075   169A      4.902151   170A      5.005418  
     171A      5.114332   172A      5.358719   173A      5.509246  
     174A      5.579725   175A      5.612409   176A      5.617358  
     177A      5.673466   178A      5.746639   179A      5.865004  
     180A      5.982706   181A      6.036056   182A      6.226022  
     183A      6.773561   184A      6.949792   185A     18.104184  
     186A     18.417606   187A     18.524148   188A     18.872497  
     189A     25.390497   190A     25.418562   191A     33.482333  
     192A     33.510755  

    Final Occupation by Irrep:
              A 
    DOCC [     5 ]

  @DF-RHF Final Energy:   -76.03680053397352

   => Energetics <=

    Nuclear Repulsion Energy =              9.0221360995629958
    One-Electron Energy =                -122.6661834964257025
    Two-Electron Energy =                  37.6072468628891912
    Total Energy =                        -76.0368005339735191

Computation Completed


Properties will be evaluated at   0.000000,   0.000000,   0.000000 [a0]

Properties computed using the SCF density matrix

  Nuclear Dipole Moment: [e a0]
     X:   -64.4553      Y:     5.5059      Z:     0.0160

  Electronic Dipole Moment: [e a0]
     X:    64.4090      Y:    -6.1440      Z:     0.5354

  Dipole Moment: [e a0]
     X:    -0.0463      Y:    -0.6382      Z:     0.5513     Total:     0.8446

  Dipole Moment: [D]
     X:    -0.1176      Y:    -1.6220      Z:     1.4014     Total:     2.1468


*** tstop() called on bme-rna.bme.utexas.edu at Wed Apr 17 12:32:02 2024
Module time:
	user time   =       1.67 seconds =       0.03 minutes
	system time =       0.05 seconds =       0.00 minutes
	total time  =          0 seconds =       0.00 minutes
Total time:
	user time   =      11.11 seconds =       0.19 minutes
	system time =       0.50 seconds =       0.01 minutes
	total time  =          3 seconds =       0.05 minutes

*** tstart() called on bme-rna.bme.utexas.edu
*** at Wed Apr 17 12:32:02 2024


  //>>>>>>>>>>>>>>>>>>>>>>>>>>>>>>>>>>>//
  //               DFMP2               //
  //<<<<<<<<<<<<<<<<<<<<<<<<<<<<<<<<<<<//

   => Loading Basis Set <=

    Name: (JUN-CC-PVDZ AUX)
    Role: RIFIT
    Keyword: DF_BASIS_MP2
    atoms 1, 5               entry N          line   144 file /opt/anaconda/envs/psi4v1.5/share/psi4/basis/jun-cc-pvdz-ri.gbs 
    atoms 2, 9, 11-12, 14-15 entry H          line    30 file /opt/anaconda/envs/psi4v1.5/share/psi4/basis/jun-cc-pvdz-ri.gbs 
    atoms 3, 6, 8, 10        entry C          line   100 file /opt/anaconda/envs/psi4v1.5/share/psi4/basis/jun-cc-pvdz-ri.gbs 
    atoms 4, 7, 13           entry O          line   188 file /opt/anaconda/envs/psi4v1.5/share/psi4/basis/jun-cc-pvdz-ri.gbs 

	 --------------------------------------------------------
	                          DF-MP2                         
	      2nd-Order Density-Fitted Moller-Plesset Theory     
	              RMP2 Wavefunction,   8 Threads             
	                                                         
	        Rob Parrish, Justin Turney, Andy Simmonett,      
	           Ed Hohenstein, and C. David Sherrill          
	 --------------------------------------------------------

   => Auxiliary Basis Set <=

  Basis Set: (JUN-CC-PVDZ AUX)
    Blend: JUN-CC-PVDZ-RI
    Number of shells: 225
    Number of basis functions: 669
    Number of Cartesian functions: 774
    Spherical Harmonics?: true
    Max angular momentum: 3

	 --------------------------------------------------------
	                 NBF =   192, NAUX =   669
	 --------------------------------------------------------
	   CLASS    FOCC     OCC    AOCC    AVIR     VIR    FVIR
	   PAIRS       1       5       4     187     187       0
	 --------------------------------------------------------

	 Will attempt to load fitting metric from file 97.

	-----------------------------------------------------------
	 ==================> DF-MP2 Energies <==================== 
	-----------------------------------------------------------
	 Reference Energy          =     -76.0368005339735191 [Eh]
	 Singles Energy            =      -0.0000000000000000 [Eh]
	 Same-Spin Energy          =      -0.0537029057833850 [Eh]
	 Opposite-Spin Energy      =      -0.1577793534602377 [Eh]
	 Correlation Energy        =      -0.2114822592436227 [Eh]
	 Total Energy              =     -76.2482827932171432 [Eh]
	-----------------------------------------------------------
	 ================> DF-SCS-MP2 Energies <================== 
	-----------------------------------------------------------
	 SCS Same-Spin Scale       =       0.3333333333333333 [-]
	 SCS Opposite-Spin Scale   =       1.2000000000000000 [-]
	 SCS Same-Spin Energy      =      -0.0179009685944617 [Eh]
	 SCS Opposite-Spin Energy  =      -0.1893352241522852 [Eh]
	 SCS Correlation Energy    =      -0.2072361927467469 [Eh]
	 SCS Total Energy          =     -76.2440367267202674 [Eh]
	-----------------------------------------------------------


*** tstop() called on bme-rna.bme.utexas.edu at Wed Apr 17 12:32:03 2024
Module time:
	user time   =       0.90 seconds =       0.02 minutes
	system time =       0.03 seconds =       0.00 minutes
	total time  =          1 seconds =       0.02 minutes
Total time:
	user time   =      12.01 seconds =       0.20 minutes
	system time =       0.53 seconds =       0.01 minutes
	total time  =          4 seconds =       0.07 minutes
  Constructing Basis Sets for SAPT...

   => Loading Basis Set <=

    Name: (JUN-CC-PVDZ AUX)
    Role: RIFIT
    Keyword: DF_BASIS_SAPT
    atoms 1, 5               entry N          line   144 file /opt/anaconda/envs/psi4v1.5/share/psi4/basis/jun-cc-pvdz-ri.gbs 
    atoms 2, 9, 11-12, 14-15 entry H          line    30 file /opt/anaconda/envs/psi4v1.5/share/psi4/basis/jun-cc-pvdz-ri.gbs 
    atoms 3, 6, 8, 10        entry C          line   100 file /opt/anaconda/envs/psi4v1.5/share/psi4/basis/jun-cc-pvdz-ri.gbs 
    atoms 4, 7, 13           entry O          line   188 file /opt/anaconda/envs/psi4v1.5/share/psi4/basis/jun-cc-pvdz-ri.gbs 


  //>>>>>>>>>>>>>>>>>>>>>>>>>>>>>>>>>>>//
  //           SAPT2+(3)DMP2           //
  //<<<<<<<<<<<<<<<<<<<<<<<<<<<<<<<<<<<//


*** tstart() called on bme-rna.bme.utexas.edu
*** at Wed Apr 17 12:32:03 2024

      SAPT2+(3)  
    Ed Hohenstein
     6 June 2009

      Orbital Information
  --------------------------
    NSO        =       192
    NMO        =       192
    NRI        =       669
    NOCC A     =        29
    NOCC B     =         5
    FOCC A     =         8
    FOCC B     =         1
    NVIR A     =       163
    NVIR B     =       187

    Estimated memory usage: 893.0 MB

    Natural Orbital Cutoff:   1.000E-06
    Disp(T3) Truncation:            Yes
    CCD (vv|vv) Truncation:         Yes
    MBPT T2 Truncation:             Yes

    Monomer A: 21 virtual orbitals dropped
    Monomer B: 155 virtual orbitals dropped

    Elst10,r            =    -0.046848606462 [Eh]
    Exch10 (S^2)        =     0.055687245120 [Eh]
    Exch10              =     0.056627181424 [Eh]
    Ind20,r (A<-B)      =    -0.011740046498 [Eh]
    Ind20,r (B<-A)      =    -0.015098389339 [Eh]
    Ind20,r             =    -0.026838435838 [Eh]
    Exch-Ind20,r (A<-B) =     0.007646572808 [Eh]
    Exch-Ind20,r (B<-A) =     0.009057060110 [Eh]
    Exch-Ind20,r        =     0.016703632918 [Eh]
    Disp20              =    -0.011889751550 [Eh]
    Disp20 (NO)         =    -0.010787369118 [Eh]
    Exch-Disp20         =     0.003005253303 [Eh]
    Elst12,r            =    -0.000987680256 [Eh]
    Exch11              =    -0.000617675258 [Eh]
    Exch12              =     0.008998449844 [Eh]
    Ind22               =    -0.004941695785 [Eh]
    Disp21              =     0.000921525340 [Eh]
    Disp22 (SDQ)        =    -0.000672010356 [Eh]

    (i =   1 of   4)          2 seconds
    (i =   2 of   4)          4 seconds
    (i =   3 of   4)          5 seconds
    (i =   4 of   4)          7 seconds

    Disp220 (T)         =    -0.000897424047 [Eh]

    (i =   1 of  21)          0 seconds
    (i =   2 of  21)          0 seconds
    (i =   3 of  21)          0 seconds
    (i =   4 of  21)          0 seconds
    (i =   5 of  21)          0 seconds
    (i =   6 of  21)          0 seconds
    (i =   7 of  21)          0 seconds
    (i =   8 of  21)          0 seconds
    (i =   9 of  21)          0 seconds
    (i =  10 of  21)          0 seconds
    (i =  11 of  21)          0 seconds
    (i =  12 of  21)          0 seconds
    (i =  13 of  21)          0 seconds
    (i =  14 of  21)          0 seconds
    (i =  15 of  21)          0 seconds
    (i =  16 of  21)          0 seconds
    (i =  17 of  21)          0 seconds
    (i =  18 of  21)          0 seconds
    (i =  19 of  21)          0 seconds
    (i =  20 of  21)          0 seconds
    (i =  21 of  21)          0 seconds

    Disp202 (T)         =    -0.000746032610 [Eh]

    Disp22 (T)          =    -0.001643456657 [Eh]

    Est. Disp220 (T)    =    -0.000989133572 [Eh]
    Est. Disp202 (T)    =    -0.000822271147 [Eh]

    Est. Disp22 (T)     =    -0.001811404719 [Eh]
    Elst13,r            =     0.001041119642 [Eh]
    Disp30              =     0.000140018863 [Eh]

    SAPT Results 
  --------------------------------------------------------------------------------------------------------
    Electrostatics                -46.79516708 [mEh]     -29.36441067 [kcal/mol]    -122.86069423 [kJ/mol]
      Elst10,r                    -46.84860646 [mEh]     -29.39794439 [kcal/mol]    -123.00099932 [kJ/mol]
      Elst12,r                     -0.98768026 [mEh]      -0.61977872 [kcal/mol]      -2.59315416 [kJ/mol]
      Elst13,r                      1.04111964 [mEh]       0.65331244 [kcal/mol]       2.73345924 [kJ/mol]

    Exchange                       65.00795601 [mEh]      40.79310827 [kcal/mol]     170.67836499 [kJ/mol]
      Exch10                       56.62718142 [mEh]      35.53409282 [kcal/mol]     148.67464435 [kJ/mol]
      Exch10(S^2)                  55.68724512 [mEh]      34.94427388 [kcal/mol]     146.20684192 [kJ/mol]
      Exch11(S^2)                  -0.61767526 [mEh]      -0.38759708 [kcal/mol]      -1.62170617 [kJ/mol]
      Exch12(S^2)                   8.99844984 [mEh]       5.64661253 [kcal/mol]      23.62542681 [kJ/mol]

    Induction                     -18.33493975 [mEh]     -11.50534840 [kcal/mol]     -48.13837769 [kJ/mol]
      Ind20,r                     -26.83843584 [mEh]     -16.84137275 [kcal/mol]     -70.46430358 [kJ/mol]
      Ind22                        -4.94169578 [mEh]      -3.10096092 [kcal/mol]     -12.97442050 [kJ/mol]
      Exch-Ind20,r                 16.70363292 [mEh]      10.48168790 [kcal/mol]      43.85538218 [kJ/mol]
      Exch-Ind22                    3.07559922 [mEh]       1.92996765 [kcal/mol]       8.07498464 [kJ/mol]
      delta HF,r (2)               -7.33328841 [mEh]      -4.60170795 [kcal/mol]     -19.25354608 [kJ/mol]
      delta MP2,r (2)               0.99924814 [mEh]       0.62703768 [kcal/mol]       2.62352564 [kJ/mol]

    Dispersion                    -10.30636912 [mEh]      -6.46734426 [kcal/mol]     -27.05936840 [kJ/mol]
      Disp20                      -11.88975155 [mEh]      -7.46093174 [kcal/mol]     -31.21653839 [kJ/mol]
      Disp30                        0.14001886 [mEh]       0.08786316 [kcal/mol]       0.36761947 [kJ/mol]
      Disp21                        0.92152534 [mEh]       0.57826588 [kcal/mol]       2.41946445 [kJ/mol]
      Disp22 (SDQ)                 -0.67201036 [mEh]      -0.42169286 [kcal/mol]      -1.76436295 [kJ/mol]
      Disp22 (T)                   -1.64345666 [mEh]      -1.03128462 [kcal/mol]      -4.31489486 [kJ/mol]
      Est. Disp22 (T)              -1.81140472 [mEh]      -1.13667362 [kcal/mol]      -4.75584244 [kJ/mol]
      Exch-Disp20                   3.00525330 [mEh]       1.88582492 [kcal/mol]       7.89029146 [kJ/mol]

  Total HF                         -7.68951637 [mEh]      -4.82524437 [kcal/mol]     -20.18882246 [kJ/mol]
  Total SAPT0                     -16.57401462 [mEh]     -10.40035119 [kcal/mol]     -43.51506939 [kJ/mol]
  Total SAPT2                     -11.04701685 [mEh]      -6.93210773 [kcal/mol]     -29.00393875 [kJ/mol]
  Total SAPT2+                    -12.60890659 [mEh]      -7.91220834 [kcal/mol]     -33.10467969 [kJ/mol]
  Total SAPT2+(3)                 -11.42776808 [mEh]      -7.17103274 [kcal/mol]     -30.00360097 [kJ/mol]
  Total SAPT2+dMP2                -11.60965844 [mEh]      -7.28517066 [kcal/mol]     -30.48115405 [kJ/mol]
  Total SAPT2+(3)dMP2             -10.42851994 [mEh]      -6.54399506 [kcal/mol]     -27.38007533 [kJ/mol]

  Special recipe for scaled SAPT0 (see Manual):
    Electrostatics sSAPT0         -46.84860646 [mEh]     -29.39794439 [kcal/mol]    -123.00099932 [kJ/mol]
    Exchange sSAPT0                56.62718142 [mEh]      35.53409282 [kcal/mol]     148.67464435 [kJ/mol]
    Induction sSAPT0              -16.60792062 [mEh]     -10.42162753 [kcal/mol]     -43.60408959 [kJ/mol]
    Dispersion sSAPT0              -8.72973965 [mEh]      -5.47799433 [kcal/mol]     -22.91992828 [kJ/mol]
  Total sSAPT0                    -15.55908531 [mEh]      -9.76347343 [kcal/mol]     -40.85037285 [kJ/mol]
  --------------------------------------------------------------------------------------------------------

*** tstop() called on bme-rna.bme.utexas.edu at Wed Apr 17 12:32:23 2024
Module time:
	user time   =      93.42 seconds =       1.56 minutes
	system time =       4.08 seconds =       0.07 minutes
	total time  =         20 seconds =       0.33 minutes
Total time:
	user time   =     105.46 seconds =       1.76 minutes
	system time =       4.61 seconds =       0.08 minutes
	total time  =         24 seconds =       0.40 minutes

    Psi4 stopped on: Wednesday, 17 April 2024 12:32PM
    Psi4 wall time for execution: 0:00:23.55

*** Psi4 exiting successfully. Buy a developer a beer!
