
    -----------------------------------------------------------------------
          Psi4: An Open-Source Ab Initio Electronic Structure Package
                               Psi4 1.5 release

                         Git: Rev {HEAD} e9f4d6d 


    D. G. A. Smith, L. A. Burns, A. C. Simmonett, R. M. Parrish,
    M. C. Schieber, R. Galvelis, P. Kraus, H. Kruse, R. Di Remigio,
    A. Alenaizan, A. M. James, S. Lehtola, J. P. Misiewicz, M. Scheurer,
    R. A. Shaw, J. B. Schriber, Y. Xie, Z. L. Glick, D. A. Sirianni,
    J. S. O'Brien, J. M. Waldrop, A. Kumar, E. G. Hohenstein,
    B. P. Pritchard, B. R. Brooks, H. F. Schaefer III, A. Yu. Sokolov,
    K. Patkowski, A. E. DePrince III, U. Bozkaya, R. A. King,
    F. A. Evangelista, J. M. Turney, T. D. Crawford, C. D. Sherrill,
    J. Chem. Phys. 152(18) 184108 (2020). https://doi.org/10.1063/5.0006002

                            Additional Code Authors
    E. T. Seidl, C. L. Janssen, E. F. Valeev, M. L. Leininger,
    J. F. Gonthier, R. M. Richard, H. R. McAlexander, M. Saitow, X. Wang,
    P. Verma, M. H. Lechner, and A. Jiang

             Previous Authors, Complete List of Code Contributors,
                       and Citations for Specific Modules
    https://github.com/psi4/psi4/blob/master/codemeta.json
    https://github.com/psi4/psi4/graphs/contributors
    http://psicode.org/psi4manual/master/introduction.html#citing-psifour

    -----------------------------------------------------------------------


    Psi4 started on: Monday, 13 May 2024 09:53AM

    Process ID: 973674
    Host:       node194.bme.utexas.edu
    PSIDATADIR: /opt/anaconda/envs/psi4v1.5/share/psi4
    Memory:     500.0 MiB
    Threads:    8
    
  ==> Input File <==

--------------------------------------------------------------------------
memory 50GB

molecule {
0 1
N 1.66639 1.12439 0.00409
H 2.48654 1.71958 0.00361
C 1.93297 -0.23766 0.0074
O 3.06323 -0.70558 0.01387
N 0.77407 -1.00178 0.00381
C -0.55518 -0.56648 -0.00897
O -1.47107 -1.39711 -0.01738
C -0.70702 0.87811 -0.00939
H -1.71044 1.28576 -0.01858
C 0.3976 1.65858 -0.00584
H 0.34897 2.74269 -0.00976
H 0.91614 -2.00907 0.00099
--
0 1
O -3.414331 0.30057391666666666 -0.08999925
H -2.761731 -0.42452608333333336 -0.15612925
H -3.828721 0.15916391666666668 0.77437075
 units angstrom
 no_reorient
 symmetry c1} 
set  {scf_type DF
 basis jun-cc-pvdz
 freeze_core True
 guess SAD}
energy('sapt2+(3)dmp2')
--------------------------------------------------------------------------

  Memory set to  46.566 GiB by Python driver.

Scratch directory: /tmp/
   => Loading Basis Set <=

    Name: JUN-CC-PVDZ
    Role: ORBITAL
    Keyword: BASIS
    atoms 1, 5               entry N          line   198 file /opt/anaconda/envs/psi4v1.5/share/psi4/basis/jun-cc-pvdz.gbs 
    atoms 2, 9, 11-12, 14-15 entry H          line    36 file /opt/anaconda/envs/psi4v1.5/share/psi4/basis/jun-cc-pvdz.gbs 
    atoms 3, 6, 8, 10        entry C          line   164 file /opt/anaconda/envs/psi4v1.5/share/psi4/basis/jun-cc-pvdz.gbs 
    atoms 4, 7, 13           entry O          line   232 file /opt/anaconda/envs/psi4v1.5/share/psi4/basis/jun-cc-pvdz.gbs 

   => Loading Basis Set <=

    Name: JUN-CC-PVDZ
    Role: ORBITAL
    Keyword: BASIS
    atoms 1, 5               entry N          line   198 file /opt/anaconda/envs/psi4v1.5/share/psi4/basis/jun-cc-pvdz.gbs 
    atoms 2, 9, 11-12, 14-15 entry H          line    36 file /opt/anaconda/envs/psi4v1.5/share/psi4/basis/jun-cc-pvdz.gbs 
    atoms 3, 6, 8, 10        entry C          line   164 file /opt/anaconda/envs/psi4v1.5/share/psi4/basis/jun-cc-pvdz.gbs 
    atoms 4, 7, 13           entry O          line   232 file /opt/anaconda/envs/psi4v1.5/share/psi4/basis/jun-cc-pvdz.gbs 


  //>>>>>>>>>>>>>>>>>>>>>>>>>>>>>>>>>>>//
  //              Dimer HF             //
  //<<<<<<<<<<<<<<<<<<<<<<<<<<<<<<<<<<<//


*** tstart() called on node194.bme.utexas.edu
*** at Mon May 13 09:53:30 2024

   => Loading Basis Set <=

    Name: JUN-CC-PVDZ
    Role: ORBITAL
    Keyword: BASIS
    atoms 1, 5               entry N          line   198 file /opt/anaconda/envs/psi4v1.5/share/psi4/basis/jun-cc-pvdz.gbs 
    atoms 2, 9, 11-12, 14-15 entry H          line    36 file /opt/anaconda/envs/psi4v1.5/share/psi4/basis/jun-cc-pvdz.gbs 
    atoms 3, 6, 8, 10        entry C          line   164 file /opt/anaconda/envs/psi4v1.5/share/psi4/basis/jun-cc-pvdz.gbs 
    atoms 4, 7, 13           entry O          line   232 file /opt/anaconda/envs/psi4v1.5/share/psi4/basis/jun-cc-pvdz.gbs 


         ---------------------------------------------------------
                                   SCF
               by Justin Turney, Rob Parrish, Andy Simmonett
                          and Daniel G. A. Smith
                              RHF Reference
                        8 Threads,  47683 MiB Core
         ---------------------------------------------------------

  ==> Geometry <==

    Molecular point group: c1
    Full point group: C1

    Geometry (in Angstrom), charge = 0, multiplicity = 1:

       Center              X                  Y                   Z               Mass       
    ------------   -----------------  -----------------  -----------------  -----------------
         N            1.564388365383     1.146048288778     0.011683902484    14.003074004430
         H            2.384538365383     1.741238288778     0.011203902484     1.007825032230
         C            1.830968365383    -0.216001711222     0.014993902484    12.000000000000
         O            2.961228365383    -0.683921711222     0.021463902484    15.994914619570
         N            0.672068365383    -0.980121711222     0.011403902484    14.003074004430
         C           -0.657181634617    -0.544821711222    -0.001376097516    12.000000000000
         O           -1.573071634617    -1.375451711222    -0.009786097516    15.994914619570
         C           -0.809021634617     0.899768288778    -0.001796097516    12.000000000000
         H           -1.812441634617     1.307418288778    -0.010986097516     1.007825032230
         C            0.295598365383     1.680238288778     0.001753902484    12.000000000000
         H            0.246968365383     2.764348288778    -0.002166097516     1.007825032230
         H            0.814138365383    -1.987411711222     0.008583902484     1.007825032230
         O           -3.516332634617     0.322232205445    -0.082405347516    15.994914619570
         H           -2.863732634617    -0.402867794555    -0.148535347516     1.007825032230
         H           -3.930722634617     0.180822205445     0.781964652484     1.007825032230

  Running in c1 symmetry.

  Rotational constants: A =      0.12364  B =      0.03326  C =      0.02627 [cm^-1]
  Rotational constants: A =   3706.76632  B =    997.00373  C =    787.46941 [MHz]
  Nuclear repulsion =  445.827562335051539

  Charge       = 0
  Multiplicity = 1
  Electrons    = 68
  Nalpha       = 34
  Nbeta        = 34

  ==> Algorithm <==

  SCF Algorithm Type is DF.
  DIIS enabled.
  MOM disabled.
  Fractional occupation disabled.
  Guess Type is SAD.
  Energy threshold   = 1.00e-08
  Density threshold  = 1.00e-08
  Integral threshold = 1.00e-12

  ==> Primary Basis <==

  Basis Set: JUN-CC-PVDZ
    Blend: JUN-CC-PVDZ
    Number of shells: 90
    Number of basis functions: 192
    Number of Cartesian functions: 201
    Spherical Harmonics?: true
    Max angular momentum: 2

   => Loading Basis Set <=

    Name: (JUN-CC-PVDZ AUX)
    Role: JKFIT
    Keyword: DF_BASIS_SCF
    atoms 1, 5               entry N          line   202 file /opt/anaconda/envs/psi4v1.5/share/psi4/basis/jun-cc-pvdz-jkfit.gbs 
    atoms 2, 9, 11-12, 14-15 entry H          line    70 file /opt/anaconda/envs/psi4v1.5/share/psi4/basis/jun-cc-pvdz-jkfit.gbs 
    atoms 3, 6, 8, 10        entry C          line   146 file /opt/anaconda/envs/psi4v1.5/share/psi4/basis/jun-cc-pvdz-jkfit.gbs 
    atoms 4, 7, 13           entry O          line   258 file /opt/anaconda/envs/psi4v1.5/share/psi4/basis/jun-cc-pvdz-jkfit.gbs 

  ==> Integral Setup <==

  ==> DiskDFJK: Density-Fitted J/K Matrices <==

    J tasked:                  Yes
    K tasked:                  Yes
    wK tasked:                  No
    OpenMP threads:              8
    Integrals threads:           8
    Memory [MiB]:            35762
    Algorithm:                Core
    Integral Cache:           SAVE
    Schwarz Cutoff:          1E-12
    Fitting Condition:       1E-10

   => Auxiliary Basis Set <=

  Basis Set: (JUN-CC-PVDZ AUX)
    Blend: JUN-CC-PVDZ-JKFIT
    Number of shells: 297
    Number of basis functions: 849
    Number of Cartesian functions: 969
    Spherical Harmonics?: true
    Max angular momentum: 3

  Minimum eigenvalue in the overlap matrix is 5.7679683099E-05.
  Reciprocal condition number of the overlap matrix is 5.0416283027E-06.
    Using symmetric orthogonalization.

  ==> Pre-Iterations <==

  SCF Guess: Superposition of Atomic Densities via on-the-fly atomic UHF (no occupation information).

   -------------------------
    Irrep   Nso     Nmo    
   -------------------------
     A        192     192 
   -------------------------
    Total     192     192
   -------------------------

  ==> Iterations <==

                           Total Energy        Delta E     RMS |[F,P]|

   @DF-RHF iter SAD:  -487.60077208754569   -4.87601e+02   0.00000e+00 
   @DF-RHF iter   1:  -488.24750515780568   -6.46733e-01   4.21300e-03 DIIS
   @DF-RHF iter   2:  -488.45114149764959   -2.03636e-01   2.64580e-03 DIIS
   @DF-RHF iter   3:  -488.54292774380485   -9.17862e-02   4.61782e-04 DIIS
   @DF-RHF iter   4:  -488.54724169911140   -4.31396e-03   2.04029e-04 DIIS
   @DF-RHF iter   5:  -488.54818701730022   -9.45318e-04   4.52262e-05 DIIS
   @DF-RHF iter   6:  -488.54829305845419   -1.06041e-04   2.36995e-05 DIIS
   @DF-RHF iter   7:  -488.54832308744363   -3.00290e-05   7.86935e-06 DIIS
   @DF-RHF iter   8:  -488.54832694796590   -3.86052e-06   2.85910e-06 DIIS
   @DF-RHF iter   9:  -488.54832724599186   -2.98026e-07   1.10429e-06 DIIS
   @DF-RHF iter  10:  -488.54832730142402   -5.54322e-08   4.32661e-07 DIIS
   @DF-RHF iter  11:  -488.54832731021884   -8.79481e-09   1.49490e-07 DIIS
   @DF-RHF iter  12:  -488.54832731109406   -8.75218e-10   3.87635e-08 DIIS
   @DF-RHF iter  13:  -488.54832731117949   -8.54357e-11   1.44746e-08 DIIS
   @DF-RHF iter  14:  -488.54832731119149   -1.19940e-11   5.67858e-09 DIIS
  Energy and wave function converged.


  ==> Post-Iterations <==

    Orbital Energies [Eh]
    ---------------------

    Doubly Occupied:                                                      

       1A    -20.571036     2A    -20.566456     3A    -20.537654  
       4A    -15.661762     5A    -15.650265     6A    -11.440782  
       7A    -11.410182     8A    -11.356344     9A    -11.261287  
      10A     -1.448045    11A     -1.420906    12A     -1.325573  
      13A     -1.319401    14A     -1.259584    15A     -1.097100  
      16A     -0.943845    17A     -0.917332    18A     -0.814772  
      19A     -0.777501    20A     -0.722967    21A     -0.705449  
      22A     -0.685030    23A     -0.676027    24A     -0.662018  
      25A     -0.620556    26A     -0.616272    27A     -0.586136  
      28A     -0.553955    29A     -0.530087    30A     -0.493766  
      31A     -0.473571    32A     -0.460359    33A     -0.451986  
      34A     -0.374949  

    Virtual:                                                              

      35A      0.037544    36A      0.063799    37A      0.064919  
      38A      0.073013    39A      0.079763    40A      0.090402  
      41A      0.098363    42A      0.112676    43A      0.121883  
      44A      0.127289    45A      0.133567    46A      0.143559  
      47A      0.146137    48A      0.163841    49A      0.178735  
      50A      0.182080    51A      0.191450    52A      0.207449  
      53A      0.217868    54A      0.227445    55A      0.242078  
      56A      0.254104    57A      0.264421    58A      0.265649  
      59A      0.273999    60A      0.279282    61A      0.284686  
      62A      0.299992    63A      0.302961    64A      0.310413  
      65A      0.323948    66A      0.333483    67A      0.334299  
      68A      0.345558    69A      0.353835    70A      0.357489  
      71A      0.365315    72A      0.376103    73A      0.381909  
      74A      0.396305    75A      0.407155    76A      0.425518  
      77A      0.439195    78A      0.452839    79A      0.476362  
      80A      0.501255    81A      0.524892    82A      0.542603  
      83A      0.559151    84A      0.591891    85A      0.666397  
      86A      0.685706    87A      0.745928    88A      0.779063  
      89A      0.785696    90A      0.821760    91A      0.834341  
      92A      0.846238    93A      0.871667    94A      0.874457  
      95A      0.919335    96A      0.926885    97A      0.954993  
      98A      0.988092    99A      1.005196   100A      1.029722  
     101A      1.052980   102A      1.066175   103A      1.090467  
     104A      1.115400   105A      1.130227   106A      1.131545  
     107A      1.142939   108A      1.173244   109A      1.185122  
     110A      1.208284   111A      1.226342   112A      1.269211  
     113A      1.283137   114A      1.311130   115A      1.320517  
     116A      1.330884   117A      1.335333   118A      1.373459  
     119A      1.379313   120A      1.419434   121A      1.456693  
     122A      1.474993   123A      1.482144   124A      1.492955  
     125A      1.514852   126A      1.523801   127A      1.530079  
     128A      1.554979   129A      1.584100   130A      1.611035  
     131A      1.693082   132A      1.727176   133A      1.735195  
     134A      1.749617   135A      1.786090   136A      1.805026  
     137A      1.813616   138A      1.820711   139A      1.853284  
     140A      1.891289   141A      1.926839   142A      1.945586  
     143A      1.962860   144A      2.003167   145A      2.015018  
     146A      2.030164   147A      2.049443   148A      2.060399  
     149A      2.095047   150A      2.123312   151A      2.176148  
     152A      2.205979   153A      2.230557   154A      2.272548  
     155A      2.284600   156A      2.333201   157A      2.361575  
     158A      2.432831   159A      2.435171   160A      2.464839  
     161A      2.480455   162A      2.520907   163A      2.554681  
     164A      2.599066   165A      2.632219   166A      2.646877  
     167A      2.761168   168A      2.766620   169A      2.856032  
     170A      2.896119   171A      2.930785   172A      2.977619  
     173A      2.985118   174A      3.036186   175A      3.102020  
     176A      3.136954   177A      3.179817   178A      3.283658  
     179A      3.304395   180A      3.334069   181A      3.413248  
     182A      3.419862   183A      3.487310   184A      3.508467  
     185A      3.549131   186A      3.758787   187A      3.858070  
     188A      3.869458   189A      3.959400   190A      4.020615  
     191A      4.083428   192A      4.285924  

    Final Occupation by Irrep:
              A 
    DOCC [    34 ]

  @DF-RHF Final Energy:  -488.54832731119149

   => Energetics <=

    Nuclear Repulsion Energy =            445.8275623350515389
    One-Electron Energy =               -1551.9658647789158294
    Two-Electron Energy =                 617.5899751326727483
    Total Energy =                       -488.5483273111914286

Computation Completed


Properties will be evaluated at   0.000000,   0.000000,   0.000000 [a0]

Properties computed using the SCF density matrix

  Nuclear Dipole Moment: [e a0]
     X:    -4.8552      Y:     3.3694      Z:     0.5996

  Electronic Dipole Moment: [e a0]
     X:     5.5529      Y:    -1.8915      Z:    -0.0579

  Dipole Moment: [e a0]
     X:     0.6977      Y:     1.4779      Z:     0.5417     Total:     1.7217

  Dipole Moment: [D]
     X:     1.7733      Y:     3.7564      Z:     1.3770     Total:     4.3762


*** tstop() called on node194.bme.utexas.edu at Mon May 13 09:53:32 2024
Module time:
	user time   =      11.27 seconds =       0.19 minutes
	system time =       0.20 seconds =       0.00 minutes
	total time  =          2 seconds =       0.03 minutes
Total time:
	user time   =      11.27 seconds =       0.19 minutes
	system time =       0.20 seconds =       0.00 minutes
	total time  =          2 seconds =       0.03 minutes

*** tstart() called on node194.bme.utexas.edu
*** at Mon May 13 09:53:32 2024


  //>>>>>>>>>>>>>>>>>>>>>>>>>>>>>>>>>>>//
  //               DFMP2               //
  //<<<<<<<<<<<<<<<<<<<<<<<<<<<<<<<<<<<//

   => Loading Basis Set <=

    Name: (JUN-CC-PVDZ AUX)
    Role: RIFIT
    Keyword: DF_BASIS_MP2
    atoms 1, 5               entry N          line   144 file /opt/anaconda/envs/psi4v1.5/share/psi4/basis/jun-cc-pvdz-ri.gbs 
    atoms 2, 9, 11-12, 14-15 entry H          line    30 file /opt/anaconda/envs/psi4v1.5/share/psi4/basis/jun-cc-pvdz-ri.gbs 
    atoms 3, 6, 8, 10        entry C          line   100 file /opt/anaconda/envs/psi4v1.5/share/psi4/basis/jun-cc-pvdz-ri.gbs 
    atoms 4, 7, 13           entry O          line   188 file /opt/anaconda/envs/psi4v1.5/share/psi4/basis/jun-cc-pvdz-ri.gbs 

	 --------------------------------------------------------
	                          DF-MP2                         
	      2nd-Order Density-Fitted Moller-Plesset Theory     
	              RMP2 Wavefunction,   8 Threads             
	                                                         
	        Rob Parrish, Justin Turney, Andy Simmonett,      
	           Ed Hohenstein, and C. David Sherrill          
	 --------------------------------------------------------

   => Auxiliary Basis Set <=

  Basis Set: (JUN-CC-PVDZ AUX)
    Blend: JUN-CC-PVDZ-RI
    Number of shells: 225
    Number of basis functions: 669
    Number of Cartesian functions: 774
    Spherical Harmonics?: true
    Max angular momentum: 3

	 --------------------------------------------------------
	                 NBF =   192, NAUX =   669
	 --------------------------------------------------------
	   CLASS    FOCC     OCC    AOCC    AVIR     VIR    FVIR
	   PAIRS       9      34      25     158     158       0
	 --------------------------------------------------------

	 Will save fitting metric to file 97.

	-----------------------------------------------------------
	 ==================> DF-MP2 Energies <==================== 
	-----------------------------------------------------------
	 Reference Energy          =    -488.5483273111914855 [Eh]
	 Singles Energy            =      -0.0000000000000000 [Eh]
	 Same-Spin Energy          =      -0.3879287598532640 [Eh]
	 Opposite-Spin Energy      =      -1.0320478854699218 [Eh]
	 Correlation Energy        =      -1.4199766453231857 [Eh]
	 Total Energy              =    -489.9683039565146601 [Eh]
	-----------------------------------------------------------
	 ================> DF-SCS-MP2 Energies <================== 
	-----------------------------------------------------------
	 SCS Same-Spin Scale       =       0.3333333333333333 [-]
	 SCS Opposite-Spin Scale   =       1.2000000000000000 [-]
	 SCS Same-Spin Energy      =      -0.1293095866177547 [Eh]
	 SCS Opposite-Spin Energy  =      -1.2384574625639060 [Eh]
	 SCS Correlation Energy    =      -1.3677670491816607 [Eh]
	 SCS Total Energy          =    -489.9160943603731653 [Eh]
	-----------------------------------------------------------


*** tstop() called on node194.bme.utexas.edu at Mon May 13 09:53:32 2024
Module time:
	user time   =       3.57 seconds =       0.06 minutes
	system time =       0.05 seconds =       0.00 minutes
	total time  =          0 seconds =       0.00 minutes
Total time:
	user time   =      14.84 seconds =       0.25 minutes
	system time =       0.25 seconds =       0.00 minutes
	total time  =          2 seconds =       0.03 minutes

  //>>>>>>>>>>>>>>>>>>>>>>>>>>>>>>>>>>>//
  //            Monomer A HF           //
  //<<<<<<<<<<<<<<<<<<<<<<<<<<<<<<<<<<<//


*** tstart() called on node194.bme.utexas.edu
*** at Mon May 13 09:53:32 2024

   => Loading Basis Set <=

    Name: JUN-CC-PVDZ
    Role: ORBITAL
    Keyword: BASIS
    atoms 1, 5               entry N          line   198 file /opt/anaconda/envs/psi4v1.5/share/psi4/basis/jun-cc-pvdz.gbs 
    atoms 2, 9, 11-12, 14-15 entry H          line    36 file /opt/anaconda/envs/psi4v1.5/share/psi4/basis/jun-cc-pvdz.gbs 
    atoms 3, 6, 8, 10        entry C          line   164 file /opt/anaconda/envs/psi4v1.5/share/psi4/basis/jun-cc-pvdz.gbs 
    atoms 4, 7, 13           entry O          line   232 file /opt/anaconda/envs/psi4v1.5/share/psi4/basis/jun-cc-pvdz.gbs 


         ---------------------------------------------------------
                                   SCF
               by Justin Turney, Rob Parrish, Andy Simmonett
                          and Daniel G. A. Smith
                              RHF Reference
                        8 Threads,  47683 MiB Core
         ---------------------------------------------------------

  ==> Geometry <==

    Molecular point group: c1
    Full point group: C1

    Geometry (in Angstrom), charge = 0, multiplicity = 1:

       Center              X                  Y                   Z               Mass       
    ------------   -----------------  -----------------  -----------------  -----------------
         N            1.564388365383     1.146048288778     0.011683902484    14.003074004430
         H            2.384538365383     1.741238288778     0.011203902484     1.007825032230
         C            1.830968365383    -0.216001711222     0.014993902484    12.000000000000
         O            2.961228365383    -0.683921711222     0.021463902484    15.994914619570
         N            0.672068365383    -0.980121711222     0.011403902484    14.003074004430
         C           -0.657181634617    -0.544821711222    -0.001376097516    12.000000000000
         O           -1.573071634617    -1.375451711222    -0.009786097516    15.994914619570
         C           -0.809021634617     0.899768288778    -0.001796097516    12.000000000000
         H           -1.812441634617     1.307418288778    -0.010986097516     1.007825032230
         C            0.295598365383     1.680238288778     0.001753902484    12.000000000000
         H            0.246968365383     2.764348288778    -0.002166097516     1.007825032230
         H            0.814138365383    -1.987411711222     0.008583902484     1.007825032230
      Gh(O)          -3.516332634617     0.322232205445    -0.082405347516    15.994914619570
      Gh(H)          -2.863732634617    -0.402867794555    -0.148535347516     1.007825032230
      Gh(H)          -3.930722634617     0.180822205445     0.781964652484     1.007825032230

  Running in c1 symmetry.

  Rotational constants: A =      0.12364  B =      0.03326  C =      0.02627 [cm^-1]
  Rotational constants: A =   3706.76632  B =    997.00373  C =    787.46941 [MHz]
  Nuclear repulsion =  355.546890042850862

  Charge       = 0
  Multiplicity = 1
  Electrons    = 58
  Nalpha       = 29
  Nbeta        = 29

  ==> Algorithm <==

  SCF Algorithm Type is DF.
  DIIS enabled.
  MOM disabled.
  Fractional occupation disabled.
  Guess Type is SAD.
  Energy threshold   = 1.00e-08
  Density threshold  = 1.00e-08
  Integral threshold = 1.00e-12

  ==> Primary Basis <==

  Basis Set: JUN-CC-PVDZ
    Blend: JUN-CC-PVDZ
    Number of shells: 90
    Number of basis functions: 192
    Number of Cartesian functions: 201
    Spherical Harmonics?: true
    Max angular momentum: 2

   => Loading Basis Set <=

    Name: (JUN-CC-PVDZ AUX)
    Role: JKFIT
    Keyword: DF_BASIS_SCF
    atoms 1, 5               entry N          line   202 file /opt/anaconda/envs/psi4v1.5/share/psi4/basis/jun-cc-pvdz-jkfit.gbs 
    atoms 2, 9, 11-12, 14-15 entry H          line    70 file /opt/anaconda/envs/psi4v1.5/share/psi4/basis/jun-cc-pvdz-jkfit.gbs 
    atoms 3, 6, 8, 10        entry C          line   146 file /opt/anaconda/envs/psi4v1.5/share/psi4/basis/jun-cc-pvdz-jkfit.gbs 
    atoms 4, 7, 13           entry O          line   258 file /opt/anaconda/envs/psi4v1.5/share/psi4/basis/jun-cc-pvdz-jkfit.gbs 

  ==> Integral Setup <==

  ==> DiskDFJK: Density-Fitted J/K Matrices <==

    J tasked:                  Yes
    K tasked:                  Yes
    wK tasked:                  No
    OpenMP threads:              8
    Integrals threads:           8
    Memory [MiB]:            35762
    Algorithm:                Core
    Integral Cache:           LOAD
    Schwarz Cutoff:          1E-12
    Fitting Condition:       1E-10

   => Auxiliary Basis Set <=

  Basis Set: (JUN-CC-PVDZ AUX)
    Blend: JUN-CC-PVDZ-JKFIT
    Number of shells: 297
    Number of basis functions: 849
    Number of Cartesian functions: 969
    Spherical Harmonics?: true
    Max angular momentum: 3

  Minimum eigenvalue in the overlap matrix is 5.7679683099E-05.
  Reciprocal condition number of the overlap matrix is 5.0416283027E-06.
    Using symmetric orthogonalization.

  ==> Pre-Iterations <==

  SCF Guess: Superposition of Atomic Densities via on-the-fly atomic UHF (no occupation information).

   -------------------------
    Irrep   Nso     Nmo    
   -------------------------
     A        192     192 
   -------------------------
    Total     192     192
   -------------------------

  ==> Iterations <==

                           Total Energy        Delta E     RMS |[F,P]|

   @DF-RHF iter SAD:  -411.79401634097223   -4.11794e+02   0.00000e+00 
   @DF-RHF iter   1:  -412.26883150530278   -4.74815e-01   3.74637e-03 DIIS
   @DF-RHF iter   2:  -412.42538102790809   -1.56550e-01   2.54120e-03 DIIS
   @DF-RHF iter   3:  -412.51048968756334   -8.51087e-02   4.55627e-04 DIIS
   @DF-RHF iter   4:  -412.51480969011436   -4.32000e-03   1.77023e-04 DIIS
   @DF-RHF iter   5:  -412.51564472732730   -8.35037e-04   3.82325e-05 DIIS
   @DF-RHF iter   6:  -412.51574731597100   -1.02589e-04   2.00750e-05 DIIS
   @DF-RHF iter   7:  -412.51576724671338   -1.99307e-05   7.41752e-06 DIIS
   @DF-RHF iter   8:  -412.51577006618737   -2.81947e-06   2.84888e-06 DIIS
   @DF-RHF iter   9:  -412.51577031934755   -2.53160e-07   1.06297e-06 DIIS
   @DF-RHF iter  10:  -412.51577038020486   -6.08573e-08   3.57486e-07 DIIS
   @DF-RHF iter  11:  -412.51577038674776   -6.54290e-09   1.20866e-07 DIIS
   @DF-RHF iter  12:  -412.51577038731841   -5.70651e-10   3.52480e-08 DIIS
   @DF-RHF iter  13:  -412.51577038737753   -5.91172e-11   1.27876e-08 DIIS
   @DF-RHF iter  14:  -412.51577038738674   -9.20863e-12   6.27949e-09 DIIS
  Energy and wave function converged.


  ==> Post-Iterations <==

    Orbital Energies [Eh]
    ---------------------

    Doubly Occupied:                                                      

       1A    -20.560974     2A    -20.551109     3A    -15.657801  
       4A    -15.639158     5A    -11.434667     6A    -11.393147  
       7A    -11.355222     8A    -11.269196     9A     -1.439655  
      10A     -1.395436    11A     -1.318197    12A     -1.249181  
      13A     -1.095083    14A     -0.938307    15A     -0.906516  
      16A     -0.809858    17A     -0.767800    18A     -0.717212  
      19A     -0.678479    20A     -0.669119    21A     -0.656323  
      22A     -0.614272    23A     -0.603125    24A     -0.568455  
      25A     -0.527115    26A     -0.485919    27A     -0.449764  
      28A     -0.436074    29A     -0.372032  

    Virtual:                                                              

      30A      0.036385    31A      0.063839    32A      0.068153  
      33A      0.069584    34A      0.082902    35A      0.089043  
      36A      0.098346    37A      0.106286    38A      0.119341  
      39A      0.129950    40A      0.131785    41A      0.141139  
      42A      0.150687    43A      0.166532    44A      0.175573  
      45A      0.176656    46A      0.194094    47A      0.202927  
      48A      0.204049    49A      0.225281    50A      0.233622  
      51A      0.235426    52A      0.247572    53A      0.266790  
      54A      0.268619    55A      0.270418    56A      0.279816  
      57A      0.288605    58A      0.297153    59A      0.307706  
      60A      0.323569    61A      0.327611    62A      0.339356  
      63A      0.343407    64A      0.358868    65A      0.363289  
      66A      0.371243    67A      0.381917    68A      0.384565  
      69A      0.401370    70A      0.414221    71A      0.428887  
      72A      0.444187    73A      0.467558    74A      0.475457  
      75A      0.503163    76A      0.508605    77A      0.541708  
      78A      0.574261    79A      0.579722    80A      0.666762  
      81A      0.690174    82A      0.741540    83A      0.754139  
      84A      0.785330    85A      0.818875    86A      0.838555  
      87A      0.839245    88A      0.855731    89A      0.868898  
      90A      0.875181    91A      0.913161    92A      0.925183  
      93A      0.938080    94A      0.972002    95A      0.994986  
      96A      1.003260    97A      1.051754    98A      1.063976  
      99A      1.075706   100A      1.105939   101A      1.116341  
     102A      1.136839   103A      1.147786   104A      1.154470  
     105A      1.173623   106A      1.191884   107A      1.218306  
     108A      1.229734   109A      1.283832   110A      1.289206  
     111A      1.326205   112A      1.342747   113A      1.344455  
     114A      1.381256   115A      1.389168   116A      1.475605  
     117A      1.481328   118A      1.502387   119A      1.524785  
     120A      1.536118   121A      1.546756   122A      1.554125  
     123A      1.616642   124A      1.663296   125A      1.713895  
     126A      1.736646   127A      1.794911   128A      1.808401  
     129A      1.809352   130A      1.842208   131A      1.862828  
     132A      1.876530   133A      1.900544   134A      1.926119  
     135A      1.956042   136A      1.984243   137A      2.002941  
     138A      2.022710   139A      2.035899   140A      2.056739  
     141A      2.087592   142A      2.097407   143A      2.156124  
     144A      2.158069   145A      2.193894   146A      2.235803  
     147A      2.245337   148A      2.279917   149A      2.327996  
     150A      2.351833   151A      2.387028   152A      2.407041  
     153A      2.444215   154A      2.472739   155A      2.478382  
     156A      2.494032   157A      2.551843   158A      2.603593  
     159A      2.647952   160A      2.650900   161A      2.740992  
     162A      2.763445   163A      2.848970   164A      2.882087  
     165A      2.913500   166A      2.939720   167A      2.984288  
     168A      3.024726   169A      3.062423   170A      3.120598  
     171A      3.127000   172A      3.192898   173A      3.249492  
     174A      3.338003   175A      3.435224   176A      3.439013  
     177A      3.500720   178A      3.576067   179A      3.775432  
     180A      3.873645   181A      3.877847   182A      4.033859  
     183A      4.094257   184A      4.463674   185A      4.549047  
     186A      4.739464   187A      4.880071   188A      5.164786  
     189A      5.630660   190A      6.606038   191A      7.046499  
     192A     33.555549  

    Final Occupation by Irrep:
              A 
    DOCC [    29 ]

  @DF-RHF Final Energy:  -412.51577038738674

   => Energetics <=

    Nuclear Repulsion Energy =            355.5468900428508618
    One-Electron Energy =               -1267.0069327819276168
    Two-Electron Energy =                 498.9442723516899605
    Total Energy =                       -412.5157703873867376

Computation Completed


Properties will be evaluated at   0.000000,   0.000000,   0.000000 [a0]

Properties computed using the SCF density matrix

  Nuclear Dipole Moment: [e a0]
     X:    61.1437      Y:    -1.0825      Z:     0.6484

  Electronic Dipole Moment: [e a0]
     X:   -60.8820      Y:     3.1648      Z:    -0.6543

  Dipole Moment: [e a0]
     X:     0.2617      Y:     2.0824      Z:    -0.0059     Total:     2.0987

  Dipole Moment: [D]
     X:     0.6651      Y:     5.2928      Z:    -0.0149     Total:     5.3345


*** tstop() called on node194.bme.utexas.edu at Mon May 13 09:53:34 2024
Module time:
	user time   =      10.46 seconds =       0.17 minutes
	system time =       0.08 seconds =       0.00 minutes
	total time  =          2 seconds =       0.03 minutes
Total time:
	user time   =      25.32 seconds =       0.42 minutes
	system time =       0.33 seconds =       0.01 minutes
	total time  =          4 seconds =       0.07 minutes

*** tstart() called on node194.bme.utexas.edu
*** at Mon May 13 09:53:34 2024


  //>>>>>>>>>>>>>>>>>>>>>>>>>>>>>>>>>>>//
  //               DFMP2               //
  //<<<<<<<<<<<<<<<<<<<<<<<<<<<<<<<<<<<//

   => Loading Basis Set <=

    Name: (JUN-CC-PVDZ AUX)
    Role: RIFIT
    Keyword: DF_BASIS_MP2
    atoms 1, 5               entry N          line   144 file /opt/anaconda/envs/psi4v1.5/share/psi4/basis/jun-cc-pvdz-ri.gbs 
    atoms 2, 9, 11-12, 14-15 entry H          line    30 file /opt/anaconda/envs/psi4v1.5/share/psi4/basis/jun-cc-pvdz-ri.gbs 
    atoms 3, 6, 8, 10        entry C          line   100 file /opt/anaconda/envs/psi4v1.5/share/psi4/basis/jun-cc-pvdz-ri.gbs 
    atoms 4, 7, 13           entry O          line   188 file /opt/anaconda/envs/psi4v1.5/share/psi4/basis/jun-cc-pvdz-ri.gbs 

	 --------------------------------------------------------
	                          DF-MP2                         
	      2nd-Order Density-Fitted Moller-Plesset Theory     
	              RMP2 Wavefunction,   8 Threads             
	                                                         
	        Rob Parrish, Justin Turney, Andy Simmonett,      
	           Ed Hohenstein, and C. David Sherrill          
	 --------------------------------------------------------

   => Auxiliary Basis Set <=

  Basis Set: (JUN-CC-PVDZ AUX)
    Blend: JUN-CC-PVDZ-RI
    Number of shells: 225
    Number of basis functions: 669
    Number of Cartesian functions: 774
    Spherical Harmonics?: true
    Max angular momentum: 3

	 --------------------------------------------------------
	                 NBF =   192, NAUX =   669
	 --------------------------------------------------------
	   CLASS    FOCC     OCC    AOCC    AVIR     VIR    FVIR
	   PAIRS       8      29      21     163     163       0
	 --------------------------------------------------------

	 Will attempt to load fitting metric from file 97.

	-----------------------------------------------------------
	 ==================> DF-MP2 Energies <==================== 
	-----------------------------------------------------------
	 Reference Energy          =    -412.5157703873867376 [Eh]
	 Singles Energy            =      -0.0000000000000000 [Eh]
	 Same-Spin Energy          =      -0.3310792263929445 [Eh]
	 Opposite-Spin Energy      =      -0.8751788124433988 [Eh]
	 Correlation Energy        =      -1.2062580388363433 [Eh]
	 Total Energy              =    -413.7220284262230621 [Eh]
	-----------------------------------------------------------
	 ================> DF-SCS-MP2 Energies <================== 
	-----------------------------------------------------------
	 SCS Same-Spin Scale       =       0.3333333333333333 [-]
	 SCS Opposite-Spin Scale   =       1.2000000000000000 [-]
	 SCS Same-Spin Energy      =      -0.1103597421309815 [Eh]
	 SCS Opposite-Spin Energy  =      -1.0502145749320786 [Eh]
	 SCS Correlation Energy    =      -1.1605743170630600 [Eh]
	 SCS Total Energy          =    -413.6763447044497752 [Eh]
	-----------------------------------------------------------


*** tstop() called on node194.bme.utexas.edu at Mon May 13 09:53:34 2024
Module time:
	user time   =       3.15 seconds =       0.05 minutes
	system time =       0.05 seconds =       0.00 minutes
	total time  =          0 seconds =       0.00 minutes
Total time:
	user time   =      28.47 seconds =       0.47 minutes
	system time =       0.38 seconds =       0.01 minutes
	total time  =          4 seconds =       0.07 minutes

  //>>>>>>>>>>>>>>>>>>>>>>>>>>>>>>>>>>>//
  //            Monomer B HF           //
  //<<<<<<<<<<<<<<<<<<<<<<<<<<<<<<<<<<<//


*** tstart() called on node194.bme.utexas.edu
*** at Mon May 13 09:53:34 2024

   => Loading Basis Set <=

    Name: JUN-CC-PVDZ
    Role: ORBITAL
    Keyword: BASIS
    atoms 1, 5               entry N          line   198 file /opt/anaconda/envs/psi4v1.5/share/psi4/basis/jun-cc-pvdz.gbs 
    atoms 2, 9, 11-12, 14-15 entry H          line    36 file /opt/anaconda/envs/psi4v1.5/share/psi4/basis/jun-cc-pvdz.gbs 
    atoms 3, 6, 8, 10        entry C          line   164 file /opt/anaconda/envs/psi4v1.5/share/psi4/basis/jun-cc-pvdz.gbs 
    atoms 4, 7, 13           entry O          line   232 file /opt/anaconda/envs/psi4v1.5/share/psi4/basis/jun-cc-pvdz.gbs 


         ---------------------------------------------------------
                                   SCF
               by Justin Turney, Rob Parrish, Andy Simmonett
                          and Daniel G. A. Smith
                              RHF Reference
                        8 Threads,  47683 MiB Core
         ---------------------------------------------------------

  ==> Geometry <==

    Molecular point group: c1
    Full point group: C1

    Geometry (in Angstrom), charge = 0, multiplicity = 1:

       Center              X                  Y                   Z               Mass       
    ------------   -----------------  -----------------  -----------------  -----------------
      Gh(N)           1.564388365383     1.146048288778     0.011683902484    14.003074004430
      Gh(H)           2.384538365383     1.741238288778     0.011203902484     1.007825032230
      Gh(C)           1.830968365383    -0.216001711222     0.014993902484    12.000000000000
      Gh(O)           2.961228365383    -0.683921711222     0.021463902484    15.994914619570
      Gh(N)           0.672068365383    -0.980121711222     0.011403902484    14.003074004430
      Gh(C)          -0.657181634617    -0.544821711222    -0.001376097516    12.000000000000
      Gh(O)          -1.573071634617    -1.375451711222    -0.009786097516    15.994914619570
      Gh(C)          -0.809021634617     0.899768288778    -0.001796097516    12.000000000000
      Gh(H)          -1.812441634617     1.307418288778    -0.010986097516     1.007825032230
      Gh(C)           0.295598365383     1.680238288778     0.001753902484    12.000000000000
      Gh(H)           0.246968365383     2.764348288778    -0.002166097516     1.007825032230
      Gh(H)           0.814138365383    -1.987411711222     0.008583902484     1.007825032230
         O           -3.516332634617     0.322232205445    -0.082405347516    15.994914619570
         H           -2.863732634617    -0.402867794555    -0.148535347516     1.007825032230
         H           -3.930722634617     0.180822205445     0.781964652484     1.007825032230

  Running in c1 symmetry.

  Rotational constants: A =      0.12364  B =      0.03326  C =      0.02627 [cm^-1]
  Rotational constants: A =   3706.76632  B =    997.00373  C =    787.46941 [MHz]
  Nuclear repulsion =    9.044348495848952

  Charge       = 0
  Multiplicity = 1
  Electrons    = 10
  Nalpha       = 5
  Nbeta        = 5

  ==> Algorithm <==

  SCF Algorithm Type is DF.
  DIIS enabled.
  MOM disabled.
  Fractional occupation disabled.
  Guess Type is SAD.
  Energy threshold   = 1.00e-08
  Density threshold  = 1.00e-08
  Integral threshold = 1.00e-12

  ==> Primary Basis <==

  Basis Set: JUN-CC-PVDZ
    Blend: JUN-CC-PVDZ
    Number of shells: 90
    Number of basis functions: 192
    Number of Cartesian functions: 201
    Spherical Harmonics?: true
    Max angular momentum: 2

   => Loading Basis Set <=

    Name: (JUN-CC-PVDZ AUX)
    Role: JKFIT
    Keyword: DF_BASIS_SCF
    atoms 1, 5               entry N          line   202 file /opt/anaconda/envs/psi4v1.5/share/psi4/basis/jun-cc-pvdz-jkfit.gbs 
    atoms 2, 9, 11-12, 14-15 entry H          line    70 file /opt/anaconda/envs/psi4v1.5/share/psi4/basis/jun-cc-pvdz-jkfit.gbs 
    atoms 3, 6, 8, 10        entry C          line   146 file /opt/anaconda/envs/psi4v1.5/share/psi4/basis/jun-cc-pvdz-jkfit.gbs 
    atoms 4, 7, 13           entry O          line   258 file /opt/anaconda/envs/psi4v1.5/share/psi4/basis/jun-cc-pvdz-jkfit.gbs 

  ==> Integral Setup <==

  ==> DiskDFJK: Density-Fitted J/K Matrices <==

    J tasked:                  Yes
    K tasked:                  Yes
    wK tasked:                  No
    OpenMP threads:              8
    Integrals threads:           8
    Memory [MiB]:            35762
    Algorithm:                Core
    Integral Cache:           LOAD
    Schwarz Cutoff:          1E-12
    Fitting Condition:       1E-10

   => Auxiliary Basis Set <=

  Basis Set: (JUN-CC-PVDZ AUX)
    Blend: JUN-CC-PVDZ-JKFIT
    Number of shells: 297
    Number of basis functions: 849
    Number of Cartesian functions: 969
    Spherical Harmonics?: true
    Max angular momentum: 3

  Minimum eigenvalue in the overlap matrix is 5.7679683099E-05.
  Reciprocal condition number of the overlap matrix is 5.0416283027E-06.
    Using symmetric orthogonalization.

  ==> Pre-Iterations <==

  SCF Guess: Superposition of Atomic Densities via on-the-fly atomic UHF (no occupation information).

   -------------------------
    Irrep   Nso     Nmo    
   -------------------------
     A        192     192 
   -------------------------
    Total     192     192
   -------------------------

  ==> Iterations <==

                           Total Energy        Delta E     RMS |[F,P]|

   @DF-RHF iter SAD:   -75.49445106390002   -7.54945e+01   0.00000e+00 
   @DF-RHF iter   1:   -75.95893137727170   -4.64480e-01   2.25221e-03 DIIS
   @DF-RHF iter   2:   -76.00953747569292   -5.06061e-02   1.45190e-03 DIIS
   @DF-RHF iter   3:   -76.03663582940463   -2.70984e-02   1.15645e-04 DIIS
   @DF-RHF iter   4:   -76.03701692159522   -3.81092e-04   2.65034e-05 DIIS
   @DF-RHF iter   5:   -76.03703899186526   -2.20703e-05   5.31699e-06 DIIS
   @DF-RHF iter   6:   -76.03704043988047   -1.44802e-06   1.16377e-06 DIIS
   @DF-RHF iter   7:   -76.03704051888023   -7.89998e-08   1.50551e-07 DIIS
   @DF-RHF iter   8:   -76.03704052002870   -1.14846e-09   2.71700e-08 DIIS
   @DF-RHF iter   9:   -76.03704052006469   -3.59961e-11   7.28533e-09 DIIS
  Energy and wave function converged.


  ==> Post-Iterations <==

    Orbital Energies [Eh]
    ---------------------

    Doubly Occupied:                                                      

       1A    -20.580323     2A     -1.349102     3A     -0.709231  
       4A     -0.582968     5A     -0.508002  

    Virtual:                                                              

       6A      0.030835     7A      0.049078     8A      0.058071  
       9A      0.068798    10A      0.089822    11A      0.091670  
      12A      0.103375    13A      0.116222    14A      0.124114  
      15A      0.132876    16A      0.142700    17A      0.156868  
      18A      0.164299    19A      0.169328    20A      0.170804  
      21A      0.174943    22A      0.204950    23A      0.209893  
      24A      0.213566    25A      0.223012    26A      0.227000  
      27A      0.235529    28A      0.236467    29A      0.253201  
      30A      0.259000    31A      0.262990    32A      0.280167  
      33A      0.285484    34A      0.291201    35A      0.293058  
      36A      0.300883    37A      0.323670    38A      0.334252  
      39A      0.348196    40A      0.372196    41A      0.399905  
      42A      0.422707    43A      0.430964    44A      0.464503  
      45A      0.470569    46A      0.477123    47A      0.490124  
      48A      0.498163    49A      0.506465    50A      0.524673  
      51A      0.530415    52A      0.543845    53A      0.567557  
      54A      0.587366    55A      0.620243    56A      0.633437  
      57A      0.638575    58A      0.680926    59A      0.719711  
      60A      0.776303    61A      0.782756    62A      0.807351  
      63A      0.829379    64A      0.842774    65A      0.859360  
      66A      0.897337    67A      0.908228    68A      0.965951  
      69A      0.979743    70A      0.997171    71A      1.000449  
      72A      1.040932    73A      1.066804    74A      1.116521  
      75A      1.145228    76A      1.163539    77A      1.228132  
      78A      1.258298    79A      1.274114    80A      1.294758  
      81A      1.313456    82A      1.342502    83A      1.405787  
      84A      1.452904    85A      1.573725    86A      1.649872  
      87A      1.716636    88A      1.733129    89A      1.747662  
      90A      1.806663    91A      1.845901    92A      1.857532  
      93A      1.895769    94A      1.933269    95A      1.944162  
      96A      1.952485    97A      1.974335    98A      1.996857  
      99A      2.002697   100A      2.042425   101A      2.088791  
     102A      2.101099   103A      2.104736   104A      2.122431  
     105A      2.176149   106A      2.178679   107A      2.181982  
     108A      2.237705   109A      2.261909   110A      2.298246  
     111A      2.323388   112A      2.358059   113A      2.363994  
     114A      2.378056   115A      2.395535   116A      2.404401  
     117A      2.459319   118A      2.488448   119A      2.500641  
     120A      2.525826   121A      2.552804   122A      2.572406  
     123A      2.602788   124A      2.642038   125A      2.695026  
     126A      2.724682   127A      2.735197   128A      2.756019  
     129A      2.817728   130A      2.896205   131A      2.911154  
     132A      3.022716   133A      3.045824   134A      3.060679  
     135A      3.133175   136A      3.172848   137A      3.228411  
     138A      3.269634   139A      3.297114   140A      3.343569  
     141A      3.360237   142A      3.428255   143A      3.500506  
     144A      3.517384   145A      3.530800   146A      3.620328  
     147A      3.638614   148A      3.702682   149A      3.708831  
     150A      3.873750   151A      3.898143   152A      3.920986  
     153A      4.044575   154A      4.105366   155A      4.163474  
     156A      4.171501   157A      4.214485   158A      4.241412  
     159A      4.265889   160A      4.285494   161A      4.300060  
     162A      4.385910   163A      4.514130   164A      4.671310  
     165A      4.693225   166A      4.700460   167A      4.763748  
     168A      4.767203   169A      4.903475   170A      4.989793  
     171A      5.117391   172A      5.358744   173A      5.511099  
     174A      5.584954   175A      5.611240   176A      5.625516  
     177A      5.665346   178A      5.736401   179A      5.874762  
     180A      5.991046   181A      6.043520   182A      6.225450  
     183A      6.774964   184A      6.947884   185A     18.104573  
     186A     18.428708   187A     18.515339   188A     18.871844  
     189A     25.385777   190A     25.404700   191A     33.479477  
     192A     33.504112  

    Final Occupation by Irrep:
              A 
    DOCC [     5 ]

  @DF-RHF Final Energy:   -76.03704052006469

   => Energetics <=

    Nuclear Repulsion Energy =              9.0443484958489524
    One-Electron Energy =                -122.7035236887508489
    Two-Electron Energy =                  37.6221346728371984
    Total Energy =                        -76.0370405200646928

Computation Completed


Properties will be evaluated at   0.000000,   0.000000,   0.000000 [a0]

Properties computed using the SCF density matrix

  Nuclear Dipole Moment: [e a0]
     X:   -65.9989      Y:     4.4518      Z:    -0.0488

  Electronic Dipole Moment: [e a0]
     X:    66.1674      Y:    -5.0594      Z:     0.6168

  Dipole Moment: [e a0]
     X:     0.1685      Y:    -0.6075      Z:     0.5680     Total:     0.8486

  Dipole Moment: [D]
     X:     0.4283      Y:    -1.5442      Z:     1.4438     Total:     2.1569


*** tstop() called on node194.bme.utexas.edu at Mon May 13 09:53:35 2024
Module time:
	user time   =       6.64 seconds =       0.11 minutes
	system time =       0.04 seconds =       0.00 minutes
	total time  =          1 seconds =       0.02 minutes
Total time:
	user time   =      35.13 seconds =       0.59 minutes
	system time =       0.42 seconds =       0.01 minutes
	total time  =          5 seconds =       0.08 minutes

*** tstart() called on node194.bme.utexas.edu
*** at Mon May 13 09:53:35 2024


  //>>>>>>>>>>>>>>>>>>>>>>>>>>>>>>>>>>>//
  //               DFMP2               //
  //<<<<<<<<<<<<<<<<<<<<<<<<<<<<<<<<<<<//

   => Loading Basis Set <=

    Name: (JUN-CC-PVDZ AUX)
    Role: RIFIT
    Keyword: DF_BASIS_MP2
    atoms 1, 5               entry N          line   144 file /opt/anaconda/envs/psi4v1.5/share/psi4/basis/jun-cc-pvdz-ri.gbs 
    atoms 2, 9, 11-12, 14-15 entry H          line    30 file /opt/anaconda/envs/psi4v1.5/share/psi4/basis/jun-cc-pvdz-ri.gbs 
    atoms 3, 6, 8, 10        entry C          line   100 file /opt/anaconda/envs/psi4v1.5/share/psi4/basis/jun-cc-pvdz-ri.gbs 
    atoms 4, 7, 13           entry O          line   188 file /opt/anaconda/envs/psi4v1.5/share/psi4/basis/jun-cc-pvdz-ri.gbs 

	 --------------------------------------------------------
	                          DF-MP2                         
	      2nd-Order Density-Fitted Moller-Plesset Theory     
	              RMP2 Wavefunction,   8 Threads             
	                                                         
	        Rob Parrish, Justin Turney, Andy Simmonett,      
	           Ed Hohenstein, and C. David Sherrill          
	 --------------------------------------------------------

   => Auxiliary Basis Set <=

  Basis Set: (JUN-CC-PVDZ AUX)
    Blend: JUN-CC-PVDZ-RI
    Number of shells: 225
    Number of basis functions: 669
    Number of Cartesian functions: 774
    Spherical Harmonics?: true
    Max angular momentum: 3

	 --------------------------------------------------------
	                 NBF =   192, NAUX =   669
	 --------------------------------------------------------
	   CLASS    FOCC     OCC    AOCC    AVIR     VIR    FVIR
	   PAIRS       1       5       4     187     187       0
	 --------------------------------------------------------

	 Will attempt to load fitting metric from file 97.

	-----------------------------------------------------------
	 ==================> DF-MP2 Energies <==================== 
	-----------------------------------------------------------
	 Reference Energy          =     -76.0370405200646928 [Eh]
	 Singles Energy            =      -0.0000000000000000 [Eh]
	 Same-Spin Energy          =      -0.0536145556178134 [Eh]
	 Opposite-Spin Energy      =      -0.1574896488179001 [Eh]
	 Correlation Energy        =      -0.2111042044357135 [Eh]
	 Total Energy              =     -76.2481447245004063 [Eh]
	-----------------------------------------------------------
	 ================> DF-SCS-MP2 Energies <================== 
	-----------------------------------------------------------
	 SCS Same-Spin Scale       =       0.3333333333333333 [-]
	 SCS Opposite-Spin Scale   =       1.2000000000000000 [-]
	 SCS Same-Spin Energy      =      -0.0178715185392711 [Eh]
	 SCS Opposite-Spin Energy  =      -0.1889875785814801 [Eh]
	 SCS Correlation Energy    =      -0.2068590971207513 [Eh]
	 SCS Total Energy          =     -76.2438996171854484 [Eh]
	-----------------------------------------------------------


*** tstop() called on node194.bme.utexas.edu at Mon May 13 09:53:35 2024
Module time:
	user time   =       2.87 seconds =       0.05 minutes
	system time =       0.03 seconds =       0.00 minutes
	total time  =          0 seconds =       0.00 minutes
Total time:
	user time   =      38.01 seconds =       0.63 minutes
	system time =       0.45 seconds =       0.01 minutes
	total time  =          5 seconds =       0.08 minutes
  Constructing Basis Sets for SAPT...

   => Loading Basis Set <=

    Name: (JUN-CC-PVDZ AUX)
    Role: RIFIT
    Keyword: DF_BASIS_SAPT
    atoms 1, 5               entry N          line   144 file /opt/anaconda/envs/psi4v1.5/share/psi4/basis/jun-cc-pvdz-ri.gbs 
    atoms 2, 9, 11-12, 14-15 entry H          line    30 file /opt/anaconda/envs/psi4v1.5/share/psi4/basis/jun-cc-pvdz-ri.gbs 
    atoms 3, 6, 8, 10        entry C          line   100 file /opt/anaconda/envs/psi4v1.5/share/psi4/basis/jun-cc-pvdz-ri.gbs 
    atoms 4, 7, 13           entry O          line   188 file /opt/anaconda/envs/psi4v1.5/share/psi4/basis/jun-cc-pvdz-ri.gbs 


  //>>>>>>>>>>>>>>>>>>>>>>>>>>>>>>>>>>>//
  //           SAPT2+(3)DMP2           //
  //<<<<<<<<<<<<<<<<<<<<<<<<<<<<<<<<<<<//


*** tstart() called on node194.bme.utexas.edu
*** at Mon May 13 09:53:36 2024

      SAPT2+(3)  
    Ed Hohenstein
     6 June 2009

      Orbital Information
  --------------------------
    NSO        =       192
    NMO        =       192
    NRI        =       669
    NOCC A     =        29
    NOCC B     =         5
    FOCC A     =         8
    FOCC B     =         1
    NVIR A     =       163
    NVIR B     =       187

    Estimated memory usage: 893.0 MB

    Natural Orbital Cutoff:   1.000E-06
    Disp(T3) Truncation:            Yes
    CCD (vv|vv) Truncation:         Yes
    MBPT T2 Truncation:             Yes

    Monomer A: 21 virtual orbitals dropped
    Monomer B: 154 virtual orbitals dropped

    Elst10,r            =    -0.040858282089 [Eh]
    Exch10 (S^2)        =     0.059837611746 [Eh]
    Exch10              =     0.060915463940 [Eh]
    Ind20,r (A<-B)      =    -0.014810245174 [Eh]
    Ind20,r (B<-A)      =    -0.011618188772 [Eh]
    Ind20,r             =    -0.026428433946 [Eh]
    Exch-Ind20,r (A<-B) =     0.008343440528 [Eh]
    Exch-Ind20,r (B<-A) =     0.009121664613 [Eh]
    Exch-Ind20,r        =     0.017465105141 [Eh]
    Disp20              =    -0.012857284396 [Eh]
    Disp20 (NO)         =    -0.011692579454 [Eh]
    Exch-Disp20         =     0.003306821279 [Eh]
    Elst12,r            =    -0.001265542740 [Eh]
    Exch11              =    -0.000615598975 [Eh]
    Exch12              =     0.009389874999 [Eh]
    Ind22               =    -0.005121528219 [Eh]
    Disp21              =     0.001283072276 [Eh]
    Disp22 (SDQ)        =    -0.000777826878 [Eh]

    (i =   1 of   4)          2 seconds
    (i =   2 of   4)          5 seconds
    (i =   3 of   4)          7 seconds
    (i =   4 of   4)         10 seconds

    Disp220 (T)         =    -0.000947505693 [Eh]

    (i =   1 of  21)          0 seconds
    (i =   2 of  21)          0 seconds
    (i =   3 of  21)          0 seconds
    (i =   4 of  21)          0 seconds
    (i =   5 of  21)          0 seconds
    (i =   6 of  21)          0 seconds
    (i =   7 of  21)          0 seconds
    (i =   8 of  21)          0 seconds
    (i =   9 of  21)          0 seconds
    (i =  10 of  21)          0 seconds
    (i =  11 of  21)          0 seconds
    (i =  12 of  21)          0 seconds
    (i =  13 of  21)          0 seconds
    (i =  14 of  21)          0 seconds
    (i =  15 of  21)          0 seconds
    (i =  16 of  21)          0 seconds
    (i =  17 of  21)          0 seconds
    (i =  18 of  21)          0 seconds
    (i =  19 of  21)          0 seconds
    (i =  20 of  21)          0 seconds
    (i =  21 of  21)          0 seconds

    Disp202 (T)         =    -0.000846706727 [Eh]

    Disp22 (T)          =    -0.001794212420 [Eh]

    Est. Disp220 (T)    =    -0.001041887311 [Eh]
    Est. Disp202 (T)    =    -0.000931047698 [Eh]

    Est. Disp22 (T)     =    -0.001972935009 [Eh]
    Elst13,r            =     0.001017773019 [Eh]
    Disp30              =     0.000140854402 [Eh]

    SAPT Results 
  --------------------------------------------------------------------------------------------------------
    Electrostatics                -41.10605181 [mEh]     -25.79443694 [kcal/mol]    -107.92392416 [kJ/mol]
      Elst10,r                    -40.85828209 [mEh]     -25.63895909 [kcal/mol]    -107.27340485 [kJ/mol]
      Elst12,r                     -1.26554274 [mEh]      -0.79414006 [kcal/mol]      -3.32268201 [kJ/mol]
      Elst13,r                      1.01777302 [mEh]       0.63866221 [kcal/mol]       2.67216269 [kJ/mol]

    Exchange                       69.68973996 [mEh]      43.73097205 [kcal/mol]     182.97038707 [kJ/mol]
      Exch10                       60.91546394 [mEh]      38.22503072 [kcal/mol]     159.93352854 [kJ/mol]
      Exch10(S^2)                  59.83761175 [mEh]      37.54866826 [kcal/mol]     157.10362800 [kJ/mol]
      Exch11(S^2)                  -0.61559898 [mEh]      -0.38629419 [kcal/mol]      -1.61625489 [kJ/mol]
      Exch12(S^2)                   9.38987500 [mEh]       5.89223552 [kcal/mol]      24.65311341 [kJ/mol]

    Induction                     -16.14625781 [mEh]     -10.13192974 [kcal/mol]     -42.39199404 [kJ/mol]
      Ind20,r                     -26.42843395 [mEh]     -16.58409268 [kcal/mol]     -69.38784377 [kJ/mol]
      Ind22                        -5.12152822 [mEh]      -3.21380748 [kcal/mol]     -13.44657049 [kJ/mol]
      Exch-Ind20,r                 17.46510514 [mEh]      10.95951894 [kcal/mol]      45.85462723 [kJ/mol]
      Exch-Ind22                    3.38453762 [mEh]       2.12382942 [kcal/mol]       8.88610229 [kJ/mol]
      delta HF,r (2)               -6.61025679 [mEh]      -4.14799876 [kcal/mol]     -17.35522680 [kJ/mol]
      delta MP2,r (2)               1.16431838 [mEh]       0.73062082 [kcal/mol]       3.05691750 [kJ/mol]

    Dispersion                    -10.87729833 [mEh]      -6.82560775 [kcal/mol]     -28.55834282 [kJ/mol]
      Disp20                      -12.85728440 [mEh]      -8.06806777 [kcal/mol]     -33.75679553 [kJ/mol]
      Disp30                        0.14085440 [mEh]       0.08838747 [kcal/mol]       0.36981318 [kJ/mol]
      Disp21                        1.28307228 [mEh]       0.80514001 [kcal/mol]       3.36870580 [kJ/mol]
      Disp22 (SDQ)                 -0.77782688 [mEh]      -0.48809373 [kcal/mol]      -2.04218419 [kJ/mol]
      Disp22 (T)                   -1.79421242 [mEh]      -1.12588529 [kcal/mol]      -4.71070406 [kJ/mol]
      Est. Disp22 (T)              -1.97293501 [mEh]      -1.23803541 [kcal/mol]      -5.17994015 [kJ/mol]
      Exch-Disp20                   3.30682128 [mEh]       2.07506168 [kcal/mol]       8.68205807 [kJ/mol]

  Total HF                          4.48359626 [mEh]       2.81349913 [kcal/mol]      11.77168036 [kJ/mol]
  Total SAPT0                      -5.06686686 [mEh]      -3.17950696 [kcal/mol]     -13.30305710 [kJ/mol]
  Total SAPT2                       0.70487582 [mEh]       0.44231626 [kcal/mol]       1.85065122 [kJ/mol]
  Total SAPT2+                     -0.76281379 [mEh]      -0.47867288 [kcal/mol]      -2.00276732 [kJ/mol]
  Total SAPT2+(3)                   0.39581363 [mEh]       0.24837681 [kcal/mol]       1.03920855 [kJ/mol]
  Total SAPT2+dMP2                  0.40150460 [mEh]       0.25194794 [kcal/mol]       1.05415018 [kJ/mol]
  Total SAPT2+(3)dMP2               1.56013202 [mEh]       0.97899762 [kcal/mol]       4.09612605 [kJ/mol]

  Special recipe for scaled SAPT0 (see Manual):
    Electrostatics sSAPT0         -40.85828209 [mEh]     -25.63895909 [kcal/mol]    -107.27340485 [kJ/mol]
    Exchange sSAPT0                60.91546394 [mEh]      38.22503072 [kcal/mol]     159.93352854 [kJ/mol]
    Induction sSAPT0              -14.61268854 [mEh]      -9.16960050 [kcal/mol]     -38.36560848 [kJ/mol]
    Dispersion sSAPT0              -9.36852807 [mEh]      -5.87884012 [kcal/mol]     -24.59706705 [kJ/mol]
  Total sSAPT0                     -3.92403476 [mEh]      -2.46236898 [kcal/mol]     -10.30255183 [kJ/mol]
  --------------------------------------------------------------------------------------------------------

*** tstop() called on node194.bme.utexas.edu at Mon May 13 09:54:02 2024
Module time:
	user time   =     206.90 seconds =       3.45 minutes
	system time =       3.11 seconds =       0.05 minutes
	total time  =         26 seconds =       0.43 minutes
Total time:
	user time   =     245.21 seconds =       4.09 minutes
	system time =       3.56 seconds =       0.06 minutes
	total time  =         32 seconds =       0.53 minutes

    Psi4 stopped on: Monday, 13 May 2024 09:54AM
    Psi4 wall time for execution: 0:00:32.07

*** Psi4 exiting successfully. Buy a developer a beer!
