
    -----------------------------------------------------------------------
          Psi4: An Open-Source Ab Initio Electronic Structure Package
                               Psi4 1.5 release

                         Git: Rev {HEAD} e9f4d6d 


    D. G. A. Smith, L. A. Burns, A. C. Simmonett, R. M. Parrish,
    M. C. Schieber, R. Galvelis, P. Kraus, H. Kruse, R. Di Remigio,
    A. Alenaizan, A. M. James, S. Lehtola, J. P. Misiewicz, M. Scheurer,
    R. A. Shaw, J. B. Schriber, Y. Xie, Z. L. Glick, D. A. Sirianni,
    J. S. O'Brien, J. M. Waldrop, A. Kumar, E. G. Hohenstein,
    B. P. Pritchard, B. R. Brooks, H. F. Schaefer III, A. Yu. Sokolov,
    K. Patkowski, A. E. DePrince III, U. Bozkaya, R. A. King,
    F. A. Evangelista, J. M. Turney, T. D. Crawford, C. D. Sherrill,
    J. Chem. Phys. 152(18) 184108 (2020). https://doi.org/10.1063/5.0006002

                            Additional Code Authors
    E. T. Seidl, C. L. Janssen, E. F. Valeev, M. L. Leininger,
    J. F. Gonthier, R. M. Richard, H. R. McAlexander, M. Saitow, X. Wang,
    P. Verma, M. H. Lechner, and A. Jiang

             Previous Authors, Complete List of Code Contributors,
                       and Citations for Specific Modules
    https://github.com/psi4/psi4/blob/master/codemeta.json
    https://github.com/psi4/psi4/graphs/contributors
    http://psicode.org/psi4manual/master/introduction.html#citing-psifour

    -----------------------------------------------------------------------


    Psi4 started on: Monday, 13 May 2024 01:34PM

    Process ID: 2047702
    Host:       bme-earth.bme.utexas.edu
    PSIDATADIR: /opt/anaconda/envs/psi4v1.5/share/psi4
    Memory:     500.0 MiB
    Threads:    8
    
  ==> Input File <==

--------------------------------------------------------------------------
memory 50GB

molecule {
0 1
N 1.99977 0.3558 0.00673
H 2.86582 0.88171 0.00875
C 0.84404 1.13325 -0.00396
O 0.87029 2.35642 -0.00428
N -0.31391 0.37393 -0.0105
C -0.42517 -1.01766 -0.0039
O -1.53457 -1.56924 -0.00766
C 0.84475 -1.72291 0.0086
H 0.83593 -2.80464 0.01192
C 1.99902 -1.01742 0.01154
H 2.97739 -1.4873 0.01848
H -1.20519 0.89117 -0.03122
--
0 1
O -2.9298039583333333 0.7286349583333334 -0.08926025
H -3.3577939583333336 0.8658149583333333 0.77013975
H -2.7302039583333335 -0.23114504166666666 -0.11487025
 units angstrom
 no_reorient
 symmetry c1} 
set  {scf_type DF
 basis aug-cc-pvdz
 freeze_core True
 guess SAD}
energy('sapt2+(3)dmp2')
--------------------------------------------------------------------------

  Memory set to  46.566 GiB by Python driver.

Scratch directory: /tmp/
   => Loading Basis Set <=

    Name: AUG-CC-PVDZ
    Role: ORBITAL
    Keyword: BASIS
    atoms 1, 5               entry N          line   218 file /opt/anaconda/envs/psi4v1.5/share/psi4/basis/aug-cc-pvdz.gbs 
    atoms 2, 9, 11-12, 14-15 entry H          line    40 file /opt/anaconda/envs/psi4v1.5/share/psi4/basis/aug-cc-pvdz.gbs 
    atoms 3, 6, 8, 10        entry C          line   182 file /opt/anaconda/envs/psi4v1.5/share/psi4/basis/aug-cc-pvdz.gbs 
    atoms 4, 7, 13           entry O          line   254 file /opt/anaconda/envs/psi4v1.5/share/psi4/basis/aug-cc-pvdz.gbs 

   => Loading Basis Set <=

    Name: AUG-CC-PVDZ
    Role: ORBITAL
    Keyword: BASIS
    atoms 1, 5               entry N          line   218 file /opt/anaconda/envs/psi4v1.5/share/psi4/basis/aug-cc-pvdz.gbs 
    atoms 2, 9, 11-12, 14-15 entry H          line    40 file /opt/anaconda/envs/psi4v1.5/share/psi4/basis/aug-cc-pvdz.gbs 
    atoms 3, 6, 8, 10        entry C          line   182 file /opt/anaconda/envs/psi4v1.5/share/psi4/basis/aug-cc-pvdz.gbs 
    atoms 4, 7, 13           entry O          line   254 file /opt/anaconda/envs/psi4v1.5/share/psi4/basis/aug-cc-pvdz.gbs 


  //>>>>>>>>>>>>>>>>>>>>>>>>>>>>>>>>>>>//
  //              Dimer HF             //
  //<<<<<<<<<<<<<<<<<<<<<<<<<<<<<<<<<<<//


*** tstart() called on bme-earth.bme.utexas.edu
*** at Mon May 13 13:34:25 2024

   => Loading Basis Set <=

    Name: AUG-CC-PVDZ
    Role: ORBITAL
    Keyword: BASIS
    atoms 1, 5               entry N          line   218 file /opt/anaconda/envs/psi4v1.5/share/psi4/basis/aug-cc-pvdz.gbs 
    atoms 2, 9, 11-12, 14-15 entry H          line    40 file /opt/anaconda/envs/psi4v1.5/share/psi4/basis/aug-cc-pvdz.gbs 
    atoms 3, 6, 8, 10        entry C          line   182 file /opt/anaconda/envs/psi4v1.5/share/psi4/basis/aug-cc-pvdz.gbs 
    atoms 4, 7, 13           entry O          line   254 file /opt/anaconda/envs/psi4v1.5/share/psi4/basis/aug-cc-pvdz.gbs 


         ---------------------------------------------------------
                                   SCF
               by Justin Turney, Rob Parrish, Andy Simmonett
                          and Daniel G. A. Smith
                              RHF Reference
                        8 Threads,  47683 MiB Core
         ---------------------------------------------------------

  ==> Geometry <==

    Molecular point group: c1
    Full point group: C1

    Geometry (in Angstrom), charge = 0, multiplicity = 1:

       Center              X                  Y                   Z               Mass       
    ------------   -----------------  -----------------  -----------------  -----------------
         N            1.963988235578     0.347588709214     0.013310637422    14.003074004430
         H            2.830038235578     0.873498709214     0.015330637422     1.007825032230
         C            0.808258235578     1.125038709214     0.002620637422    12.000000000000
         O            0.834508235578     2.348208709214     0.002300637422    15.994914619570
         N           -0.349691764422     0.365718709214    -0.003919362578    14.003074004430
         C           -0.460951764422    -1.025871290786     0.002680637422    12.000000000000
         O           -1.570351764422    -1.577451290786    -0.001079362578    15.994914619570
         C            0.808968235578    -1.731121290786     0.015180637422    12.000000000000
         H            0.800148235578    -2.812851290786     0.018500637422     1.007825032230
         C            1.963238235578    -1.025631290786     0.018120637422    12.000000000000
         H            2.941608235578    -1.495511290786     0.025060637422     1.007825032230
         H           -1.240971764422     0.882958709214    -0.024639362578     1.007825032230
         O           -2.965585722756     0.720423667547    -0.082679612578    15.994914619570
         H           -3.393575722756     0.857603667547     0.776720387422     1.007825032230
         H           -2.765985722756    -0.239356332453    -0.108289612578     1.007825032230

  Running in c1 symmetry.

  Rotational constants: A =      0.07385  B =      0.04792  C =      0.02913 [cm^-1]
  Rotational constants: A =   2213.95404  B =   1436.49385  C =    873.37227 [MHz]
  Nuclear repulsion =  449.884390640188599

  Charge       = 0
  Multiplicity = 1
  Electrons    = 68
  Nalpha       = 34
  Nbeta        = 34

  ==> Algorithm <==

  SCF Algorithm Type is DF.
  DIIS enabled.
  MOM disabled.
  Fractional occupation disabled.
  Guess Type is SAD.
  Energy threshold   = 1.00e-08
  Density threshold  = 1.00e-08
  Integral threshold = 1.00e-12

  ==> Primary Basis <==

  Basis Set: AUG-CC-PVDZ
    Blend: AUG-CC-PVDZ
    Number of shells: 111
    Number of basis functions: 261
    Number of Cartesian functions: 279
    Spherical Harmonics?: true
    Max angular momentum: 2

   => Loading Basis Set <=

    Name: (AUG-CC-PVDZ AUX)
    Role: JKFIT
    Keyword: DF_BASIS_SCF
    atoms 1, 5               entry N          line   212 file /opt/anaconda/envs/psi4v1.5/share/psi4/basis/aug-cc-pvdz-jkfit.gbs 
    atoms 2, 9, 11-12, 14-15 entry H          line    70 file /opt/anaconda/envs/psi4v1.5/share/psi4/basis/aug-cc-pvdz-jkfit.gbs 
    atoms 3, 6, 8, 10        entry C          line   154 file /opt/anaconda/envs/psi4v1.5/share/psi4/basis/aug-cc-pvdz-jkfit.gbs 
    atoms 4, 7, 13           entry O          line   270 file /opt/anaconda/envs/psi4v1.5/share/psi4/basis/aug-cc-pvdz-jkfit.gbs 

  ==> Integral Setup <==

  ==> DiskDFJK: Density-Fitted J/K Matrices <==

    J tasked:                  Yes
    K tasked:                  Yes
    wK tasked:                  No
    OpenMP threads:              8
    Integrals threads:           8
    Memory [MiB]:            35762
    Algorithm:                Core
    Integral Cache:           SAVE
    Schwarz Cutoff:          1E-12
    Fitting Condition:       1E-10

   => Auxiliary Basis Set <=

  Basis Set: (AUG-CC-PVDZ AUX)
    Blend: AUG-CC-PVDZ-JKFIT
    Number of shells: 324
    Number of basis functions: 966
    Number of Cartesian functions: 1119
    Spherical Harmonics?: true
    Max angular momentum: 3

  Minimum eigenvalue in the overlap matrix is 1.1008600584E-05.
  Reciprocal condition number of the overlap matrix is 7.8707907568E-07.
    Using symmetric orthogonalization.

  ==> Pre-Iterations <==

  SCF Guess: Superposition of Atomic Densities via on-the-fly atomic UHF (no occupation information).

   -------------------------
    Irrep   Nso     Nmo    
   -------------------------
     A        261     261 
   -------------------------
    Total     261     261
   -------------------------

  ==> Iterations <==

                           Total Energy        Delta E     RMS |[F,P]|

   @DF-RHF iter SAD:  -487.53555219152338   -4.87536e+02   0.00000e+00 
   @DF-RHF iter   1:  -488.27168584507081   -7.36134e-01   3.11793e-03 DIIS
   @DF-RHF iter   2:  -488.47663756773164   -2.04952e-01   1.93675e-03 DIIS
   @DF-RHF iter   3:  -488.56662008519442   -8.99825e-02   3.43155e-04 DIIS
   @DF-RHF iter   4:  -488.57099444264799   -4.37436e-03   1.52618e-04 DIIS
   @DF-RHF iter   5:  -488.57196679539391   -9.72353e-04   3.25914e-05 DIIS
   @DF-RHF iter   6:  -488.57206979156518   -1.02996e-04   1.72269e-05 DIIS
   @DF-RHF iter   7:  -488.57209812579072   -2.83342e-05   5.71471e-06 DIIS
   @DF-RHF iter   8:  -488.57210201138963   -3.88560e-06   2.03948e-06 DIIS
   @DF-RHF iter   9:  -488.57210231677243   -3.05383e-07   8.10814e-07 DIIS
   @DF-RHF iter  10:  -488.57210237322386   -5.64514e-08   3.09608e-07 DIIS
   @DF-RHF iter  11:  -488.57210238168784   -8.46399e-09   1.13369e-07 DIIS
   @DF-RHF iter  12:  -488.57210238259188   -9.04038e-10   3.07790e-08 DIIS
   @DF-RHF iter  13:  -488.57210238268647   -9.45874e-11   1.10185e-08 DIIS
   @DF-RHF iter  14:  -488.57210238270005   -1.35856e-11   4.54419e-09 DIIS
  Energy and wave function converged.


  ==> Post-Iterations <==

    Orbital Energies [Eh]
    ---------------------

    Doubly Occupied:                                                      

       1A    -20.568866     2A    -20.560437     3A    -20.555294  
       4A    -15.652689     5A    -15.623962     6A    -11.426690  
       7A    -11.397756     8A    -11.352287     9A    -11.264800  
      10A     -1.433165    11A     -1.404036    12A     -1.348155  
      13A     -1.312199    14A     -1.242844    15A     -1.090412  
      16A     -0.933438    17A     -0.902362    18A     -0.804462  
      19A     -0.769759    20A     -0.725058    21A     -0.701446  
      22A     -0.683809    23A     -0.662853    24A     -0.650802  
      25A     -0.616397    26A     -0.609317    27A     -0.578299  
      28A     -0.570182    29A     -0.521293    30A     -0.509432  
      31A     -0.474668    32A     -0.454035    33A     -0.433710  
      34A     -0.369519  

    Virtual:                                                              

      35A      0.018453    36A      0.039644    37A      0.047048  
      38A      0.056876    39A      0.068262    40A      0.075589  
      41A      0.077919    42A      0.086737    43A      0.104723  
      44A      0.114403    45A      0.115945    46A      0.123371  
      47A      0.131355    48A      0.138453    49A      0.144667  
      50A      0.149800    51A      0.154997    52A      0.159279  
      53A      0.173051    54A      0.175246    55A      0.179641  
      56A      0.189591    57A      0.197628    58A      0.212046  
      59A      0.213968    60A      0.227588    61A      0.250418  
      62A      0.255236    63A      0.263254    64A      0.280146  
      65A      0.282750    66A      0.283611    67A      0.294502  
      68A      0.299644    69A      0.307794    70A      0.317627  
      71A      0.318550    72A      0.327569    73A      0.335258  
      74A      0.338147    75A      0.343180    76A      0.352830  
      77A      0.360444    78A      0.362982    79A      0.378444  
      80A      0.388636    81A      0.393758    82A      0.403636  
      83A      0.409029    84A      0.414565    85A      0.415780  
      86A      0.447483    87A      0.449885    88A      0.457864  
      89A      0.469052    90A      0.482407    91A      0.488948  
      92A      0.493835    93A      0.506694    94A      0.511828  
      95A      0.515970    96A      0.537968    97A      0.553160  
      98A      0.560694    99A      0.570615   100A      0.573589  
     101A      0.593031   102A      0.611291   103A      0.616126  
     104A      0.619994   105A      0.624648   106A      0.639130  
     107A      0.647402   108A      0.666006   109A      0.680593  
     110A      0.690192   111A      0.695882   112A      0.704627  
     113A      0.715142   114A      0.716005   115A      0.724611  
     116A      0.746990   117A      0.757192   118A      0.771606  
     119A      0.790382   120A      0.803882   121A      0.811640  
     122A      0.819118   123A      0.829566   124A      0.832580  
     125A      0.841612   126A      0.857444   127A      0.867584  
     128A      0.873589   129A      0.885077   130A      0.922570  
     131A      0.931390   132A      0.940724   133A      0.959879  
     134A      0.972210   135A      0.978807   136A      0.986754  
     137A      0.993833   138A      1.014738   139A      1.025476  
     140A      1.053612   141A      1.055486   142A      1.079171  
     143A      1.102717   144A      1.120033   145A      1.133483  
     146A      1.141338   147A      1.168433   148A      1.179602  
     149A      1.194854   150A      1.217446   151A      1.223514  
     152A      1.231332   153A      1.237855   154A      1.265566  
     155A      1.288106   156A      1.295253   157A      1.321510  
     158A      1.349102   159A      1.359504   160A      1.374291  
     161A      1.391972   162A      1.431613   163A      1.458636  
     164A      1.491827   165A      1.515646   166A      1.527205  
     167A      1.535144   168A      1.540940   169A      1.553493  
     170A      1.563739   171A      1.570813   172A      1.608741  
     173A      1.640090   174A      1.646489   175A      1.662639  
     176A      1.678447   177A      1.684442   178A      1.716464  
     179A      1.739970   180A      1.753298   181A      1.803846  
     182A      1.817652   183A      1.836849   184A      1.856339  
     185A      1.875473   186A      1.898816   187A      1.930518  
     188A      1.960963   189A      1.976133   190A      1.990547  
     191A      1.999617   192A      2.007315   193A      2.028538  
     194A      2.030742   195A      2.056823   196A      2.082392  
     197A      2.093597   198A      2.112217   199A      2.158301  
     200A      2.185241   201A      2.205536   202A      2.217000  
     203A      2.236115   204A      2.256533   205A      2.278282  
     206A      2.307699   207A      2.338658   208A      2.359300  
     209A      2.376206   210A      2.434787   211A      2.439752  
     212A      2.442652   213A      2.446238   214A      2.461560  
     215A      2.505448   216A      2.516908   217A      2.586676  
     218A      2.600657   219A      2.648224   220A      2.666584  
     221A      2.713167   222A      2.738282   223A      2.754782  
     224A      2.772610   225A      2.806506   226A      2.843301  
     227A      2.850857   228A      2.872119   229A      2.880520  
     230A      2.886052   231A      2.944936   232A      2.980816  
     233A      3.006342   234A      3.044454   235A      3.093410  
     236A      3.164258   237A      3.182530   238A      3.219552  
     239A      3.276998   240A      3.369770   241A      3.371954  
     242A      3.476063   243A      3.566537   244A      3.630532  
     245A      3.733303   246A      3.742946   247A      3.780926  
     248A      3.789523   249A      3.815790   250A      3.824474  
     251A      3.830613   252A      3.855974   253A      3.882293  
     254A      3.974939   255A      4.019287   256A      4.073020  
     257A      4.110795   258A      4.142747   259A      4.206759  
     260A      4.303121   261A      4.443814  

    Final Occupation by Irrep:
              A 
    DOCC [    34 ]

  @DF-RHF Final Energy:  -488.57210238270005

   => Energetics <=

    Nuclear Repulsion Energy =            449.8843906401885988
    One-Electron Energy =               -1560.5041155568824252
    Two-Electron Energy =                 622.0476225339938310
    Total Energy =                       -488.5721023827001090

Computation Completed


Properties will be evaluated at   0.000000,   0.000000,   0.000000 [a0]

Properties computed using the SCF density matrix

  Nuclear Dipole Moment: [e a0]
     X:    -0.7994      Y:    -1.8077      Z:     0.6583

  Electronic Dipole Moment: [e a0]
     X:     2.5604      Y:     0.7843      Z:    -0.1230

  Dipole Moment: [e a0]
     X:     1.7610      Y:    -1.0234      Z:     0.5354     Total:     2.1060

  Dipole Moment: [D]
     X:     4.4760      Y:    -2.6012      Z:     1.3607     Total:     5.3528


*** tstop() called on bme-earth.bme.utexas.edu at Mon May 13 13:34:28 2024
Module time:
	user time   =      17.53 seconds =       0.29 minutes
	system time =       0.29 seconds =       0.00 minutes
	total time  =          3 seconds =       0.05 minutes
Total time:
	user time   =      17.53 seconds =       0.29 minutes
	system time =       0.29 seconds =       0.00 minutes
	total time  =          3 seconds =       0.05 minutes

*** tstart() called on bme-earth.bme.utexas.edu
*** at Mon May 13 13:34:28 2024


  //>>>>>>>>>>>>>>>>>>>>>>>>>>>>>>>>>>>//
  //               DFMP2               //
  //<<<<<<<<<<<<<<<<<<<<<<<<<<<<<<<<<<<//

   => Loading Basis Set <=

    Name: (AUG-CC-PVDZ AUX)
    Role: RIFIT
    Keyword: DF_BASIS_MP2
    atoms 1, 5               entry N          line   158 file /opt/anaconda/envs/psi4v1.5/share/psi4/basis/aug-cc-pvdz-ri.gbs 
    atoms 2, 9, 11-12, 14-15 entry H          line    30 file /opt/anaconda/envs/psi4v1.5/share/psi4/basis/aug-cc-pvdz-ri.gbs 
    atoms 3, 6, 8, 10        entry C          line   112 file /opt/anaconda/envs/psi4v1.5/share/psi4/basis/aug-cc-pvdz-ri.gbs 
    atoms 4, 7, 13           entry O          line   204 file /opt/anaconda/envs/psi4v1.5/share/psi4/basis/aug-cc-pvdz-ri.gbs 

	 --------------------------------------------------------
	                          DF-MP2                         
	      2nd-Order Density-Fitted Moller-Plesset Theory     
	              RMP2 Wavefunction,   8 Threads             
	                                                         
	        Rob Parrish, Justin Turney, Andy Simmonett,      
	           Ed Hohenstein, and C. David Sherrill          
	 --------------------------------------------------------

   => Auxiliary Basis Set <=

  Basis Set: (AUG-CC-PVDZ AUX)
    Blend: AUG-CC-PVDZ-RI
    Number of shells: 252
    Number of basis functions: 786
    Number of Cartesian functions: 924
    Spherical Harmonics?: true
    Max angular momentum: 3

	 --------------------------------------------------------
	                 NBF =   261, NAUX =   786
	 --------------------------------------------------------
	   CLASS    FOCC     OCC    AOCC    AVIR     VIR    FVIR
	   PAIRS       9      34      25     227     227       0
	 --------------------------------------------------------

	 Will save fitting metric to file 97.

	-----------------------------------------------------------
	 ==================> DF-MP2 Energies <==================== 
	-----------------------------------------------------------
	 Reference Energy          =    -488.5721023827000522 [Eh]
	 Singles Energy            =      -0.0000000000000000 [Eh]
	 Same-Spin Energy          =      -0.4039266947226071 [Eh]
	 Opposite-Spin Energy      =      -1.0763205915786012 [Eh]
	 Correlation Energy        =      -1.4802472863012084 [Eh]
	 Total Energy              =    -490.0523496690012735 [Eh]
	-----------------------------------------------------------
	 ================> DF-SCS-MP2 Energies <================== 
	-----------------------------------------------------------
	 SCS Same-Spin Scale       =       0.3333333333333333 [-]
	 SCS Opposite-Spin Scale   =       1.2000000000000000 [-]
	 SCS Same-Spin Energy      =      -0.1346422315742024 [Eh]
	 SCS Opposite-Spin Energy  =      -1.2915847098943214 [Eh]
	 SCS Correlation Energy    =      -1.4262269414685238 [Eh]
	 SCS Total Energy          =    -489.9983293241685942 [Eh]
	-----------------------------------------------------------


*** tstop() called on bme-earth.bme.utexas.edu at Mon May 13 13:34:29 2024
Module time:
	user time   =       6.11 seconds =       0.10 minutes
	system time =       0.09 seconds =       0.00 minutes
	total time  =          1 seconds =       0.02 minutes
Total time:
	user time   =      23.65 seconds =       0.39 minutes
	system time =       0.38 seconds =       0.01 minutes
	total time  =          4 seconds =       0.07 minutes

  //>>>>>>>>>>>>>>>>>>>>>>>>>>>>>>>>>>>//
  //            Monomer A HF           //
  //<<<<<<<<<<<<<<<<<<<<<<<<<<<<<<<<<<<//


*** tstart() called on bme-earth.bme.utexas.edu
*** at Mon May 13 13:34:29 2024

   => Loading Basis Set <=

    Name: AUG-CC-PVDZ
    Role: ORBITAL
    Keyword: BASIS
    atoms 1, 5               entry N          line   218 file /opt/anaconda/envs/psi4v1.5/share/psi4/basis/aug-cc-pvdz.gbs 
    atoms 2, 9, 11-12, 14-15 entry H          line    40 file /opt/anaconda/envs/psi4v1.5/share/psi4/basis/aug-cc-pvdz.gbs 
    atoms 3, 6, 8, 10        entry C          line   182 file /opt/anaconda/envs/psi4v1.5/share/psi4/basis/aug-cc-pvdz.gbs 
    atoms 4, 7, 13           entry O          line   254 file /opt/anaconda/envs/psi4v1.5/share/psi4/basis/aug-cc-pvdz.gbs 


         ---------------------------------------------------------
                                   SCF
               by Justin Turney, Rob Parrish, Andy Simmonett
                          and Daniel G. A. Smith
                              RHF Reference
                        8 Threads,  47683 MiB Core
         ---------------------------------------------------------

  ==> Geometry <==

    Molecular point group: c1
    Full point group: C1

    Geometry (in Angstrom), charge = 0, multiplicity = 1:

       Center              X                  Y                   Z               Mass       
    ------------   -----------------  -----------------  -----------------  -----------------
         N            1.963988235578     0.347588709214     0.013310637422    14.003074004430
         H            2.830038235578     0.873498709214     0.015330637422     1.007825032230
         C            0.808258235578     1.125038709214     0.002620637422    12.000000000000
         O            0.834508235578     2.348208709214     0.002300637422    15.994914619570
         N           -0.349691764422     0.365718709214    -0.003919362578    14.003074004430
         C           -0.460951764422    -1.025871290786     0.002680637422    12.000000000000
         O           -1.570351764422    -1.577451290786    -0.001079362578    15.994914619570
         C            0.808968235578    -1.731121290786     0.015180637422    12.000000000000
         H            0.800148235578    -2.812851290786     0.018500637422     1.007825032230
         C            1.963238235578    -1.025631290786     0.018120637422    12.000000000000
         H            2.941608235578    -1.495511290786     0.025060637422     1.007825032230
         H           -1.240971764422     0.882958709214    -0.024639362578     1.007825032230
      Gh(O)          -2.965585722756     0.720423667547    -0.082679612578    15.994914619570
      Gh(H)          -3.393575722756     0.857603667547     0.776720387422     1.007825032230
      Gh(H)          -2.765985722756    -0.239356332453    -0.108289612578     1.007825032230

  Running in c1 symmetry.

  Rotational constants: A =      0.07385  B =      0.04792  C =      0.02913 [cm^-1]
  Rotational constants: A =   2213.95404  B =   1436.49385  C =    873.37227 [MHz]
  Nuclear repulsion =  355.493481409988249

  Charge       = 0
  Multiplicity = 1
  Electrons    = 58
  Nalpha       = 29
  Nbeta        = 29

  ==> Algorithm <==

  SCF Algorithm Type is DF.
  DIIS enabled.
  MOM disabled.
  Fractional occupation disabled.
  Guess Type is SAD.
  Energy threshold   = 1.00e-08
  Density threshold  = 1.00e-08
  Integral threshold = 1.00e-12

  ==> Primary Basis <==

  Basis Set: AUG-CC-PVDZ
    Blend: AUG-CC-PVDZ
    Number of shells: 111
    Number of basis functions: 261
    Number of Cartesian functions: 279
    Spherical Harmonics?: true
    Max angular momentum: 2

   => Loading Basis Set <=

    Name: (AUG-CC-PVDZ AUX)
    Role: JKFIT
    Keyword: DF_BASIS_SCF
    atoms 1, 5               entry N          line   212 file /opt/anaconda/envs/psi4v1.5/share/psi4/basis/aug-cc-pvdz-jkfit.gbs 
    atoms 2, 9, 11-12, 14-15 entry H          line    70 file /opt/anaconda/envs/psi4v1.5/share/psi4/basis/aug-cc-pvdz-jkfit.gbs 
    atoms 3, 6, 8, 10        entry C          line   154 file /opt/anaconda/envs/psi4v1.5/share/psi4/basis/aug-cc-pvdz-jkfit.gbs 
    atoms 4, 7, 13           entry O          line   270 file /opt/anaconda/envs/psi4v1.5/share/psi4/basis/aug-cc-pvdz-jkfit.gbs 

  ==> Integral Setup <==

  ==> DiskDFJK: Density-Fitted J/K Matrices <==

    J tasked:                  Yes
    K tasked:                  Yes
    wK tasked:                  No
    OpenMP threads:              8
    Integrals threads:           8
    Memory [MiB]:            35762
    Algorithm:                Core
    Integral Cache:           LOAD
    Schwarz Cutoff:          1E-12
    Fitting Condition:       1E-10

   => Auxiliary Basis Set <=

  Basis Set: (AUG-CC-PVDZ AUX)
    Blend: AUG-CC-PVDZ-JKFIT
    Number of shells: 324
    Number of basis functions: 966
    Number of Cartesian functions: 1119
    Spherical Harmonics?: true
    Max angular momentum: 3

  Minimum eigenvalue in the overlap matrix is 1.1008600584E-05.
  Reciprocal condition number of the overlap matrix is 7.8707907568E-07.
    Using symmetric orthogonalization.

  ==> Pre-Iterations <==

  SCF Guess: Superposition of Atomic Densities via on-the-fly atomic UHF (no occupation information).

   -------------------------
    Irrep   Nso     Nmo    
   -------------------------
     A        261     261 
   -------------------------
    Total     261     261
   -------------------------

  ==> Iterations <==

                           Total Energy        Delta E     RMS |[F,P]|

   @DF-RHF iter SAD:  -411.77706681554184   -4.11777e+02   0.00000e+00 
   @DF-RHF iter   1:  -412.27826315192101   -5.01196e-01   2.76753e-03 DIIS
   @DF-RHF iter   2:  -412.43894582603309   -1.60683e-01   1.83790e-03 DIIS
   @DF-RHF iter   3:  -412.52057250771219   -8.16267e-02   3.41983e-04 DIIS
   @DF-RHF iter   4:  -412.52499352673379   -4.42102e-03   1.34485e-04 DIIS
   @DF-RHF iter   5:  -412.52586573663945   -8.72210e-04   2.78444e-05 DIIS
   @DF-RHF iter   6:  -412.52596749107454   -1.01754e-04   1.43420e-05 DIIS
   @DF-RHF iter   7:  -412.52598635950778   -1.88684e-05   5.57238e-06 DIIS
   @DF-RHF iter   8:  -412.52598946235088   -3.10284e-06   2.04523e-06 DIIS
   @DF-RHF iter   9:  -412.52598971936845   -2.57018e-07   8.03099e-07 DIIS
   @DF-RHF iter  10:  -412.52598978462061   -6.52522e-08   2.60127e-07 DIIS
   @DF-RHF iter  11:  -412.52598979163076   -7.01016e-09   8.71282e-08 DIIS
   @DF-RHF iter  12:  -412.52598979219181   -5.61045e-10   2.66186e-08 DIIS
   @DF-RHF iter  13:  -412.52598979225650   -6.46878e-11   9.68622e-09 DIIS
  Energy and wave function converged.


  ==> Post-Iterations <==

    Orbital Energies [Eh]
    ---------------------

    Doubly Occupied:                                                      

       1A    -20.561941     2A    -20.551598     3A    -15.654979  
       4A    -15.642023     5A    -11.434202     6A    -11.391653  
       7A    -11.350615     8A    -11.264774     9A     -1.437711  
      10A     -1.392064    11A     -1.314998    12A     -1.249134  
      13A     -1.090270    14A     -0.934592    15A     -0.905791  
      16A     -0.806706    17A     -0.765719    18A     -0.715872  
      19A     -0.677829    20A     -0.667807    21A     -0.653715  
      22A     -0.611800    23A     -0.600533    24A     -0.566476  
      25A     -0.525726    26A     -0.484147    27A     -0.448619  
      28A     -0.436090    29A     -0.367980  

    Virtual:                                                              

      30A      0.018203    31A      0.040488    32A      0.044711  
      33A      0.057686    34A      0.065762    35A      0.073773  
      36A      0.077740    37A      0.087751    38A      0.101585  
      39A      0.110327    40A      0.116498    41A      0.123313  
      42A      0.131717    43A      0.135074    44A      0.144460  
      45A      0.147045    46A      0.152635    47A      0.157027  
      48A      0.164112    49A      0.172571    50A      0.174006  
      51A      0.179859    52A      0.189598    53A      0.198309  
      54A      0.205432    55A      0.221471    56A      0.231845  
      57A      0.246896    58A      0.255418    59A      0.264479  
      60A      0.281945    61A      0.283339    62A      0.286391  
      63A      0.297138    64A      0.311429    65A      0.316339  
      66A      0.318007    67A      0.325553    68A      0.330685  
      69A      0.342429    70A      0.344146    71A      0.351780  
      72A      0.358282    73A      0.364007    74A      0.374884  
      75A      0.381746    76A      0.397288    77A      0.404189  
      78A      0.411748    79A      0.415705    80A      0.430780  
      81A      0.445026    82A      0.446510    83A      0.458352  
      84A      0.465150    85A      0.475576    86A      0.488526  
      87A      0.495079    88A      0.504324    89A      0.508572  
      90A      0.515442    91A      0.528061    92A      0.548889  
      93A      0.556807    94A      0.566547    95A      0.572877  
      96A      0.581677    97A      0.610307    98A      0.614483  
      99A      0.616956   100A      0.624590   101A      0.643106  
     102A      0.645216   103A      0.665793   104A      0.672887  
     105A      0.687075   106A      0.698335   107A      0.702622  
     108A      0.708075   109A      0.718991   110A      0.734567  
     111A      0.744023   112A      0.758855   113A      0.773199  
     114A      0.775673   115A      0.794964   116A      0.810918  
     117A      0.813781   118A      0.828229   119A      0.833788  
     120A      0.839198   121A      0.854056   122A      0.861420  
     123A      0.865209   124A      0.878615   125A      0.924894  
     126A      0.931706   127A      0.938752   128A      0.955541  
     129A      0.975045   130A      0.980857   131A      0.984809  
     132A      1.010363   133A      1.018132   134A      1.020561  
     135A      1.060477   136A      1.078954   137A      1.081634  
     138A      1.107583   139A      1.113647   140A      1.135196  
     141A      1.145829   142A      1.177303   143A      1.191430  
     144A      1.213102   145A      1.221288   146A      1.226215  
     147A      1.236220   148A      1.269524   149A      1.276712  
     150A      1.314369   151A      1.319077   152A      1.340944  
     153A      1.359022   154A      1.372413   155A      1.376388  
     156A      1.387727   157A      1.400618   158A      1.447555  
     159A      1.465730   160A      1.472339   161A      1.497054  
     162A      1.525373   163A      1.534515   164A      1.540866  
     165A      1.558874   166A      1.562055   167A      1.570849  
     168A      1.596667   169A      1.604899   170A      1.641301  
     171A      1.646617   172A      1.669775   173A      1.681513  
     174A      1.702719   175A      1.725900   176A      1.751622  
     177A      1.802659   178A      1.817250   179A      1.838831  
     180A      1.866338   181A      1.876242   182A      1.902301  
     183A      1.930746   184A      1.961264   185A      1.993723  
     186A      1.994783   187A      2.004867   188A      2.012254  
     189A      2.040558   190A      2.052342   191A      2.093579  
     192A      2.099418   193A      2.166200   194A      2.199933  
     195A      2.207984   196A      2.217833   197A      2.237005  
     198A      2.255439   199A      2.272565   200A      2.318418  
     201A      2.332471   202A      2.358661   203A      2.394123  
     204A      2.418032   205A      2.431292   206A      2.440393  
     207A      2.453566   208A      2.494185   209A      2.513383  
     210A      2.529255   211A      2.579383   212A      2.590937  
     213A      2.647790   214A      2.672624   215A      2.726231  
     216A      2.736754   217A      2.746320   218A      2.776640  
     219A      2.784863   220A      2.805590   221A      2.844513  
     222A      2.866937   223A      2.870384   224A      2.885345  
     225A      2.940538   226A      2.949613   227A      2.995912  
     228A      3.025544   229A      3.102351   230A      3.167939  
     231A      3.191052   232A      3.261960   233A      3.318220  
     234A      3.358008   235A      3.470305   236A      3.522366  
     237A      3.572409   238A      3.719555   239A      3.729091  
     240A      3.789008   241A      3.794983   242A      3.815077  
     243A      3.821724   244A      3.850476   245A      3.962434  
     246A      4.008123   247A      4.056360   248A      4.104510  
     249A      4.130908   250A      4.167404   251A      4.255177  
     252A      4.308854   253A      4.995457   254A      5.051884  
     255A      5.101222   256A      5.225254   257A      5.549168  
     258A      6.241956   259A      6.694367   260A      7.036261  
     261A     33.571963  

    Final Occupation by Irrep:
              A 
    DOCC [    29 ]

  @DF-RHF Final Energy:  -412.52598979225650

   => Energetics <=

    Nuclear Repulsion Energy =            355.4934814099882487
    One-Electron Energy =               -1267.0282170852560739
    Two-Electron Energy =                 499.0087458830113292
    Total Energy =                       -412.5259897922564960

Computation Completed


Properties will be evaluated at   0.000000,   0.000000,   0.000000 [a0]

Properties computed using the SCF density matrix

  Nuclear Dipole Moment: [e a0]
     X:    55.6737      Y:   -13.8672      Z:     0.6451

  Electronic Dipole Moment: [e a0]
     X:   -53.7471      Y:    13.3687      Z:    -0.6450

  Dipole Moment: [e a0]
     X:     1.9265      Y:    -0.4985      Z:     0.0001     Total:     1.9900

  Dipole Moment: [D]
     X:     4.8968      Y:    -1.2672      Z:     0.0003     Total:     5.0581


*** tstop() called on bme-earth.bme.utexas.edu at Mon May 13 13:34:31 2024
Module time:
	user time   =      13.12 seconds =       0.22 minutes
	system time =       0.20 seconds =       0.00 minutes
	total time  =          2 seconds =       0.03 minutes
Total time:
	user time   =      36.79 seconds =       0.61 minutes
	system time =       0.58 seconds =       0.01 minutes
	total time  =          6 seconds =       0.10 minutes

*** tstart() called on bme-earth.bme.utexas.edu
*** at Mon May 13 13:34:31 2024


  //>>>>>>>>>>>>>>>>>>>>>>>>>>>>>>>>>>>//
  //               DFMP2               //
  //<<<<<<<<<<<<<<<<<<<<<<<<<<<<<<<<<<<//

   => Loading Basis Set <=

    Name: (AUG-CC-PVDZ AUX)
    Role: RIFIT
    Keyword: DF_BASIS_MP2
    atoms 1, 5               entry N          line   158 file /opt/anaconda/envs/psi4v1.5/share/psi4/basis/aug-cc-pvdz-ri.gbs 
    atoms 2, 9, 11-12, 14-15 entry H          line    30 file /opt/anaconda/envs/psi4v1.5/share/psi4/basis/aug-cc-pvdz-ri.gbs 
    atoms 3, 6, 8, 10        entry C          line   112 file /opt/anaconda/envs/psi4v1.5/share/psi4/basis/aug-cc-pvdz-ri.gbs 
    atoms 4, 7, 13           entry O          line   204 file /opt/anaconda/envs/psi4v1.5/share/psi4/basis/aug-cc-pvdz-ri.gbs 

	 --------------------------------------------------------
	                          DF-MP2                         
	      2nd-Order Density-Fitted Moller-Plesset Theory     
	              RMP2 Wavefunction,   8 Threads             
	                                                         
	        Rob Parrish, Justin Turney, Andy Simmonett,      
	           Ed Hohenstein, and C. David Sherrill          
	 --------------------------------------------------------

   => Auxiliary Basis Set <=

  Basis Set: (AUG-CC-PVDZ AUX)
    Blend: AUG-CC-PVDZ-RI
    Number of shells: 252
    Number of basis functions: 786
    Number of Cartesian functions: 924
    Spherical Harmonics?: true
    Max angular momentum: 3

	 --------------------------------------------------------
	                 NBF =   261, NAUX =   786
	 --------------------------------------------------------
	   CLASS    FOCC     OCC    AOCC    AVIR     VIR    FVIR
	   PAIRS       8      29      21     232     232       0
	 --------------------------------------------------------

	 Will attempt to load fitting metric from file 97.

	-----------------------------------------------------------
	 ==================> DF-MP2 Energies <==================== 
	-----------------------------------------------------------
	 Reference Energy          =    -412.5259897922564960 [Eh]
	 Singles Energy            =      -0.0000000000000000 [Eh]
	 Same-Spin Energy          =      -0.3432720291422463 [Eh]
	 Opposite-Spin Energy      =      -0.9097451386529229 [Eh]
	 Correlation Energy        =      -1.2530171677951691 [Eh]
	 Total Energy              =    -413.7790069600516745 [Eh]
	-----------------------------------------------------------
	 ================> DF-SCS-MP2 Energies <================== 
	-----------------------------------------------------------
	 SCS Same-Spin Scale       =       0.3333333333333333 [-]
	 SCS Opposite-Spin Scale   =       1.2000000000000000 [-]
	 SCS Same-Spin Energy      =      -0.1144240097140821 [Eh]
	 SCS Opposite-Spin Energy  =      -1.0916941663835076 [Eh]
	 SCS Correlation Energy    =      -1.2061181760975896 [Eh]
	 SCS Total Energy          =    -413.7321079683540574 [Eh]
	-----------------------------------------------------------


*** tstop() called on bme-earth.bme.utexas.edu at Mon May 13 13:34:31 2024
Module time:
	user time   =       5.23 seconds =       0.09 minutes
	system time =       0.10 seconds =       0.00 minutes
	total time  =          0 seconds =       0.00 minutes
Total time:
	user time   =      42.03 seconds =       0.70 minutes
	system time =       0.68 seconds =       0.01 minutes
	total time  =          6 seconds =       0.10 minutes

  //>>>>>>>>>>>>>>>>>>>>>>>>>>>>>>>>>>>//
  //            Monomer B HF           //
  //<<<<<<<<<<<<<<<<<<<<<<<<<<<<<<<<<<<//


*** tstart() called on bme-earth.bme.utexas.edu
*** at Mon May 13 13:34:31 2024

   => Loading Basis Set <=

    Name: AUG-CC-PVDZ
    Role: ORBITAL
    Keyword: BASIS
    atoms 1, 5               entry N          line   218 file /opt/anaconda/envs/psi4v1.5/share/psi4/basis/aug-cc-pvdz.gbs 
    atoms 2, 9, 11-12, 14-15 entry H          line    40 file /opt/anaconda/envs/psi4v1.5/share/psi4/basis/aug-cc-pvdz.gbs 
    atoms 3, 6, 8, 10        entry C          line   182 file /opt/anaconda/envs/psi4v1.5/share/psi4/basis/aug-cc-pvdz.gbs 
    atoms 4, 7, 13           entry O          line   254 file /opt/anaconda/envs/psi4v1.5/share/psi4/basis/aug-cc-pvdz.gbs 


         ---------------------------------------------------------
                                   SCF
               by Justin Turney, Rob Parrish, Andy Simmonett
                          and Daniel G. A. Smith
                              RHF Reference
                        8 Threads,  47683 MiB Core
         ---------------------------------------------------------

  ==> Geometry <==

    Molecular point group: c1
    Full point group: C1

    Geometry (in Angstrom), charge = 0, multiplicity = 1:

       Center              X                  Y                   Z               Mass       
    ------------   -----------------  -----------------  -----------------  -----------------
      Gh(N)           1.963988235578     0.347588709214     0.013310637422    14.003074004430
      Gh(H)           2.830038235578     0.873498709214     0.015330637422     1.007825032230
      Gh(C)           0.808258235578     1.125038709214     0.002620637422    12.000000000000
      Gh(O)           0.834508235578     2.348208709214     0.002300637422    15.994914619570
      Gh(N)          -0.349691764422     0.365718709214    -0.003919362578    14.003074004430
      Gh(C)          -0.460951764422    -1.025871290786     0.002680637422    12.000000000000
      Gh(O)          -1.570351764422    -1.577451290786    -0.001079362578    15.994914619570
      Gh(C)           0.808968235578    -1.731121290786     0.015180637422    12.000000000000
      Gh(H)           0.800148235578    -2.812851290786     0.018500637422     1.007825032230
      Gh(C)           1.963238235578    -1.025631290786     0.018120637422    12.000000000000
      Gh(H)           2.941608235578    -1.495511290786     0.025060637422     1.007825032230
      Gh(H)          -1.240971764422     0.882958709214    -0.024639362578     1.007825032230
         O           -2.965585722756     0.720423667547    -0.082679612578    15.994914619570
         H           -3.393575722756     0.857603667547     0.776720387422     1.007825032230
         H           -2.765985722756    -0.239356332453    -0.108289612578     1.007825032230

  Running in c1 symmetry.

  Rotational constants: A =      0.07385  B =      0.04792  C =      0.02913 [cm^-1]
  Rotational constants: A =   2213.95404  B =   1436.49385  C =    873.37227 [MHz]
  Nuclear repulsion =    9.025067665653527

  Charge       = 0
  Multiplicity = 1
  Electrons    = 10
  Nalpha       = 5
  Nbeta        = 5

  ==> Algorithm <==

  SCF Algorithm Type is DF.
  DIIS enabled.
  MOM disabled.
  Fractional occupation disabled.
  Guess Type is SAD.
  Energy threshold   = 1.00e-08
  Density threshold  = 1.00e-08
  Integral threshold = 1.00e-12

  ==> Primary Basis <==

  Basis Set: AUG-CC-PVDZ
    Blend: AUG-CC-PVDZ
    Number of shells: 111
    Number of basis functions: 261
    Number of Cartesian functions: 279
    Spherical Harmonics?: true
    Max angular momentum: 2

   => Loading Basis Set <=

    Name: (AUG-CC-PVDZ AUX)
    Role: JKFIT
    Keyword: DF_BASIS_SCF
    atoms 1, 5               entry N          line   212 file /opt/anaconda/envs/psi4v1.5/share/psi4/basis/aug-cc-pvdz-jkfit.gbs 
    atoms 2, 9, 11-12, 14-15 entry H          line    70 file /opt/anaconda/envs/psi4v1.5/share/psi4/basis/aug-cc-pvdz-jkfit.gbs 
    atoms 3, 6, 8, 10        entry C          line   154 file /opt/anaconda/envs/psi4v1.5/share/psi4/basis/aug-cc-pvdz-jkfit.gbs 
    atoms 4, 7, 13           entry O          line   270 file /opt/anaconda/envs/psi4v1.5/share/psi4/basis/aug-cc-pvdz-jkfit.gbs 

  ==> Integral Setup <==

  ==> DiskDFJK: Density-Fitted J/K Matrices <==

    J tasked:                  Yes
    K tasked:                  Yes
    wK tasked:                  No
    OpenMP threads:              8
    Integrals threads:           8
    Memory [MiB]:            35762
    Algorithm:                Core
    Integral Cache:           LOAD
    Schwarz Cutoff:          1E-12
    Fitting Condition:       1E-10

   => Auxiliary Basis Set <=

  Basis Set: (AUG-CC-PVDZ AUX)
    Blend: AUG-CC-PVDZ-JKFIT
    Number of shells: 324
    Number of basis functions: 966
    Number of Cartesian functions: 1119
    Spherical Harmonics?: true
    Max angular momentum: 3

  Minimum eigenvalue in the overlap matrix is 1.1008600584E-05.
  Reciprocal condition number of the overlap matrix is 7.8707907568E-07.
    Using symmetric orthogonalization.

  ==> Pre-Iterations <==

  SCF Guess: Superposition of Atomic Densities via on-the-fly atomic UHF (no occupation information).

   -------------------------
    Irrep   Nso     Nmo    
   -------------------------
     A        261     261 
   -------------------------
    Total     261     261
   -------------------------

  ==> Iterations <==

                           Total Energy        Delta E     RMS |[F,P]|

   @DF-RHF iter SAD:   -75.44477021035847   -7.54448e+01   0.00000e+00 
   @DF-RHF iter   1:   -75.95554506941916   -5.10775e-01   1.73536e-03 DIIS
   @DF-RHF iter   2:   -76.00826347196511   -5.27184e-02   1.15684e-03 DIIS
   @DF-RHF iter   3:   -76.04003684467740   -3.17734e-02   8.24144e-05 DIIS
   @DF-RHF iter   4:   -76.04043560543899   -3.98761e-04   1.92709e-05 DIIS
   @DF-RHF iter   5:   -76.04046019892581   -2.45935e-05   4.43113e-06 DIIS
   @DF-RHF iter   6:   -76.04046221814885   -2.01922e-06   8.97480e-07 DIIS
   @DF-RHF iter   7:   -76.04046230530946   -8.71606e-08   1.49483e-07 DIIS
   @DF-RHF iter   8:   -76.04046230751153   -2.20207e-09   2.46178e-08 DIIS
   @DF-RHF iter   9:   -76.04046230756424   -5.27081e-11   6.42858e-09 DIIS
  Energy and wave function converged.


  ==> Post-Iterations <==

    Orbital Energies [Eh]
    ---------------------

    Doubly Occupied:                                                      

       1A    -20.580698     2A     -1.347196     3A     -0.709270  
       4A     -0.581618     5A     -0.507712  

    Virtual:                                                              

       6A      0.020495     7A      0.036232     8A      0.041877  
       9A      0.056671    10A      0.062311    11A      0.070044  
      12A      0.076274    13A      0.089527    14A      0.100960  
      15A      0.110404    16A      0.116753    17A      0.118566  
      18A      0.126088    19A      0.131740    20A      0.144109  
      21A      0.148261    22A      0.160300    23A      0.165283  
      24A      0.173023    25A      0.185859    26A      0.187160  
      27A      0.198977    28A      0.206305    29A      0.213286  
      30A      0.219964    31A      0.221992    32A      0.232428  
      33A      0.240651    34A      0.254449    35A      0.259514  
      36A      0.269714    37A      0.279747    38A      0.283348  
      39A      0.285606    40A      0.286760    41A      0.299810  
      42A      0.306560    43A      0.321202    44A      0.328089  
      45A      0.340525    46A      0.364464    47A      0.373041  
      48A      0.389883    49A      0.399977    50A      0.407712  
      51A      0.418059    52A      0.425633    53A      0.434984  
      54A      0.451739    55A      0.459072    56A      0.459430  
      57A      0.475214    58A      0.476710    59A      0.494924  
      60A      0.500711    61A      0.505773    62A      0.532999  
      63A      0.536147    64A      0.538103    65A      0.554942  
      66A      0.560810    67A      0.564778    68A      0.570560  
      69A      0.580961    70A      0.593382    71A      0.598085  
      72A      0.613335    73A      0.624352    74A      0.636038  
      75A      0.638915    76A      0.650245    77A      0.669492  
      78A      0.686735    79A      0.693869    80A      0.697554  
      81A      0.714360    82A      0.718960    83A      0.738991  
      84A      0.751681    85A      0.757834    86A      0.783164  
      87A      0.798024    88A      0.815160    89A      0.842176  
      90A      0.843976    91A      0.854623    92A      0.867138  
      93A      0.871037    94A      0.904042    95A      0.907991  
      96A      0.917938    97A      0.945893    98A      0.967778  
      99A      0.969933   100A      0.979804   101A      1.007584  
     102A      1.027264   103A      1.032818   104A      1.044024  
     105A      1.059753   106A      1.066033   107A      1.093889  
     108A      1.107619   109A      1.119964   110A      1.140012  
     111A      1.149589   112A      1.156517   113A      1.159225  
     114A      1.187983   115A      1.197122   116A      1.201317  
     117A      1.230281   118A      1.236692   119A      1.242873  
     120A      1.266197   121A      1.278672   122A      1.296583  
     123A      1.304077   124A      1.309650   125A      1.343056  
     126A      1.351993   127A      1.379424   128A      1.383098  
     129A      1.393292   130A      1.397587   131A      1.431057  
     132A      1.435451   133A      1.448200   134A      1.467575  
     135A      1.480754   136A      1.493768   137A      1.510467  
     138A      1.553250   139A      1.562279   140A      1.567370  
     141A      1.581004   142A      1.615250   143A      1.622072  
     144A      1.673983   145A      1.702739   146A      1.722377  
     147A      1.764405   148A      1.791782   149A      1.821877  
     150A      1.898898   151A      1.976753   152A      2.038763  
     153A      2.079622   154A      2.102030   155A      2.157373  
     156A      2.180790   157A      2.198757   158A      2.212129  
     159A      2.256386   160A      2.261018   161A      2.290600  
     162A      2.305216   163A      2.347082   164A      2.407151  
     165A      2.436977   166A      2.447603   167A      2.464534  
     168A      2.476719   169A      2.507230   170A      2.517149  
     171A      2.543425   172A      2.577309   173A      2.598331  
     174A      2.606880   175A      2.633529   176A      2.679548  
     177A      2.704501   178A      2.728199   179A      2.762808  
     180A      2.767285   181A      2.801180   182A      2.826531  
     183A      2.838885   184A      2.875254   185A      2.899140  
     186A      2.938679   187A      3.022864   188A      3.036109  
     189A      3.081630   190A      3.129456   191A      3.140979  
     192A      3.164114   193A      3.197330   194A      3.294698  
     195A      3.331665   196A      3.374508   197A      3.456123  
     198A      3.484225   199A      3.507193   200A      3.529471  
     201A      3.574907   202A      3.649173   203A      3.675499  
     204A      3.695054   205A      3.700496   206A      3.735125  
     207A      3.766183   208A      3.781877   209A      3.798629  
     210A      3.863469   211A      3.867242   212A      3.870111  
     213A      3.928167   214A      3.962678   215A      4.082051  
     216A      4.122485   217A      4.191002   218A      4.236691  
     219A      4.363214   220A      4.391512   221A      4.455706  
     222A      4.501294   223A      4.548650   224A      4.633829  
     225A      4.673051   226A      4.707317   227A      4.760546  
     228A      4.852359   229A      4.925326   230A      4.971369  
     231A      5.007134   232A      5.040483   233A      5.040863  
     234A      5.050696   235A      5.108401   236A      5.147794  
     237A      5.253965   238A      5.328741   239A      5.424195  
     240A      5.507984   241A      5.667212   242A      5.754456  
     243A      5.877950   244A      5.953142   245A      5.962437  
     246A      6.032230   247A      6.052323   248A      6.112595  
     249A      6.221785   250A      6.475910   251A      6.551643  
     252A      6.971017   253A      7.244395   254A     18.164685  
     255A     18.752097   256A     18.783100   257A     19.558624  
     258A     25.447790   259A     25.471897   260A     33.515935  
     261A     33.547236  

    Final Occupation by Irrep:
              A 
    DOCC [     5 ]

  @DF-RHF Final Energy:   -76.04046230756424

   => Energetics <=

    Nuclear Repulsion Energy =              9.0250676656535269
    One-Electron Energy =                -122.6780687127887290
    Two-Electron Energy =                  37.6125387395709652
    Total Energy =                        -76.0404623075642405

Computation Completed


Properties will be evaluated at   0.000000,   0.000000,   0.000000 [a0]

Properties computed using the SCF density matrix

  Nuclear Dipole Moment: [e a0]
     X:   -56.4730      Y:    12.0595      Z:     0.0132

  Electronic Dipole Moment: [e a0]
     X:    56.3233      Y:   -12.6014      Z:     0.5378

  Dipole Moment: [e a0]
     X:    -0.1497      Y:    -0.5419      Z:     0.5510     Total:     0.7871

  Dipole Moment: [D]
     X:    -0.3805      Y:    -1.3773      Z:     1.4004     Total:     2.0007


*** tstop() called on bme-earth.bme.utexas.edu at Mon May 13 13:34:33 2024
Module time:
	user time   =       7.57 seconds =       0.13 minutes
	system time =       0.10 seconds =       0.00 minutes
	total time  =          2 seconds =       0.03 minutes
Total time:
	user time   =      49.62 seconds =       0.83 minutes
	system time =       0.78 seconds =       0.01 minutes
	total time  =          8 seconds =       0.13 minutes

*** tstart() called on bme-earth.bme.utexas.edu
*** at Mon May 13 13:34:33 2024


  //>>>>>>>>>>>>>>>>>>>>>>>>>>>>>>>>>>>//
  //               DFMP2               //
  //<<<<<<<<<<<<<<<<<<<<<<<<<<<<<<<<<<<//

   => Loading Basis Set <=

    Name: (AUG-CC-PVDZ AUX)
    Role: RIFIT
    Keyword: DF_BASIS_MP2
    atoms 1, 5               entry N          line   158 file /opt/anaconda/envs/psi4v1.5/share/psi4/basis/aug-cc-pvdz-ri.gbs 
    atoms 2, 9, 11-12, 14-15 entry H          line    30 file /opt/anaconda/envs/psi4v1.5/share/psi4/basis/aug-cc-pvdz-ri.gbs 
    atoms 3, 6, 8, 10        entry C          line   112 file /opt/anaconda/envs/psi4v1.5/share/psi4/basis/aug-cc-pvdz-ri.gbs 
    atoms 4, 7, 13           entry O          line   204 file /opt/anaconda/envs/psi4v1.5/share/psi4/basis/aug-cc-pvdz-ri.gbs 

	 --------------------------------------------------------
	                          DF-MP2                         
	      2nd-Order Density-Fitted Moller-Plesset Theory     
	              RMP2 Wavefunction,   8 Threads             
	                                                         
	        Rob Parrish, Justin Turney, Andy Simmonett,      
	           Ed Hohenstein, and C. David Sherrill          
	 --------------------------------------------------------

   => Auxiliary Basis Set <=

  Basis Set: (AUG-CC-PVDZ AUX)
    Blend: AUG-CC-PVDZ-RI
    Number of shells: 252
    Number of basis functions: 786
    Number of Cartesian functions: 924
    Spherical Harmonics?: true
    Max angular momentum: 3

	 --------------------------------------------------------
	                 NBF =   261, NAUX =   786
	 --------------------------------------------------------
	   CLASS    FOCC     OCC    AOCC    AVIR     VIR    FVIR
	   PAIRS       1       5       4     256     256       0
	 --------------------------------------------------------

	 Will attempt to load fitting metric from file 97.

	-----------------------------------------------------------
	 ==================> DF-MP2 Energies <==================== 
	-----------------------------------------------------------
	 Reference Energy          =     -76.0404623075642405 [Eh]
	 Singles Energy            =      -0.0000000000000000 [Eh]
	 Same-Spin Energy          =      -0.0564692239960261 [Eh]
	 Opposite-Spin Energy      =      -0.1659230792765549 [Eh]
	 Correlation Energy        =      -0.2223923032725810 [Eh]
	 Total Energy              =     -76.2628546108368255 [Eh]
	-----------------------------------------------------------
	 ================> DF-SCS-MP2 Energies <================== 
	-----------------------------------------------------------
	 SCS Same-Spin Scale       =       0.3333333333333333 [-]
	 SCS Opposite-Spin Scale   =       1.2000000000000000 [-]
	 SCS Same-Spin Energy      =      -0.0188230746653420 [Eh]
	 SCS Opposite-Spin Energy  =      -0.1991076951318659 [Eh]
	 SCS Correlation Energy    =      -0.2179307697972079 [Eh]
	 SCS Total Energy          =     -76.2583930773614469 [Eh]
	-----------------------------------------------------------


*** tstop() called on bme-earth.bme.utexas.edu at Mon May 13 13:34:33 2024
Module time:
	user time   =       4.09 seconds =       0.07 minutes
	system time =       0.06 seconds =       0.00 minutes
	total time  =          0 seconds =       0.00 minutes
Total time:
	user time   =      53.71 seconds =       0.90 minutes
	system time =       0.84 seconds =       0.01 minutes
	total time  =          8 seconds =       0.13 minutes
  Constructing Basis Sets for SAPT...

   => Loading Basis Set <=

    Name: (AUG-CC-PVDZ AUX)
    Role: RIFIT
    Keyword: DF_BASIS_SAPT
    atoms 1, 5               entry N          line   158 file /opt/anaconda/envs/psi4v1.5/share/psi4/basis/aug-cc-pvdz-ri.gbs 
    atoms 2, 9, 11-12, 14-15 entry H          line    30 file /opt/anaconda/envs/psi4v1.5/share/psi4/basis/aug-cc-pvdz-ri.gbs 
    atoms 3, 6, 8, 10        entry C          line   112 file /opt/anaconda/envs/psi4v1.5/share/psi4/basis/aug-cc-pvdz-ri.gbs 
    atoms 4, 7, 13           entry O          line   204 file /opt/anaconda/envs/psi4v1.5/share/psi4/basis/aug-cc-pvdz-ri.gbs 


  //>>>>>>>>>>>>>>>>>>>>>>>>>>>>>>>>>>>//
  //           SAPT2+(3)DMP2           //
  //<<<<<<<<<<<<<<<<<<<<<<<<<<<<<<<<<<<//


*** tstart() called on bme-earth.bme.utexas.edu
*** at Mon May 13 13:34:33 2024

      SAPT2+(3)  
    Ed Hohenstein
     6 June 2009

      Orbital Information
  --------------------------
    NSO        =       261
    NMO        =       261
    NRI        =       786
    NOCC A     =        29
    NOCC B     =         5
    FOCC A     =         8
    FOCC B     =         1
    NVIR A     =       232
    NVIR B     =       256

    Estimated memory usage: 1734.9 MB

    Natural Orbital Cutoff:   1.000E-06
    Disp(T3) Truncation:            Yes
    CCD (vv|vv) Truncation:         Yes
    MBPT T2 Truncation:             Yes

    Monomer A: 41 virtual orbitals dropped
    Monomer B: 212 virtual orbitals dropped

    Elst10,r            =    -0.043388285207 [Eh]
    Exch10 (S^2)        =     0.053810530621 [Eh]
    Exch10              =     0.054701219526 [Eh]
    Ind20,r (A<-B)      =    -0.012008114566 [Eh]
    Ind20,r (B<-A)      =    -0.013945318596 [Eh]
    Ind20,r             =    -0.025953433161 [Eh]
    Exch-Ind20,r (A<-B) =     0.007655395922 [Eh]
    Exch-Ind20,r (B<-A) =     0.008593225183 [Eh]
    Exch-Ind20,r        =     0.016248621105 [Eh]
    Disp20              =    -0.014517734934 [Eh]
    Disp20 (NO)         =    -0.013165485354 [Eh]
    Exch-Disp20         =     0.003271295988 [Eh]
    Elst12,r            =    -0.001483386511 [Eh]
    Exch11              =    -0.000215224466 [Eh]
    Exch12              =     0.009242979961 [Eh]
    Ind22               =    -0.005207187426 [Eh]
    Disp21              =     0.001203825008 [Eh]
    Disp22 (SDQ)        =    -0.000755082146 [Eh]

    (i =   1 of   4)          9 seconds
    (i =   2 of   4)         19 seconds
    (i =   3 of   4)         28 seconds
    (i =   4 of   4)         38 seconds

    Disp220 (T)         =    -0.001178638455 [Eh]

    (i =   1 of  21)          0 seconds
    (i =   2 of  21)          0 seconds
    (i =   3 of  21)          0 seconds
    (i =   4 of  21)          0 seconds
    (i =   5 of  21)          1 seconds
    (i =   6 of  21)          1 seconds
    (i =   7 of  21)          1 seconds
    (i =   8 of  21)          1 seconds
    (i =   9 of  21)          1 seconds
    (i =  10 of  21)          1 seconds
    (i =  11 of  21)          1 seconds
    (i =  12 of  21)          1 seconds
    (i =  13 of  21)          1 seconds
    (i =  14 of  21)          2 seconds
    (i =  15 of  21)          2 seconds
    (i =  16 of  21)          2 seconds
    (i =  17 of  21)          2 seconds
    (i =  18 of  21)          2 seconds
    (i =  19 of  21)          2 seconds
    (i =  20 of  21)          2 seconds
    (i =  21 of  21)          2 seconds

    Disp202 (T)         =    -0.001019004725 [Eh]

    Disp22 (T)          =    -0.002197643180 [Eh]

    Est. Disp220 (T)    =    -0.001299698432 [Eh]
    Est. Disp202 (T)    =    -0.001123668448 [Eh]

    Est. Disp22 (T)     =    -0.002423366880 [Eh]
    Elst13,r            =     0.001227115260 [Eh]
    Disp30              =     0.000238397596 [Eh]

    SAPT Results 
  --------------------------------------------------------------------------------------------------------
    Electrostatics                -43.64455646 [mEh]     -27.38737266 [kcal/mol]    -114.58876719 [kJ/mol]
      Elst10,r                    -43.38828521 [mEh]     -27.22656002 [kcal/mol]    -113.91592712 [kJ/mol]
      Elst12,r                     -1.48338651 [mEh]      -0.93083909 [kcal/mol]      -3.89463075 [kJ/mol]
      Elst13,r                      1.22711526 [mEh]       0.77002645 [kcal/mol]       3.22179067 [kJ/mol]

    Exchange                       63.72897502 [mEh]      39.99053558 [kcal/mol]     167.32040087 [kJ/mol]
      Exch10                       54.70121953 [mEh]      34.32553348 [kcal/mol]     143.61803208 [kJ/mol]
      Exch10(S^2)                  53.81053062 [mEh]      33.76661775 [kcal/mol]     141.27952868 [kJ/mol]
      Exch11(S^2)                  -0.21522447 [mEh]      -0.13505539 [kcal/mol]      -0.56507176 [kJ/mol]
      Exch12(S^2)                   9.24297996 [mEh]       5.80005749 [kcal/mol]      24.26744055 [kJ/mol]

    Induction                     -18.09896247 [mEh]     -11.35727042 [kcal/mol]     -47.51881942 [kJ/mol]
      Ind20,r                     -25.95343316 [mEh]     -16.28602519 [kcal/mol]     -68.14072938 [kJ/mol]
      Ind22                        -5.20718743 [mEh]      -3.26755944 [kcal/mol]     -13.67146870 [kJ/mol]
      Exch-Ind20,r                 16.24862110 [mEh]      10.19616368 [kcal/mol]      42.66074883 [kJ/mol]
      Exch-Ind22                    3.26005484 [mEh]       2.04571530 [kcal/mol]       8.55927281 [kJ/mol]
      delta HF,r (2)               -7.25840514 [mEh]      -4.55471799 [kcal/mol]     -19.05694007 [kJ/mol]
      delta MP2,r (2)               0.81138731 [mEh]       0.50915322 [kcal/mol]       2.13029709 [kJ/mol]

    Dispersion                    -12.98266537 [mEh]      -8.14674551 [kcal/mol]     -34.08598323 [kJ/mol]
      Disp20                      -14.51773493 [mEh]      -9.11001621 [kcal/mol]     -38.11630782 [kJ/mol]
      Disp30                        0.23839760 [mEh]       0.14959675 [kcal/mol]       0.62591280 [kJ/mol]
      Disp21                        1.20382501 [mEh]       0.75541160 [kcal/mol]       3.16064212 [kJ/mol]
      Disp22 (SDQ)                 -0.75508215 [mEh]      -0.47382120 [kcal/mol]      -1.98246790 [kJ/mol]
      Disp22 (T)                   -2.19764318 [mEh]      -1.37904192 [kcal/mol]      -5.76991137 [kJ/mol]
      Est. Disp22 (T)              -2.42336688 [mEh]      -1.52068568 [kcal/mol]      -6.36254887 [kJ/mol]
      Exch-Disp20                   3.27129599 [mEh]       2.05276922 [kcal/mol]       8.58878643 [kJ/mol]

  Total HF                         -5.65028288 [mEh]      -3.54560604 [kcal/mol]     -14.83481566 [kJ/mol]
  Total SAPT0                     -16.89672182 [mEh]     -10.60285302 [kcal/mol]     -44.36233704 [kJ/mol]
  Total SAPT2                     -11.29948542 [mEh]      -7.09053415 [kcal/mol]     -29.66679489 [kJ/mol]
  Total SAPT2+                    -13.27410944 [mEh]      -8.32962943 [kcal/mol]     -34.85116954 [kJ/mol]
  Total SAPT2+(3)                 -11.80859658 [mEh]      -7.41000623 [kcal/mol]     -31.00346606 [kJ/mol]
  Total SAPT2+dMP2                -12.46272213 [mEh]      -7.82047621 [kcal/mol]     -32.72087245 [kJ/mol]
  Total SAPT2+(3)dMP2             -10.99720928 [mEh]      -6.90085301 [kcal/mol]     -28.87316897 [kJ/mol]

  Special recipe for scaled SAPT0 (see Manual):
    Electrostatics sSAPT0         -43.38828521 [mEh]     -27.22656002 [kcal/mol]    -113.91592712 [kJ/mol]
    Exchange sSAPT0                54.70121953 [mEh]      34.32553348 [kcal/mol]     143.61803208 [kJ/mol]
    Induction sSAPT0              -16.14293123 [mEh]     -10.12984228 [kcal/mol]     -42.38326010 [kJ/mol]
    Dispersion sSAPT0             -11.08129274 [mEh]      -6.95361617 [kcal/mol]     -29.09393007 [kJ/mol]
  Total sSAPT0                    -15.91128964 [mEh]      -9.98448499 [kcal/mol]     -41.77508521 [kJ/mol]
  --------------------------------------------------------------------------------------------------------

*** tstop() called on bme-earth.bme.utexas.edu at Mon May 13 13:36:13 2024
Module time:
	user time   =     784.62 seconds =      13.08 minutes
	system time =       8.34 seconds =       0.14 minutes
	total time  =        100 seconds =       1.67 minutes
Total time:
	user time   =     838.72 seconds =      13.98 minutes
	system time =       9.18 seconds =       0.15 minutes
	total time  =        108 seconds =       1.80 minutes

    Psi4 stopped on: Monday, 13 May 2024 01:36PM
    Psi4 wall time for execution: 0:01:48.33

*** Psi4 exiting successfully. Buy a developer a beer!
