
    -----------------------------------------------------------------------
          Psi4: An Open-Source Ab Initio Electronic Structure Package
                               Psi4 1.5 release

                         Git: Rev {HEAD} e9f4d6d 


    D. G. A. Smith, L. A. Burns, A. C. Simmonett, R. M. Parrish,
    M. C. Schieber, R. Galvelis, P. Kraus, H. Kruse, R. Di Remigio,
    A. Alenaizan, A. M. James, S. Lehtola, J. P. Misiewicz, M. Scheurer,
    R. A. Shaw, J. B. Schriber, Y. Xie, Z. L. Glick, D. A. Sirianni,
    J. S. O'Brien, J. M. Waldrop, A. Kumar, E. G. Hohenstein,
    B. P. Pritchard, B. R. Brooks, H. F. Schaefer III, A. Yu. Sokolov,
    K. Patkowski, A. E. DePrince III, U. Bozkaya, R. A. King,
    F. A. Evangelista, J. M. Turney, T. D. Crawford, C. D. Sherrill,
    J. Chem. Phys. 152(18) 184108 (2020). https://doi.org/10.1063/5.0006002

                            Additional Code Authors
    E. T. Seidl, C. L. Janssen, E. F. Valeev, M. L. Leininger,
    J. F. Gonthier, R. M. Richard, H. R. McAlexander, M. Saitow, X. Wang,
    P. Verma, M. H. Lechner, and A. Jiang

             Previous Authors, Complete List of Code Contributors,
                       and Citations for Specific Modules
    https://github.com/psi4/psi4/blob/master/codemeta.json
    https://github.com/psi4/psi4/graphs/contributors
    http://psicode.org/psi4manual/master/introduction.html#citing-psifour

    -----------------------------------------------------------------------


    Psi4 started on: Monday, 13 May 2024 09:50AM

    Process ID: 2938730
    Host:       node150.bme.utexas.edu
    PSIDATADIR: /opt/anaconda/envs/psi4v1.5/share/psi4
    Memory:     500.0 MiB
    Threads:    8
    
  ==> Input File <==

--------------------------------------------------------------------------
memory 50GB

molecule {
0 1
N 1.66639 1.12439 0.00409
H 2.48654 1.71958 0.00361
C 1.93297 -0.23766 0.0074
O 3.06323 -0.70558 0.01387
N 0.77407 -1.00178 0.00381
C -0.55518 -0.56648 -0.00897
O -1.47107 -1.39711 -0.01738
C -0.70702 0.87811 -0.00939
H -1.71044 1.28576 -0.01858
C 0.3976 1.65858 -0.00584
H 0.34897 2.74269 -0.00976
H 0.91614 -2.00907 0.00099
--
0 1
O -5.161047 0.17647825 -0.010402249999999995
H -4.508447 -0.54862175 -0.07653225
H -5.575436999999999 0.03506824999999998 0.85396775
 units angstrom
 no_reorient
 symmetry c1} 
set  {scf_type DF
 basis aug-cc-pvdz
 freeze_core True
 guess SAD}
energy('sapt2+(3)dmp2')
--------------------------------------------------------------------------

  Memory set to  46.566 GiB by Python driver.

Scratch directory: /tmp/
   => Loading Basis Set <=

    Name: AUG-CC-PVDZ
    Role: ORBITAL
    Keyword: BASIS
    atoms 1, 5               entry N          line   218 file /opt/anaconda/envs/psi4v1.5/share/psi4/basis/aug-cc-pvdz.gbs 
    atoms 2, 9, 11-12, 14-15 entry H          line    40 file /opt/anaconda/envs/psi4v1.5/share/psi4/basis/aug-cc-pvdz.gbs 
    atoms 3, 6, 8, 10        entry C          line   182 file /opt/anaconda/envs/psi4v1.5/share/psi4/basis/aug-cc-pvdz.gbs 
    atoms 4, 7, 13           entry O          line   254 file /opt/anaconda/envs/psi4v1.5/share/psi4/basis/aug-cc-pvdz.gbs 

   => Loading Basis Set <=

    Name: AUG-CC-PVDZ
    Role: ORBITAL
    Keyword: BASIS
    atoms 1, 5               entry N          line   218 file /opt/anaconda/envs/psi4v1.5/share/psi4/basis/aug-cc-pvdz.gbs 
    atoms 2, 9, 11-12, 14-15 entry H          line    40 file /opt/anaconda/envs/psi4v1.5/share/psi4/basis/aug-cc-pvdz.gbs 
    atoms 3, 6, 8, 10        entry C          line   182 file /opt/anaconda/envs/psi4v1.5/share/psi4/basis/aug-cc-pvdz.gbs 
    atoms 4, 7, 13           entry O          line   254 file /opt/anaconda/envs/psi4v1.5/share/psi4/basis/aug-cc-pvdz.gbs 


  //>>>>>>>>>>>>>>>>>>>>>>>>>>>>>>>>>>>//
  //              Dimer HF             //
  //<<<<<<<<<<<<<<<<<<<<<<<<<<<<<<<<<<<//


*** tstart() called on node150.bme.utexas.edu
*** at Mon May 13 09:50:42 2024

   => Loading Basis Set <=

    Name: AUG-CC-PVDZ
    Role: ORBITAL
    Keyword: BASIS
    atoms 1, 5               entry N          line   218 file /opt/anaconda/envs/psi4v1.5/share/psi4/basis/aug-cc-pvdz.gbs 
    atoms 2, 9, 11-12, 14-15 entry H          line    40 file /opt/anaconda/envs/psi4v1.5/share/psi4/basis/aug-cc-pvdz.gbs 
    atoms 3, 6, 8, 10        entry C          line   182 file /opt/anaconda/envs/psi4v1.5/share/psi4/basis/aug-cc-pvdz.gbs 
    atoms 4, 7, 13           entry O          line   254 file /opt/anaconda/envs/psi4v1.5/share/psi4/basis/aug-cc-pvdz.gbs 


         ---------------------------------------------------------
                                   SCF
               by Justin Turney, Rob Parrish, Andy Simmonett
                          and Daniel G. A. Smith
                              RHF Reference
                        8 Threads,  47683 MiB Core
         ---------------------------------------------------------

  ==> Geometry <==

    Molecular point group: c1
    Full point group: C1

    Geometry (in Angstrom), charge = 0, multiplicity = 1:

       Center              X                  Y                   Z               Mass       
    ------------   -----------------  -----------------  -----------------  -----------------
         N            1.806312877540     1.163235847385     0.000659519932    14.003074004430
         H            2.626462877540     1.758425847385     0.000179519932     1.007825032230
         C            2.072892877540    -0.198814152615     0.003969519932    12.000000000000
         O            3.203152877540    -0.666734152615     0.010439519932    15.994914619570
         N            0.913992877540    -0.962934152615     0.000379519932    14.003074004430
         C           -0.415257122460    -0.527634152615    -0.012400480068    12.000000000000
         O           -1.331147122460    -1.358264152615    -0.020810480068    15.994914619570
         C           -0.567097122460     0.916955847385    -0.012820480068    12.000000000000
         H           -1.570517122460     1.324605847385    -0.022010480068     1.007825032230
         C            0.537522877540     1.697425847385    -0.009270480068    12.000000000000
         H            0.488892877540     2.781535847385    -0.013190480068     1.007825032230
         H            1.056062877540    -1.970224152615    -0.002440480068     1.007825032230
         O           -5.021124122460     0.215324097385    -0.013832730068    15.994914619570
         H           -4.368524122460    -0.509775902615    -0.079962730068     1.007825032230
         H           -5.435514122460     0.073914097385     0.850537269932     1.007825032230

  Running in c1 symmetry.

  Rotational constants: A =      0.12452  B =      0.02176  C =      0.01856 [cm^-1]
  Rotational constants: A =   3733.00216  B =    652.41961  C =    556.27336 [MHz]
  Nuclear repulsion =  419.758508470539255

  Charge       = 0
  Multiplicity = 1
  Electrons    = 68
  Nalpha       = 34
  Nbeta        = 34

  ==> Algorithm <==

  SCF Algorithm Type is DF.
  DIIS enabled.
  MOM disabled.
  Fractional occupation disabled.
  Guess Type is SAD.
  Energy threshold   = 1.00e-08
  Density threshold  = 1.00e-08
  Integral threshold = 1.00e-12

  ==> Primary Basis <==

  Basis Set: AUG-CC-PVDZ
    Blend: AUG-CC-PVDZ
    Number of shells: 111
    Number of basis functions: 261
    Number of Cartesian functions: 279
    Spherical Harmonics?: true
    Max angular momentum: 2

   => Loading Basis Set <=

    Name: (AUG-CC-PVDZ AUX)
    Role: JKFIT
    Keyword: DF_BASIS_SCF
    atoms 1, 5               entry N          line   212 file /opt/anaconda/envs/psi4v1.5/share/psi4/basis/aug-cc-pvdz-jkfit.gbs 
    atoms 2, 9, 11-12, 14-15 entry H          line    70 file /opt/anaconda/envs/psi4v1.5/share/psi4/basis/aug-cc-pvdz-jkfit.gbs 
    atoms 3, 6, 8, 10        entry C          line   154 file /opt/anaconda/envs/psi4v1.5/share/psi4/basis/aug-cc-pvdz-jkfit.gbs 
    atoms 4, 7, 13           entry O          line   270 file /opt/anaconda/envs/psi4v1.5/share/psi4/basis/aug-cc-pvdz-jkfit.gbs 

  ==> Integral Setup <==

  ==> DiskDFJK: Density-Fitted J/K Matrices <==

    J tasked:                  Yes
    K tasked:                  Yes
    wK tasked:                  No
    OpenMP threads:              8
    Integrals threads:           8
    Memory [MiB]:            35762
    Algorithm:                Core
    Integral Cache:           SAVE
    Schwarz Cutoff:          1E-12
    Fitting Condition:       1E-10

   => Auxiliary Basis Set <=

  Basis Set: (AUG-CC-PVDZ AUX)
    Blend: AUG-CC-PVDZ-JKFIT
    Number of shells: 324
    Number of basis functions: 966
    Number of Cartesian functions: 1119
    Spherical Harmonics?: true
    Max angular momentum: 3

  Minimum eigenvalue in the overlap matrix is 1.4127073044E-05.
  Reciprocal condition number of the overlap matrix is 1.0527829204E-06.
    Using symmetric orthogonalization.

  ==> Pre-Iterations <==

  SCF Guess: Superposition of Atomic Densities via on-the-fly atomic UHF (no occupation information).

   -------------------------
    Irrep   Nso     Nmo    
   -------------------------
     A        261     261 
   -------------------------
    Total     261     261
   -------------------------

  ==> Iterations <==

                           Total Energy        Delta E     RMS |[F,P]|

   @DF-RHF iter SAD:  -487.24159464069101   -4.87242e+02   0.00000e+00 
   @DF-RHF iter   1:  -488.24452073952170   -1.00293e+00   3.24022e-03 DIIS
   @DF-RHF iter   2:  -488.45642560396783   -2.11905e-01   2.12369e-03 DIIS
   @DF-RHF iter   3:  -488.56499676079665   -1.08571e-01   3.41929e-04 DIIS
   @DF-RHF iter   4:  -488.56940606136294   -4.40930e-03   1.58213e-04 DIIS
   @DF-RHF iter   5:  -488.57044166266473   -1.03560e-03   3.50301e-05 DIIS
   @DF-RHF iter   6:  -488.57054834474889   -1.06682e-04   1.76539e-05 DIIS
   @DF-RHF iter   7:  -488.57057974947742   -3.14047e-05   6.03361e-06 DIIS
   @DF-RHF iter   8:  -488.57058406674940   -4.31727e-06   2.02387e-06 DIIS
   @DF-RHF iter   9:  -488.57058438863038   -3.21881e-07   8.59152e-07 DIIS
   @DF-RHF iter  10:  -488.57058445147368   -6.28433e-08   3.31454e-07 DIIS
   @DF-RHF iter  11:  -488.57058446117878   -9.70510e-09   1.22459e-07 DIIS
   @DF-RHF iter  12:  -488.57058446223789   -1.05911e-09   3.27406e-08 DIIS
   @DF-RHF iter  13:  -488.57058446234413   -1.06240e-10   1.03774e-08 DIIS
   @DF-RHF iter  14:  -488.57058446235766   -1.35287e-11   5.00282e-09 DIIS
  Energy and wave function converged.


  ==> Post-Iterations <==

    Orbital Energies [Eh]
    ---------------------

    Doubly Occupied:                                                      

       1A    -20.569449     2A    -20.563421     3A    -20.556409  
       4A    -15.657453     5A    -15.641011     6A    -11.435084  
       7A    -11.395982     8A    -11.353714     9A    -11.267519  
      10A     -1.439631    11A     -1.398212    12A     -1.338412  
      13A     -1.317488    14A     -1.249747    15A     -1.093986  
      16A     -0.937962    17A     -0.906957    18A     -0.809457  
      19A     -0.767845    20A     -0.717106    21A     -0.698334  
      22A     -0.681106    23A     -0.669522    24A     -0.656768  
      25A     -0.616457    26A     -0.603218    27A     -0.574220  
      28A     -0.570951    29A     -0.526599    30A     -0.498348  
      31A     -0.486814    32A     -0.453128    33A     -0.438676  
      34A     -0.371766  

    Virtual:                                                              

      35A      0.018639    36A      0.040470    37A      0.047313  
      38A      0.052982    39A      0.066543    40A      0.071927  
      41A      0.076432    42A      0.082794    43A      0.100244  
      44A      0.107827    45A      0.116644    46A      0.120408  
      47A      0.129120    48A      0.135312    49A      0.142938  
      50A      0.148289    51A      0.149123    52A      0.156192  
      53A      0.167810    54A      0.174779    55A      0.177200  
      56A      0.188889    57A      0.191280    58A      0.201606  
      59A      0.209767    60A      0.223891    61A      0.236706  
      62A      0.245506    63A      0.249141    64A      0.257314  
      65A      0.267733    66A      0.271206    67A      0.280965  
      68A      0.284896    69A      0.292905    70A      0.307328  
      71A      0.313793    72A      0.318282    73A      0.320692  
      74A      0.333612    75A      0.336131    76A      0.341905  
      77A      0.346111    78A      0.348794    79A      0.362504  
      80A      0.373262    81A      0.378619    82A      0.387591  
      83A      0.392566    84A      0.399982    85A      0.414781  
      86A      0.420876    87A      0.428743    88A      0.439403  
      89A      0.445956    90A      0.451386    91A      0.469276  
      92A      0.474362    93A      0.493227    94A      0.494619  
      95A      0.505247    96A      0.507044    97A      0.508712  
      98A      0.533412    99A      0.552898   100A      0.563351  
     101A      0.568144   102A      0.582075   103A      0.588689  
     104A      0.592194   105A      0.615945   106A      0.629328  
     107A      0.632590   108A      0.635786   109A      0.645473  
     110A      0.650668   111A      0.671338   112A      0.685320  
     113A      0.696165   114A      0.702338   115A      0.704938  
     116A      0.722435   117A      0.741534   118A      0.753151  
     119A      0.759897   120A      0.766585   121A      0.788119  
     122A      0.809629   123A      0.810457   124A      0.813572  
     125A      0.832802   126A      0.845976   127A      0.851605  
     128A      0.852679   129A      0.861779   130A      0.880079  
     131A      0.899730   132A      0.915777   133A      0.941438  
     134A      0.944363   135A      0.958775   136A      0.966423  
     137A      0.975213   138A      0.977770   139A      0.988575  
     140A      1.001733   141A      1.033680   142A      1.049497  
     143A      1.056632   144A      1.085894   145A      1.095454  
     146A      1.115450   147A      1.121673   148A      1.148422  
     149A      1.162857   150A      1.168359   151A      1.192764  
     152A      1.203736   153A      1.213416   154A      1.220942  
     155A      1.242225   156A      1.271554   157A      1.285591  
     158A      1.317933   159A      1.339353   160A      1.344589  
     161A      1.350445   162A      1.360745   163A      1.386828  
     164A      1.443740   165A      1.467751   166A      1.482176  
     167A      1.503268   168A      1.518439   169A      1.531995  
     170A      1.538286   171A      1.542318   172A      1.558827  
     173A      1.598440   174A      1.612398   175A      1.632398  
     176A      1.640674   177A      1.650949   178A      1.667947  
     179A      1.675638   180A      1.718061   181A      1.748731  
     182A      1.783261   183A      1.805688   184A      1.820599  
     185A      1.847406   186A      1.861891   187A      1.898360  
     188A      1.925249   189A      1.952269   190A      1.970959  
     191A      1.982441   192A      1.988351   193A      1.992536  
     194A      2.009635   195A      2.016867   196A      2.042219  
     197A      2.063434   198A      2.096435   199A      2.097873  
     200A      2.130042   201A      2.160005   202A      2.198627  
     203A      2.211322   204A      2.216890   205A      2.233723  
     206A      2.265274   207A      2.313569   208A      2.314317  
     209A      2.343534   210A      2.360574   211A      2.375173  
     212A      2.405960   213A      2.438162   214A      2.439764  
     215A      2.470958   216A      2.497630   217A      2.501154  
     218A      2.536387   219A      2.571461   220A      2.624453  
     221A      2.672953   222A      2.686527   223A      2.714384  
     224A      2.729326   225A      2.740981   226A      2.772671  
     227A      2.776835   228A      2.815656   229A      2.838914  
     230A      2.860764   231A      2.869953   232A      2.883830  
     233A      2.980391   234A      2.989167   235A      3.022583  
     236A      3.078489   237A      3.153944   238A      3.155416  
     239A      3.218191   240A      3.306463   241A      3.355923  
     242A      3.459011   243A      3.526500   244A      3.568212  
     245A      3.703035   246A      3.710712   247A      3.724488  
     248A      3.734777   249A      3.754548   250A      3.757962  
     251A      3.798804   252A      3.813402   253A      3.813446  
     254A      3.838282   255A      4.012613   256A      4.026224  
     257A      4.043419   258A      4.059183   259A      4.143474  
     260A      4.296329   261A      4.312142  

    Final Occupation by Irrep:
              A 
    DOCC [    34 ]

  @DF-RHF Final Energy:  -488.57058446235766

   => Energetics <=

    Nuclear Repulsion Energy =            419.7585084705392546
    One-Electron Energy =               -1500.1326802439416497
    Two-Electron Energy =                 591.8035873110447938
    Total Energy =                       -488.5705844623576013

Computation Completed


Properties will be evaluated at   0.000000,   0.000000,   0.000000 [a0]

Properties computed using the SCF density matrix

  Nuclear Dipole Moment: [e a0]
     X:    -6.7758      Y:     3.2329      Z:     0.6872

  Electronic Dipole Moment: [e a0]
     X:     7.2652      Y:    -1.7495      Z:    -0.1743

  Dipole Moment: [e a0]
     X:     0.4894      Y:     1.4835      Z:     0.5128     Total:     1.6442

  Dipole Moment: [D]
     X:     1.2440      Y:     3.7706      Z:     1.3035     Total:     4.1790


*** tstop() called on node150.bme.utexas.edu at Mon May 13 09:50:45 2024
Module time:
	user time   =      18.83 seconds =       0.31 minutes
	system time =       0.47 seconds =       0.01 minutes
	total time  =          3 seconds =       0.05 minutes
Total time:
	user time   =      18.83 seconds =       0.31 minutes
	system time =       0.47 seconds =       0.01 minutes
	total time  =          3 seconds =       0.05 minutes

*** tstart() called on node150.bme.utexas.edu
*** at Mon May 13 09:50:45 2024


  //>>>>>>>>>>>>>>>>>>>>>>>>>>>>>>>>>>>//
  //               DFMP2               //
  //<<<<<<<<<<<<<<<<<<<<<<<<<<<<<<<<<<<//

   => Loading Basis Set <=

    Name: (AUG-CC-PVDZ AUX)
    Role: RIFIT
    Keyword: DF_BASIS_MP2
    atoms 1, 5               entry N          line   158 file /opt/anaconda/envs/psi4v1.5/share/psi4/basis/aug-cc-pvdz-ri.gbs 
    atoms 2, 9, 11-12, 14-15 entry H          line    30 file /opt/anaconda/envs/psi4v1.5/share/psi4/basis/aug-cc-pvdz-ri.gbs 
    atoms 3, 6, 8, 10        entry C          line   112 file /opt/anaconda/envs/psi4v1.5/share/psi4/basis/aug-cc-pvdz-ri.gbs 
    atoms 4, 7, 13           entry O          line   204 file /opt/anaconda/envs/psi4v1.5/share/psi4/basis/aug-cc-pvdz-ri.gbs 

	 --------------------------------------------------------
	                          DF-MP2                         
	      2nd-Order Density-Fitted Moller-Plesset Theory     
	              RMP2 Wavefunction,   8 Threads             
	                                                         
	        Rob Parrish, Justin Turney, Andy Simmonett,      
	           Ed Hohenstein, and C. David Sherrill          
	 --------------------------------------------------------

   => Auxiliary Basis Set <=

  Basis Set: (AUG-CC-PVDZ AUX)
    Blend: AUG-CC-PVDZ-RI
    Number of shells: 252
    Number of basis functions: 786
    Number of Cartesian functions: 924
    Spherical Harmonics?: true
    Max angular momentum: 3

	 --------------------------------------------------------
	                 NBF =   261, NAUX =   786
	 --------------------------------------------------------
	   CLASS    FOCC     OCC    AOCC    AVIR     VIR    FVIR
	   PAIRS       9      34      25     227     227       0
	 --------------------------------------------------------

	 Will save fitting metric to file 97.

	-----------------------------------------------------------
	 ==================> DF-MP2 Energies <==================== 
	-----------------------------------------------------------
	 Reference Energy          =    -488.5705844623576581 [Eh]
	 Singles Energy            =      -0.0000000000000000 [Eh]
	 Same-Spin Energy          =      -0.3993550630674652 [Eh]
	 Opposite-Spin Energy      =      -1.0731219272359585 [Eh]
	 Correlation Energy        =      -1.4724769903034236 [Eh]
	 Total Energy              =    -490.0430614526611066 [Eh]
	-----------------------------------------------------------
	 ================> DF-SCS-MP2 Energies <================== 
	-----------------------------------------------------------
	 SCS Same-Spin Scale       =       0.3333333333333333 [-]
	 SCS Opposite-Spin Scale   =       1.2000000000000000 [-]
	 SCS Same-Spin Energy      =      -0.1331183543558217 [Eh]
	 SCS Opposite-Spin Energy  =      -1.2877463126831501 [Eh]
	 SCS Correlation Energy    =      -1.4208646670389717 [Eh]
	 SCS Total Energy          =    -489.9914491293966421 [Eh]
	-----------------------------------------------------------


*** tstop() called on node150.bme.utexas.edu at Mon May 13 09:50:46 2024
Module time:
	user time   =       6.59 seconds =       0.11 minutes
	system time =       0.14 seconds =       0.00 minutes
	total time  =          1 seconds =       0.02 minutes
Total time:
	user time   =      25.42 seconds =       0.42 minutes
	system time =       0.61 seconds =       0.01 minutes
	total time  =          4 seconds =       0.07 minutes

  //>>>>>>>>>>>>>>>>>>>>>>>>>>>>>>>>>>>//
  //            Monomer A HF           //
  //<<<<<<<<<<<<<<<<<<<<<<<<<<<<<<<<<<<//


*** tstart() called on node150.bme.utexas.edu
*** at Mon May 13 09:50:46 2024

   => Loading Basis Set <=

    Name: AUG-CC-PVDZ
    Role: ORBITAL
    Keyword: BASIS
    atoms 1, 5               entry N          line   218 file /opt/anaconda/envs/psi4v1.5/share/psi4/basis/aug-cc-pvdz.gbs 
    atoms 2, 9, 11-12, 14-15 entry H          line    40 file /opt/anaconda/envs/psi4v1.5/share/psi4/basis/aug-cc-pvdz.gbs 
    atoms 3, 6, 8, 10        entry C          line   182 file /opt/anaconda/envs/psi4v1.5/share/psi4/basis/aug-cc-pvdz.gbs 
    atoms 4, 7, 13           entry O          line   254 file /opt/anaconda/envs/psi4v1.5/share/psi4/basis/aug-cc-pvdz.gbs 


         ---------------------------------------------------------
                                   SCF
               by Justin Turney, Rob Parrish, Andy Simmonett
                          and Daniel G. A. Smith
                              RHF Reference
                        8 Threads,  47683 MiB Core
         ---------------------------------------------------------

  ==> Geometry <==

    Molecular point group: c1
    Full point group: C1

    Geometry (in Angstrom), charge = 0, multiplicity = 1:

       Center              X                  Y                   Z               Mass       
    ------------   -----------------  -----------------  -----------------  -----------------
         N            1.806312877540     1.163235847385     0.000659519932    14.003074004430
         H            2.626462877540     1.758425847385     0.000179519932     1.007825032230
         C            2.072892877540    -0.198814152615     0.003969519932    12.000000000000
         O            3.203152877540    -0.666734152615     0.010439519932    15.994914619570
         N            0.913992877540    -0.962934152615     0.000379519932    14.003074004430
         C           -0.415257122460    -0.527634152615    -0.012400480068    12.000000000000
         O           -1.331147122460    -1.358264152615    -0.020810480068    15.994914619570
         C           -0.567097122460     0.916955847385    -0.012820480068    12.000000000000
         H           -1.570517122460     1.324605847385    -0.022010480068     1.007825032230
         C            0.537522877540     1.697425847385    -0.009270480068    12.000000000000
         H            0.488892877540     2.781535847385    -0.013190480068     1.007825032230
         H            1.056062877540    -1.970224152615    -0.002440480068     1.007825032230
      Gh(O)          -5.021124122460     0.215324097385    -0.013832730068    15.994914619570
      Gh(H)          -4.368524122460    -0.509775902615    -0.079962730068     1.007825032230
      Gh(H)          -5.435514122460     0.073914097385     0.850537269932     1.007825032230

  Running in c1 symmetry.

  Rotational constants: A =      0.12452  B =      0.02176  C =      0.01856 [cm^-1]
  Rotational constants: A =   3733.00216  B =    652.41961  C =    556.27336 [MHz]
  Nuclear repulsion =  355.546890042850862

  Charge       = 0
  Multiplicity = 1
  Electrons    = 58
  Nalpha       = 29
  Nbeta        = 29

  ==> Algorithm <==

  SCF Algorithm Type is DF.
  DIIS enabled.
  MOM disabled.
  Fractional occupation disabled.
  Guess Type is SAD.
  Energy threshold   = 1.00e-08
  Density threshold  = 1.00e-08
  Integral threshold = 1.00e-12

  ==> Primary Basis <==

  Basis Set: AUG-CC-PVDZ
    Blend: AUG-CC-PVDZ
    Number of shells: 111
    Number of basis functions: 261
    Number of Cartesian functions: 279
    Spherical Harmonics?: true
    Max angular momentum: 2

   => Loading Basis Set <=

    Name: (AUG-CC-PVDZ AUX)
    Role: JKFIT
    Keyword: DF_BASIS_SCF
    atoms 1, 5               entry N          line   212 file /opt/anaconda/envs/psi4v1.5/share/psi4/basis/aug-cc-pvdz-jkfit.gbs 
    atoms 2, 9, 11-12, 14-15 entry H          line    70 file /opt/anaconda/envs/psi4v1.5/share/psi4/basis/aug-cc-pvdz-jkfit.gbs 
    atoms 3, 6, 8, 10        entry C          line   154 file /opt/anaconda/envs/psi4v1.5/share/psi4/basis/aug-cc-pvdz-jkfit.gbs 
    atoms 4, 7, 13           entry O          line   270 file /opt/anaconda/envs/psi4v1.5/share/psi4/basis/aug-cc-pvdz-jkfit.gbs 

  ==> Integral Setup <==

  ==> DiskDFJK: Density-Fitted J/K Matrices <==

    J tasked:                  Yes
    K tasked:                  Yes
    wK tasked:                  No
    OpenMP threads:              8
    Integrals threads:           8
    Memory [MiB]:            35762
    Algorithm:                Core
    Integral Cache:           LOAD
    Schwarz Cutoff:          1E-12
    Fitting Condition:       1E-10

   => Auxiliary Basis Set <=

  Basis Set: (AUG-CC-PVDZ AUX)
    Blend: AUG-CC-PVDZ-JKFIT
    Number of shells: 324
    Number of basis functions: 966
    Number of Cartesian functions: 1119
    Spherical Harmonics?: true
    Max angular momentum: 3

  Minimum eigenvalue in the overlap matrix is 1.4127073044E-05.
  Reciprocal condition number of the overlap matrix is 1.0527829204E-06.
    Using symmetric orthogonalization.

  ==> Pre-Iterations <==

  SCF Guess: Superposition of Atomic Densities via on-the-fly atomic UHF (no occupation information).

   -------------------------
    Irrep   Nso     Nmo    
   -------------------------
     A        261     261 
   -------------------------
    Total     261     261
   -------------------------

  ==> Iterations <==

                           Total Energy        Delta E     RMS |[F,P]|

   @DF-RHF iter SAD:  -411.78338330308799   -4.11783e+02   0.00000e+00 
   @DF-RHF iter   1:  -412.28017296078445   -4.96790e-01   2.76050e-03 DIIS
   @DF-RHF iter   2:  -412.44060461151622   -1.60432e-01   1.82467e-03 DIIS
   @DF-RHF iter   3:  -412.52103833260088   -8.04337e-02   3.39973e-04 DIIS
   @DF-RHF iter   4:  -412.52540787540124   -4.36954e-03   1.34110e-04 DIIS
   @DF-RHF iter   5:  -412.52626991573442   -8.62040e-04   2.77197e-05 DIIS
   @DF-RHF iter   6:  -412.52637004304444   -1.00127e-04   1.43494e-05 DIIS
   @DF-RHF iter   7:  -412.52638896809981   -1.89251e-05   5.48452e-06 DIIS
   @DF-RHF iter   8:  -412.52639201459505   -3.04650e-06   2.00720e-06 DIIS
   @DF-RHF iter   9:  -412.52639225986877   -2.45274e-07   7.94425e-07 DIIS
   @DF-RHF iter  10:  -412.52639232225204   -6.23833e-08   2.58674e-07 DIIS
   @DF-RHF iter  11:  -412.52639232903448   -6.78244e-09   8.87569e-08 DIIS
   @DF-RHF iter  12:  -412.52639232960763   -5.73152e-10   2.62339e-08 DIIS
   @DF-RHF iter  13:  -412.52639232967152   -6.38920e-11   9.45273e-09 DIIS
  Energy and wave function converged.


  ==> Post-Iterations <==

    Orbital Energies [Eh]
    ---------------------

    Doubly Occupied:                                                      

       1A    -20.561563     2A    -20.551622     3A    -15.655848  
       4A    -15.638046     5A    -11.433098     6A    -11.391835  
       7A    -11.352484     8A    -11.267046     9A     -1.437501  
      10A     -1.393652    11A     -1.315602    12A     -1.246958  
      13A     -1.092652    14A     -0.936169    15A     -0.904283  
      16A     -0.807981    17A     -0.765747    18A     -0.715361  
      19A     -0.677534    20A     -0.667406    21A     -0.655103  
      22A     -0.613113    23A     -0.601626    24A     -0.567103  
      25A     -0.525187    26A     -0.484588    27A     -0.448509  
      28A     -0.434874    29A     -0.370144  

    Virtual:                                                              

      30A      0.017775    31A      0.037034    32A      0.048197  
      33A      0.054037    34A      0.067348    35A      0.069637  
      36A      0.075489    37A      0.084392    38A      0.099035  
      39A      0.107758    40A      0.115523    41A      0.120501  
      42A      0.128313    43A      0.132666    44A      0.142822  
      45A      0.147086    46A      0.150542    47A      0.152374  
      48A      0.155285    49A      0.165268    50A      0.176176  
      51A      0.183914    52A      0.189086    53A      0.195348  
      54A      0.206110    55A      0.211115    56A      0.222260  
      57A      0.228352    58A      0.252586    59A      0.253868  
      60A      0.259269    61A      0.262661    62A      0.277629  
      63A      0.284599    64A      0.299898    65A      0.311024  
      66A      0.317677    67A      0.321394    68A      0.325892  
      69A      0.335736    70A      0.343708    71A      0.345406  
      72A      0.351006    73A      0.360563    74A      0.363916  
      75A      0.373276    76A      0.389136    77A      0.398118  
      78A      0.404354    79A      0.414011    80A      0.417181  
      81A      0.433110    82A      0.439566    83A      0.443844  
      84A      0.446244    85A      0.469603    86A      0.474000  
      87A      0.478605    88A      0.484154    89A      0.495049  
      90A      0.507436    91A      0.509659    92A      0.512029  
      93A      0.521477    94A      0.548207    95A      0.555819  
      96A      0.565880    97A      0.576703    98A      0.584449  
      99A      0.592492   100A      0.611598   101A      0.615936  
     102A      0.631947   103A      0.634395   104A      0.641117  
     105A      0.645766   106A      0.654949   107A      0.680373  
     108A      0.692235   109A      0.699544   110A      0.703467  
     111A      0.713325   112A      0.724324   113A      0.745639  
     114A      0.760747   115A      0.768913   116A      0.789060  
     117A      0.808627   118A      0.811366   119A      0.812895  
     120A      0.836892   121A      0.839221   122A      0.854075  
     123A      0.855629   124A      0.864084   125A      0.891860  
     126A      0.916720   127A      0.929013   128A      0.937112  
     129A      0.947480   130A      0.959317   131A      0.962823  
     132A      0.973872   133A      0.986988   134A      0.991124  
     135A      1.007714   136A      1.040109   137A      1.051460  
     138A      1.061086   139A      1.080341   140A      1.096234  
     141A      1.117109   142A      1.142608   143A      1.158983  
     144A      1.162262   145A      1.179747   146A      1.212937  
     147A      1.216003   148A      1.235644   149A      1.247504  
     150A      1.275814   151A      1.280477   152A      1.290028  
     153A      1.313410   154A      1.322689   155A      1.346023  
     156A      1.348288   157A      1.357230   158A      1.366943  
     159A      1.382308   160A      1.396353   161A      1.421794  
     162A      1.459551   163A      1.501048   164A      1.502486  
     165A      1.519111   166A      1.532716   167A      1.539681  
     168A      1.559929   169A      1.561399   170A      1.604692  
     171A      1.633819   172A      1.653301   173A      1.654407  
     174A      1.679473   175A      1.715399   176A      1.749744  
     177A      1.783228   178A      1.808742   179A      1.822732  
     180A      1.848383   181A      1.863498   182A      1.901835  
     183A      1.927218   184A      1.955432   185A      1.972947  
     186A      1.986781   187A      1.989695   188A      1.996021  
     189A      2.010301   190A      2.045557   191A      2.049104  
     192A      2.090579   193A      2.100096   194A      2.156613  
     195A      2.199334   196A      2.212921   197A      2.215554  
     198A      2.234860   199A      2.265910   200A      2.301686  
     201A      2.315839   202A      2.318919   203A      2.345273  
     204A      2.365757   205A      2.405719   206A      2.431876  
     207A      2.439131   208A      2.442992   209A      2.473171  
     210A      2.479096   211A      2.505664   212A      2.537117  
     213A      2.568661   214A      2.574698   215A      2.629137  
     216A      2.685194   217A      2.710068   218A      2.716656  
     219A      2.731321   220A      2.774405   221A      2.778405  
     222A      2.817751   223A      2.840940   224A      2.862556  
     225A      2.871773   226A      2.885317   227A      2.983284  
     228A      2.990920   229A      3.079481   230A      3.155136  
     231A      3.157233   232A      3.220179   233A      3.307902  
     234A      3.355649   235A      3.413752   236A      3.464018  
     237A      3.528649   238A      3.572722   239A      3.725506  
     240A      3.749778   241A      3.760994   242A      3.800760  
     243A      3.815086   244A      3.818030   245A      3.834032  
     246A      3.927049   247A      4.015690   248A      4.027220  
     249A      4.058704   250A      4.087913   251A      4.146926  
     252A      4.300618   253A      4.922823   254A      4.958374  
     255A      4.993162   256A      5.127925   257A      5.445594  
     258A      5.668252   259A      6.529582   260A      6.980938  
     261A     33.561425  

    Final Occupation by Irrep:
              A 
    DOCC [    29 ]

  @DF-RHF Final Energy:  -412.52639232967152

   => Energetics <=

    Nuclear Repulsion Energy =            355.5468900428508618
    One-Electron Energy =               -1267.1212888138995822
    Two-Electron Energy =                 499.0480064413771402
    Total Energy =                       -412.5263923296715234

Computation Completed


Properties will be evaluated at   0.000000,   0.000000,   0.000000 [a0]

Properties computed using the SCF density matrix

  Nuclear Dipole Moment: [e a0]
     X:    87.6596      Y:     0.8014      Z:    -0.5599

  Electronic Dipole Moment: [e a0]
     X:   -87.3972      Y:     1.2301      Z:     0.5552

  Dipole Moment: [e a0]
     X:     0.2624      Y:     2.0315      Z:    -0.0047     Total:     2.0484

  Dipole Moment: [D]
     X:     0.6669      Y:     5.1636      Z:    -0.0119     Total:     5.2065


*** tstop() called on node150.bme.utexas.edu at Mon May 13 09:50:48 2024
Module time:
	user time   =      13.87 seconds =       0.23 minutes
	system time =       0.30 seconds =       0.00 minutes
	total time  =          2 seconds =       0.03 minutes
Total time:
	user time   =      39.31 seconds =       0.66 minutes
	system time =       0.91 seconds =       0.02 minutes
	total time  =          6 seconds =       0.10 minutes

*** tstart() called on node150.bme.utexas.edu
*** at Mon May 13 09:50:48 2024


  //>>>>>>>>>>>>>>>>>>>>>>>>>>>>>>>>>>>//
  //               DFMP2               //
  //<<<<<<<<<<<<<<<<<<<<<<<<<<<<<<<<<<<//

   => Loading Basis Set <=

    Name: (AUG-CC-PVDZ AUX)
    Role: RIFIT
    Keyword: DF_BASIS_MP2
    atoms 1, 5               entry N          line   158 file /opt/anaconda/envs/psi4v1.5/share/psi4/basis/aug-cc-pvdz-ri.gbs 
    atoms 2, 9, 11-12, 14-15 entry H          line    30 file /opt/anaconda/envs/psi4v1.5/share/psi4/basis/aug-cc-pvdz-ri.gbs 
    atoms 3, 6, 8, 10        entry C          line   112 file /opt/anaconda/envs/psi4v1.5/share/psi4/basis/aug-cc-pvdz-ri.gbs 
    atoms 4, 7, 13           entry O          line   204 file /opt/anaconda/envs/psi4v1.5/share/psi4/basis/aug-cc-pvdz-ri.gbs 

	 --------------------------------------------------------
	                          DF-MP2                         
	      2nd-Order Density-Fitted Moller-Plesset Theory     
	              RMP2 Wavefunction,   8 Threads             
	                                                         
	        Rob Parrish, Justin Turney, Andy Simmonett,      
	           Ed Hohenstein, and C. David Sherrill          
	 --------------------------------------------------------

   => Auxiliary Basis Set <=

  Basis Set: (AUG-CC-PVDZ AUX)
    Blend: AUG-CC-PVDZ-RI
    Number of shells: 252
    Number of basis functions: 786
    Number of Cartesian functions: 924
    Spherical Harmonics?: true
    Max angular momentum: 3

	 --------------------------------------------------------
	                 NBF =   261, NAUX =   786
	 --------------------------------------------------------
	   CLASS    FOCC     OCC    AOCC    AVIR     VIR    FVIR
	   PAIRS       8      29      21     232     232       0
	 --------------------------------------------------------

	 Will attempt to load fitting metric from file 97.

	-----------------------------------------------------------
	 ==================> DF-MP2 Energies <==================== 
	-----------------------------------------------------------
	 Reference Energy          =    -412.5263923296715234 [Eh]
	 Singles Energy            =      -0.0000000000000000 [Eh]
	 Same-Spin Energy          =      -0.3429042267502970 [Eh]
	 Opposite-Spin Energy      =      -0.9085179499628470 [Eh]
	 Correlation Energy        =      -1.2514221767131439 [Eh]
	 Total Energy              =    -413.7778145063846864 [Eh]
	-----------------------------------------------------------
	 ================> DF-SCS-MP2 Energies <================== 
	-----------------------------------------------------------
	 SCS Same-Spin Scale       =       0.3333333333333333 [-]
	 SCS Opposite-Spin Scale   =       1.2000000000000000 [-]
	 SCS Same-Spin Energy      =      -0.1143014089167657 [Eh]
	 SCS Opposite-Spin Energy  =      -1.0902215399554163 [Eh]
	 SCS Correlation Energy    =      -1.2045229488721820 [Eh]
	 SCS Total Energy          =    -413.7309152785437050 [Eh]
	-----------------------------------------------------------


*** tstop() called on node150.bme.utexas.edu at Mon May 13 09:50:49 2024
Module time:
	user time   =       5.47 seconds =       0.09 minutes
	system time =       0.13 seconds =       0.00 minutes
	total time  =          1 seconds =       0.02 minutes
Total time:
	user time   =      44.79 seconds =       0.75 minutes
	system time =       1.04 seconds =       0.02 minutes
	total time  =          7 seconds =       0.12 minutes

  //>>>>>>>>>>>>>>>>>>>>>>>>>>>>>>>>>>>//
  //            Monomer B HF           //
  //<<<<<<<<<<<<<<<<<<<<<<<<<<<<<<<<<<<//


*** tstart() called on node150.bme.utexas.edu
*** at Mon May 13 09:50:49 2024

   => Loading Basis Set <=

    Name: AUG-CC-PVDZ
    Role: ORBITAL
    Keyword: BASIS
    atoms 1, 5               entry N          line   218 file /opt/anaconda/envs/psi4v1.5/share/psi4/basis/aug-cc-pvdz.gbs 
    atoms 2, 9, 11-12, 14-15 entry H          line    40 file /opt/anaconda/envs/psi4v1.5/share/psi4/basis/aug-cc-pvdz.gbs 
    atoms 3, 6, 8, 10        entry C          line   182 file /opt/anaconda/envs/psi4v1.5/share/psi4/basis/aug-cc-pvdz.gbs 
    atoms 4, 7, 13           entry O          line   254 file /opt/anaconda/envs/psi4v1.5/share/psi4/basis/aug-cc-pvdz.gbs 


         ---------------------------------------------------------
                                   SCF
               by Justin Turney, Rob Parrish, Andy Simmonett
                          and Daniel G. A. Smith
                              RHF Reference
                        8 Threads,  47683 MiB Core
         ---------------------------------------------------------

  ==> Geometry <==

    Molecular point group: c1
    Full point group: C1

    Geometry (in Angstrom), charge = 0, multiplicity = 1:

       Center              X                  Y                   Z               Mass       
    ------------   -----------------  -----------------  -----------------  -----------------
      Gh(N)           1.806312877540     1.163235847385     0.000659519932    14.003074004430
      Gh(H)           2.626462877540     1.758425847385     0.000179519932     1.007825032230
      Gh(C)           2.072892877540    -0.198814152615     0.003969519932    12.000000000000
      Gh(O)           3.203152877540    -0.666734152615     0.010439519932    15.994914619570
      Gh(N)           0.913992877540    -0.962934152615     0.000379519932    14.003074004430
      Gh(C)          -0.415257122460    -0.527634152615    -0.012400480068    12.000000000000
      Gh(O)          -1.331147122460    -1.358264152615    -0.020810480068    15.994914619570
      Gh(C)          -0.567097122460     0.916955847385    -0.012820480068    12.000000000000
      Gh(H)          -1.570517122460     1.324605847385    -0.022010480068     1.007825032230
      Gh(C)           0.537522877540     1.697425847385    -0.009270480068    12.000000000000
      Gh(H)           0.488892877540     2.781535847385    -0.013190480068     1.007825032230
      Gh(H)           1.056062877540    -1.970224152615    -0.002440480068     1.007825032230
         O           -5.021124122460     0.215324097385    -0.013832730068    15.994914619570
         H           -4.368524122460    -0.509775902615    -0.079962730068     1.007825032230
         H           -5.435514122460     0.073914097385     0.850537269932     1.007825032230

  Running in c1 symmetry.

  Rotational constants: A =      0.12452  B =      0.02176  C =      0.01856 [cm^-1]
  Rotational constants: A =   3733.00216  B =    652.41961  C =    556.27336 [MHz]
  Nuclear repulsion =    9.044348495848952

  Charge       = 0
  Multiplicity = 1
  Electrons    = 10
  Nalpha       = 5
  Nbeta        = 5

  ==> Algorithm <==

  SCF Algorithm Type is DF.
  DIIS enabled.
  MOM disabled.
  Fractional occupation disabled.
  Guess Type is SAD.
  Energy threshold   = 1.00e-08
  Density threshold  = 1.00e-08
  Integral threshold = 1.00e-12

  ==> Primary Basis <==

  Basis Set: AUG-CC-PVDZ
    Blend: AUG-CC-PVDZ
    Number of shells: 111
    Number of basis functions: 261
    Number of Cartesian functions: 279
    Spherical Harmonics?: true
    Max angular momentum: 2

   => Loading Basis Set <=

    Name: (AUG-CC-PVDZ AUX)
    Role: JKFIT
    Keyword: DF_BASIS_SCF
    atoms 1, 5               entry N          line   212 file /opt/anaconda/envs/psi4v1.5/share/psi4/basis/aug-cc-pvdz-jkfit.gbs 
    atoms 2, 9, 11-12, 14-15 entry H          line    70 file /opt/anaconda/envs/psi4v1.5/share/psi4/basis/aug-cc-pvdz-jkfit.gbs 
    atoms 3, 6, 8, 10        entry C          line   154 file /opt/anaconda/envs/psi4v1.5/share/psi4/basis/aug-cc-pvdz-jkfit.gbs 
    atoms 4, 7, 13           entry O          line   270 file /opt/anaconda/envs/psi4v1.5/share/psi4/basis/aug-cc-pvdz-jkfit.gbs 

  ==> Integral Setup <==

  ==> DiskDFJK: Density-Fitted J/K Matrices <==

    J tasked:                  Yes
    K tasked:                  Yes
    wK tasked:                  No
    OpenMP threads:              8
    Integrals threads:           8
    Memory [MiB]:            35762
    Algorithm:                Core
    Integral Cache:           LOAD
    Schwarz Cutoff:          1E-12
    Fitting Condition:       1E-10

   => Auxiliary Basis Set <=

  Basis Set: (AUG-CC-PVDZ AUX)
    Blend: AUG-CC-PVDZ-JKFIT
    Number of shells: 324
    Number of basis functions: 966
    Number of Cartesian functions: 1119
    Spherical Harmonics?: true
    Max angular momentum: 3

  Minimum eigenvalue in the overlap matrix is 1.4127073044E-05.
  Reciprocal condition number of the overlap matrix is 1.0527829204E-06.
    Using symmetric orthogonalization.

  ==> Pre-Iterations <==

  SCF Guess: Superposition of Atomic Densities via on-the-fly atomic UHF (no occupation information).

   -------------------------
    Irrep   Nso     Nmo    
   -------------------------
     A        261     261 
   -------------------------
    Total     261     261
   -------------------------

  ==> Iterations <==

                           Total Energy        Delta E     RMS |[F,P]|

   @DF-RHF iter SAD:   -75.44785852070621   -7.54479e+01   0.00000e+00 
   @DF-RHF iter   1:   -75.95508893664949   -5.07230e-01   1.73342e-03 DIIS
   @DF-RHF iter   2:   -76.00786558067102   -5.27766e-02   1.15177e-03 DIIS
   @DF-RHF iter   3:   -76.03960257379821   -3.17370e-02   8.24154e-05 DIIS
   @DF-RHF iter   4:   -76.03999833681588   -3.95763e-04   1.91324e-05 DIIS
   @DF-RHF iter   5:   -76.04002245794993   -2.41211e-05   4.39229e-06 DIIS
   @DF-RHF iter   6:   -76.04002442056408   -1.96261e-06   8.81084e-07 DIIS
   @DF-RHF iter   7:   -76.04002450310540   -8.25413e-08   1.44498e-07 DIIS
   @DF-RHF iter   8:   -76.04002450513273   -2.02733e-09   2.30288e-08 DIIS
   @DF-RHF iter   9:   -76.04002450517885   -4.61142e-11   6.11178e-09 DIIS
  Energy and wave function converged.


  ==> Post-Iterations <==

    Orbital Energies [Eh]
    ---------------------

    Doubly Occupied:                                                      

       1A    -20.580350     2A     -1.349007     3A     -0.709076  
       4A     -0.584026     5A     -0.508335  

    Virtual:                                                              

       6A      0.020275     7A      0.035345     8A      0.040318  
       9A      0.053783    10A      0.062397    11A      0.068919  
      12A      0.071718    13A      0.087014    14A      0.093072  
      15A      0.107919    16A      0.116832    17A      0.119334  
      18A      0.121351    19A      0.125023    20A      0.140522  
      21A      0.143539    22A      0.159548    23A      0.168063  
      24A      0.173379    25A      0.182089    26A      0.188689  
      27A      0.195978    28A      0.202113    29A      0.211560  
      30A      0.213994    31A      0.216152    32A      0.222722  
      33A      0.229904    34A      0.235286    35A      0.247081  
      36A      0.256647    37A      0.266257    38A      0.271992  
      39A      0.279326    40A      0.284045    41A      0.297992  
      42A      0.305039    43A      0.312010    44A      0.324919  
      45A      0.331202    46A      0.332878    47A      0.353813  
      48A      0.354196    49A      0.369627    50A      0.395872  
      51A      0.401191    52A      0.417223    53A      0.426653  
      54A      0.429209    55A      0.443404    56A      0.444272  
      57A      0.456589    58A      0.467513    59A      0.474961  
      60A      0.480130    61A      0.488142    62A      0.498780  
      63A      0.511281    64A      0.515948    65A      0.532751  
      66A      0.535634    67A      0.548225    68A      0.551346  
      69A      0.554889    70A      0.564565    71A      0.594234  
      72A      0.603748    73A      0.616913    74A      0.621236  
      75A      0.626740    76A      0.629365    77A      0.639507  
      78A      0.644862    79A      0.651837    80A      0.667298  
      81A      0.685688    82A      0.695208    83A      0.707915  
      84A      0.724921    85A      0.741685    86A      0.756887  
      87A      0.773502    88A      0.789764    89A      0.803355  
      90A      0.825577    91A      0.829773    92A      0.843482  
      93A      0.848111    94A      0.856685    95A      0.874318  
      96A      0.897620    97A      0.901292    98A      0.920957  
      99A      0.929680   100A      0.936029   101A      0.965859  
     102A      1.002367   103A      1.006457   104A      1.011331  
     105A      1.045104   106A      1.065611   107A      1.070602  
     108A      1.092398   109A      1.105128   110A      1.110812  
     111A      1.127481   112A      1.138842   113A      1.144716  
     114A      1.154834   115A      1.164387   116A      1.179088  
     117A      1.203531   118A      1.208401   119A      1.217887  
     120A      1.218880   121A      1.253862   122A      1.257517  
     123A      1.277830   124A      1.291561   125A      1.295494  
     126A      1.323544   127A      1.332835   128A      1.340260  
     129A      1.357093   130A      1.377739   131A      1.382979  
     132A      1.386048   133A      1.413990   134A      1.424139  
     135A      1.450765   136A      1.458809   137A      1.486413  
     138A      1.501085   139A      1.518859   140A      1.546783  
     141A      1.554675   142A      1.561484   143A      1.564661  
     144A      1.578048   145A      1.620611   146A      1.649594  
     147A      1.675380   148A      1.684984   149A      1.738061  
     150A      1.803828   151A      1.884871   152A      1.968525  
     153A      2.004035   154A      2.049743   155A      2.093227  
     156A      2.111788   157A      2.162692   158A      2.205675  
     159A      2.233352   160A      2.245738   161A      2.254236  
     162A      2.276252   163A      2.296518   164A      2.360442  
     165A      2.405494   166A      2.417344   167A      2.434350  
     168A      2.467741   169A      2.485570   170A      2.498237  
     171A      2.528804   172A      2.538768   173A      2.543778  
     174A      2.546091   175A      2.627605   176A      2.636887  
     177A      2.657285   178A      2.670980   179A      2.702732  
     180A      2.732828   181A      2.751648   182A      2.758122  
     183A      2.802534   184A      2.813190   185A      2.884946  
     186A      2.892259   187A      2.956617   188A      3.010652  
     189A      3.031683   190A      3.035746   191A      3.084058  
     192A      3.143640   193A      3.166968   194A      3.260602  
     195A      3.312195   196A      3.330511   197A      3.439404  
     198A      3.457748   199A      3.485805   200A      3.518808  
     201A      3.553351   202A      3.597768   203A      3.638038  
     204A      3.656279   205A      3.693025   206A      3.701714  
     207A      3.703299   208A      3.744471   209A      3.745931  
     210A      3.764113   211A      3.794080   212A      3.852368  
     213A      3.887669   214A      3.926826   215A      4.021610  
     216A      4.051974   217A      4.108148   218A      4.165683  
     219A      4.298768   220A      4.338075   221A      4.392133  
     222A      4.455586   223A      4.527806   224A      4.592000  
     225A      4.651215   226A      4.659639   227A      4.731915  
     228A      4.742600   229A      4.902715   230A      4.961373  
     231A      4.997765   232A      5.006021   233A      5.016661  
     234A      5.037011   235A      5.058387   236A      5.105753  
     237A      5.176630   238A      5.302927   239A      5.389870  
     240A      5.464451   241A      5.647023   242A      5.731795  
     243A      5.875729   244A      5.938638   245A      5.949229  
     246A      6.023152   247A      6.033796   248A      6.087733  
     249A      6.181137   250A      6.367672   251A      6.480562  
     252A      6.967313   253A      7.237893   254A     18.160953  
     255A     18.734330   256A     18.768562   257A     19.521467  
     258A     25.440970   259A     25.452287   260A     33.528745  
     261A     33.539389  

    Final Occupation by Irrep:
              A 
    DOCC [     5 ]

  @DF-RHF Final Energy:   -76.04002450517885

   => Energetics <=

    Nuclear Repulsion Energy =              9.0443484958489524
    One-Electron Energy =                -122.7071562136458169
    Two-Electron Energy =                  37.6227832126180104
    Total Energy =                        -76.0400245051788488

Computation Completed


Properties will be evaluated at   0.000000,   0.000000,   0.000000 [a0]

Properties computed using the SCF density matrix

  Nuclear Dipole Moment: [e a0]
     X:   -94.4353      Y:     2.4316      Z:     1.2471

  Electronic Dipole Moment: [e a0]
     X:    94.5921      Y:    -3.0054      Z:    -0.7167

  Dipole Moment: [e a0]
     X:     0.1567      Y:    -0.5738      Z:     0.5303     Total:     0.7969

  Dipole Moment: [D]
     X:     0.3983      Y:    -1.4585      Z:     1.3479     Total:     2.0255


*** tstop() called on node150.bme.utexas.edu at Mon May 13 09:50:50 2024
Module time:
	user time   =       8.82 seconds =       0.15 minutes
	system time =       0.14 seconds =       0.00 minutes
	total time  =          1 seconds =       0.02 minutes
Total time:
	user time   =      53.63 seconds =       0.89 minutes
	system time =       1.18 seconds =       0.02 minutes
	total time  =          8 seconds =       0.13 minutes

*** tstart() called on node150.bme.utexas.edu
*** at Mon May 13 09:50:50 2024


  //>>>>>>>>>>>>>>>>>>>>>>>>>>>>>>>>>>>//
  //               DFMP2               //
  //<<<<<<<<<<<<<<<<<<<<<<<<<<<<<<<<<<<//

   => Loading Basis Set <=

    Name: (AUG-CC-PVDZ AUX)
    Role: RIFIT
    Keyword: DF_BASIS_MP2
    atoms 1, 5               entry N          line   158 file /opt/anaconda/envs/psi4v1.5/share/psi4/basis/aug-cc-pvdz-ri.gbs 
    atoms 2, 9, 11-12, 14-15 entry H          line    30 file /opt/anaconda/envs/psi4v1.5/share/psi4/basis/aug-cc-pvdz-ri.gbs 
    atoms 3, 6, 8, 10        entry C          line   112 file /opt/anaconda/envs/psi4v1.5/share/psi4/basis/aug-cc-pvdz-ri.gbs 
    atoms 4, 7, 13           entry O          line   204 file /opt/anaconda/envs/psi4v1.5/share/psi4/basis/aug-cc-pvdz-ri.gbs 

	 --------------------------------------------------------
	                          DF-MP2                         
	      2nd-Order Density-Fitted Moller-Plesset Theory     
	              RMP2 Wavefunction,   8 Threads             
	                                                         
	        Rob Parrish, Justin Turney, Andy Simmonett,      
	           Ed Hohenstein, and C. David Sherrill          
	 --------------------------------------------------------

   => Auxiliary Basis Set <=

  Basis Set: (AUG-CC-PVDZ AUX)
    Blend: AUG-CC-PVDZ-RI
    Number of shells: 252
    Number of basis functions: 786
    Number of Cartesian functions: 924
    Spherical Harmonics?: true
    Max angular momentum: 3

	 --------------------------------------------------------
	                 NBF =   261, NAUX =   786
	 --------------------------------------------------------
	   CLASS    FOCC     OCC    AOCC    AVIR     VIR    FVIR
	   PAIRS       1       5       4     256     256       0
	 --------------------------------------------------------

	 Will attempt to load fitting metric from file 97.

	-----------------------------------------------------------
	 ==================> DF-MP2 Energies <==================== 
	-----------------------------------------------------------
	 Reference Energy          =     -76.0400245051788488 [Eh]
	 Singles Energy            =      -0.0000000000000000 [Eh]
	 Same-Spin Energy          =      -0.0562351276337841 [Eh]
	 Opposite-Spin Energy      =      -0.1647899987644549 [Eh]
	 Correlation Energy        =      -0.2210251263982390 [Eh]
	 Total Energy              =     -76.2610496315770945 [Eh]
	-----------------------------------------------------------
	 ================> DF-SCS-MP2 Energies <================== 
	-----------------------------------------------------------
	 SCS Same-Spin Scale       =       0.3333333333333333 [-]
	 SCS Opposite-Spin Scale   =       1.2000000000000000 [-]
	 SCS Same-Spin Energy      =      -0.0187450425445947 [Eh]
	 SCS Opposite-Spin Energy  =      -0.1977479985173459 [Eh]
	 SCS Correlation Energy    =      -0.2164930410619406 [Eh]
	 SCS Total Energy          =     -76.2565175462407865 [Eh]
	-----------------------------------------------------------


*** tstop() called on node150.bme.utexas.edu at Mon May 13 09:50:51 2024
Module time:
	user time   =       4.60 seconds =       0.08 minutes
	system time =       0.08 seconds =       0.00 minutes
	total time  =          1 seconds =       0.02 minutes
Total time:
	user time   =      58.24 seconds =       0.97 minutes
	system time =       1.26 seconds =       0.02 minutes
	total time  =          9 seconds =       0.15 minutes
  Constructing Basis Sets for SAPT...

   => Loading Basis Set <=

    Name: (AUG-CC-PVDZ AUX)
    Role: RIFIT
    Keyword: DF_BASIS_SAPT
    atoms 1, 5               entry N          line   158 file /opt/anaconda/envs/psi4v1.5/share/psi4/basis/aug-cc-pvdz-ri.gbs 
    atoms 2, 9, 11-12, 14-15 entry H          line    30 file /opt/anaconda/envs/psi4v1.5/share/psi4/basis/aug-cc-pvdz-ri.gbs 
    atoms 3, 6, 8, 10        entry C          line   112 file /opt/anaconda/envs/psi4v1.5/share/psi4/basis/aug-cc-pvdz-ri.gbs 
    atoms 4, 7, 13           entry O          line   204 file /opt/anaconda/envs/psi4v1.5/share/psi4/basis/aug-cc-pvdz-ri.gbs 


  //>>>>>>>>>>>>>>>>>>>>>>>>>>>>>>>>>>>//
  //           SAPT2+(3)DMP2           //
  //<<<<<<<<<<<<<<<<<<<<<<<<<<<<<<<<<<<//


*** tstart() called on node150.bme.utexas.edu
*** at Mon May 13 09:50:51 2024

      SAPT2+(3)  
    Ed Hohenstein
     6 June 2009

      Orbital Information
  --------------------------
    NSO        =       261
    NMO        =       261
    NRI        =       786
    NOCC A     =        29
    NOCC B     =         5
    FOCC A     =         8
    FOCC B     =         1
    NVIR A     =       232
    NVIR B     =       256

    Estimated memory usage: 1734.9 MB

    Natural Orbital Cutoff:   1.000E-06
    Disp(T3) Truncation:            Yes
    CCD (vv|vv) Truncation:         Yes
    MBPT T2 Truncation:             Yes

    Monomer A: 49 virtual orbitals dropped
    Monomer B: 220 virtual orbitals dropped

    Elst10,r            =    -0.004120265544 [Eh]
    Exch10 (S^2)        =     0.000224411647 [Eh]
    Exch10              =     0.000224448142 [Eh]
    Ind20,r (A<-B)      =    -0.000144665807 [Eh]
    Ind20,r (B<-A)      =    -0.000136023759 [Eh]
    Ind20,r             =    -0.000280689566 [Eh]
    Exch-Ind20,r (A<-B) =     0.000026044431 [Eh]
    Exch-Ind20,r (B<-A) =     0.000010702799 [Eh]
    Exch-Ind20,r        =     0.000036747230 [Eh]
    Disp20              =    -0.000702587433 [Eh]
    Disp20 (NO)         =    -0.000661585331 [Eh]
    Exch-Disp20         =     0.000022379662 [Eh]
    Elst12,r            =     0.000544145165 [Eh]
    Exch11              =    -0.000003976140 [Eh]
    Exch12              =     0.000106925490 [Eh]
    Ind22               =    -0.000014420846 [Eh]
    Disp21              =     0.000057041160 [Eh]
    Disp22 (SDQ)        =    -0.000038943721 [Eh]

    (i =   1 of   4)          7 seconds
    (i =   2 of   4)         13 seconds
    (i =   3 of   4)         19 seconds
    (i =   4 of   4)         25 seconds

    Disp220 (T)         =    -0.000072095396 [Eh]

    (i =   1 of  21)          0 seconds
    (i =   2 of  21)          0 seconds
    (i =   3 of  21)          0 seconds
    (i =   4 of  21)          1 seconds
    (i =   5 of  21)          1 seconds
    (i =   6 of  21)          1 seconds
    (i =   7 of  21)          1 seconds
    (i =   8 of  21)          1 seconds
    (i =   9 of  21)          1 seconds
    (i =  10 of  21)          1 seconds
    (i =  11 of  21)          1 seconds
    (i =  12 of  21)          1 seconds
    (i =  13 of  21)          1 seconds
    (i =  14 of  21)          1 seconds
    (i =  15 of  21)          1 seconds
    (i =  16 of  21)          1 seconds
    (i =  17 of  21)          2 seconds
    (i =  18 of  21)          2 seconds
    (i =  19 of  21)          2 seconds
    (i =  20 of  21)          2 seconds
    (i =  21 of  21)          2 seconds

    Disp202 (T)         =    -0.000061786541 [Eh]

    Disp22 (T)          =    -0.000133881937 [Eh]

    Est. Disp220 (T)    =    -0.000076563547 [Eh]
    Est. Disp202 (T)    =    -0.000065615794 [Eh]

    Est. Disp22 (T)     =    -0.000142179341 [Eh]
    Elst13,r            =    -0.000076635051 [Eh]
    Disp30              =     0.000005549535 [Eh]

    SAPT Results 
  --------------------------------------------------------------------------------------------------------
    Electrostatics                 -3.65275543 [mEh]      -2.29213864 [kcal/mol]      -9.59030806 [kJ/mol]
      Elst10,r                     -4.12026554 [mEh]      -2.58550566 [kcal/mol]     -10.81775569 [kJ/mol]
      Elst12,r                      0.54414516 [mEh]       0.34145625 [kcal/mol]       1.42865293 [kJ/mol]
      Elst13,r                     -0.07663505 [mEh]      -0.04808922 [kcal/mol]      -0.20120530 [kJ/mol]

    Exchange                        0.32739749 [mEh]       0.20544503 [kcal/mol]       0.85958199 [kJ/mol]
      Exch10                        0.22444814 [mEh]       0.14084334 [kcal/mol]       0.58928851 [kJ/mol]
      Exch10(S^2)                   0.22441165 [mEh]       0.14082043 [kcal/mol]       0.58919270 [kJ/mol]
      Exch11(S^2)                  -0.00397614 [mEh]      -0.00249507 [kcal/mol]      -0.01043936 [kJ/mol]
      Exch12(S^2)                   0.10692549 [mEh]       0.06709676 [kcal/mol]       0.28073283 [kJ/mol]

    Induction                      -0.26838404 [mEh]      -0.16841353 [kcal/mol]      -0.70464220 [kJ/mol]
      Ind20,r                      -0.28068957 [mEh]      -0.17613536 [kcal/mol]      -0.73695035 [kJ/mol]
      Ind22                        -0.01442085 [mEh]      -0.00904922 [kcal/mol]      -0.03786193 [kJ/mol]
      Exch-Ind20,r                  0.03674723 [mEh]       0.02305923 [kcal/mol]       0.09647984 [kJ/mol]
      Exch-Ind22                    0.00188794 [mEh]       0.00118470 [kcal/mol]       0.00495680 [kJ/mol]
      delta HF,r (2)               -0.02786777 [mEh]      -0.01748729 [kcal/mol]      -0.07316682 [kJ/mol]
      delta MP2,r (2)               0.01595897 [mEh]       0.01001440 [kcal/mol]       0.04190026 [kJ/mol]

    Dispersion                     -0.79874014 [mEh]      -0.50121700 [kcal/mol]      -2.09709194 [kJ/mol]
      Disp20                       -0.70258743 [mEh]      -0.44088027 [kcal/mol]      -1.84464305 [kJ/mol]
      Disp30                        0.00554953 [mEh]       0.00348239 [kcal/mol]       0.01457030 [kJ/mol]
      Disp21                        0.05704116 [mEh]       0.03579387 [kcal/mol]       0.14976155 [kJ/mol]
      Disp22 (SDQ)                 -0.03894372 [mEh]      -0.02443755 [kcal/mol]      -0.10224672 [kJ/mol]
      Disp22 (T)                   -0.13388194 [mEh]      -0.08401218 [kcal/mol]      -0.35150698 [kJ/mol]
      Est. Disp22 (T)              -0.14217934 [mEh]      -0.08921888 [kcal/mol]      -0.37329181 [kJ/mol]
      Exch-Disp20                   0.02237966 [mEh]       0.01404345 [kcal/mol]       0.05875779 [kJ/mol]

  Total HF                         -4.16762751 [mEh]      -2.61522574 [kcal/mol]     -10.94210451 [kJ/mol]
  Total SAPT0                      -4.84783528 [mEh]      -3.04206256 [kcal/mol]     -12.72798977 [kJ/mol]
  Total SAPT2                      -4.21327367 [mEh]      -2.64386914 [kcal/mol]     -11.06194849 [kJ/mol]
  Total SAPT2+                     -4.33735557 [mEh]      -2.72173171 [kcal/mol]     -11.38772547 [kJ/mol]
  Total SAPT2+(3)                  -4.40844108 [mEh]      -2.76633854 [kcal/mol]     -11.57436047 [kJ/mol]
  Total SAPT2+dMP2                 -4.32139660 [mEh]      -2.71171731 [kcal/mol]     -11.34582521 [kJ/mol]
  Total SAPT2+(3)dMP2              -4.39248212 [mEh]      -2.75632414 [kcal/mol]     -11.53246021 [kJ/mol]

  Special recipe for scaled SAPT0 (see Manual):
    Electrostatics sSAPT0          -4.12026554 [mEh]      -2.58550566 [kcal/mol]     -10.81775569 [kJ/mol]
    Exchange sSAPT0                 0.22444814 [mEh]       0.14084334 [kcal/mol]       0.58928851 [kJ/mol]
    Induction sSAPT0               -0.27179217 [mEh]      -0.17055216 [kcal/mol]      -0.71359026 [kJ/mol]
    Dispersion sSAPT0              -0.68019685 [mEh]      -0.42682997 [kcal/mol]      -1.78585659 [kJ/mol]
  Total sSAPT0                     -4.84780643 [mEh]      -3.04204446 [kcal/mol]     -12.72791402 [kJ/mol]
  --------------------------------------------------------------------------------------------------------

*** tstop() called on node150.bme.utexas.edu at Mon May 13 09:52:11 2024
Module time:
	user time   =     621.97 seconds =      10.37 minutes
	system time =      10.74 seconds =       0.18 minutes
	total time  =         80 seconds =       1.33 minutes
Total time:
	user time   =     680.57 seconds =      11.34 minutes
	system time =      12.01 seconds =       0.20 minutes
	total time  =         89 seconds =       1.48 minutes

    Psi4 stopped on: Monday, 13 May 2024 09:52AM
    Psi4 wall time for execution: 0:01:29.61

*** Psi4 exiting successfully. Buy a developer a beer!
