
    -----------------------------------------------------------------------
          Psi4: An Open-Source Ab Initio Electronic Structure Package
                               Psi4 1.5 release

                         Git: Rev {HEAD} e9f4d6d 


    D. G. A. Smith, L. A. Burns, A. C. Simmonett, R. M. Parrish,
    M. C. Schieber, R. Galvelis, P. Kraus, H. Kruse, R. Di Remigio,
    A. Alenaizan, A. M. James, S. Lehtola, J. P. Misiewicz, M. Scheurer,
    R. A. Shaw, J. B. Schriber, Y. Xie, Z. L. Glick, D. A. Sirianni,
    J. S. O'Brien, J. M. Waldrop, A. Kumar, E. G. Hohenstein,
    B. P. Pritchard, B. R. Brooks, H. F. Schaefer III, A. Yu. Sokolov,
    K. Patkowski, A. E. DePrince III, U. Bozkaya, R. A. King,
    F. A. Evangelista, J. M. Turney, T. D. Crawford, C. D. Sherrill,
    J. Chem. Phys. 152(18) 184108 (2020). https://doi.org/10.1063/5.0006002

                            Additional Code Authors
    E. T. Seidl, C. L. Janssen, E. F. Valeev, M. L. Leininger,
    J. F. Gonthier, R. M. Richard, H. R. McAlexander, M. Saitow, X. Wang,
    P. Verma, M. H. Lechner, and A. Jiang

             Previous Authors, Complete List of Code Contributors,
                       and Citations for Specific Modules
    https://github.com/psi4/psi4/blob/master/codemeta.json
    https://github.com/psi4/psi4/graphs/contributors
    http://psicode.org/psi4manual/master/introduction.html#citing-psifour

    -----------------------------------------------------------------------


    Psi4 started on: Monday, 13 May 2024 09:53AM

    Process ID: 2246988
    Host:       node110.bme.utexas.edu
    PSIDATADIR: /opt/anaconda/envs/psi4v1.5/share/psi4
    Memory:     500.0 MiB
    Threads:    8
    
  ==> Input File <==

--------------------------------------------------------------------------
memory 50GB

molecule {
0 1
N 1.66639 1.12439 0.00409
H 2.48654 1.71958 0.00361
C 1.93297 -0.23766 0.0074
O 3.06323 -0.70558 0.01387
N 0.77407 -1.00178 0.00381
C -0.55518 -0.56648 -0.00897
O -1.47107 -1.39711 -0.01738
C -0.70702 0.87811 -0.00939
H -1.71044 1.28576 -0.01858
C 0.3976 1.65858 -0.00584
H 0.34897 2.74269 -0.00976
H 0.91614 -2.00907 0.00099
--
0 1
O -3.85101 0.26955 -0.0701
H -3.19841 -0.45555 -0.13623
H -4.2654 0.12814 0.79427
 units angstrom
 no_reorient
 symmetry c1} 
set  {scf_type DF
 basis jun-cc-pvdz
 freeze_core True
 guess SAD}
energy('sapt2+(3)dmp2')
--------------------------------------------------------------------------

  Memory set to  46.566 GiB by Python driver.

Scratch directory: /tmp/
   => Loading Basis Set <=

    Name: JUN-CC-PVDZ
    Role: ORBITAL
    Keyword: BASIS
    atoms 1, 5               entry N          line   198 file /opt/anaconda/envs/psi4v1.5/share/psi4/basis/jun-cc-pvdz.gbs 
    atoms 2, 9, 11-12, 14-15 entry H          line    36 file /opt/anaconda/envs/psi4v1.5/share/psi4/basis/jun-cc-pvdz.gbs 
    atoms 3, 6, 8, 10        entry C          line   164 file /opt/anaconda/envs/psi4v1.5/share/psi4/basis/jun-cc-pvdz.gbs 
    atoms 4, 7, 13           entry O          line   232 file /opt/anaconda/envs/psi4v1.5/share/psi4/basis/jun-cc-pvdz.gbs 

   => Loading Basis Set <=

    Name: JUN-CC-PVDZ
    Role: ORBITAL
    Keyword: BASIS
    atoms 1, 5               entry N          line   198 file /opt/anaconda/envs/psi4v1.5/share/psi4/basis/jun-cc-pvdz.gbs 
    atoms 2, 9, 11-12, 14-15 entry H          line    36 file /opt/anaconda/envs/psi4v1.5/share/psi4/basis/jun-cc-pvdz.gbs 
    atoms 3, 6, 8, 10        entry C          line   164 file /opt/anaconda/envs/psi4v1.5/share/psi4/basis/jun-cc-pvdz.gbs 
    atoms 4, 7, 13           entry O          line   232 file /opt/anaconda/envs/psi4v1.5/share/psi4/basis/jun-cc-pvdz.gbs 


  //>>>>>>>>>>>>>>>>>>>>>>>>>>>>>>>>>>>//
  //              Dimer HF             //
  //<<<<<<<<<<<<<<<<<<<<<<<<<<<<<<<<<<<//


*** tstart() called on node110.bme.utexas.edu
*** at Mon May 13 09:53:30 2024

   => Loading Basis Set <=

    Name: JUN-CC-PVDZ
    Role: ORBITAL
    Keyword: BASIS
    atoms 1, 5               entry N          line   198 file /opt/anaconda/envs/psi4v1.5/share/psi4/basis/jun-cc-pvdz.gbs 
    atoms 2, 9, 11-12, 14-15 entry H          line    36 file /opt/anaconda/envs/psi4v1.5/share/psi4/basis/jun-cc-pvdz.gbs 
    atoms 3, 6, 8, 10        entry C          line   164 file /opt/anaconda/envs/psi4v1.5/share/psi4/basis/jun-cc-pvdz.gbs 
    atoms 4, 7, 13           entry O          line   232 file /opt/anaconda/envs/psi4v1.5/share/psi4/basis/jun-cc-pvdz.gbs 


         ---------------------------------------------------------
                                   SCF
               by Justin Turney, Rob Parrish, Andy Simmonett
                          and Daniel G. A. Smith
                              RHF Reference
                        8 Threads,  47683 MiB Core
         ---------------------------------------------------------

  ==> Geometry <==

    Molecular point group: c1
    Full point group: C1

    Geometry (in Angstrom), charge = 0, multiplicity = 1:

       Center              X                  Y                   Z               Mass       
    ------------   -----------------  -----------------  -----------------  -----------------
         N            1.624869493422     1.150345178430     0.008927806846    14.003074004430
         H            2.445019493422     1.745535178430     0.008447806846     1.007825032230
         C            1.891449493422    -0.211704821570     0.012237806846    12.000000000000
         O            3.021709493422    -0.679624821570     0.018707806846    15.994914619570
         N            0.732549493422    -0.975824821570     0.008647806846    14.003074004430
         C           -0.596700506578    -0.540524821570    -0.004132193154    12.000000000000
         O           -1.512590506578    -1.371154821570    -0.012542193154    15.994914619570
         C           -0.748540506578     0.904065178430    -0.004552193154    12.000000000000
         H           -1.751960506578     1.311715178430    -0.013742193154     1.007825032230
         C            0.356079493422     1.684535178430    -0.001002193154    12.000000000000
         H            0.307449493422     2.768645178430    -0.004922193154     1.007825032230
         H            0.874619493422    -1.983114821570     0.005827806846     1.007825032230
         O           -3.892530506578     0.295505178430    -0.065262193154    15.994914619570
         H           -3.239930506578    -0.429594821570    -0.131392193154     1.007825032230
         H           -4.306920506578     0.154095178430     0.799107806846     1.007825032230

  Running in c1 symmetry.

  Rotational constants: A =      0.12391  B =      0.02984  C =      0.02410 [cm^-1]
  Rotational constants: A =   3714.76655  B =    894.57833  C =    722.45725 [MHz]
  Nuclear repulsion =  437.310977864377719

  Charge       = 0
  Multiplicity = 1
  Electrons    = 68
  Nalpha       = 34
  Nbeta        = 34

  ==> Algorithm <==

  SCF Algorithm Type is DF.
  DIIS enabled.
  MOM disabled.
  Fractional occupation disabled.
  Guess Type is SAD.
  Energy threshold   = 1.00e-08
  Density threshold  = 1.00e-08
  Integral threshold = 1.00e-12

  ==> Primary Basis <==

  Basis Set: JUN-CC-PVDZ
    Blend: JUN-CC-PVDZ
    Number of shells: 90
    Number of basis functions: 192
    Number of Cartesian functions: 201
    Spherical Harmonics?: true
    Max angular momentum: 2

   => Loading Basis Set <=

    Name: (JUN-CC-PVDZ AUX)
    Role: JKFIT
    Keyword: DF_BASIS_SCF
    atoms 1, 5               entry N          line   202 file /opt/anaconda/envs/psi4v1.5/share/psi4/basis/jun-cc-pvdz-jkfit.gbs 
    atoms 2, 9, 11-12, 14-15 entry H          line    70 file /opt/anaconda/envs/psi4v1.5/share/psi4/basis/jun-cc-pvdz-jkfit.gbs 
    atoms 3, 6, 8, 10        entry C          line   146 file /opt/anaconda/envs/psi4v1.5/share/psi4/basis/jun-cc-pvdz-jkfit.gbs 
    atoms 4, 7, 13           entry O          line   258 file /opt/anaconda/envs/psi4v1.5/share/psi4/basis/jun-cc-pvdz-jkfit.gbs 

  ==> Integral Setup <==

  ==> DiskDFJK: Density-Fitted J/K Matrices <==

    J tasked:                  Yes
    K tasked:                  Yes
    wK tasked:                  No
    OpenMP threads:              8
    Integrals threads:           8
    Memory [MiB]:            35762
    Algorithm:                Core
    Integral Cache:           SAVE
    Schwarz Cutoff:          1E-12
    Fitting Condition:       1E-10

   => Auxiliary Basis Set <=

  Basis Set: (JUN-CC-PVDZ AUX)
    Blend: JUN-CC-PVDZ-JKFIT
    Number of shells: 297
    Number of basis functions: 849
    Number of Cartesian functions: 969
    Spherical Harmonics?: true
    Max angular momentum: 3

  Minimum eigenvalue in the overlap matrix is 6.0249253059E-05.
  Reciprocal condition number of the overlap matrix is 5.3135344915E-06.
    Using symmetric orthogonalization.

  ==> Pre-Iterations <==

  SCF Guess: Superposition of Atomic Densities via on-the-fly atomic UHF (no occupation information).

   -------------------------
    Irrep   Nso     Nmo    
   -------------------------
     A        192     192 
   -------------------------
    Total     192     192
   -------------------------

  ==> Iterations <==

                           Total Energy        Delta E     RMS |[F,P]|

   @DF-RHF iter SAD:  -487.40853442999730   -4.87409e+02   0.00000e+00 
   @DF-RHF iter   1:  -488.25411266603930   -8.45578e-01   4.25517e-03 DIIS
   @DF-RHF iter   2:  -488.45720041312916   -2.03088e-01   2.73234e-03 DIIS
   @DF-RHF iter   3:  -488.55494570239927   -9.77453e-02   4.63688e-04 DIIS
   @DF-RHF iter   4:  -488.55928919262396   -4.34349e-03   2.05713e-04 DIIS
   @DF-RHF iter   5:  -488.56025262590651   -9.63433e-04   4.56887e-05 DIIS
   @DF-RHF iter   6:  -488.56035862137281   -1.05995e-04   2.34890e-05 DIIS
   @DF-RHF iter   7:  -488.56038885029636   -3.02289e-05   7.99240e-06 DIIS
   @DF-RHF iter   8:  -488.56039280366070   -3.95336e-06   2.79334e-06 DIIS
   @DF-RHF iter   9:  -488.56039309332925   -2.89669e-07   1.12596e-06 DIIS
   @DF-RHF iter  10:  -488.56039315012913   -5.67999e-08   4.42499e-07 DIIS
   @DF-RHF iter  11:  -488.56039315922658   -9.09745e-09   1.53439e-07 DIIS
   @DF-RHF iter  12:  -488.56039316012624   -8.99661e-10   3.92883e-08 DIIS
   @DF-RHF iter  13:  -488.56039316021077   -8.45262e-11   1.37736e-08 DIIS
   @DF-RHF iter  14:  -488.56039316022350   -1.27329e-11   5.75603e-09 DIIS
  Energy and wave function converged.


  ==> Post-Iterations <==

    Orbital Energies [Eh]
    ---------------------

    Doubly Occupied:                                                      

       1A    -20.565268     2A    -20.565187     3A    -20.553469  
       4A    -15.661308     5A    -15.646943     6A    -11.439392  
       7A    -11.404998     8A    -11.357249     9A    -11.267014  
      10A     -1.445151    11A     -1.410337    12A     -1.327511  
      13A     -1.322502    14A     -1.256624    15A     -1.097499  
      16A     -0.942551    17A     -0.913874    18A     -0.813169  
      19A     -0.773603    20A     -0.721442    21A     -0.697766  
      22A     -0.683631    23A     -0.674318    24A     -0.660204  
      25A     -0.621747    26A     -0.608752    27A     -0.579975  
      28A     -0.561871    29A     -0.530006    30A     -0.493652  
      31A     -0.484717    32A     -0.461155    33A     -0.446956  
      34A     -0.375242  

    Virtual:                                                              

      35A      0.037555    36A      0.065153    37A      0.065520  
      38A      0.073258    39A      0.080367    40A      0.090781  
      41A      0.098964    42A      0.112633    43A      0.121528  
      44A      0.127252    45A      0.133394    46A      0.144833  
      47A      0.147029    48A      0.164716    49A      0.178721  
      50A      0.180593    51A      0.192166    52A      0.205766  
      53A      0.215795    54A      0.225571    55A      0.239023  
      56A      0.249845    57A      0.261718    58A      0.266726  
      59A      0.268381    60A      0.274511    61A      0.283808  
      62A      0.296549    63A      0.301098    64A      0.303760  
      65A      0.324227    66A      0.331083    67A      0.335543  
      68A      0.338877    69A      0.352821    70A      0.354893  
      71A      0.361480    72A      0.371604    73A      0.385349  
      74A      0.392308    75A      0.402912    76A      0.424950  
      77A      0.433617    78A      0.448082    79A      0.473053  
      80A      0.495950    81A      0.506889    82A      0.534523  
      83A      0.543223    84A      0.585743    85A      0.665096  
      86A      0.686668    87A      0.747326    88A      0.769031  
      89A      0.784753    90A      0.826835    91A      0.835209  
      92A      0.846998    93A      0.870738    94A      0.875261  
      95A      0.923961    96A      0.927582    97A      0.967163  
      98A      0.988621    99A      0.992398   100A      1.041912  
     101A      1.051629   102A      1.060489   103A      1.089064  
     104A      1.114111   105A      1.128477   106A      1.131615  
     107A      1.143518   108A      1.150912   109A      1.186319  
     110A      1.193092   111A      1.217520   112A      1.272058  
     113A      1.286932   114A      1.296407   115A      1.318886  
     116A      1.322259   117A      1.336717   118A      1.370229  
     119A      1.382832   120A      1.397041   121A      1.441111  
     122A      1.458958   123A      1.477109   124A      1.494896  
     125A      1.513568   126A      1.527132   127A      1.527886  
     128A      1.536446   129A      1.577316   130A      1.613066  
     131A      1.645530   132A      1.667737   133A      1.709937  
     134A      1.734976   135A      1.767010   136A      1.792451  
     137A      1.805507   138A      1.816076   139A      1.855230  
     140A      1.881755   141A      1.921774   142A      1.927026  
     143A      1.955034   144A      1.985432   145A      2.003763  
     146A      2.023667   147A      2.046645   148A      2.053790  
     149A      2.089828   150A      2.123503   151A      2.178646  
     152A      2.191012   153A      2.197135   154A      2.243086  
     155A      2.275905   156A      2.341774   157A      2.356889  
     158A      2.433902   159A      2.454312   160A      2.466726  
     161A      2.481165   162A      2.503076   163A      2.555674  
     164A      2.599667   165A      2.623904   166A      2.640989  
     167A      2.741115   168A      2.761030   169A      2.839475  
     170A      2.880803   171A      2.917203   172A      2.943626  
     173A      2.981835   174A      3.036774   175A      3.103949  
     176A      3.109694   177A      3.133313   178A      3.203612  
     179A      3.290987   180A      3.341939   181A      3.350118  
     182A      3.425980   183A      3.445300   184A      3.490340  
     185A      3.516258   186A      3.763468   187A      3.858896  
     188A      3.867013   189A      3.930944   190A      4.020820  
     191A      4.085416   192A      4.204292  

    Final Occupation by Irrep:
              A 
    DOCC [    34 ]

  @DF-RHF Final Energy:  -488.56039316022350

   => Energetics <=

    Nuclear Repulsion Energy =            437.3109778643777190
    One-Electron Energy =               -1535.0125763123912748
    Two-Electron Energy =                 609.1412052877900578
    Total Energy =                       -488.5603931602234979

Computation Completed


Properties will be evaluated at   0.000000,   0.000000,   0.000000 [a0]

Properties computed using the SCF density matrix

  Nuclear Dipole Moment: [e a0]
     X:    -5.3354      Y:     3.3353      Z:     0.6215

  Electronic Dipole Moment: [e a0]
     X:     5.9623      Y:    -1.8286      Z:    -0.0747

  Dipole Moment: [e a0]
     X:     0.6269      Y:     1.5067      Z:     0.5468     Total:     1.7211

  Dipole Moment: [D]
     X:     1.5934      Y:     3.8296      Z:     1.3899     Total:     4.3746


*** tstop() called on node110.bme.utexas.edu at Mon May 13 09:53:32 2024
Module time:
	user time   =      11.20 seconds =       0.19 minutes
	system time =       0.23 seconds =       0.00 minutes
	total time  =          2 seconds =       0.03 minutes
Total time:
	user time   =      11.20 seconds =       0.19 minutes
	system time =       0.23 seconds =       0.00 minutes
	total time  =          2 seconds =       0.03 minutes

*** tstart() called on node110.bme.utexas.edu
*** at Mon May 13 09:53:32 2024


  //>>>>>>>>>>>>>>>>>>>>>>>>>>>>>>>>>>>//
  //               DFMP2               //
  //<<<<<<<<<<<<<<<<<<<<<<<<<<<<<<<<<<<//

   => Loading Basis Set <=

    Name: (JUN-CC-PVDZ AUX)
    Role: RIFIT
    Keyword: DF_BASIS_MP2
    atoms 1, 5               entry N          line   144 file /opt/anaconda/envs/psi4v1.5/share/psi4/basis/jun-cc-pvdz-ri.gbs 
    atoms 2, 9, 11-12, 14-15 entry H          line    30 file /opt/anaconda/envs/psi4v1.5/share/psi4/basis/jun-cc-pvdz-ri.gbs 
    atoms 3, 6, 8, 10        entry C          line   100 file /opt/anaconda/envs/psi4v1.5/share/psi4/basis/jun-cc-pvdz-ri.gbs 
    atoms 4, 7, 13           entry O          line   188 file /opt/anaconda/envs/psi4v1.5/share/psi4/basis/jun-cc-pvdz-ri.gbs 

	 --------------------------------------------------------
	                          DF-MP2                         
	      2nd-Order Density-Fitted Moller-Plesset Theory     
	              RMP2 Wavefunction,   8 Threads             
	                                                         
	        Rob Parrish, Justin Turney, Andy Simmonett,      
	           Ed Hohenstein, and C. David Sherrill          
	 --------------------------------------------------------

   => Auxiliary Basis Set <=

  Basis Set: (JUN-CC-PVDZ AUX)
    Blend: JUN-CC-PVDZ-RI
    Number of shells: 225
    Number of basis functions: 669
    Number of Cartesian functions: 774
    Spherical Harmonics?: true
    Max angular momentum: 3

	 --------------------------------------------------------
	                 NBF =   192, NAUX =   669
	 --------------------------------------------------------
	   CLASS    FOCC     OCC    AOCC    AVIR     VIR    FVIR
	   PAIRS       9      34      25     158     158       0
	 --------------------------------------------------------

	 Will save fitting metric to file 97.

	-----------------------------------------------------------
	 ==================> DF-MP2 Energies <==================== 
	-----------------------------------------------------------
	 Reference Energy          =    -488.5603931602234979 [Eh]
	 Singles Energy            =      -0.0000000000000000 [Eh]
	 Same-Spin Energy          =      -0.3856294210894533 [Eh]
	 Opposite-Spin Energy      =      -1.0307208300550954 [Eh]
	 Correlation Energy        =      -1.4163502511445487 [Eh]
	 Total Energy              =    -489.9767434113680338 [Eh]
	-----------------------------------------------------------
	 ================> DF-SCS-MP2 Energies <================== 
	-----------------------------------------------------------
	 SCS Same-Spin Scale       =       0.3333333333333333 [-]
	 SCS Opposite-Spin Scale   =       1.2000000000000000 [-]
	 SCS Same-Spin Energy      =      -0.1285431403631511 [Eh]
	 SCS Opposite-Spin Energy  =      -1.2368649960661144 [Eh]
	 SCS Correlation Energy    =      -1.3654081364292656 [Eh]
	 SCS Total Energy          =    -489.9258012966527644 [Eh]
	-----------------------------------------------------------


*** tstop() called on node110.bme.utexas.edu at Mon May 13 09:53:33 2024
Module time:
	user time   =       4.60 seconds =       0.08 minutes
	system time =       0.10 seconds =       0.00 minutes
	total time  =          1 seconds =       0.02 minutes
Total time:
	user time   =      15.80 seconds =       0.26 minutes
	system time =       0.33 seconds =       0.01 minutes
	total time  =          3 seconds =       0.05 minutes

  //>>>>>>>>>>>>>>>>>>>>>>>>>>>>>>>>>>>//
  //            Monomer A HF           //
  //<<<<<<<<<<<<<<<<<<<<<<<<<<<<<<<<<<<//


*** tstart() called on node110.bme.utexas.edu
*** at Mon May 13 09:53:33 2024

   => Loading Basis Set <=

    Name: JUN-CC-PVDZ
    Role: ORBITAL
    Keyword: BASIS
    atoms 1, 5               entry N          line   198 file /opt/anaconda/envs/psi4v1.5/share/psi4/basis/jun-cc-pvdz.gbs 
    atoms 2, 9, 11-12, 14-15 entry H          line    36 file /opt/anaconda/envs/psi4v1.5/share/psi4/basis/jun-cc-pvdz.gbs 
    atoms 3, 6, 8, 10        entry C          line   164 file /opt/anaconda/envs/psi4v1.5/share/psi4/basis/jun-cc-pvdz.gbs 
    atoms 4, 7, 13           entry O          line   232 file /opt/anaconda/envs/psi4v1.5/share/psi4/basis/jun-cc-pvdz.gbs 


         ---------------------------------------------------------
                                   SCF
               by Justin Turney, Rob Parrish, Andy Simmonett
                          and Daniel G. A. Smith
                              RHF Reference
                        8 Threads,  47683 MiB Core
         ---------------------------------------------------------

  ==> Geometry <==

    Molecular point group: c1
    Full point group: C1

    Geometry (in Angstrom), charge = 0, multiplicity = 1:

       Center              X                  Y                   Z               Mass       
    ------------   -----------------  -----------------  -----------------  -----------------
         N            1.624869493422     1.150345178430     0.008927806846    14.003074004430
         H            2.445019493422     1.745535178430     0.008447806846     1.007825032230
         C            1.891449493422    -0.211704821570     0.012237806846    12.000000000000
         O            3.021709493422    -0.679624821570     0.018707806846    15.994914619570
         N            0.732549493422    -0.975824821570     0.008647806846    14.003074004430
         C           -0.596700506578    -0.540524821570    -0.004132193154    12.000000000000
         O           -1.512590506578    -1.371154821570    -0.012542193154    15.994914619570
         C           -0.748540506578     0.904065178430    -0.004552193154    12.000000000000
         H           -1.751960506578     1.311715178430    -0.013742193154     1.007825032230
         C            0.356079493422     1.684535178430    -0.001002193154    12.000000000000
         H            0.307449493422     2.768645178430    -0.004922193154     1.007825032230
         H            0.874619493422    -1.983114821570     0.005827806846     1.007825032230
      Gh(O)          -3.892530506578     0.295505178430    -0.065262193154    15.994914619570
      Gh(H)          -3.239930506578    -0.429594821570    -0.131392193154     1.007825032230
      Gh(H)          -4.306920506578     0.154095178430     0.799107806846     1.007825032230

  Running in c1 symmetry.

  Rotational constants: A =      0.12391  B =      0.02984  C =      0.02410 [cm^-1]
  Rotational constants: A =   3714.76655  B =    894.57833  C =    722.45725 [MHz]
  Nuclear repulsion =  355.546890042850862

  Charge       = 0
  Multiplicity = 1
  Electrons    = 58
  Nalpha       = 29
  Nbeta        = 29

  ==> Algorithm <==

  SCF Algorithm Type is DF.
  DIIS enabled.
  MOM disabled.
  Fractional occupation disabled.
  Guess Type is SAD.
  Energy threshold   = 1.00e-08
  Density threshold  = 1.00e-08
  Integral threshold = 1.00e-12

  ==> Primary Basis <==

  Basis Set: JUN-CC-PVDZ
    Blend: JUN-CC-PVDZ
    Number of shells: 90
    Number of basis functions: 192
    Number of Cartesian functions: 201
    Spherical Harmonics?: true
    Max angular momentum: 2

   => Loading Basis Set <=

    Name: (JUN-CC-PVDZ AUX)
    Role: JKFIT
    Keyword: DF_BASIS_SCF
    atoms 1, 5               entry N          line   202 file /opt/anaconda/envs/psi4v1.5/share/psi4/basis/jun-cc-pvdz-jkfit.gbs 
    atoms 2, 9, 11-12, 14-15 entry H          line    70 file /opt/anaconda/envs/psi4v1.5/share/psi4/basis/jun-cc-pvdz-jkfit.gbs 
    atoms 3, 6, 8, 10        entry C          line   146 file /opt/anaconda/envs/psi4v1.5/share/psi4/basis/jun-cc-pvdz-jkfit.gbs 
    atoms 4, 7, 13           entry O          line   258 file /opt/anaconda/envs/psi4v1.5/share/psi4/basis/jun-cc-pvdz-jkfit.gbs 

  ==> Integral Setup <==

  ==> DiskDFJK: Density-Fitted J/K Matrices <==

    J tasked:                  Yes
    K tasked:                  Yes
    wK tasked:                  No
    OpenMP threads:              8
    Integrals threads:           8
    Memory [MiB]:            35762
    Algorithm:                Core
    Integral Cache:           LOAD
    Schwarz Cutoff:          1E-12
    Fitting Condition:       1E-10

   => Auxiliary Basis Set <=

  Basis Set: (JUN-CC-PVDZ AUX)
    Blend: JUN-CC-PVDZ-JKFIT
    Number of shells: 297
    Number of basis functions: 849
    Number of Cartesian functions: 969
    Spherical Harmonics?: true
    Max angular momentum: 3

  Minimum eigenvalue in the overlap matrix is 6.0249253059E-05.
  Reciprocal condition number of the overlap matrix is 5.3135344915E-06.
    Using symmetric orthogonalization.

  ==> Pre-Iterations <==

  SCF Guess: Superposition of Atomic Densities via on-the-fly atomic UHF (no occupation information).

   -------------------------
    Irrep   Nso     Nmo    
   -------------------------
     A        192     192 
   -------------------------
    Total     192     192
   -------------------------

  ==> Iterations <==

                           Total Energy        Delta E     RMS |[F,P]|

   @DF-RHF iter SAD:  -411.79401211590266   -4.11794e+02   0.00000e+00 
   @DF-RHF iter   1:  -412.26873528064965   -4.74723e-01   3.74576e-03 DIIS
   @DF-RHF iter   2:  -412.42526055664740   -1.56525e-01   2.54045e-03 DIIS
   @DF-RHF iter   3:  -412.51035867509216   -8.50981e-02   4.55611e-04 DIIS
   @DF-RHF iter   4:  -412.51467700155075   -4.31833e-03   1.76952e-04 DIIS
   @DF-RHF iter   5:  -412.51551143793984   -8.34436e-04   3.82190e-05 DIIS
   @DF-RHF iter   6:  -412.51561396161202   -1.02524e-04   2.00684e-05 DIIS
   @DF-RHF iter   7:  -412.51563388293982   -1.99213e-05   7.41016e-06 DIIS
   @DF-RHF iter   8:  -412.51563669443692   -2.81150e-06   2.84714e-06 DIIS
   @DF-RHF iter   9:  -412.51563694698314   -2.52546e-07   1.06225e-06 DIIS
   @DF-RHF iter  10:  -412.51563700767463   -6.06915e-08   3.57078e-07 DIIS
   @DF-RHF iter  11:  -412.51563701419889   -6.52426e-09   1.20673e-07 DIIS
   @DF-RHF iter  12:  -412.51563701476715   -5.68264e-10   3.51812e-08 DIIS
   @DF-RHF iter  13:  -412.51563701482621   -5.90603e-11   1.27669e-08 DIIS
   @DF-RHF iter  14:  -412.51563701483661   -1.04023e-11   6.26628e-09 DIIS
  Energy and wave function converged.


  ==> Post-Iterations <==

    Orbital Energies [Eh]
    ---------------------

    Doubly Occupied:                                                      

       1A    -20.560995     2A    -20.550937     3A    -15.657829  
       4A    -15.639183     5A    -11.434693     6A    -11.393081  
       7A    -11.355228     8A    -11.269163     9A     -1.439678  
      10A     -1.395465    11A     -1.318221    12A     -1.249210  
      13A     -1.095110    14A     -0.938330    15A     -0.906542  
      16A     -0.809880    17A     -0.767820    18A     -0.717240  
      19A     -0.678485    20A     -0.669145    21A     -0.656342  
      22A     -0.614272    23A     -0.603140    24A     -0.568477  
      25A     -0.527140    26A     -0.485936    27A     -0.449753  
      28A     -0.436095    29A     -0.372057  

    Virtual:                                                              

      30A      0.036650    31A      0.063558    32A      0.068306  
      33A      0.069261    34A      0.082859    35A      0.088661  
      36A      0.098604    37A      0.105851    38A      0.118893  
      39A      0.129353    40A      0.131066    41A      0.140814  
      42A      0.150776    43A      0.167246    44A      0.172557  
      45A      0.174588    46A      0.193785    47A      0.199069  
      48A      0.200841    49A      0.215807    50A      0.230830  
      51A      0.234644    52A      0.247012    53A      0.257906  
      54A      0.269240    55A      0.270373    56A      0.275657  
      57A      0.287488    58A      0.297100    59A      0.305171  
      60A      0.323176    61A      0.328247    62A      0.339459  
      63A      0.343129    64A      0.354074    65A      0.362331  
      66A      0.370927    67A      0.379381    68A      0.388203  
      69A      0.397488    70A      0.418581    71A      0.430818  
      72A      0.439424    73A      0.455265    74A      0.472228  
      75A      0.486771    76A      0.513010    77A      0.536563  
      78A      0.552761    79A      0.582161    80A      0.665086  
      81A      0.690739    82A      0.742686    83A      0.753057  
      84A      0.785876    85A      0.830065    86A      0.837421  
      87A      0.839393    88A      0.850760    89A      0.865806  
      90A      0.872484    91A      0.892257    92A      0.902226  
      93A      0.935596    94A      0.956888    95A      0.978603  
      96A      1.003364    97A      1.031814    98A      1.054491  
      99A      1.065193   100A      1.086721   101A      1.115416  
     102A      1.131417   103A      1.140605   104A      1.147713  
     105A      1.159656   106A      1.191311   107A      1.208365  
     108A      1.223460   109A      1.281349   110A      1.288708  
     111A      1.325836   112A      1.331931   113A      1.343078  
     114A      1.378575   115A      1.389050   116A      1.463428  
     117A      1.480523   118A      1.503579   119A      1.524156  
     120A      1.533968   121A      1.541716   122A      1.544237  
     123A      1.616774   124A      1.660567   125A      1.715495  
     126A      1.736628   127A      1.792354   128A      1.807481  
     129A      1.811013   130A      1.834817   131A      1.859814  
     132A      1.876734   133A      1.917445   134A      1.921993  
     135A      1.928040   136A      1.975504   137A      1.983102  
     138A      2.009412   139A      2.031298   140A      2.056131  
     141A      2.061004   142A      2.091518   143A      2.149016  
     144A      2.153360   145A      2.188374   146A      2.194970  
     147A      2.211906   148A      2.240116   149A      2.308016  
     150A      2.349357   151A      2.365441   152A      2.391234  
     153A      2.440038   154A      2.471495   155A      2.472716  
     156A      2.488204   157A      2.558232   158A      2.604000  
     159A      2.645241   160A      2.662942   161A      2.745590  
     162A      2.763728   163A      2.839100   164A      2.887172  
     165A      2.917777   166A      2.931701   167A      2.948247  
     168A      2.986225   169A      3.050477   170A      3.099514  
     171A      3.116073   172A      3.138756   173A      3.206674  
     174A      3.330707   175A      3.349002   176A      3.438470  
     177A      3.449189   178A      3.500266   179A      3.774390  
     180A      3.867998   181A      3.875258   182A      4.032467  
     183A      4.092791   184A      4.458965   185A      4.529200  
     186A      4.726417   187A      4.868977   188A      5.096379  
     189A      5.545308   190A      6.543152   191A      6.952238  
     192A     33.541229  

    Final Occupation by Irrep:
              A 
    DOCC [    29 ]

  @DF-RHF Final Energy:  -412.51563701483661

   => Energetics <=

    Nuclear Repulsion Energy =            355.5468900428508618
    One-Electron Energy =               -1267.0061646492031286
    Two-Electron Energy =                 498.9436375915155963
    Total Energy =                       -412.5156370148366136

Computation Completed


Properties will be evaluated at   0.000000,   0.000000,   0.000000 [a0]

Properties computed using the SCF density matrix

  Nuclear Dipole Moment: [e a0]
     X:    67.7726      Y:    -0.6115      Z:     0.3463

  Electronic Dipole Moment: [e a0]
     X:   -67.5088      Y:     2.6939      Z:    -0.3516

  Dipole Moment: [e a0]
     X:     0.2638      Y:     2.0824      Z:    -0.0053     Total:     2.0991

  Dipole Moment: [D]
     X:     0.6706      Y:     5.2929      Z:    -0.0134     Total:     5.3353


*** tstop() called on node110.bme.utexas.edu at Mon May 13 09:53:34 2024
Module time:
	user time   =       8.76 seconds =       0.15 minutes
	system time =       0.12 seconds =       0.00 minutes
	total time  =          1 seconds =       0.02 minutes
Total time:
	user time   =      24.59 seconds =       0.41 minutes
	system time =       0.45 seconds =       0.01 minutes
	total time  =          4 seconds =       0.07 minutes

*** tstart() called on node110.bme.utexas.edu
*** at Mon May 13 09:53:34 2024


  //>>>>>>>>>>>>>>>>>>>>>>>>>>>>>>>>>>>//
  //               DFMP2               //
  //<<<<<<<<<<<<<<<<<<<<<<<<<<<<<<<<<<<//

   => Loading Basis Set <=

    Name: (JUN-CC-PVDZ AUX)
    Role: RIFIT
    Keyword: DF_BASIS_MP2
    atoms 1, 5               entry N          line   144 file /opt/anaconda/envs/psi4v1.5/share/psi4/basis/jun-cc-pvdz-ri.gbs 
    atoms 2, 9, 11-12, 14-15 entry H          line    30 file /opt/anaconda/envs/psi4v1.5/share/psi4/basis/jun-cc-pvdz-ri.gbs 
    atoms 3, 6, 8, 10        entry C          line   100 file /opt/anaconda/envs/psi4v1.5/share/psi4/basis/jun-cc-pvdz-ri.gbs 
    atoms 4, 7, 13           entry O          line   188 file /opt/anaconda/envs/psi4v1.5/share/psi4/basis/jun-cc-pvdz-ri.gbs 

	 --------------------------------------------------------
	                          DF-MP2                         
	      2nd-Order Density-Fitted Moller-Plesset Theory     
	              RMP2 Wavefunction,   8 Threads             
	                                                         
	        Rob Parrish, Justin Turney, Andy Simmonett,      
	           Ed Hohenstein, and C. David Sherrill          
	 --------------------------------------------------------

   => Auxiliary Basis Set <=

  Basis Set: (JUN-CC-PVDZ AUX)
    Blend: JUN-CC-PVDZ-RI
    Number of shells: 225
    Number of basis functions: 669
    Number of Cartesian functions: 774
    Spherical Harmonics?: true
    Max angular momentum: 3

	 --------------------------------------------------------
	                 NBF =   192, NAUX =   669
	 --------------------------------------------------------
	   CLASS    FOCC     OCC    AOCC    AVIR     VIR    FVIR
	   PAIRS       8      29      21     163     163       0
	 --------------------------------------------------------

	 Will attempt to load fitting metric from file 97.

	-----------------------------------------------------------
	 ==================> DF-MP2 Energies <==================== 
	-----------------------------------------------------------
	 Reference Energy          =    -412.5156370148366136 [Eh]
	 Singles Energy            =      -0.0000000000000000 [Eh]
	 Same-Spin Energy          =      -0.3308192599646406 [Eh]
	 Opposite-Spin Energy      =      -0.8744314854244406 [Eh]
	 Correlation Energy        =      -1.2052507453890811 [Eh]
	 Total Energy              =    -413.7208877602257076 [Eh]
	-----------------------------------------------------------
	 ================> DF-SCS-MP2 Energies <================== 
	-----------------------------------------------------------
	 SCS Same-Spin Scale       =       0.3333333333333333 [-]
	 SCS Opposite-Spin Scale   =       1.2000000000000000 [-]
	 SCS Same-Spin Energy      =      -0.1102730866548802 [Eh]
	 SCS Opposite-Spin Energy  =      -1.0493177825093287 [Eh]
	 SCS Correlation Energy    =      -1.1595908691642089 [Eh]
	 SCS Total Energy          =    -413.6752278840008330 [Eh]
	-----------------------------------------------------------


*** tstop() called on node110.bme.utexas.edu at Mon May 13 09:53:35 2024
Module time:
	user time   =       3.95 seconds =       0.07 minutes
	system time =       0.08 seconds =       0.00 minutes
	total time  =          1 seconds =       0.02 minutes
Total time:
	user time   =      28.55 seconds =       0.48 minutes
	system time =       0.53 seconds =       0.01 minutes
	total time  =          5 seconds =       0.08 minutes

  //>>>>>>>>>>>>>>>>>>>>>>>>>>>>>>>>>>>//
  //            Monomer B HF           //
  //<<<<<<<<<<<<<<<<<<<<<<<<<<<<<<<<<<<//


*** tstart() called on node110.bme.utexas.edu
*** at Mon May 13 09:53:35 2024

   => Loading Basis Set <=

    Name: JUN-CC-PVDZ
    Role: ORBITAL
    Keyword: BASIS
    atoms 1, 5               entry N          line   198 file /opt/anaconda/envs/psi4v1.5/share/psi4/basis/jun-cc-pvdz.gbs 
    atoms 2, 9, 11-12, 14-15 entry H          line    36 file /opt/anaconda/envs/psi4v1.5/share/psi4/basis/jun-cc-pvdz.gbs 
    atoms 3, 6, 8, 10        entry C          line   164 file /opt/anaconda/envs/psi4v1.5/share/psi4/basis/jun-cc-pvdz.gbs 
    atoms 4, 7, 13           entry O          line   232 file /opt/anaconda/envs/psi4v1.5/share/psi4/basis/jun-cc-pvdz.gbs 


         ---------------------------------------------------------
                                   SCF
               by Justin Turney, Rob Parrish, Andy Simmonett
                          and Daniel G. A. Smith
                              RHF Reference
                        8 Threads,  47683 MiB Core
         ---------------------------------------------------------

  ==> Geometry <==

    Molecular point group: c1
    Full point group: C1

    Geometry (in Angstrom), charge = 0, multiplicity = 1:

       Center              X                  Y                   Z               Mass       
    ------------   -----------------  -----------------  -----------------  -----------------
      Gh(N)           1.624869493422     1.150345178430     0.008927806846    14.003074004430
      Gh(H)           2.445019493422     1.745535178430     0.008447806846     1.007825032230
      Gh(C)           1.891449493422    -0.211704821570     0.012237806846    12.000000000000
      Gh(O)           3.021709493422    -0.679624821570     0.018707806846    15.994914619570
      Gh(N)           0.732549493422    -0.975824821570     0.008647806846    14.003074004430
      Gh(C)          -0.596700506578    -0.540524821570    -0.004132193154    12.000000000000
      Gh(O)          -1.512590506578    -1.371154821570    -0.012542193154    15.994914619570
      Gh(C)          -0.748540506578     0.904065178430    -0.004552193154    12.000000000000
      Gh(H)          -1.751960506578     1.311715178430    -0.013742193154     1.007825032230
      Gh(C)           0.356079493422     1.684535178430    -0.001002193154    12.000000000000
      Gh(H)           0.307449493422     2.768645178430    -0.004922193154     1.007825032230
      Gh(H)           0.874619493422    -1.983114821570     0.005827806846     1.007825032230
         O           -3.892530506578     0.295505178430    -0.065262193154    15.994914619570
         H           -3.239930506578    -0.429594821570    -0.131392193154     1.007825032230
         H           -4.306920506578     0.154095178430     0.799107806846     1.007825032230

  Running in c1 symmetry.

  Rotational constants: A =      0.12391  B =      0.02984  C =      0.02410 [cm^-1]
  Rotational constants: A =   3714.76655  B =    894.57833  C =    722.45725 [MHz]
  Nuclear repulsion =    9.044348495848951

  Charge       = 0
  Multiplicity = 1
  Electrons    = 10
  Nalpha       = 5
  Nbeta        = 5

  ==> Algorithm <==

  SCF Algorithm Type is DF.
  DIIS enabled.
  MOM disabled.
  Fractional occupation disabled.
  Guess Type is SAD.
  Energy threshold   = 1.00e-08
  Density threshold  = 1.00e-08
  Integral threshold = 1.00e-12

  ==> Primary Basis <==

  Basis Set: JUN-CC-PVDZ
    Blend: JUN-CC-PVDZ
    Number of shells: 90
    Number of basis functions: 192
    Number of Cartesian functions: 201
    Spherical Harmonics?: true
    Max angular momentum: 2

   => Loading Basis Set <=

    Name: (JUN-CC-PVDZ AUX)
    Role: JKFIT
    Keyword: DF_BASIS_SCF
    atoms 1, 5               entry N          line   202 file /opt/anaconda/envs/psi4v1.5/share/psi4/basis/jun-cc-pvdz-jkfit.gbs 
    atoms 2, 9, 11-12, 14-15 entry H          line    70 file /opt/anaconda/envs/psi4v1.5/share/psi4/basis/jun-cc-pvdz-jkfit.gbs 
    atoms 3, 6, 8, 10        entry C          line   146 file /opt/anaconda/envs/psi4v1.5/share/psi4/basis/jun-cc-pvdz-jkfit.gbs 
    atoms 4, 7, 13           entry O          line   258 file /opt/anaconda/envs/psi4v1.5/share/psi4/basis/jun-cc-pvdz-jkfit.gbs 

  ==> Integral Setup <==

  ==> DiskDFJK: Density-Fitted J/K Matrices <==

    J tasked:                  Yes
    K tasked:                  Yes
    wK tasked:                  No
    OpenMP threads:              8
    Integrals threads:           8
    Memory [MiB]:            35762
    Algorithm:                Core
    Integral Cache:           LOAD
    Schwarz Cutoff:          1E-12
    Fitting Condition:       1E-10

   => Auxiliary Basis Set <=

  Basis Set: (JUN-CC-PVDZ AUX)
    Blend: JUN-CC-PVDZ-JKFIT
    Number of shells: 297
    Number of basis functions: 849
    Number of Cartesian functions: 969
    Spherical Harmonics?: true
    Max angular momentum: 3

  Minimum eigenvalue in the overlap matrix is 6.0249253059E-05.
  Reciprocal condition number of the overlap matrix is 5.3135344915E-06.
    Using symmetric orthogonalization.

  ==> Pre-Iterations <==

  SCF Guess: Superposition of Atomic Densities via on-the-fly atomic UHF (no occupation information).

   -------------------------
    Irrep   Nso     Nmo    
   -------------------------
     A        192     192 
   -------------------------
    Total     192     192
   -------------------------

  ==> Iterations <==

                           Total Energy        Delta E     RMS |[F,P]|

   @DF-RHF iter SAD:   -75.49445087855618   -7.54945e+01   0.00000e+00 
   @DF-RHF iter   1:   -75.95860776868896   -4.64157e-01   2.25151e-03 DIIS
   @DF-RHF iter   2:   -76.00934522700545   -5.07375e-02   1.44787e-03 DIIS
   @DF-RHF iter   3:   -76.03632216332598   -2.69769e-02   1.15920e-04 DIIS
   @DF-RHF iter   4:   -76.03670408331836   -3.81920e-04   2.65594e-05 DIIS
   @DF-RHF iter   5:   -76.03672605598521   -2.19727e-05   5.27116e-06 DIIS
   @DF-RHF iter   6:   -76.03672746340266   -1.40742e-06   1.15406e-06 DIIS
   @DF-RHF iter   7:   -76.03672754087282   -7.74702e-08   1.46583e-07 DIIS
   @DF-RHF iter   8:   -76.03672754195502   -1.08220e-09   2.66546e-08 DIIS
   @DF-RHF iter   9:   -76.03672754198968   -3.46603e-11   7.12394e-09 DIIS
  Energy and wave function converged.


  ==> Post-Iterations <==

    Orbital Energies [Eh]
    ---------------------

    Doubly Occupied:                                                      

       1A    -20.580134     2A     -1.349124     3A     -0.709264  
       4A     -0.582918     5A     -0.507950  

    Virtual:                                                              

       6A      0.030995     7A      0.048973     8A      0.057813  
       9A      0.068838    10A      0.089594    11A      0.091043  
      12A      0.103358    13A      0.115519    14A      0.123321  
      15A      0.132312    16A      0.143987    17A      0.157443  
      18A      0.162913    19A      0.168530    20A      0.171055  
      21A      0.175086    22A      0.200875    23A      0.207914  
      24A      0.212973    25A      0.221557    26A      0.223302  
      27A      0.227712    28A      0.235086    29A      0.251192  
      30A      0.255563    31A      0.259958    32A      0.278141  
      33A      0.285963    34A      0.286380    35A      0.292365  
      36A      0.297996    37A      0.323537    38A      0.332309  
      39A      0.342773    40A      0.367027    41A      0.401477  
      42A      0.413053    43A      0.422213    44A      0.461161  
      45A      0.469886    46A      0.476502    47A      0.484578  
      48A      0.497833    49A      0.503824    50A      0.521264  
      51A      0.531287    52A      0.536889    53A      0.567763  
      54A      0.585532    55A      0.616208    56A      0.634781  
      57A      0.637744    58A      0.671197    59A      0.725925  
      60A      0.769125    61A      0.779965    62A      0.801786  
      63A      0.816117    64A      0.830151    65A      0.857404  
      66A      0.899391    67A      0.908252    68A      0.976879  
      69A      0.978192    70A      0.996595    71A      0.998905  
      72A      1.041494    73A      1.060564    74A      1.099529  
      75A      1.118904    76A      1.156153    77A      1.228990  
      78A      1.241901    79A      1.269936    80A      1.278275  
      81A      1.315180    82A      1.344347    83A      1.380473  
      84A      1.439313    85A      1.543075    86A      1.584708  
      87A      1.701547    88A      1.721923    89A      1.741025  
      90A      1.790070    91A      1.848675    92A      1.850418  
      93A      1.892922    94A      1.920353    95A      1.925602  
      96A      1.953627    97A      1.970401    98A      1.991264  
      99A      2.003308   100A      2.039964   101A      2.075834  
     102A      2.093326   103A      2.104602   104A      2.141298  
     105A      2.154526   106A      2.176080   107A      2.195523  
     108A      2.219275   109A      2.234310   110A      2.255624  
     111A      2.300934   112A      2.343861   113A      2.364693  
     114A      2.366927   115A      2.401065   116A      2.403072  
     117A      2.432825   118A      2.454971   119A      2.480671  
     120A      2.516109   121A      2.541209   122A      2.548677  
     123A      2.558221   124A      2.642350   125A      2.689081  
     126A      2.714256   127A      2.728515   128A      2.752989  
     129A      2.808710   130A      2.892020   131A      2.894871  
     132A      3.004939   133A      3.046812   134A      3.063894  
     135A      3.126929   136A      3.171307   137A      3.228623  
     138A      3.272232   139A      3.301534   140A      3.322277  
     141A      3.360346   142A      3.392537   143A      3.491183  
     144A      3.515876   145A      3.517088   146A      3.620475  
     147A      3.637961   148A      3.681953   149A      3.703503  
     150A      3.855102   151A      3.894512   152A      3.915454  
     153A      4.040606   154A      4.127309   155A      4.166943  
     156A      4.172378   157A      4.179211   158A      4.240598  
     159A      4.251135   160A      4.273363   161A      4.286842  
     162A      4.300422   163A      4.414238   164A      4.663733  
     165A      4.697159   166A      4.701606   167A      4.764380  
     168A      4.768410   169A      4.899502   170A      4.989415  
     171A      5.118247   172A      5.356652   173A      5.511593  
     174A      5.587012   175A      5.611786   176A      5.624829  
     177A      5.664908   178A      5.728682   179A      5.832393  
     180A      5.978759   181A      6.034520   182A      6.225583  
     183A      6.780562   184A      6.950869   185A     18.100795  
     186A     18.414161   187A     18.515608   188A     18.868191  
     189A     25.386560   190A     25.404572   191A     33.485010  
     192A     33.504567  

    Final Occupation by Irrep:
              A 
    DOCC [     5 ]

  @DF-RHF Final Energy:   -76.03672754198968

   => Energetics <=

    Nuclear Repulsion Energy =              9.0443484958489506
    One-Electron Energy =                -122.7033704659966702
    Two-Electron Energy =                  37.6222944281580425
    Total Energy =                        -76.0367275419896771

Computation Completed


Properties will be evaluated at   0.000000,   0.000000,   0.000000 [a0]

Properties computed using the SCF density matrix

  Nuclear Dipole Moment: [e a0]
     X:   -73.1080      Y:     3.9468      Z:     0.2752

  Electronic Dipole Moment: [e a0]
     X:    73.2766      Y:    -4.5615      Z:     0.2979

  Dipole Moment: [e a0]
     X:     0.1686      Y:    -0.6148      Z:     0.5731     Total:     0.8572

  Dipole Moment: [D]
     X:     0.4286      Y:    -1.5626      Z:     1.4566     Total:     2.1788


*** tstop() called on node110.bme.utexas.edu at Mon May 13 09:53:36 2024
Module time:
	user time   =       5.25 seconds =       0.09 minutes
	system time =       0.08 seconds =       0.00 minutes
	total time  =          1 seconds =       0.02 minutes
Total time:
	user time   =      33.82 seconds =       0.56 minutes
	system time =       0.61 seconds =       0.01 minutes
	total time  =          6 seconds =       0.10 minutes

*** tstart() called on node110.bme.utexas.edu
*** at Mon May 13 09:53:36 2024


  //>>>>>>>>>>>>>>>>>>>>>>>>>>>>>>>>>>>//
  //               DFMP2               //
  //<<<<<<<<<<<<<<<<<<<<<<<<<<<<<<<<<<<//

   => Loading Basis Set <=

    Name: (JUN-CC-PVDZ AUX)
    Role: RIFIT
    Keyword: DF_BASIS_MP2
    atoms 1, 5               entry N          line   144 file /opt/anaconda/envs/psi4v1.5/share/psi4/basis/jun-cc-pvdz-ri.gbs 
    atoms 2, 9, 11-12, 14-15 entry H          line    30 file /opt/anaconda/envs/psi4v1.5/share/psi4/basis/jun-cc-pvdz-ri.gbs 
    atoms 3, 6, 8, 10        entry C          line   100 file /opt/anaconda/envs/psi4v1.5/share/psi4/basis/jun-cc-pvdz-ri.gbs 
    atoms 4, 7, 13           entry O          line   188 file /opt/anaconda/envs/psi4v1.5/share/psi4/basis/jun-cc-pvdz-ri.gbs 

	 --------------------------------------------------------
	                          DF-MP2                         
	      2nd-Order Density-Fitted Moller-Plesset Theory     
	              RMP2 Wavefunction,   8 Threads             
	                                                         
	        Rob Parrish, Justin Turney, Andy Simmonett,      
	           Ed Hohenstein, and C. David Sherrill          
	 --------------------------------------------------------

   => Auxiliary Basis Set <=

  Basis Set: (JUN-CC-PVDZ AUX)
    Blend: JUN-CC-PVDZ-RI
    Number of shells: 225
    Number of basis functions: 669
    Number of Cartesian functions: 774
    Spherical Harmonics?: true
    Max angular momentum: 3

	 --------------------------------------------------------
	                 NBF =   192, NAUX =   669
	 --------------------------------------------------------
	   CLASS    FOCC     OCC    AOCC    AVIR     VIR    FVIR
	   PAIRS       1       5       4     187     187       0
	 --------------------------------------------------------

	 Will attempt to load fitting metric from file 97.

	-----------------------------------------------------------
	 ==================> DF-MP2 Energies <==================== 
	-----------------------------------------------------------
	 Reference Energy          =     -76.0367275419896771 [Eh]
	 Singles Energy            =      -0.0000000000000000 [Eh]
	 Same-Spin Energy          =      -0.0534240592023123 [Eh]
	 Opposite-Spin Energy      =      -0.1569957538025062 [Eh]
	 Correlation Energy        =      -0.2104198130048185 [Eh]
	 Total Energy              =     -76.2471473549944960 [Eh]
	-----------------------------------------------------------
	 ================> DF-SCS-MP2 Energies <================== 
	-----------------------------------------------------------
	 SCS Same-Spin Scale       =       0.3333333333333333 [-]
	 SCS Opposite-Spin Scale   =       1.2000000000000000 [-]
	 SCS Same-Spin Energy      =      -0.0178080197341041 [Eh]
	 SCS Opposite-Spin Energy  =      -0.1883949045630075 [Eh]
	 SCS Correlation Energy    =      -0.2062029242971116 [Eh]
	 SCS Total Energy          =     -76.2429304662867935 [Eh]
	-----------------------------------------------------------


*** tstop() called on node110.bme.utexas.edu at Mon May 13 09:53:36 2024
Module time:
	user time   =       3.25 seconds =       0.05 minutes
	system time =       0.05 seconds =       0.00 minutes
	total time  =          0 seconds =       0.00 minutes
Total time:
	user time   =      37.08 seconds =       0.62 minutes
	system time =       0.66 seconds =       0.01 minutes
	total time  =          6 seconds =       0.10 minutes
  Constructing Basis Sets for SAPT...

   => Loading Basis Set <=

    Name: (JUN-CC-PVDZ AUX)
    Role: RIFIT
    Keyword: DF_BASIS_SAPT
    atoms 1, 5               entry N          line   144 file /opt/anaconda/envs/psi4v1.5/share/psi4/basis/jun-cc-pvdz-ri.gbs 
    atoms 2, 9, 11-12, 14-15 entry H          line    30 file /opt/anaconda/envs/psi4v1.5/share/psi4/basis/jun-cc-pvdz-ri.gbs 
    atoms 3, 6, 8, 10        entry C          line   100 file /opt/anaconda/envs/psi4v1.5/share/psi4/basis/jun-cc-pvdz-ri.gbs 
    atoms 4, 7, 13           entry O          line   188 file /opt/anaconda/envs/psi4v1.5/share/psi4/basis/jun-cc-pvdz-ri.gbs 


  //>>>>>>>>>>>>>>>>>>>>>>>>>>>>>>>>>>>//
  //           SAPT2+(3)DMP2           //
  //<<<<<<<<<<<<<<<<<<<<<<<<<<<<<<<<<<<//


*** tstart() called on node110.bme.utexas.edu
*** at Mon May 13 09:53:36 2024

      SAPT2+(3)  
    Ed Hohenstein
     6 June 2009

      Orbital Information
  --------------------------
    NSO        =       192
    NMO        =       192
    NRI        =       669
    NOCC A     =        29
    NOCC B     =         5
    FOCC A     =         8
    FOCC B     =         1
    NVIR A     =       163
    NVIR B     =       187

    Estimated memory usage: 893.0 MB

    Natural Orbital Cutoff:   1.000E-06
    Disp(T3) Truncation:            Yes
    CCD (vv|vv) Truncation:         Yes
    MBPT T2 Truncation:             Yes

    Monomer A: 24 virtual orbitals dropped
    Monomer B: 157 virtual orbitals dropped

    Elst10,r            =    -0.019717031979 [Eh]
    Exch10 (S^2)        =     0.016619505316 [Eh]
    Exch10              =     0.016723956779 [Eh]
    Ind20,r (A<-B)      =    -0.004310647425 [Eh]
    Ind20,r (B<-A)      =    -0.002815096907 [Eh]
    Ind20,r             =    -0.007125744331 [Eh]
    Exch-Ind20,r (A<-B) =     0.002244335392 [Eh]
    Exch-Ind20,r (B<-A) =     0.001765368477 [Eh]
    Exch-Ind20,r        =     0.004009703869 [Eh]
    Disp20              =    -0.005166113967 [Eh]
    Disp20 (NO)         =    -0.004618077005 [Eh]
    Exch-Disp20         =     0.000994772657 [Eh]
    Elst12,r            =     0.000448132995 [Eh]
    Exch11              =    -0.000187970620 [Eh]
    Exch12              =     0.003667041288 [Eh]
    Ind22               =    -0.001434411031 [Eh]
    Disp21              =     0.000374056705 [Eh]
    Disp22 (SDQ)        =    -0.000324715250 [Eh]

    (i =   1 of   4)          4 seconds
    (i =   2 of   4)          8 seconds
    (i =   3 of   4)         12 seconds
    (i =   4 of   4)         16 seconds

    Disp220 (T)         =    -0.000420393244 [Eh]

    (i =   1 of  21)          0 seconds
    (i =   2 of  21)          0 seconds
    (i =   3 of  21)          1 seconds
    (i =   4 of  21)          1 seconds
    (i =   5 of  21)          1 seconds
    (i =   6 of  21)          1 seconds
    (i =   7 of  21)          1 seconds
    (i =   8 of  21)          1 seconds
    (i =   9 of  21)          1 seconds
    (i =  10 of  21)          1 seconds
    (i =  11 of  21)          1 seconds
    (i =  12 of  21)          1 seconds
    (i =  13 of  21)          1 seconds
    (i =  14 of  21)          1 seconds
    (i =  15 of  21)          1 seconds
    (i =  16 of  21)          1 seconds
    (i =  17 of  21)          1 seconds
    (i =  18 of  21)          1 seconds
    (i =  19 of  21)          1 seconds
    (i =  20 of  21)          1 seconds
    (i =  21 of  21)          1 seconds

    Disp202 (T)         =    -0.000352409096 [Eh]

    Disp22 (T)          =    -0.000772802340 [Eh]

    Est. Disp220 (T)    =    -0.000470282199 [Eh]
    Est. Disp202 (T)    =    -0.000394230229 [Eh]

    Est. Disp22 (T)     =    -0.000864512427 [Eh]
    Elst13,r            =     0.000344637218 [Eh]
    Disp30              =     0.000054321943 [Eh]

    SAPT Results 
  --------------------------------------------------------------------------------------------------------
    Electrostatics                -18.92426177 [mEh]     -11.87515354 [kcal/mol]     -49.68564242 [kJ/mol]
      Elst10,r                    -19.71703198 [mEh]     -12.37262436 [kcal/mol]     -51.76706033 [kJ/mol]
      Elst12,r                      0.44813300 [mEh]       0.28120770 [kcal/mol]       1.17657302 [kJ/mol]
      Elst13,r                      0.34463722 [mEh]       0.21626312 [kcal/mol]       0.90484489 [kJ/mol]

    Exchange                       20.20302745 [mEh]      12.67759112 [kcal/mol]      53.04304126 [kJ/mol]
      Exch10                       16.72395678 [mEh]      10.49444132 [kcal/mol]      43.90874247 [kJ/mol]
      Exch10(S^2)                  16.61950532 [mEh]      10.42889704 [kcal/mol]      43.63450520 [kJ/mol]
      Exch11(S^2)                  -0.18797062 [mEh]      -0.11795334 [kcal/mol]      -0.49351679 [kJ/mol]
      Exch12(S^2)                   3.66704129 [mEh]       2.30110315 [kcal/mol]       9.62781558 [kJ/mol]

    Induction                      -5.47108330 [mEh]      -3.43315660 [kcal/mol]     -14.36432723 [kJ/mol]
      Ind20,r                      -7.12574433 [mEh]      -4.47147208 [kcal/mol]     -18.70863916 [kJ/mol]
      Ind22                        -1.43441103 [mEh]      -0.90010651 [kcal/mol]      -3.76604564 [kJ/mol]
      Exch-Ind20,r                  4.00970387 [mEh]       2.51612716 [kcal/mol]      10.52747606 [kJ/mol]
      Exch-Ind22                    0.80715266 [mEh]       0.50649594 [kcal/mol]       2.11917900 [kJ/mol]
      delta HF,r (2)               -1.91948774 [mEh]      -1.20449674 [kcal/mol]      -5.03961436 [kJ/mol]
      delta MP2,r (2)               0.19170327 [mEh]       0.12029562 [kcal/mol]       0.50331687 [kJ/mol]

    Dispersion                     -4.93219034 [mEh]      -3.09499616 [kcal/mol]     -12.94946395 [kJ/mol]
      Disp20                       -5.16611397 [mEh]      -3.24178546 [kcal/mol]     -13.56363035 [kJ/mol]
      Disp30                        0.05432194 [mEh]       0.03408753 [kcal/mol]       0.14262224 [kJ/mol]
      Disp21                        0.37405671 [mEh]       0.23472413 [kcal/mol]       0.98208574 [kJ/mol]
      Disp22 (SDQ)                 -0.32471525 [mEh]      -0.20376190 [kcal/mol]      -0.85253977 [kJ/mol]
      Disp22 (T)                   -0.77280234 [mEh]      -0.48494079 [kcal/mol]      -2.02899226 [kJ/mol]
      Est. Disp22 (T)              -0.86451243 [mEh]      -0.54248974 [kcal/mol]      -2.26977707 [kJ/mol]
      Exch-Disp20                   0.99477266 [mEh]       0.62422927 [kcal/mol]       2.61177525 [kJ/mol]

  Total HF                         -8.02860340 [mEh]      -5.03802469 [kcal/mol]     -21.07909532 [kJ/mol]
  Total SAPT0                     -12.19994471 [mEh]      -7.65558088 [kcal/mol]     -32.03095042 [kJ/mol]
  Total SAPT2                      -8.89999942 [mEh]      -5.58483395 [kcal/mol]     -23.36694525 [kJ/mol]
  Total SAPT2+                     -9.71517039 [mEh]      -6.09636146 [kcal/mol]     -25.50717635 [kJ/mol]
  Total SAPT2+(3)                  -9.31621123 [mEh]      -5.84601081 [kcal/mol]     -24.45970921 [kJ/mol]
  Total SAPT2+dMP2                 -9.52346712 [mEh]      -5.97606584 [kcal/mol]     -25.00385948 [kJ/mol]
  Total SAPT2+(3)dMP2              -9.12450796 [mEh]      -5.72571519 [kcal/mol]     -23.95639235 [kJ/mol]

  Special recipe for scaled SAPT0 (see Manual):
    Electrostatics sSAPT0         -19.71703198 [mEh]     -12.37262436 [kcal/mol]     -51.76706033 [kJ/mol]
    Exchange sSAPT0                16.72395678 [mEh]      10.49444132 [kcal/mol]      43.90874247 [kJ/mol]
    Induction sSAPT0               -4.95945063 [mEh]      -3.11210226 [kcal/mol]     -13.02103584 [kJ/mol]
    Dispersion sSAPT0              -4.15246713 [mEh]      -2.60571246 [kcal/mol]     -10.90230094 [kJ/mol]
  Total sSAPT0                    -12.10499296 [mEh]      -7.59599776 [kcal/mol]     -31.78165463 [kJ/mol]
  --------------------------------------------------------------------------------------------------------

*** tstop() called on node110.bme.utexas.edu at Mon May 13 09:54:20 2024
Module time:
	user time   =     338.88 seconds =       5.65 minutes
	system time =       5.81 seconds =       0.10 minutes
	total time  =         44 seconds =       0.73 minutes
Total time:
	user time   =     376.30 seconds =       6.27 minutes
	system time =       6.48 seconds =       0.11 minutes
	total time  =         50 seconds =       0.83 minutes

    Psi4 stopped on: Monday, 13 May 2024 09:54AM
    Psi4 wall time for execution: 0:00:49.54

*** Psi4 exiting successfully. Buy a developer a beer!
