
    -----------------------------------------------------------------------
          Psi4: An Open-Source Ab Initio Electronic Structure Package
                               Psi4 1.5 release

                         Git: Rev {HEAD} e9f4d6d 


    D. G. A. Smith, L. A. Burns, A. C. Simmonett, R. M. Parrish,
    M. C. Schieber, R. Galvelis, P. Kraus, H. Kruse, R. Di Remigio,
    A. Alenaizan, A. M. James, S. Lehtola, J. P. Misiewicz, M. Scheurer,
    R. A. Shaw, J. B. Schriber, Y. Xie, Z. L. Glick, D. A. Sirianni,
    J. S. O'Brien, J. M. Waldrop, A. Kumar, E. G. Hohenstein,
    B. P. Pritchard, B. R. Brooks, H. F. Schaefer III, A. Yu. Sokolov,
    K. Patkowski, A. E. DePrince III, U. Bozkaya, R. A. King,
    F. A. Evangelista, J. M. Turney, T. D. Crawford, C. D. Sherrill,
    J. Chem. Phys. 152(18) 184108 (2020). https://doi.org/10.1063/5.0006002

                            Additional Code Authors
    E. T. Seidl, C. L. Janssen, E. F. Valeev, M. L. Leininger,
    J. F. Gonthier, R. M. Richard, H. R. McAlexander, M. Saitow, X. Wang,
    P. Verma, M. H. Lechner, and A. Jiang

             Previous Authors, Complete List of Code Contributors,
                       and Citations for Specific Modules
    https://github.com/psi4/psi4/blob/master/codemeta.json
    https://github.com/psi4/psi4/graphs/contributors
    http://psicode.org/psi4manual/master/introduction.html#citing-psifour

    -----------------------------------------------------------------------


    Psi4 started on: Monday, 22 January 2024 03:22PM

    Process ID: 1197979
    Host:       node151.bme.utexas.edu
    PSIDATADIR: /opt/anaconda/envs/psi4v1.5/share/psi4
    Memory:     500.0 MiB
    Threads:    8
    
  ==> Input File <==

--------------------------------------------------------------------------
memory 80GB

molecule {
0 1
N -1.249408 -4.334618 0.000108
C -1.453779 -2.957386 0.000369
N -0.287164 -2.222242 0.000471
C 1.008028 -2.72249 0.000365
C 1.139737 -4.181361 6.4e-05
C 0.0 -4.915748 0.0
H -2.087419 -4.899193 0.000228
O -2.573085 -2.462566 0.000505
H -0.408805 -1.172186 0.000678
O 1.977244 -1.953535 0.000498
C 2.515972 -4.780254 -0.000534
H 2.46354 -5.877599 0.006109
H 3.080111 -4.452913 -0.886592
H 3.085127 -4.442101 0.87814
H 0.011158 -6.004875 -3.7e-05
--
0 1
N -0.805055 -0.097338 3.29995
C -2.105416 -0.452135 3.332915
N -3.171143 0.349322 3.353621
C -2.810457 1.643405 3.337605
C -1.509156 2.157888 3.30374
C -0.45926 1.210133 3.284228
N -1.513804 3.542866 3.295891
C -2.787627 3.859539 3.32433
N -3.621021 2.756738 3.350461
H -2.284003 -1.528658 3.34335
N 0.841301 1.547377 3.251383
H 1.08513 2.526011 3.240006
H 1.566872 0.823801 3.238385
H -3.183346 4.87028 3.327922
H -4.631126 2.751925 3.374472
 units angstrom
 no_reorient
 symmetry c1}
set  {scf_type DF
 basis aug-cc-pvtz
 freeze_core True
 guess SAD}
energy('sapt2+(3)dmp2')
--------------------------------------------------------------------------

  Memory set to  74.506 GiB by Python driver.

Scratch directory: /tmp/
   => Loading Basis Set <=

    Name: AUG-CC-PVTZ
    Role: ORBITAL
    Keyword: BASIS
    atoms 1, 3, 16, 18, 22, 24, 26  entry N          line   285 file /opt/anaconda/envs/psi4v1.5/share/psi4/basis/aug-cc-pvtz.gbs 
    atoms 2, 4-6, 11, 17, 19-21, 23 entry C          line   239 file /opt/anaconda/envs/psi4v1.5/share/psi4/basis/aug-cc-pvtz.gbs 
    atoms 7, 9, 12-15, 25, 27-30    entry H          line    40 file /opt/anaconda/envs/psi4v1.5/share/psi4/basis/aug-cc-pvtz.gbs 
    atoms 8, 10                     entry O          line   331 file /opt/anaconda/envs/psi4v1.5/share/psi4/basis/aug-cc-pvtz.gbs 

   => Loading Basis Set <=

    Name: AUG-CC-PVTZ
    Role: ORBITAL
    Keyword: BASIS
    atoms 1, 3, 16, 18, 22, 24, 26  entry N          line   285 file /opt/anaconda/envs/psi4v1.5/share/psi4/basis/aug-cc-pvtz.gbs 
    atoms 2, 4-6, 11, 17, 19-21, 23 entry C          line   239 file /opt/anaconda/envs/psi4v1.5/share/psi4/basis/aug-cc-pvtz.gbs 
    atoms 7, 9, 12-15, 25, 27-30    entry H          line    40 file /opt/anaconda/envs/psi4v1.5/share/psi4/basis/aug-cc-pvtz.gbs 
    atoms 8, 10                     entry O          line   331 file /opt/anaconda/envs/psi4v1.5/share/psi4/basis/aug-cc-pvtz.gbs 


  //>>>>>>>>>>>>>>>>>>>>>>>>>>>>>>>>>>>//
  //              Dimer HF             //
  //<<<<<<<<<<<<<<<<<<<<<<<<<<<<<<<<<<<//


*** tstart() called on node151.bme.utexas.edu
*** at Mon Jan 22 15:22:55 2024

   => Loading Basis Set <=

    Name: AUG-CC-PVTZ
    Role: ORBITAL
    Keyword: BASIS
    atoms 1, 3, 16, 18, 22, 24, 26  entry N          line   285 file /opt/anaconda/envs/psi4v1.5/share/psi4/basis/aug-cc-pvtz.gbs 
    atoms 2, 4-6, 11, 17, 19-21, 23 entry C          line   239 file /opt/anaconda/envs/psi4v1.5/share/psi4/basis/aug-cc-pvtz.gbs 
    atoms 7, 9, 12-15, 25, 27-30    entry H          line    40 file /opt/anaconda/envs/psi4v1.5/share/psi4/basis/aug-cc-pvtz.gbs 
    atoms 8, 10                     entry O          line   331 file /opt/anaconda/envs/psi4v1.5/share/psi4/basis/aug-cc-pvtz.gbs 


         ---------------------------------------------------------
                                   SCF
               by Justin Turney, Rob Parrish, Andy Simmonett
                          and Daniel G. A. Smith
                              RHF Reference
                        8 Threads,  76293 MiB Core
         ---------------------------------------------------------

  ==> Geometry <==

    Molecular point group: c1
    Full point group: C1

    Geometry (in Angstrom), charge = 0, multiplicity = 1:

       Center              X                  Y                   Z               Mass       
    ------------   -----------------  -----------------  -----------------  -----------------
         N           -0.384960027320    -3.567687554433    -1.713590451421    14.003074004430
         C           -0.589331027320    -2.190455554433    -1.713329451421    12.000000000000
         N            0.577283972680    -1.455311554433    -1.713227451421    14.003074004430
         C            1.872475972680    -1.955559554433    -1.713333451421    12.000000000000
         C            2.004184972680    -3.414430554433    -1.713634451421    12.000000000000
         C            0.864447972680    -4.148817554433    -1.713698451421    12.000000000000
         H           -1.222971027320    -4.132262554433    -1.713470451421     1.007825032230
         O           -1.708637027320    -1.695635554433    -1.713193451421    15.994914619570
         H            0.455642972680    -0.405255554433    -1.713020451421     1.007825032230
         O            2.841691972680    -1.186604554433    -1.713200451421    15.994914619570
         C            3.380419972680    -4.013323554433    -1.714232451421    12.000000000000
         H            3.327987972680    -5.110668554433    -1.707589451421     1.007825032230
         H            3.944558972680    -3.685982554433    -2.600290451421     1.007825032230
         H            3.949574972680    -3.675170554433    -0.835558451421     1.007825032230
         H            0.875605972680    -5.237944554433    -1.713735451421     1.007825032230
         N            0.059392972680     0.669592445567     1.586251548579    14.003074004430
         C           -1.240968027320     0.314795445567     1.619216548579    12.000000000000
         N           -2.306695027320     1.116252445567     1.639922548579    14.003074004430
         C           -1.946009027320     2.410335445567     1.623906548579    12.000000000000
         C           -0.644708027320     2.924818445567     1.590041548579    12.000000000000
         C            0.405187972680     1.977063445567     1.570529548579    12.000000000000
         N           -0.649356027320     4.309796445567     1.582192548579    14.003074004430
         C           -1.923179027320     4.626469445567     1.610631548579    12.000000000000
         N           -2.756573027320     3.523668445567     1.636762548579    14.003074004430
         H           -1.419555027320    -0.761727554433     1.629651548579     1.007825032230
         N            1.705748972680     2.314307445567     1.537684548579    14.003074004430
         H            1.949577972680     3.292941445567     1.526307548579     1.007825032230
         H            2.431319972680     1.590731445567     1.524686548579     1.007825032230
         H           -2.318898027320     5.637210445567     1.614223548579     1.007825032230
         H           -3.766678027320     3.518855445567     1.660773548579     1.007825032230

  Running in c1 symmetry.

  Rotational constants: A =      0.02606  B =      0.00541  C =      0.00478 [cm^-1]
  Rotational constants: A =    781.31062  B =    162.06645  C =    143.24738 [MHz]
  Nuclear repulsion = 1321.706883737026601

  Charge       = 0
  Multiplicity = 1
  Electrons    = 136
  Nalpha       = 68
  Nbeta        = 68

  ==> Algorithm <==

  SCF Algorithm Type is DF.
  DIIS enabled.
  MOM disabled.
  Fractional occupation disabled.
  Guess Type is SAD.
  Energy threshold   = 1.00e-08
  Density threshold  = 1.00e-08
  Integral threshold = 1.00e-12

  ==> Primary Basis <==

  Basis Set: AUG-CC-PVTZ
    Blend: AUG-CC-PVTZ
    Number of shells: 365
    Number of basis functions: 1127
    Number of Cartesian functions: 1320
    Spherical Harmonics?: true
    Max angular momentum: 3

   => Loading Basis Set <=

    Name: (AUG-CC-PVTZ AUX)
    Role: JKFIT
    Keyword: DF_BASIS_SCF
    atoms 1, 3, 16, 18, 22, 24, 26  entry N          line   224 file /opt/anaconda/envs/psi4v1.5/share/psi4/basis/aug-cc-pvtz-jkfit.gbs 
    atoms 2, 4-6, 11, 17, 19-21, 23 entry C          line   162 file /opt/anaconda/envs/psi4v1.5/share/psi4/basis/aug-cc-pvtz-jkfit.gbs 
    atoms 7, 9, 12-15, 25, 27-30    entry H          line    70 file /opt/anaconda/envs/psi4v1.5/share/psi4/basis/aug-cc-pvtz-jkfit.gbs 
    atoms 8, 10                     entry O          line   286 file /opt/anaconda/envs/psi4v1.5/share/psi4/basis/aug-cc-pvtz-jkfit.gbs 

  ==> Integral Setup <==

  ==> DiskDFJK: Density-Fitted J/K Matrices <==

    J tasked:                  Yes
    K tasked:                  Yes
    wK tasked:                  No
    OpenMP threads:              8
    Integrals threads:           8
    Memory [MiB]:            57220
    Algorithm:                Core
    Integral Cache:           SAVE
    Schwarz Cutoff:          1E-12
    Fitting Condition:       1E-10

   => Auxiliary Basis Set <=

  Basis Set: (AUG-CC-PVTZ AUX)
    Blend: AUG-CC-PVTZ-JKFIT
    Number of shells: 724
    Number of basis functions: 2482
    Number of Cartesian functions: 3094
    Spherical Harmonics?: true
    Max angular momentum: 4

  Minimum eigenvalue in the overlap matrix is 1.1533646741E-06.
  Reciprocal condition number of the overlap matrix is 6.4900982384E-08.
    Using symmetric orthogonalization.

  ==> Pre-Iterations <==

  SCF Guess: Superposition of Atomic Densities via on-the-fly atomic UHF (no occupation information).

   -------------------------
    Irrep   Nso     Nmo    
   -------------------------
     A       1127    1127 
   -------------------------
    Total    1127    1127
   -------------------------

  ==> Iterations <==

                           Total Energy        Delta E     RMS |[F,P]|

   @DF-RHF iter SAD:  -915.37502493861291   -9.15375e+02   0.00000e+00 
   @DF-RHF iter   1:  -915.81857146196296   -4.43547e-01   9.20258e-04 DIIS
   @DF-RHF iter   2:  -916.20637548749323   -3.87804e-01   5.46401e-04 DIIS
   @DF-RHF iter   3:  -916.34062774444681   -1.34252e-01   1.19757e-04 DIIS
   @DF-RHF iter   4:  -916.34994132157522   -9.31358e-03   5.01182e-05 DIIS
   @DF-RHF iter   5:  -916.35178942144273   -1.84810e-03   9.74711e-06 DIIS
   @DF-RHF iter   6:  -916.35195768119308   -1.68260e-04   4.97196e-06 DIIS
   @DF-RHF iter   7:  -916.35200010558685   -4.24244e-05   2.07174e-06 DIIS
   @DF-RHF iter   8:  -916.35200852571859   -8.42013e-06   7.67590e-07 DIIS
   @DF-RHF iter   9:  -916.35200951320201   -9.87483e-07   3.24844e-07 DIIS
   @DF-RHF iter  10:  -916.35200972659459   -2.13393e-07   1.29346e-07 DIIS
   @DF-RHF iter  11:  -916.35200976579529   -3.92007e-08   5.75102e-08 DIIS
   @DF-RHF iter  12:  -916.35200977321267   -7.41738e-09   2.12459e-08 DIIS
   @DF-RHF iter  13:  -916.35200977439763   -1.18496e-09   1.08635e-08 DIIS
   @DF-RHF iter  14:  -916.35200977460022   -2.02590e-10   4.23515e-09 DIIS
  Energy and wave function converged.


  ==> Post-Iterations <==

    Orbital Energies [Eh]
    ---------------------

    Doubly Occupied:                                                      

       1A    -20.536966     2A    -20.533019     3A    -15.634834  
       4A    -15.627544     5A    -15.627416     6A    -15.584774  
       7A    -15.566587     8A    -15.551137     9A    -15.544416  
      10A    -11.411367    11A    -11.373624    12A    -11.336558  
      13A    -11.326047    14A    -11.321369    15A    -11.314064  
      16A    -11.306597    17A    -11.257677    18A    -11.249357  
      19A    -11.237985    20A     -1.421871    21A     -1.381205  
      22A     -1.360002    23A     -1.297633    24A     -1.291483  
      25A     -1.242017    26A     -1.235363    27A     -1.181806  
      28A     -1.142793    29A     -1.099679    30A     -1.027913  
      31A     -0.961864    32A     -0.907157    33A     -0.889528  
      34A     -0.887529    35A     -0.869119    36A     -0.838692  
      37A     -0.773501    38A     -0.763960    39A     -0.760314  
      40A     -0.735080    41A     -0.699919    42A     -0.692809  
      43A     -0.671418    44A     -0.667232    45A     -0.659864  
      46A     -0.631940    47A     -0.631480    48A     -0.630881  
      49A     -0.608026    50A     -0.606772    51A     -0.587786  
      52A     -0.583475    53A     -0.562746    54A     -0.553513  
      55A     -0.550843    56A     -0.545914    57A     -0.505923  
      58A     -0.493240    59A     -0.489870    60A     -0.471577  
      61A     -0.444254    62A     -0.440844    63A     -0.426801  
      64A     -0.420770    65A     -0.401958    66A     -0.366088  
      67A     -0.347522    68A     -0.304278  

    Virtual:                                                              

      69A      0.018676    70A      0.024543    71A      0.032126  
      72A      0.037375    73A      0.040206    74A      0.043068  
      75A      0.049125    76A      0.055413    77A      0.057319  
      78A      0.060454    79A      0.068554    80A      0.074212  
      81A      0.077998    82A      0.081091    83A      0.088071  
      84A      0.090888    85A      0.097144    86A      0.098701  
      87A      0.099861    88A      0.103828    89A      0.109208  
      90A      0.110764    91A      0.114206    92A      0.115357  
      93A      0.116908    94A      0.119631    95A      0.120869  
      96A      0.123837    97A      0.126246    98A      0.129583  
      99A      0.133405   100A      0.136641   101A      0.140425  
     102A      0.141941   103A      0.143454   104A      0.145447  
     105A      0.148263   106A      0.151073   107A      0.154461  
     108A      0.156503   109A      0.158198   110A      0.163990  
     111A      0.166445   112A      0.170710   113A      0.172068  
     114A      0.176291   115A      0.182473   116A      0.184457  
     117A      0.186168   118A      0.189680   119A      0.193244  
     120A      0.199738   121A      0.202378   122A      0.204659  
     123A      0.209401   124A      0.211778   125A      0.216678  
     126A      0.221407   127A      0.224923   128A      0.226315  
     129A      0.228071   130A      0.231423   131A      0.233720  
     132A      0.235768   133A      0.237760   134A      0.240486  
     135A      0.244878   136A      0.250432   137A      0.253999  
     138A      0.256624   139A      0.258940   140A      0.259561  
     141A      0.264150   142A      0.268144   143A      0.271709  
     144A      0.274056   145A      0.277065   146A      0.282004  
     147A      0.287905   148A      0.289874   149A      0.294573  
     150A      0.296526   151A      0.298882   152A      0.301014  
     153A      0.304372   154A      0.306883   155A      0.311760  
     156A      0.313041   157A      0.314811   158A      0.320181  
     159A      0.322316   160A      0.327812   161A      0.335102  
     162A      0.337179   163A      0.339219   164A      0.342577  
     165A      0.344309   166A      0.346282   167A      0.349494  
     168A      0.352285   169A      0.353628   170A      0.355496  
     171A      0.357790   172A      0.364332   173A      0.368249  
     174A      0.368934   175A      0.372770   176A      0.376790  
     177A      0.381854   178A      0.388929   179A      0.390038  
     180A      0.391275   181A      0.393070   182A      0.396602  
     183A      0.400052   184A      0.401634   185A      0.408307  
     186A      0.409715   187A      0.413645   188A      0.416628  
     189A      0.421639   190A      0.425219   191A      0.427112  
     192A      0.427547   193A      0.428996   194A      0.433253  
     195A      0.434313   196A      0.436063   197A      0.437969  
     198A      0.445048   199A      0.448880   200A      0.449548  
     201A      0.451871   202A      0.455019   203A      0.457679  
     204A      0.463384   205A      0.466958   206A      0.467588  
     207A      0.470198   208A      0.474701   209A      0.476985  
     210A      0.478521   211A      0.481788   212A      0.482770  
     213A      0.487069   214A      0.490637   215A      0.492284  
     216A      0.495381   217A      0.498621   218A      0.502727  
     219A      0.503644   220A      0.508797   221A      0.509580  
     222A      0.511522   223A      0.516370   224A      0.518879  
     225A      0.523517   226A      0.528501   227A      0.529594  
     228A      0.532851   229A      0.536350   230A      0.537582  
     231A      0.539967   232A      0.541836   233A      0.549479  
     234A      0.551738   235A      0.554698   236A      0.558301  
     237A      0.562755   238A      0.565662   239A      0.570577  
     240A      0.571495   241A      0.576852   242A      0.581932  
     243A      0.584973   244A      0.592115   245A      0.593495  
     246A      0.593893   247A      0.604520   248A      0.605598  
     249A      0.610932   250A      0.611611   251A      0.618769  
     252A      0.624701   253A      0.634476   254A      0.638119  
     255A      0.640533   256A      0.644783   257A      0.649095  
     258A      0.651208   259A      0.652000   260A      0.658238  
     261A      0.660528   262A      0.664212   263A      0.665039  
     264A      0.671237   265A      0.672373   266A      0.676310  
     267A      0.678123   268A      0.684590   269A      0.691457  
     270A      0.694350   271A      0.699454   272A      0.703942  
     273A      0.705946   274A      0.707920   275A      0.714188  
     276A      0.717475   277A      0.723316   278A      0.727461  
     279A      0.731583   280A      0.736691   281A      0.740439  
     282A      0.741899   283A      0.742964   284A      0.752066  
     285A      0.754590   286A      0.763970   287A      0.767087  
     288A      0.769219   289A      0.775227   290A      0.777493  
     291A      0.781806   292A      0.782524   293A      0.791704  
     294A      0.791764   295A      0.796317   296A      0.800476  
     297A      0.803784   298A      0.808889   299A      0.814018  
     300A      0.817573   301A      0.821889   302A      0.825757  
     303A      0.829106   304A      0.831213   305A      0.836906  
     306A      0.840070   307A      0.842853   308A      0.848214  
     309A      0.851434   310A      0.855002   311A      0.855069  
     312A      0.866819   313A      0.867441   314A      0.877008  
     315A      0.879642   316A      0.882509   317A      0.885878  
     318A      0.888645   319A      0.893350   320A      0.896897  
     321A      0.905100   322A      0.906493   323A      0.910760  
     324A      0.912798   325A      0.915715   326A      0.920459  
     327A      0.923903   328A      0.926714   329A      0.930548  
     330A      0.933086   331A      0.937591   332A      0.942397  
     333A      0.945534   334A      0.948349   335A      0.950970  
     336A      0.952136   337A      0.957687   338A      0.959894  
     339A      0.965784   340A      0.967550   341A      0.970063  
     342A      0.971332   343A      0.976516   344A      0.979787  
     345A      0.983896   346A      0.986682   347A      0.992680  
     348A      0.995829   349A      0.999090   350A      1.004709  
     351A      1.009299   352A      1.010971   353A      1.017313  
     354A      1.019295   355A      1.022762   356A      1.031370  
     357A      1.031946   358A      1.037140   359A      1.041421  
     360A      1.043393   361A      1.046912   362A      1.051171  
     363A      1.053034   364A      1.056872   365A      1.061112  
     366A      1.063355   367A      1.068367   368A      1.071293  
     369A      1.075726   370A      1.078695   371A      1.080890  
     372A      1.088439   373A      1.092815   374A      1.098178  
     375A      1.100768   376A      1.105383   377A      1.107021  
     378A      1.114045   379A      1.117043   380A      1.118564  
     381A      1.127593   382A      1.131780   383A      1.133802  
     384A      1.136461   385A      1.138735   386A      1.142476  
     387A      1.147916   388A      1.152504   389A      1.153318  
     390A      1.155545   391A      1.157078   392A      1.164146  
     393A      1.167067   394A      1.169618   395A      1.173678  
     396A      1.178655   397A      1.181960   398A      1.186912  
     399A      1.191162   400A      1.196251   401A      1.198145  
     402A      1.201936   403A      1.204293   404A      1.214426  
     405A      1.218275   406A      1.219747   407A      1.224325  
     408A      1.228711   409A      1.234581   410A      1.238085  
     411A      1.242178   412A      1.249849   413A      1.251244  
     414A      1.253811   415A      1.258433   416A      1.261564  
     417A      1.270058   418A      1.270987   419A      1.280691  
     420A      1.288157   421A      1.289201   422A      1.294120  
     423A      1.298717   424A      1.302190   425A      1.306023  
     426A      1.308466   427A      1.309058   428A      1.314493  
     429A      1.319287   430A      1.322361   431A      1.326994  
     432A      1.333140   433A      1.338823   434A      1.340277  
     435A      1.348018   436A      1.351318   437A      1.356917  
     438A      1.360060   439A      1.368504   440A      1.370293  
     441A      1.380348   442A      1.384768   443A      1.384986  
     444A      1.391847   445A      1.395083   446A      1.400305  
     447A      1.401282   448A      1.403010   449A      1.411628  
     450A      1.414418   451A      1.418132   452A      1.426961  
     453A      1.431298   454A      1.436879   455A      1.443370  
     456A      1.448276   457A      1.453995   458A      1.457914  
     459A      1.460053   460A      1.466430   461A      1.466585  
     462A      1.471450   463A      1.475243   464A      1.477076  
     465A      1.485571   466A      1.495036   467A      1.497295  
     468A      1.500772   469A      1.512380   470A      1.515381  
     471A      1.524768   472A      1.526899   473A      1.530272  
     474A      1.536975   475A      1.540191   476A      1.546520  
     477A      1.548953   478A      1.555231   479A      1.561513  
     480A      1.564923   481A      1.567434   482A      1.575974  
     483A      1.584437   484A      1.589162   485A      1.592751  
     486A      1.600256   487A      1.602646   488A      1.603614  
     489A      1.611649   490A      1.613511   491A      1.617368  
     492A      1.627015   493A      1.630271   494A      1.632815  
     495A      1.637859   496A      1.639639   497A      1.647136  
     498A      1.652975   499A      1.663173   500A      1.667207  
     501A      1.669042   502A      1.672304   503A      1.677391  
     504A      1.679283   505A      1.689799   506A      1.690751  
     507A      1.695522   508A      1.702365   509A      1.706978  
     510A      1.709817   511A      1.719574   512A      1.724592  
     513A      1.726059   514A      1.729462   515A      1.734568  
     516A      1.744784   517A      1.751084   518A      1.755189  
     519A      1.760564   520A      1.763902   521A      1.771702  
     522A      1.772998   523A      1.784409   524A      1.790893  
     525A      1.798011   526A      1.803905   527A      1.806265  
     528A      1.812596   529A      1.824151   530A      1.827886  
     531A      1.832979   532A      1.838886   533A      1.845855  
     534A      1.848115   535A      1.857813   536A      1.861490  
     537A      1.870429   538A      1.871477   539A      1.879514  
     540A      1.883325   541A      1.887083   542A      1.897921  
     543A      1.902964   544A      1.915871   545A      1.918850  
     546A      1.925206   547A      1.929486   548A      1.934738  
     549A      1.947656   550A      1.949237   551A      1.962883  
     552A      1.967684   553A      1.974389   554A      1.975996  
     555A      1.999429   556A      2.002661   557A      2.008447  
     558A      2.014949   559A      2.018574   560A      2.026490  
     561A      2.036380   562A      2.043554   563A      2.051993  
     564A      2.057967   565A      2.062960   566A      2.075081  
     567A      2.076535   568A      2.089647   569A      2.096151  
     570A      2.101149   571A      2.106764   572A      2.113415  
     573A      2.114551   574A      2.124375   575A      2.129279  
     576A      2.134707   577A      2.145231   578A      2.151619  
     579A      2.155356   580A      2.164444   581A      2.171114  
     582A      2.176250   583A      2.182940   584A      2.186971  
     585A      2.188182   586A      2.194769   587A      2.204185  
     588A      2.206331   589A      2.206781   590A      2.211203  
     591A      2.217284   592A      2.228598   593A      2.231636  
     594A      2.237642   595A      2.244778   596A      2.245012  
     597A      2.259201   598A      2.261218   599A      2.267330  
     600A      2.272414   601A      2.280781   602A      2.289374  
     603A      2.291807   604A      2.299131   605A      2.304840  
     606A      2.306371   607A      2.313143   608A      2.317018  
     609A      2.320040   610A      2.328537   611A      2.333115  
     612A      2.341535   613A      2.349052   614A      2.356350  
     615A      2.362901   616A      2.375779   617A      2.378631  
     618A      2.386350   619A      2.394066   620A      2.404306  
     621A      2.404855   622A      2.412796   623A      2.420193  
     624A      2.424855   625A      2.430722   626A      2.436517  
     627A      2.444592   628A      2.450599   629A      2.457568  
     630A      2.458038   631A      2.465642   632A      2.476003  
     633A      2.482844   634A      2.495806   635A      2.503086  
     636A      2.504675   637A      2.508106   638A      2.530412  
     639A      2.533100   640A      2.545945   641A      2.560768  
     642A      2.564434   643A      2.573213   644A      2.579524  
     645A      2.581775   646A      2.584459   647A      2.591914  
     648A      2.595703   649A      2.600974   650A      2.607111  
     651A      2.608341   652A      2.614572   653A      2.625997  
     654A      2.629759   655A      2.638503   656A      2.641734  
     657A      2.649810   658A      2.657684   659A      2.662230  
     660A      2.676821   661A      2.687954   662A      2.696032  
     663A      2.699892   664A      2.705871   665A      2.714981  
     666A      2.720551   667A      2.726559   668A      2.730327  
     669A      2.734967   670A      2.741380   671A      2.756086  
     672A      2.767197   673A      2.776150   674A      2.783786  
     675A      2.791795   676A      2.800078   677A      2.801346  
     678A      2.822310   679A      2.834502   680A      2.835187  
     681A      2.852674   682A      2.853190   683A      2.874406  
     684A      2.881052   685A      2.886195   686A      2.895826  
     687A      2.908302   688A      2.920362   689A      2.939719  
     690A      2.945507   691A      2.952631   692A      2.971863  
     693A      2.989695   694A      3.000476   695A      3.009362  
     696A      3.031495   697A      3.041936   698A      3.047307  
     699A      3.048585   700A      3.063535   701A      3.087014  
     702A      3.100707   703A      3.109978   704A      3.123568  
     705A      3.127943   706A      3.146822   707A      3.173311  
     708A      3.178664   709A      3.193084   710A      3.224981  
     711A      3.230574   712A      3.237886   713A      3.244343  
     714A      3.247342   715A      3.253647   716A      3.281523  
     717A      3.293637   718A      3.307206   719A      3.321576  
     720A      3.336500   721A      3.337414   722A      3.341056  
     723A      3.364411   724A      3.366509   725A      3.375421  
     726A      3.379628   727A      3.400796   728A      3.414257  
     729A      3.421689   730A      3.433621   731A      3.439498  
     732A      3.441879   733A      3.447363   734A      3.454022  
     735A      3.466393   736A      3.468155   737A      3.497986  
     738A      3.514483   739A      3.521357   740A      3.528666  
     741A      3.533878   742A      3.542540   743A      3.565214  
     744A      3.569623   745A      3.581428   746A      3.584775  
     747A      3.592003   748A      3.607151   749A      3.613497  
     750A      3.622512   751A      3.624708   752A      3.632136  
     753A      3.638833   754A      3.640617   755A      3.647033  
     756A      3.653282   757A      3.662068   758A      3.665361  
     759A      3.667328   760A      3.671919   761A      3.683555  
     762A      3.700618   763A      3.706028   764A      3.710873  
     765A      3.716571   766A      3.722269   767A      3.725296  
     768A      3.731124   769A      3.747550   770A      3.760198  
     771A      3.765554   772A      3.768304   773A      3.781384  
     774A      3.790143   775A      3.801320   776A      3.805045  
     777A      3.809359   778A      3.810167   779A      3.821485  
     780A      3.831242   781A      3.846107   782A      3.850584  
     783A      3.856031   784A      3.862329   785A      3.874000  
     786A      3.881803   787A      3.890453   788A      3.897956  
     789A      3.907425   790A      3.912519   791A      3.919973  
     792A      3.928134   793A      3.936243   794A      3.939525  
     795A      3.941898   796A      3.949019   797A      3.962956  
     798A      3.966677   799A      3.967030   800A      3.973727  
     801A      3.981876   802A      3.989898   803A      3.993458  
     804A      4.012847   805A      4.019628   806A      4.032768  
     807A      4.041802   808A      4.047291   809A      4.056260  
     810A      4.059039   811A      4.068725   812A      4.083746  
     813A      4.089762   814A      4.099003   815A      4.108403  
     816A      4.113966   817A      4.117368   818A      4.124699  
     819A      4.133997   820A      4.137589   821A      4.140232  
     822A      4.157855   823A      4.164744   824A      4.172103  
     825A      4.179130   826A      4.184953   827A      4.191833  
     828A      4.198513   829A      4.209209   830A      4.210190  
     831A      4.219863   832A      4.223495   833A      4.225879  
     834A      4.228462   835A      4.236739   836A      4.247097  
     837A      4.252157   838A      4.261542   839A      4.263899  
     840A      4.267623   841A      4.273447   842A      4.276796  
     843A      4.292638   844A      4.299465   845A      4.302925  
     846A      4.313128   847A      4.315520   848A      4.319882  
     849A      4.327333   850A      4.329309   851A      4.336529  
     852A      4.341706   853A      4.346784   854A      4.372410  
     855A      4.383061   856A      4.384755   857A      4.395419  
     858A      4.404278   859A      4.409170   860A      4.418334  
     861A      4.424490   862A      4.430427   863A      4.437971  
     864A      4.449990   865A      4.454158   866A      4.458569  
     867A      4.469992   868A      4.485003   869A      4.488015  
     870A      4.497104   871A      4.504292   872A      4.510315  
     873A      4.523388   874A      4.525357   875A      4.538805  
     876A      4.553788   877A      4.555302   878A      4.562726  
     879A      4.574187   880A      4.591019   881A      4.611745  
     882A      4.622431   883A      4.636541   884A      4.642429  
     885A      4.645781   886A      4.653092   887A      4.656761  
     888A      4.661988   889A      4.669086   890A      4.684640  
     891A      4.692818   892A      4.705153   893A      4.717713  
     894A      4.730416   895A      4.737936   896A      4.744423  
     897A      4.751870   898A      4.766935   899A      4.770256  
     900A      4.782732   901A      4.790033   902A      4.794034  
     903A      4.796375   904A      4.800998   905A      4.821728  
     906A      4.823959   907A      4.827517   908A      4.831809  
     909A      4.866082   910A      4.875707   911A      4.898840  
     912A      4.900085   913A      4.907119   914A      4.908430  
     915A      4.920515   916A      4.923365   917A      4.928678  
     918A      4.937419   919A      4.958236   920A      4.982386  
     921A      4.993218   922A      5.009569   923A      5.018825  
     924A      5.031892   925A      5.045701   926A      5.047245  
     927A      5.048641   928A      5.068320   929A      5.074534  
     930A      5.078442   931A      5.091724   932A      5.105405  
     933A      5.108867   934A      5.130571   935A      5.147131  
     936A      5.155958   937A      5.157694   938A      5.168469  
     939A      5.175680   940A      5.184859   941A      5.187305  
     942A      5.210035   943A      5.221546   944A      5.222721  
     945A      5.227050   946A      5.259007   947A      5.276263  
     948A      5.290121   949A      5.299073   950A      5.309289  
     951A      5.319137   952A      5.323663   953A      5.342008  
     954A      5.368013   955A      5.378044   956A      5.381583  
     957A      5.388816   958A      5.397860   959A      5.421049  
     960A      5.431033   961A      5.434535   962A      5.452683  
     963A      5.465336   964A      5.469349   965A      5.473324  
     966A      5.485211   967A      5.503914   968A      5.522522  
     969A      5.530692   970A      5.537618   971A      5.539154  
     972A      5.544779   973A      5.551446   974A      5.568200  
     975A      5.573664   976A      5.577918   977A      5.585025  
     978A      5.590018   979A      5.601291   980A      5.608196  
     981A      5.611319   982A      5.625235   983A      5.635401  
     984A      5.640759   985A      5.654045   986A      5.671651  
     987A      5.677323   988A      5.690427   989A      5.693354  
     990A      5.702269   991A      5.711387   992A      5.717421  
     993A      5.720877   994A      5.733796   995A      5.754336  
     996A      5.760057   997A      5.763981   998A      5.776210  
     999A      5.794929  1000A      5.798630  1001A      5.810766  
    1002A      5.830922  1003A      5.836150  1004A      5.849312  
    1005A      5.867431  1006A      5.887001  1007A      5.894925  
    1008A      5.909708  1009A      5.915620  1010A      5.934461  
    1011A      5.937878  1012A      5.939585  1013A      5.944491  
    1014A      5.955369  1015A      5.965734  1016A      5.991245  
    1017A      6.002467  1018A      6.004713  1019A      6.014954  
    1020A      6.032714  1021A      6.077675  1022A      6.083554  
    1023A      6.092937  1024A      6.100038  1025A      6.115420  
    1026A      6.119402  1027A      6.137378  1028A      6.144716  
    1029A      6.150662  1030A      6.161700  1031A      6.166843  
    1032A      6.170239  1033A      6.192788  1034A      6.199056  
    1035A      6.201450  1036A      6.233961  1037A      6.274757  
    1038A      6.279260  1039A      6.283474  1040A      6.301400  
    1041A      6.338197  1042A      6.383193  1043A      6.390545  
    1044A      6.453717  1045A      6.487034  1046A      6.500603  
    1047A      6.535292  1048A      6.552246  1049A      6.582948  
    1050A      6.594997  1051A      6.610504  1052A      6.651590  
    1053A      6.659660  1054A      6.686905  1055A      6.697539  
    1056A      6.719602  1057A      6.732435  1058A      6.738964  
    1059A      6.745201  1060A      6.754003  1061A      6.763404  
    1062A      6.779824  1063A      6.800677  1064A      6.804502  
    1065A      6.809929  1066A      6.820892  1067A      6.832502  
    1068A      6.875457  1069A      6.883084  1070A      6.897944  
    1071A      6.936857  1072A      6.993550  1073A      6.993772  
    1074A      7.000879  1075A      7.029006  1076A      7.040367  
    1077A      7.055152  1078A      7.090437  1079A      7.092995  
    1080A      7.113049  1081A      7.160362  1082A      7.217033  
    1083A      7.248216  1084A      7.258781  1085A      7.290882  
    1086A      7.349095  1087A      7.399928  1088A      7.404386  
    1089A      7.414835  1090A      7.442012  1091A      7.451936  
    1092A      7.456431  1093A      7.487390  1094A      7.588171  
    1095A      7.637132  1096A      7.653644  1097A      7.712623  
    1098A      7.725945  1099A      7.733198  1100A      7.829313  
    1101A      7.846297  1102A      7.867030  1103A      7.873650  
    1104A      7.942201  1105A      7.992748  1106A      8.034502  
    1107A      8.049421  1108A      8.078519  1109A     15.780588  
    1110A     15.966684  1111A     16.051272  1112A     16.170592  
    1113A     16.326978  1114A     16.333460  1115A     16.643633  
    1116A     17.687981  1117A     18.001355  1118A     18.073352  
    1119A     19.015937  1120A     19.043544  1121A     19.230004  
    1122A     19.390777  1123A     19.973997  1124A     20.183067  
    1125A     20.435939  1126A     20.647407  1127A     20.887059  

    Final Occupation by Irrep:
              A 
    DOCC [    68 ]

  @DF-RHF Final Energy:  -916.35200977460022

   => Energetics <=

    Nuclear Repulsion Energy =           1321.7068837370266010
    One-Electron Energy =               -3875.3026111043877791
    Two-Electron Energy =                1637.2437175927609587
    Total Energy =                       -916.3520097746002193

Computation Completed


Properties will be evaluated at   0.000000,   0.000000,   0.000000 [a0]

Properties computed using the SCF density matrix

  Nuclear Dipole Moment: [e a0]
     X:     7.7094      Y:    -8.4423      Z:    -2.2121

  Electronic Dipole Moment: [e a0]
     X:    -8.1044      Y:     7.5069      Z:     2.2278

  Dipole Moment: [e a0]
     X:    -0.3951      Y:    -0.9354      Z:     0.0157     Total:     1.0155

  Dipole Moment: [D]
     X:    -1.0041      Y:    -2.3776      Z:     0.0398     Total:     2.5813


*** tstop() called on node151.bme.utexas.edu at Mon Jan 22 15:24:41 2024
Module time:
	user time   =     728.72 seconds =      12.15 minutes
	system time =       8.45 seconds =       0.14 minutes
	total time  =        106 seconds =       1.77 minutes
Total time:
	user time   =     728.72 seconds =      12.15 minutes
	system time =       8.45 seconds =       0.14 minutes
	total time  =        106 seconds =       1.77 minutes

*** tstart() called on node151.bme.utexas.edu
*** at Mon Jan 22 15:24:41 2024


  //>>>>>>>>>>>>>>>>>>>>>>>>>>>>>>>>>>>//
  //               DFMP2               //
  //<<<<<<<<<<<<<<<<<<<<<<<<<<<<<<<<<<<//

   => Loading Basis Set <=

    Name: (AUG-CC-PVTZ AUX)
    Role: RIFIT
    Keyword: DF_BASIS_MP2
    atoms 1, 3, 16, 18, 22, 24, 26  entry N          line   206 file /opt/anaconda/envs/psi4v1.5/share/psi4/basis/aug-cc-pvtz-ri.gbs 
    atoms 2, 4-6, 11, 17, 19-21, 23 entry C          line   148 file /opt/anaconda/envs/psi4v1.5/share/psi4/basis/aug-cc-pvtz-ri.gbs 
    atoms 7, 9, 12-15, 25, 27-30    entry H          line    30 file /opt/anaconda/envs/psi4v1.5/share/psi4/basis/aug-cc-pvtz-ri.gbs 
    atoms 8, 10                     entry O          line   264 file /opt/anaconda/envs/psi4v1.5/share/psi4/basis/aug-cc-pvtz-ri.gbs 

	 --------------------------------------------------------
	                          DF-MP2                         
	      2nd-Order Density-Fitted Moller-Plesset Theory     
	              RMP2 Wavefunction,   8 Threads             
	                                                         
	        Rob Parrish, Justin Turney, Andy Simmonett,      
	           Ed Hohenstein, and C. David Sherrill          
	 --------------------------------------------------------

   => Auxiliary Basis Set <=

  Basis Set: (AUG-CC-PVTZ AUX)
    Blend: AUG-CC-PVTZ-RI
    Number of shells: 686
    Number of basis functions: 2520
    Number of Cartesian functions: 3189
    Spherical Harmonics?: true
    Max angular momentum: 4

	 --------------------------------------------------------
	                 NBF =  1127, NAUX =  2520
	 --------------------------------------------------------
	   CLASS    FOCC     OCC    AOCC    AVIR     VIR    FVIR
	   PAIRS      19      68      49    1059    1059       0
	 --------------------------------------------------------

	 Will save fitting metric to file 97.

	-----------------------------------------------------------
	 ==================> DF-MP2 Energies <==================== 
	-----------------------------------------------------------
	 Reference Energy          =    -916.3520097746002193 [Eh]
	 Singles Energy            =      -0.0000000000000000 [Eh]
	 Same-Spin Energy          =      -0.9135040858892157 [Eh]
	 Opposite-Spin Energy      =      -2.5757964864254719 [Eh]
	 Correlation Energy        =      -3.4893005723146877 [Eh]
	 Total Energy              =    -919.8413103469149519 [Eh]
	-----------------------------------------------------------
	 ================> DF-SCS-MP2 Energies <================== 
	-----------------------------------------------------------
	 SCS Same-Spin Scale       =       0.3333333333333333 [-]
	 SCS Opposite-Spin Scale   =       1.2000000000000000 [-]
	 SCS Same-Spin Energy      =      -0.3045013619630719 [Eh]
	 SCS Opposite-Spin Energy  =      -3.0909557837105663 [Eh]
	 SCS Correlation Energy    =      -3.3954571456736380 [Eh]
	 SCS Total Energy          =    -919.7474669202738369 [Eh]
	-----------------------------------------------------------


*** tstop() called on node151.bme.utexas.edu at Mon Jan 22 15:25:31 2024
Module time:
	user time   =     313.38 seconds =       5.22 minutes
	system time =       4.95 seconds =       0.08 minutes
	total time  =         50 seconds =       0.83 minutes
Total time:
	user time   =    1042.10 seconds =      17.37 minutes
	system time =      13.40 seconds =       0.22 minutes
	total time  =        156 seconds =       2.60 minutes

  //>>>>>>>>>>>>>>>>>>>>>>>>>>>>>>>>>>>//
  //            Monomer A HF           //
  //<<<<<<<<<<<<<<<<<<<<<<<<<<<<<<<<<<<//


*** tstart() called on node151.bme.utexas.edu
*** at Mon Jan 22 15:25:31 2024

   => Loading Basis Set <=

    Name: AUG-CC-PVTZ
    Role: ORBITAL
    Keyword: BASIS
    atoms 1, 3, 16, 18, 22, 24, 26  entry N          line   285 file /opt/anaconda/envs/psi4v1.5/share/psi4/basis/aug-cc-pvtz.gbs 
    atoms 2, 4-6, 11, 17, 19-21, 23 entry C          line   239 file /opt/anaconda/envs/psi4v1.5/share/psi4/basis/aug-cc-pvtz.gbs 
    atoms 7, 9, 12-15, 25, 27-30    entry H          line    40 file /opt/anaconda/envs/psi4v1.5/share/psi4/basis/aug-cc-pvtz.gbs 
    atoms 8, 10                     entry O          line   331 file /opt/anaconda/envs/psi4v1.5/share/psi4/basis/aug-cc-pvtz.gbs 


         ---------------------------------------------------------
                                   SCF
               by Justin Turney, Rob Parrish, Andy Simmonett
                          and Daniel G. A. Smith
                              RHF Reference
                        8 Threads,  76293 MiB Core
         ---------------------------------------------------------

  ==> Geometry <==

    Molecular point group: c1
    Full point group: C1

    Geometry (in Angstrom), charge = 0, multiplicity = 1:

       Center              X                  Y                   Z               Mass       
    ------------   -----------------  -----------------  -----------------  -----------------
         N           -0.384960027320    -3.567687554433    -1.713590451421    14.003074004430
         C           -0.589331027320    -2.190455554433    -1.713329451421    12.000000000000
         N            0.577283972680    -1.455311554433    -1.713227451421    14.003074004430
         C            1.872475972680    -1.955559554433    -1.713333451421    12.000000000000
         C            2.004184972680    -3.414430554433    -1.713634451421    12.000000000000
         C            0.864447972680    -4.148817554433    -1.713698451421    12.000000000000
         H           -1.222971027320    -4.132262554433    -1.713470451421     1.007825032230
         O           -1.708637027320    -1.695635554433    -1.713193451421    15.994914619570
         H            0.455642972680    -0.405255554433    -1.713020451421     1.007825032230
         O            2.841691972680    -1.186604554433    -1.713200451421    15.994914619570
         C            3.380419972680    -4.013323554433    -1.714232451421    12.000000000000
         H            3.327987972680    -5.110668554433    -1.707589451421     1.007825032230
         H            3.944558972680    -3.685982554433    -2.600290451421     1.007825032230
         H            3.949574972680    -3.675170554433    -0.835558451421     1.007825032230
         H            0.875605972680    -5.237944554433    -1.713735451421     1.007825032230
      Gh(N)           0.059392972680     0.669592445567     1.586251548579    14.003074004430
      Gh(C)          -1.240968027320     0.314795445567     1.619216548579    12.000000000000
      Gh(N)          -2.306695027320     1.116252445567     1.639922548579    14.003074004430
      Gh(C)          -1.946009027320     2.410335445567     1.623906548579    12.000000000000
      Gh(C)          -0.644708027320     2.924818445567     1.590041548579    12.000000000000
      Gh(C)           0.405187972680     1.977063445567     1.570529548579    12.000000000000
      Gh(N)          -0.649356027320     4.309796445567     1.582192548579    14.003074004430
      Gh(C)          -1.923179027320     4.626469445567     1.610631548579    12.000000000000
      Gh(N)          -2.756573027320     3.523668445567     1.636762548579    14.003074004430
      Gh(H)          -1.419555027320    -0.761727554433     1.629651548579     1.007825032230
      Gh(N)           1.705748972680     2.314307445567     1.537684548579    14.003074004430
      Gh(H)           1.949577972680     3.292941445567     1.526307548579     1.007825032230
      Gh(H)           2.431319972680     1.590731445567     1.524686548579     1.007825032230
      Gh(H)          -2.318898027320     5.637210445567     1.614223548579     1.007825032230
      Gh(H)          -3.766678027320     3.518855445567     1.660773548579     1.007825032230

  Running in c1 symmetry.

  Rotational constants: A =      0.02606  B =      0.00541  C =      0.00478 [cm^-1]
  Rotational constants: A =    781.31062  B =    162.06645  C =    143.24738 [MHz]
  Nuclear repulsion =  438.216117793050842

  Charge       = 0
  Multiplicity = 1
  Electrons    = 66
  Nalpha       = 33
  Nbeta        = 33

  ==> Algorithm <==

  SCF Algorithm Type is DF.
  DIIS enabled.
  MOM disabled.
  Fractional occupation disabled.
  Guess Type is SAD.
  Energy threshold   = 1.00e-08
  Density threshold  = 1.00e-08
  Integral threshold = 1.00e-12

  ==> Primary Basis <==

  Basis Set: AUG-CC-PVTZ
    Blend: AUG-CC-PVTZ
    Number of shells: 365
    Number of basis functions: 1127
    Number of Cartesian functions: 1320
    Spherical Harmonics?: true
    Max angular momentum: 3

   => Loading Basis Set <=

    Name: (AUG-CC-PVTZ AUX)
    Role: JKFIT
    Keyword: DF_BASIS_SCF
    atoms 1, 3, 16, 18, 22, 24, 26  entry N          line   224 file /opt/anaconda/envs/psi4v1.5/share/psi4/basis/aug-cc-pvtz-jkfit.gbs 
    atoms 2, 4-6, 11, 17, 19-21, 23 entry C          line   162 file /opt/anaconda/envs/psi4v1.5/share/psi4/basis/aug-cc-pvtz-jkfit.gbs 
    atoms 7, 9, 12-15, 25, 27-30    entry H          line    70 file /opt/anaconda/envs/psi4v1.5/share/psi4/basis/aug-cc-pvtz-jkfit.gbs 
    atoms 8, 10                     entry O          line   286 file /opt/anaconda/envs/psi4v1.5/share/psi4/basis/aug-cc-pvtz-jkfit.gbs 

  ==> Integral Setup <==

  ==> DiskDFJK: Density-Fitted J/K Matrices <==

    J tasked:                  Yes
    K tasked:                  Yes
    wK tasked:                  No
    OpenMP threads:              8
    Integrals threads:           8
    Memory [MiB]:            57220
    Algorithm:                Core
    Integral Cache:           LOAD
    Schwarz Cutoff:          1E-12
    Fitting Condition:       1E-10

   => Auxiliary Basis Set <=

  Basis Set: (AUG-CC-PVTZ AUX)
    Blend: AUG-CC-PVTZ-JKFIT
    Number of shells: 724
    Number of basis functions: 2482
    Number of Cartesian functions: 3094
    Spherical Harmonics?: true
    Max angular momentum: 4

  Minimum eigenvalue in the overlap matrix is 1.1533646741E-06.
  Reciprocal condition number of the overlap matrix is 6.4900982384E-08.
    Using symmetric orthogonalization.

  ==> Pre-Iterations <==

  SCF Guess: Superposition of Atomic Densities via on-the-fly atomic UHF (no occupation information).

   -------------------------
    Irrep   Nso     Nmo    
   -------------------------
     A       1127    1127 
   -------------------------
    Total    1127    1127
   -------------------------

  ==> Iterations <==

                           Total Energy        Delta E     RMS |[F,P]|

   @DF-RHF iter SAD:  -450.91023191775326   -4.50910e+02   0.00000e+00 
   @DF-RHF iter   1:  -451.37260177240614   -4.62370e-01   7.04307e-04 DIIS
   @DF-RHF iter   2:  -451.57006520829077   -1.97463e-01   4.64789e-04 DIIS
   @DF-RHF iter   3:  -451.66286504317156   -9.27998e-02   8.90214e-05 DIIS
   @DF-RHF iter   4:  -451.66831154711542   -5.44650e-03   3.57180e-05 DIIS
   @DF-RHF iter   5:  -451.66940713172619   -1.09558e-03   7.21347e-06 DIIS
   @DF-RHF iter   6:  -451.66951944111275   -1.12309e-04   3.71956e-06 DIIS
   @DF-RHF iter   7:  -451.66954262257565   -2.31815e-05   1.59076e-06 DIIS
   @DF-RHF iter   8:  -451.66954681977461   -4.19720e-06   6.04511e-07 DIIS
   @DF-RHF iter   9:  -451.66954729135932   -4.71585e-07   2.00952e-07 DIIS
   @DF-RHF iter  10:  -451.66954737022684   -7.88675e-08   7.92184e-08 DIIS
   @DF-RHF iter  11:  -451.66954737929507   -9.06823e-09   3.03351e-08 DIIS
   @DF-RHF iter  12:  -451.66954738072957   -1.43450e-09   9.61348e-09 DIIS
  Energy and wave function converged.


  ==> Post-Iterations <==

    Orbital Energies [Eh]
    ---------------------

    Doubly Occupied:                                                      

       1A    -20.543496     2A    -20.538854     3A    -15.640265  
       4A    -15.635358     5A    -11.417940     6A    -11.379421  
       7A    -11.331024     8A    -11.262676     9A    -11.241729  
      10A     -1.428354    11A     -1.387150    12A     -1.303494  
      13A     -1.242309    14A     -1.104668    15A     -0.966482  
      16A     -0.913034    17A     -0.893832    18A     -0.769693  
      19A     -0.765980    20A     -0.706313    21A     -0.673037  
      22A     -0.666247    23A     -0.637565    24A     -0.611936  
      25A     -0.588087    26A     -0.567336    27A     -0.556749  
      28A     -0.550023    29A     -0.511382    30A     -0.477937  
      31A     -0.446644    32A     -0.433717    33A     -0.352561  

    Virtual:                                                              

      34A      0.015495    35A      0.021721    36A      0.030257  
      37A      0.032692    38A      0.037758    39A      0.040564  
      40A      0.048332    41A      0.052162    42A      0.054451  
      43A      0.056738    44A      0.064478    45A      0.067671  
      46A      0.071971    47A      0.075295    48A      0.079347  
      49A      0.085282    50A      0.087482    51A      0.089901  
      52A      0.094062    53A      0.095766    54A      0.100533  
      55A      0.100920    56A      0.106697    57A      0.109005  
      58A      0.112658    59A      0.112777    60A      0.116275  
      61A      0.119977    62A      0.122661    63A      0.128687  
      64A      0.129866    65A      0.133726    66A      0.137764  
      67A      0.138630    68A      0.139527    69A      0.145095  
      70A      0.147557    71A      0.151699    72A      0.153548  
      73A      0.157097    74A      0.158837    75A      0.160697  
      76A      0.165600    77A      0.168164    78A      0.171577  
      79A      0.174583    80A      0.177957    81A      0.179904  
      82A      0.184816    83A      0.188964    84A      0.191815  
      85A      0.193472    86A      0.195540    87A      0.198723  
      88A      0.203681    89A      0.205975    90A      0.212196  
      91A      0.214732    92A      0.217297    93A      0.225052  
      94A      0.226621    95A      0.228951    96A      0.230729  
      97A      0.233184    98A      0.237068    99A      0.240732  
     100A      0.243610   101A      0.246312   102A      0.247795  
     103A      0.251144   104A      0.252740   105A      0.258762  
     106A      0.263139   107A      0.264853   108A      0.269633  
     109A      0.275987   110A      0.278669   111A      0.279001  
     112A      0.281184   113A      0.287445   114A      0.287678  
     115A      0.290903   116A      0.295006   117A      0.299054  
     118A      0.301705   119A      0.304888   120A      0.306020  
     121A      0.309873   122A      0.312556   123A      0.319238  
     124A      0.322132   125A      0.325218   126A      0.327982  
     127A      0.330916   128A      0.336846   129A      0.340649  
     130A      0.343676   131A      0.345660   132A      0.350028  
     133A      0.350690   134A      0.355012   135A      0.358389  
     136A      0.365950   137A      0.368945   138A      0.373460  
     139A      0.375754   140A      0.377477   141A      0.378818  
     142A      0.382267   143A      0.386718   144A      0.389906  
     145A      0.393261   146A      0.399792   147A      0.401347  
     148A      0.403603   149A      0.406857   150A      0.407741  
     151A      0.410409   152A      0.414466   153A      0.418694  
     154A      0.419728   155A      0.426613   156A      0.427823  
     157A      0.428813   158A      0.431600   159A      0.433604  
     160A      0.436104   161A      0.437656   162A      0.440380  
     163A      0.441643   164A      0.445720   165A      0.450207  
     166A      0.453833   167A      0.455797   168A      0.457134  
     169A      0.460718   170A      0.463554   171A      0.466757  
     172A      0.468484   173A      0.468920   174A      0.475278  
     175A      0.476727   176A      0.479695   177A      0.482558  
     178A      0.487283   179A      0.490061   180A      0.491771  
     181A      0.492232   182A      0.497877   183A      0.500156  
     184A      0.502738   185A      0.506524   186A      0.511263  
     187A      0.512533   188A      0.517039   189A      0.520246  
     190A      0.522473   191A      0.529665   192A      0.533211  
     193A      0.534944   194A      0.537986   195A      0.542301  
     196A      0.544716   197A      0.554813   198A      0.556612  
     199A      0.558156   200A      0.564968   201A      0.567431  
     202A      0.568959   203A      0.573756   204A      0.581319  
     205A      0.585545   206A      0.589775   207A      0.596092  
     208A      0.596659   209A      0.601828   210A      0.603194  
     211A      0.613711   212A      0.614930   213A      0.616887  
     214A      0.620881   215A      0.625748   216A      0.629802  
     217A      0.631276   218A      0.639342   219A      0.647121  
     220A      0.649211   221A      0.649807   222A      0.657054  
     223A      0.660380   224A      0.665068   225A      0.667171  
     226A      0.677042   227A      0.681985   228A      0.682937  
     229A      0.690818   230A      0.695900   231A      0.698056  
     232A      0.704898   233A      0.706535   234A      0.712119  
     235A      0.717340   236A      0.718576   237A      0.725071  
     238A      0.728820   239A      0.735581   240A      0.741063  
     241A      0.744812   242A      0.748713   243A      0.753767  
     244A      0.761138   245A      0.763768   246A      0.769222  
     247A      0.771989   248A      0.775590   249A      0.780027  
     250A      0.781845   251A      0.782717   252A      0.789333  
     253A      0.793766   254A      0.799007   255A      0.802756  
     256A      0.805148   257A      0.807620   258A      0.808226  
     259A      0.817644   260A      0.820202   261A      0.825194  
     262A      0.827787   263A      0.833376   264A      0.834946  
     265A      0.835915   266A      0.839104   267A      0.845064  
     268A      0.851005   269A      0.856291   270A      0.857873  
     271A      0.861792   272A      0.866218   273A      0.869958  
     274A      0.873896   275A      0.876889   276A      0.878478  
     277A      0.885331   278A      0.885910   279A      0.888515  
     280A      0.890485   281A      0.895269   282A      0.900806  
     283A      0.904632   284A      0.907662   285A      0.908953  
     286A      0.918609   287A      0.920351   288A      0.921860  
     289A      0.923829   290A      0.925588   291A      0.928752  
     292A      0.929664   293A      0.934178   294A      0.938695  
     295A      0.942118   296A      0.944954   297A      0.947854  
     298A      0.951599   299A      0.954475   300A      0.957526  
     301A      0.958626   302A      0.964287   303A      0.967657  
     304A      0.973116   305A      0.975118   306A      0.979751  
     307A      0.981330   308A      0.984104   309A      0.989558  
     310A      0.997744   311A      0.998205   312A      1.009212  
     313A      1.009680   314A      1.014635   315A      1.016982  
     316A      1.020576   317A      1.024003   318A      1.025687  
     319A      1.031598   320A      1.042660   321A      1.045785  
     322A      1.050361   323A      1.053987   324A      1.055830  
     325A      1.061184   326A      1.062520   327A      1.070017  
     328A      1.073588   329A      1.076707   330A      1.087827  
     331A      1.091117   332A      1.094415   333A      1.095877  
     334A      1.103455   335A      1.107060   336A      1.108346  
     337A      1.113416   338A      1.115786   339A      1.123231  
     340A      1.130299   341A      1.134422   342A      1.135155  
     343A      1.143895   344A      1.144830   345A      1.148511  
     346A      1.154194   347A      1.159493   348A      1.161591  
     349A      1.166725   350A      1.168235   351A      1.168692  
     352A      1.176781   353A      1.177879   354A      1.180476  
     355A      1.183029   356A      1.188634   357A      1.196147  
     358A      1.203570   359A      1.204535   360A      1.207666  
     361A      1.212866   362A      1.216884   363A      1.219657  
     364A      1.227619   365A      1.234200   366A      1.236281  
     367A      1.240104   368A      1.244981   369A      1.247307  
     370A      1.250242   371A      1.256029   372A      1.258497  
     373A      1.263212   374A      1.269731   375A      1.271063  
     376A      1.276492   377A      1.284995   378A      1.289933  
     379A      1.292230   380A      1.295763   381A      1.299634  
     382A      1.305341   383A      1.310059   384A      1.318080  
     385A      1.319494   386A      1.322886   387A      1.328689  
     388A      1.342392   389A      1.344522   390A      1.350065  
     391A      1.357958   392A      1.361711   393A      1.365688  
     394A      1.373620   395A      1.379651   396A      1.382309  
     397A      1.384699   398A      1.391432   399A      1.394289  
     400A      1.395753   401A      1.399313   402A      1.402129  
     403A      1.408833   404A      1.418087   405A      1.423677  
     406A      1.432282   407A      1.438446   408A      1.441921  
     409A      1.443976   410A      1.451918   411A      1.454427  
     412A      1.459878   413A      1.461468   414A      1.467157  
     415A      1.477775   416A      1.483213   417A      1.491619  
     418A      1.493437   419A      1.503763   420A      1.512121  
     421A      1.513812   422A      1.519000   423A      1.522276  
     424A      1.527342   425A      1.535071   426A      1.542451  
     427A      1.546861   428A      1.550626   429A      1.555409  
     430A      1.559254   431A      1.565025   432A      1.568983  
     433A      1.578588   434A      1.584170   435A      1.590449  
     436A      1.594265   437A      1.597670   438A      1.599702  
     439A      1.609964   440A      1.613935   441A      1.618906  
     442A      1.625939   443A      1.628335   444A      1.631293  
     445A      1.636251   446A      1.638299   447A      1.644708  
     448A      1.650666   449A      1.655021   450A      1.657894  
     451A      1.667077   452A      1.668440   453A      1.672285  
     454A      1.673365   455A      1.680098   456A      1.684846  
     457A      1.689588   458A      1.697904   459A      1.700004  
     460A      1.706310   461A      1.713567   462A      1.713863  
     463A      1.717981   464A      1.724333   465A      1.727874  
     466A      1.731383   467A      1.739950   468A      1.743042  
     469A      1.744028   470A      1.746129   471A      1.747265  
     472A      1.753057   473A      1.759062   474A      1.761969  
     475A      1.763734   476A      1.766405   477A      1.775590  
     478A      1.783446   479A      1.787752   480A      1.792057  
     481A      1.798474   482A      1.806666   483A      1.809852  
     484A      1.813946   485A      1.818606   486A      1.824736  
     487A      1.831025   488A      1.838848   489A      1.843900  
     490A      1.846270   491A      1.849627   492A      1.851779  
     493A      1.856311   494A      1.859328   495A      1.867042  
     496A      1.872810   497A      1.881027   498A      1.893250  
     499A      1.902376   500A      1.905032   501A      1.908236  
     502A      1.913567   503A      1.917527   504A      1.922782  
     505A      1.926534   506A      1.933190   507A      1.937478  
     508A      1.943462   509A      1.949295   510A      1.964255  
     511A      1.975914   512A      1.981068   513A      1.996012  
     514A      1.996869   515A      2.003413   516A      2.004565  
     517A      2.011871   518A      2.017565   519A      2.023185  
     520A      2.026449   521A      2.043809   522A      2.047215  
     523A      2.051121   524A      2.053523   525A      2.062683  
     526A      2.068319   527A      2.069451   528A      2.083646  
     529A      2.089086   530A      2.094835   531A      2.106290  
     532A      2.110325   533A      2.121896   534A      2.123301  
     535A      2.127497   536A      2.131966   537A      2.140103  
     538A      2.151353   539A      2.153594   540A      2.161489  
     541A      2.170030   542A      2.175570   543A      2.178374  
     544A      2.186274   545A      2.190585   546A      2.200547  
     547A      2.201824   548A      2.204662   549A      2.206313  
     550A      2.216104   551A      2.227605   552A      2.232238  
     553A      2.241052   554A      2.248075   555A      2.252665  
     556A      2.254951   557A      2.262490   558A      2.270458  
     559A      2.272151   560A      2.287308   561A      2.289894  
     562A      2.297191   563A      2.301040   564A      2.308070  
     565A      2.312983   566A      2.314495   567A      2.323705  
     568A      2.328954   569A      2.336061   570A      2.343511  
     571A      2.355666   572A      2.361280   573A      2.366943  
     574A      2.375241   575A      2.382504   576A      2.390602  
     577A      2.399221   578A      2.410444   579A      2.415416  
     580A      2.422583   581A      2.432698   582A      2.441354  
     583A      2.452476   584A      2.456284   585A      2.457004  
     586A      2.460702   587A      2.465224   588A      2.478744  
     589A      2.495843   590A      2.505340   591A      2.516414  
     592A      2.525362   593A      2.540656   594A      2.545273  
     595A      2.547896   596A      2.553450   597A      2.558218  
     598A      2.561764   599A      2.572619   600A      2.577581  
     601A      2.583417   602A      2.588420   603A      2.594192  
     604A      2.605064   605A      2.608388   606A      2.614624  
     607A      2.617112   608A      2.629065   609A      2.630472  
     610A      2.637944   611A      2.643586   612A      2.650406  
     613A      2.658515   614A      2.667539   615A      2.668750  
     616A      2.674013   617A      2.684660   618A      2.700572  
     619A      2.708702   620A      2.713937   621A      2.714059  
     622A      2.723583   623A      2.728470   624A      2.734240  
     625A      2.740027   626A      2.746845   627A      2.762035  
     628A      2.767522   629A      2.779343   630A      2.785725  
     631A      2.789401   632A      2.801527   633A      2.827538  
     634A      2.832541   635A      2.835156   636A      2.847198  
     637A      2.866070   638A      2.873561   639A      2.875777  
     640A      2.880847   641A      2.884867   642A      2.891946  
     643A      2.900677   644A      2.916078   645A      2.929202  
     646A      2.937668   647A      2.940656   648A      2.946817  
     649A      2.960723   650A      2.977451   651A      2.988741  
     652A      2.994733   653A      3.000555   654A      3.006336  
     655A      3.007967   656A      3.022365   657A      3.028741  
     658A      3.030983   659A      3.042159   660A      3.049946  
     661A      3.055787   662A      3.059493   663A      3.071112  
     664A      3.071833   665A      3.089867   666A      3.094499  
     667A      3.111224   668A      3.116078   669A      3.123562  
     670A      3.133993   671A      3.176235   672A      3.183580  
     673A      3.187771   674A      3.201179   675A      3.213200  
     676A      3.220709   677A      3.223122   678A      3.230504  
     679A      3.237433   680A      3.262486   681A      3.278195  
     682A      3.284078   683A      3.301163   684A      3.305505  
     685A      3.310253   686A      3.321215   687A      3.331451  
     688A      3.341184   689A      3.341366   690A      3.351773  
     691A      3.365208   692A      3.371064   693A      3.376556  
     694A      3.396879   695A      3.400342   696A      3.413890  
     697A      3.421588   698A      3.437378   699A      3.438295  
     700A      3.446205   701A      3.461964   702A      3.486444  
     703A      3.498389   704A      3.517444   705A      3.535227  
     706A      3.561818   707A      3.572435   708A      3.588747  
     709A      3.602391   710A      3.613072   711A      3.618953  
     712A      3.634084   713A      3.643499   714A      3.651966  
     715A      3.662549   716A      3.665693   717A      3.684090  
     718A      3.685064   719A      3.694521   720A      3.699461  
     721A      3.711090   722A      3.723940   723A      3.725922  
     724A      3.746231   725A      3.759004   726A      3.760077  
     727A      3.785414   728A      3.798517   729A      3.799485  
     730A      3.824559   731A      3.837042   732A      3.850296  
     733A      3.852703   734A      3.859940   735A      3.869911  
     736A      3.877666   737A      3.884509   738A      3.905081  
     739A      3.911436   740A      3.917006   741A      3.931530  
     742A      3.934507   743A      3.962275   744A      3.963169  
     745A      3.964367   746A      3.979868   747A      3.985260  
     748A      4.013045   749A      4.035225   750A      4.041185  
     751A      4.062010   752A      4.066989   753A      4.100017  
     754A      4.102355   755A      4.107552   756A      4.119053  
     757A      4.125486   758A      4.132238   759A      4.133290  
     760A      4.137012   761A      4.150326   762A      4.153493  
     763A      4.166500   764A      4.173696   765A      4.182435  
     766A      4.193794   767A      4.200940   768A      4.205914  
     769A      4.211514   770A      4.213686   771A      4.220507  
     772A      4.224391   773A      4.238882   774A      4.245331  
     775A      4.258420   776A      4.268308   777A      4.271194  
     778A      4.293527   779A      4.299396   780A      4.308527  
     781A      4.311161   782A      4.318454   783A      4.324949  
     784A      4.338687   785A      4.348007   786A      4.352576  
     787A      4.376914   788A      4.378453   789A      4.400270  
     790A      4.419764   791A      4.427290   792A      4.428454  
     793A      4.437964   794A      4.445604   795A      4.451180  
     796A      4.461873   797A      4.465149   798A      4.487086  
     799A      4.497760   800A      4.504361   801A      4.512447  
     802A      4.515930   803A      4.526485   804A      4.538006  
     805A      4.548107   806A      4.575340   807A      4.584754  
     808A      4.596387   809A      4.604650   810A      4.626438  
     811A      4.629493   812A      4.633645   813A      4.637355  
     814A      4.641008   815A      4.648533   816A      4.653814  
     817A      4.675570   818A      4.678287   819A      4.682937  
     820A      4.688586   821A      4.699799   822A      4.704186  
     823A      4.714241   824A      4.727976   825A      4.734694  
     826A      4.738898   827A      4.744421   828A      4.751762  
     829A      4.754593   830A      4.764030   831A      4.765503  
     832A      4.778655   833A      4.784806   834A      4.792764  
     835A      4.804366   836A      4.817681   837A      4.823536  
     838A      4.828155   839A      4.859374   840A      4.867291  
     841A      4.882551   842A      4.890725   843A      4.900262  
     844A      4.902253   845A      4.911009   846A      4.916240  
     847A      4.928776   848A      4.932712   849A      4.936032  
     850A      4.952454   851A      4.958693   852A      4.969444  
     853A      4.973200   854A      4.983542   855A      4.989417  
     856A      4.994679   857A      5.009341   858A      5.017397  
     859A      5.026482   860A      5.028689   861A      5.037657  
     862A      5.042116   863A      5.061036   864A      5.063951  
     865A      5.066966   866A      5.070272   867A      5.075009  
     868A      5.081839   869A      5.097940   870A      5.106122  
     871A      5.107841   872A      5.135785   873A      5.141052  
     874A      5.145477   875A      5.152453   876A      5.156606  
     877A      5.161915   878A      5.167006   879A      5.179394  
     880A      5.187862   881A      5.200766   882A      5.218465  
     883A      5.246051   884A      5.255939   885A      5.271146  
     886A      5.289959   887A      5.297087   888A      5.302439  
     889A      5.317176   890A      5.318627   891A      5.333469  
     892A      5.336936   893A      5.340308   894A      5.356916  
     895A      5.384434   896A      5.412409   897A      5.424444  
     898A      5.428808   899A      5.439243   900A      5.448271  
     901A      5.458464   902A      5.463648   903A      5.469111  
     904A      5.479572   905A      5.485799   906A      5.499433  
     907A      5.507639   908A      5.532656   909A      5.535166  
     910A      5.543385   911A      5.556620   912A      5.561088  
     913A      5.570388   914A      5.583885   915A      5.597117  
     916A      5.599779   917A      5.629508   918A      5.639350  
     919A      5.643947   920A      5.667466   921A      5.677754  
     922A      5.696584   923A      5.725904   924A      5.730556  
     925A      5.749352   926A      5.754426   927A      5.762115  
     928A      5.775894   929A      5.790944   930A      5.791992  
     931A      5.814416   932A      5.829235   933A      5.859599  
     934A      5.881377   935A      5.892822   936A      5.912288  
     937A      5.922075   938A      5.929721   939A      5.936274  
     940A      5.949419   941A      5.994479   942A      6.004845  
     943A      6.009128   944A      6.052953   945A      6.059691  
     946A      6.065956   947A      6.078059   948A      6.078631  
     949A      6.088653   950A      6.106543   951A      6.114494  
     952A      6.115815   953A      6.120209   954A      6.133411  
     955A      6.160229   956A      6.165372   957A      6.193627  
     958A      6.201866   959A      6.209208   960A      6.216556  
     961A      6.272619   962A      6.275660   963A      6.295786  
     964A      6.328350   965A      6.355411   966A      6.383290  
     967A      6.392464   968A      6.437037   969A      6.447412  
     970A      6.467153   971A      6.488721   972A      6.492628  
     973A      6.505686   974A      6.524249   975A      6.536485  
     976A      6.539273   977A      6.551091   978A      6.576230  
     979A      6.590691   980A      6.607536   981A      6.637304  
     982A      6.646067   983A      6.677958   984A      6.699988  
     985A      6.701212   986A      6.713081   987A      6.722387  
     988A      6.727196   989A      6.736876   990A      6.745657  
     991A      6.761128   992A      6.774561   993A      6.795395  
     994A      6.799213   995A      6.803747   996A      6.816622  
     997A      6.826414   998A      6.828366   999A      6.854456  
    1000A      6.868860  1001A      6.875043  1002A      6.886203  
    1003A      6.895953  1004A      6.910389  1005A      6.928135  
    1006A      6.932795  1007A      6.943032  1008A      6.948043  
    1009A      6.969742  1010A      6.988590  1011A      6.992936  
    1012A      7.035768  1013A      7.086482  1014A      7.090587  
    1015A      7.146133  1016A      7.153947  1017A      7.210205  
    1018A      7.226452  1019A      7.235403  1020A      7.252061  
    1021A      7.263159  1022A      7.340962  1023A      7.353161  
    1024A      7.382605  1025A      7.394979  1026A      7.407970  
    1027A      7.420719  1028A      7.433218  1029A      7.439234  
    1030A      7.447713  1031A      7.458880  1032A      7.468102  
    1033A      7.485415  1034A      7.533401  1035A      7.557207  
    1036A      7.588063  1037A      7.593219  1038A      7.630789  
    1039A      7.640777  1040A      7.664096  1041A      7.673206  
    1042A      7.694134  1043A      7.702387  1044A      7.708719  
    1045A      7.723346  1046A      7.730248  1047A      7.742190  
    1048A      7.780518  1049A      7.801805  1050A      7.818034  
    1051A      7.823388  1052A      7.864726  1053A      7.879888  
    1054A      7.884150  1055A      7.913864  1056A      7.936277  
    1057A      7.946235  1058A      7.984969  1059A      8.005052  
    1060A      8.013034  1061A      8.029030  1062A      8.041761  
    1063A      8.061912  1064A      8.073275  1065A      8.133389  
    1066A      8.150452  1067A      8.254216  1068A      8.318680  
    1069A      8.329309  1070A      8.405069  1071A      8.449667  
    1072A      8.490451  1073A      8.551019  1074A      8.698086  
    1075A      8.793990  1076A      8.838373  1077A      8.946221  
    1078A      9.008346  1079A      9.069834  1080A      9.234234  
    1081A      9.289920  1082A      9.476193  1083A      9.488321  
    1084A      9.562892  1085A      9.589917  1086A      9.681842  
    1087A      9.732112  1088A      9.778308  1089A     10.179867  
    1090A     10.259080  1091A     10.389684  1092A     10.736755  
    1093A     11.013751  1094A     11.040334  1095A     11.152102  
    1096A     11.245392  1097A     11.499510  1098A     11.632416  
    1099A     11.745308  1100A     11.903607  1101A     12.021796  
    1102A     12.097419  1103A     12.189384  1104A     12.311931  
    1105A     12.454284  1106A     12.551885  1107A     12.880047  
    1108A     13.008581  1109A     15.786938  1110A     15.964414  
    1111A     16.162598  1112A     16.637812  1113A     17.997653  
    1114A     19.033570  1115A     20.126774  1116A     20.411608  
    1117A     20.639782  1118A     51.664573  1119A     51.728923  
    1120A     52.306045  1121A     54.134491  1122A     56.213507  
    1123A     60.194039  1124A     61.268193  1125A     62.197286  
    1126A     62.554464  1127A     64.261059  

    Final Occupation by Irrep:
              A 
    DOCC [    33 ]

  @DF-RHF Final Energy:  -451.66954738072957

   => Energetics <=

    Nuclear Repulsion Energy =            438.2161177930508416
    One-Electron Energy =               -1484.6807370883141175
    Two-Electron Energy =                 594.7950719145336507
    Total Energy =                       -451.6695473807295684

Computation Completed


Properties will be evaluated at   0.000000,   0.000000,   0.000000 [a0]

Properties computed using the SCF density matrix

  Nuclear Dipole Moment: [e a0]
     X:   126.4875      Y:  -330.3274      Z:  -213.7127

  Electronic Dipole Moment: [e a0]
     X:  -126.5915      Y:   328.4406      Z:   213.7121

  Dipole Moment: [e a0]
     X:    -0.1041      Y:    -1.8868      Z:    -0.0006     Total:     1.8897

  Dipole Moment: [D]
     X:    -0.2645      Y:    -4.7958      Z:    -0.0016     Total:     4.8031


*** tstop() called on node151.bme.utexas.edu at Mon Jan 22 15:26:56 2024
Module time:
	user time   =     550.75 seconds =       9.18 minutes
	system time =       5.69 seconds =       0.09 minutes
	total time  =         85 seconds =       1.42 minutes
Total time:
	user time   =    1592.85 seconds =      26.55 minutes
	system time =      19.09 seconds =       0.32 minutes
	total time  =        241 seconds =       4.02 minutes

*** tstart() called on node151.bme.utexas.edu
*** at Mon Jan 22 15:26:56 2024


  //>>>>>>>>>>>>>>>>>>>>>>>>>>>>>>>>>>>//
  //               DFMP2               //
  //<<<<<<<<<<<<<<<<<<<<<<<<<<<<<<<<<<<//

   => Loading Basis Set <=

    Name: (AUG-CC-PVTZ AUX)
    Role: RIFIT
    Keyword: DF_BASIS_MP2
    atoms 1, 3, 16, 18, 22, 24, 26  entry N          line   206 file /opt/anaconda/envs/psi4v1.5/share/psi4/basis/aug-cc-pvtz-ri.gbs 
    atoms 2, 4-6, 11, 17, 19-21, 23 entry C          line   148 file /opt/anaconda/envs/psi4v1.5/share/psi4/basis/aug-cc-pvtz-ri.gbs 
    atoms 7, 9, 12-15, 25, 27-30    entry H          line    30 file /opt/anaconda/envs/psi4v1.5/share/psi4/basis/aug-cc-pvtz-ri.gbs 
    atoms 8, 10                     entry O          line   264 file /opt/anaconda/envs/psi4v1.5/share/psi4/basis/aug-cc-pvtz-ri.gbs 

	 --------------------------------------------------------
	                          DF-MP2                         
	      2nd-Order Density-Fitted Moller-Plesset Theory     
	              RMP2 Wavefunction,   8 Threads             
	                                                         
	        Rob Parrish, Justin Turney, Andy Simmonett,      
	           Ed Hohenstein, and C. David Sherrill          
	 --------------------------------------------------------

   => Auxiliary Basis Set <=

  Basis Set: (AUG-CC-PVTZ AUX)
    Blend: AUG-CC-PVTZ-RI
    Number of shells: 686
    Number of basis functions: 2520
    Number of Cartesian functions: 3189
    Spherical Harmonics?: true
    Max angular momentum: 4

	 --------------------------------------------------------
	                 NBF =  1127, NAUX =  2520
	 --------------------------------------------------------
	   CLASS    FOCC     OCC    AOCC    AVIR     VIR    FVIR
	   PAIRS       9      33      24    1094    1094       0
	 --------------------------------------------------------

	 Will attempt to load fitting metric from file 97.

	-----------------------------------------------------------
	 ==================> DF-MP2 Energies <==================== 
	-----------------------------------------------------------
	 Reference Energy          =    -451.6695473807295684 [Eh]
	 Singles Energy            =      -0.0000000000000000 [Eh]
	 Same-Spin Energy          =      -0.4339175222796119 [Eh]
	 Opposite-Spin Energy      =      -1.2511315975841804 [Eh]
	 Correlation Energy        =      -1.6850491198637922 [Eh]
	 Total Energy              =    -453.3545965005933454 [Eh]
	-----------------------------------------------------------
	 ================> DF-SCS-MP2 Energies <================== 
	-----------------------------------------------------------
	 SCS Same-Spin Scale       =       0.3333333333333333 [-]
	 SCS Opposite-Spin Scale   =       1.2000000000000000 [-]
	 SCS Same-Spin Energy      =      -0.1446391740932040 [Eh]
	 SCS Opposite-Spin Energy  =      -1.5013579171010163 [Eh]
	 SCS Correlation Energy    =      -1.6459970911942203 [Eh]
	 SCS Total Energy          =    -453.3155444719237721 [Eh]
	-----------------------------------------------------------


*** tstop() called on node151.bme.utexas.edu at Mon Jan 22 15:27:32 2024
Module time:
	user time   =     184.17 seconds =       3.07 minutes
	system time =       4.52 seconds =       0.08 minutes
	total time  =         36 seconds =       0.60 minutes
Total time:
	user time   =    1777.03 seconds =      29.62 minutes
	system time =      23.61 seconds =       0.39 minutes
	total time  =        277 seconds =       4.62 minutes

  //>>>>>>>>>>>>>>>>>>>>>>>>>>>>>>>>>>>//
  //            Monomer B HF           //
  //<<<<<<<<<<<<<<<<<<<<<<<<<<<<<<<<<<<//


*** tstart() called on node151.bme.utexas.edu
*** at Mon Jan 22 15:27:32 2024

   => Loading Basis Set <=

    Name: AUG-CC-PVTZ
    Role: ORBITAL
    Keyword: BASIS
    atoms 1, 3, 16, 18, 22, 24, 26  entry N          line   285 file /opt/anaconda/envs/psi4v1.5/share/psi4/basis/aug-cc-pvtz.gbs 
    atoms 2, 4-6, 11, 17, 19-21, 23 entry C          line   239 file /opt/anaconda/envs/psi4v1.5/share/psi4/basis/aug-cc-pvtz.gbs 
    atoms 7, 9, 12-15, 25, 27-30    entry H          line    40 file /opt/anaconda/envs/psi4v1.5/share/psi4/basis/aug-cc-pvtz.gbs 
    atoms 8, 10                     entry O          line   331 file /opt/anaconda/envs/psi4v1.5/share/psi4/basis/aug-cc-pvtz.gbs 


         ---------------------------------------------------------
                                   SCF
               by Justin Turney, Rob Parrish, Andy Simmonett
                          and Daniel G. A. Smith
                              RHF Reference
                        8 Threads,  76293 MiB Core
         ---------------------------------------------------------

  ==> Geometry <==

    Molecular point group: c1
    Full point group: C1

    Geometry (in Angstrom), charge = 0, multiplicity = 1:

       Center              X                  Y                   Z               Mass       
    ------------   -----------------  -----------------  -----------------  -----------------
      Gh(N)          -0.384960027320    -3.567687554433    -1.713590451421    14.003074004430
      Gh(C)          -0.589331027320    -2.190455554433    -1.713329451421    12.000000000000
      Gh(N)           0.577283972680    -1.455311554433    -1.713227451421    14.003074004430
      Gh(C)           1.872475972680    -1.955559554433    -1.713333451421    12.000000000000
      Gh(C)           2.004184972680    -3.414430554433    -1.713634451421    12.000000000000
      Gh(C)           0.864447972680    -4.148817554433    -1.713698451421    12.000000000000
      Gh(H)          -1.222971027320    -4.132262554433    -1.713470451421     1.007825032230
      Gh(O)          -1.708637027320    -1.695635554433    -1.713193451421    15.994914619570
      Gh(H)           0.455642972680    -0.405255554433    -1.713020451421     1.007825032230
      Gh(O)           2.841691972680    -1.186604554433    -1.713200451421    15.994914619570
      Gh(C)           3.380419972680    -4.013323554433    -1.714232451421    12.000000000000
      Gh(H)           3.327987972680    -5.110668554433    -1.707589451421     1.007825032230
      Gh(H)           3.944558972680    -3.685982554433    -2.600290451421     1.007825032230
      Gh(H)           3.949574972680    -3.675170554433    -0.835558451421     1.007825032230
      Gh(H)           0.875605972680    -5.237944554433    -1.713735451421     1.007825032230
         N            0.059392972680     0.669592445567     1.586251548579    14.003074004430
         C           -1.240968027320     0.314795445567     1.619216548579    12.000000000000
         N           -2.306695027320     1.116252445567     1.639922548579    14.003074004430
         C           -1.946009027320     2.410335445567     1.623906548579    12.000000000000
         C           -0.644708027320     2.924818445567     1.590041548579    12.000000000000
         C            0.405187972680     1.977063445567     1.570529548579    12.000000000000
         N           -0.649356027320     4.309796445567     1.582192548579    14.003074004430
         C           -1.923179027320     4.626469445567     1.610631548579    12.000000000000
         N           -2.756573027320     3.523668445567     1.636762548579    14.003074004430
         H           -1.419555027320    -0.761727554433     1.629651548579     1.007825032230
         N            1.705748972680     2.314307445567     1.537684548579    14.003074004430
         H            1.949577972680     3.292941445567     1.526307548579     1.007825032230
         H            2.431319972680     1.590731445567     1.524686548579     1.007825032230
         H           -2.318898027320     5.637210445567     1.614223548579     1.007825032230
         H           -3.766678027320     3.518855445567     1.660773548579     1.007825032230

  Running in c1 symmetry.

  Rotational constants: A =      0.02606  B =      0.00541  C =      0.00478 [cm^-1]
  Rotational constants: A =    781.31062  B =    162.06645  C =    143.24738 [MHz]
  Nuclear repulsion =  501.306588072984539

  Charge       = 0
  Multiplicity = 1
  Electrons    = 70
  Nalpha       = 35
  Nbeta        = 35

  ==> Algorithm <==

  SCF Algorithm Type is DF.
  DIIS enabled.
  MOM disabled.
  Fractional occupation disabled.
  Guess Type is SAD.
  Energy threshold   = 1.00e-08
  Density threshold  = 1.00e-08
  Integral threshold = 1.00e-12

  ==> Primary Basis <==

  Basis Set: AUG-CC-PVTZ
    Blend: AUG-CC-PVTZ
    Number of shells: 365
    Number of basis functions: 1127
    Number of Cartesian functions: 1320
    Spherical Harmonics?: true
    Max angular momentum: 3

   => Loading Basis Set <=

    Name: (AUG-CC-PVTZ AUX)
    Role: JKFIT
    Keyword: DF_BASIS_SCF
    atoms 1, 3, 16, 18, 22, 24, 26  entry N          line   224 file /opt/anaconda/envs/psi4v1.5/share/psi4/basis/aug-cc-pvtz-jkfit.gbs 
    atoms 2, 4-6, 11, 17, 19-21, 23 entry C          line   162 file /opt/anaconda/envs/psi4v1.5/share/psi4/basis/aug-cc-pvtz-jkfit.gbs 
    atoms 7, 9, 12-15, 25, 27-30    entry H          line    70 file /opt/anaconda/envs/psi4v1.5/share/psi4/basis/aug-cc-pvtz-jkfit.gbs 
    atoms 8, 10                     entry O          line   286 file /opt/anaconda/envs/psi4v1.5/share/psi4/basis/aug-cc-pvtz-jkfit.gbs 

  ==> Integral Setup <==

  ==> DiskDFJK: Density-Fitted J/K Matrices <==

    J tasked:                  Yes
    K tasked:                  Yes
    wK tasked:                  No
    OpenMP threads:              8
    Integrals threads:           8
    Memory [MiB]:            57220
    Algorithm:                Core
    Integral Cache:           LOAD
    Schwarz Cutoff:          1E-12
    Fitting Condition:       1E-10

   => Auxiliary Basis Set <=

  Basis Set: (AUG-CC-PVTZ AUX)
    Blend: AUG-CC-PVTZ-JKFIT
    Number of shells: 724
    Number of basis functions: 2482
    Number of Cartesian functions: 3094
    Spherical Harmonics?: true
    Max angular momentum: 4

  Minimum eigenvalue in the overlap matrix is 1.1533646741E-06.
  Reciprocal condition number of the overlap matrix is 6.4900982384E-08.
    Using symmetric orthogonalization.

  ==> Pre-Iterations <==

  SCF Guess: Superposition of Atomic Densities via on-the-fly atomic UHF (no occupation information).

   -------------------------
    Irrep   Nso     Nmo    
   -------------------------
     A       1127    1127 
   -------------------------
    Total    1127    1127
   -------------------------

  ==> Iterations <==

                           Total Energy        Delta E     RMS |[F,P]|

   @DF-RHF iter SAD:  -464.44377807389600   -4.64444e+02   0.00000e+00 
   @DF-RHF iter   1:  -464.44333535732585    4.42717e-04   5.94887e-04 DIIS
   @DF-RHF iter   2:  -464.63440746206930   -1.91072e-01   2.92092e-04 DIIS
   @DF-RHF iter   3:  -464.67789823630983   -4.34908e-02   6.56900e-05 DIIS
   @DF-RHF iter   4:  -464.68110496002021   -3.20672e-03   3.07830e-05 DIIS
   @DF-RHF iter   5:  -464.68172870943113   -6.23749e-04   6.22861e-06 DIIS
   @DF-RHF iter   6:  -464.68178404940733   -5.53400e-05   3.01179e-06 DIIS
   @DF-RHF iter   7:  -464.68179883148241   -1.47821e-05   1.24014e-06 DIIS
   @DF-RHF iter   8:  -464.68180226353689   -3.43205e-06   4.55895e-07 DIIS
   @DF-RHF iter   9:  -464.68180277149605   -5.07959e-07   2.40397e-07 DIIS
   @DF-RHF iter  10:  -464.68180289695204   -1.25456e-07   9.07078e-08 DIIS
   @DF-RHF iter  11:  -464.68180292293044   -2.59784e-08   3.69228e-08 DIIS
   @DF-RHF iter  12:  -464.68180292644496   -3.51451e-09   1.49034e-08 DIIS
   @DF-RHF iter  13:  -464.68180292694251   -4.97550e-10   4.85242e-09 DIIS
  Energy and wave function converged.


  ==> Post-Iterations <==

    Orbital Energies [Eh]
    ---------------------

    Doubly Occupied:                                                      

       1A    -15.631612     2A    -15.589974     3A    -15.570524  
       4A    -15.556394     5A    -15.548213     6A    -11.340706  
       7A    -11.325354     8A    -11.318341     9A    -11.311020  
      10A    -11.253721    11A     -1.364184    12A     -1.295699  
      13A     -1.246882    14A     -1.186043    15A     -1.147030  
      16A     -1.032200    17A     -0.893714    18A     -0.873588  
      19A     -0.842874    20A     -0.778114    21A     -0.739816  
      22A     -0.697369    23A     -0.675788    24A     -0.635955  
      25A     -0.635476    26A     -0.612356    27A     -0.592052  
      28A     -0.557321    29A     -0.498218    30A     -0.494390  
      31A     -0.448040    32A     -0.425078    33A     -0.406345  
      34A     -0.369800    35A     -0.308831  

    Virtual:                                                              

      36A      0.019973    37A      0.022237    38A      0.029927  
      39A      0.035592    40A      0.038796    41A      0.039038  
      42A      0.048543    43A      0.053711    44A      0.055626  
      45A      0.059079    46A      0.067462    47A      0.070110  
      48A      0.074896    49A      0.078015    50A      0.085315  
      51A      0.086074    52A      0.088220    53A      0.095117  
      54A      0.097780    55A      0.101031    56A      0.103083  
      57A      0.105754    58A      0.110447    59A      0.110982  
      60A      0.112210    61A      0.115267    62A      0.118425  
      63A      0.119998    64A      0.121943    65A      0.129397  
      66A      0.131338    67A      0.136148    68A      0.136755  
      69A      0.138729    70A      0.142427    71A      0.144692  
      72A      0.147032    73A      0.150637    74A      0.153436  
      75A      0.154855    76A      0.157706    77A      0.161804  
      78A      0.167400    79A      0.170519    80A      0.175873  
      81A      0.177564    82A      0.179726    83A      0.181560  
      84A      0.183384    85A      0.190958    86A      0.194476  
      87A      0.197044    88A      0.201386    89A      0.203717  
      90A      0.205536    91A      0.208243    92A      0.209649  
      93A      0.214961    94A      0.219454    95A      0.222439  
      96A      0.225268    97A      0.226808    98A      0.229961  
      99A      0.234461   100A      0.235429   101A      0.236550  
     102A      0.241361   103A      0.245708   104A      0.250352  
     105A      0.254875   106A      0.256710   107A      0.259401  
     108A      0.261851   109A      0.265998   110A      0.268430  
     111A      0.270322   112A      0.273620   113A      0.279252  
     114A      0.283938   115A      0.285723   116A      0.287322  
     117A      0.291403   118A      0.293141   119A      0.300080  
     120A      0.300595   121A      0.303723   122A      0.307739  
     123A      0.309100   124A      0.311743   125A      0.318405  
     126A      0.327266   127A      0.332581   128A      0.334340  
     129A      0.335315   130A      0.340626   131A      0.342601  
     132A      0.344740   133A      0.344948   134A      0.347915  
     135A      0.351860   136A      0.357276   137A      0.360274  
     138A      0.363720   139A      0.369992   140A      0.372900  
     141A      0.378173   142A      0.380747   143A      0.382562  
     144A      0.385477   145A      0.388026   146A      0.391155  
     147A      0.394166   148A      0.398806   149A      0.400425  
     150A      0.404914   151A      0.408263   152A      0.409586  
     153A      0.413729   154A      0.416477   155A      0.420753  
     156A      0.424444   157A      0.428056   158A      0.429081  
     159A      0.432284   160A      0.434332   161A      0.438766  
     162A      0.440144   163A      0.443001   164A      0.445959  
     165A      0.449587   166A      0.451164   167A      0.452858  
     168A      0.456099   169A      0.460243   170A      0.463593  
     171A      0.465141   172A      0.470038   173A      0.472550  
     174A      0.473491   175A      0.478537   176A      0.484355  
     177A      0.484940   178A      0.488051   179A      0.492447  
     180A      0.496359   181A      0.499464   182A      0.501939  
     183A      0.504817   184A      0.508228   185A      0.509106  
     186A      0.513412   187A      0.516682   188A      0.519344  
     189A      0.522006   190A      0.524411   191A      0.529789  
     192A      0.533915   193A      0.535063   194A      0.537769  
     195A      0.541250   196A      0.545241   197A      0.548437  
     198A      0.551949   199A      0.554941   200A      0.557400  
     201A      0.563429   202A      0.567989   203A      0.571037  
     204A      0.576007   205A      0.579234   206A      0.581782  
     207A      0.586326   208A      0.592075   209A      0.594096  
     210A      0.599689   211A      0.606791   212A      0.608809  
     213A      0.613556   214A      0.618766   215A      0.624341  
     216A      0.627921   217A      0.631568   218A      0.633889  
     219A      0.638258   220A      0.643822   221A      0.647574  
     222A      0.649924   223A      0.657779   224A      0.662886  
     225A      0.665125   226A      0.666655   227A      0.669121  
     228A      0.672051   229A      0.676760   230A      0.677376  
     231A      0.683916   232A      0.684619   233A      0.688649  
     234A      0.695337   235A      0.697055   236A      0.700538  
     237A      0.703003   238A      0.710331   239A      0.716617  
     240A      0.718109   241A      0.718890   242A      0.726428  
     243A      0.732841   244A      0.735048   245A      0.738891  
     246A      0.747067   247A      0.751640   248A      0.759789  
     249A      0.762021   250A      0.764823   251A      0.767570  
     252A      0.770930   253A      0.772546   254A      0.780470  
     255A      0.785281   256A      0.787686   257A      0.793891  
     258A      0.799047   259A      0.805931   260A      0.808554  
     261A      0.812068   262A      0.813392   263A      0.815107  
     264A      0.816684   265A      0.823286   266A      0.827910  
     267A      0.836263   268A      0.837670   269A      0.845365  
     270A      0.848459   271A      0.852519   272A      0.854472  
     273A      0.857580   274A      0.862672   275A      0.865834  
     276A      0.874038   277A      0.875073   278A      0.883600  
     279A      0.884886   280A      0.890485   281A      0.893929  
     282A      0.896495   283A      0.902033   284A      0.907153  
     285A      0.908500   286A      0.916704   287A      0.924159  
     288A      0.927028   289A      0.930603   290A      0.932132  
     291A      0.940291   292A      0.943722   293A      0.946106  
     294A      0.947559   295A      0.951606   296A      0.956966  
     297A      0.959030   298A      0.964100   299A      0.966618  
     300A      0.970587   301A      0.972942   302A      0.977608  
     303A      0.978962   304A      0.983573   305A      0.989823  
     306A      0.990991   307A      0.995982   308A      1.000288  
     309A      1.006150   310A      1.006885   311A      1.010425  
     312A      1.013362   313A      1.017862   314A      1.020755  
     315A      1.028973   316A      1.032952   317A      1.033872  
     318A      1.036672   319A      1.040218   320A      1.042414  
     321A      1.046733   322A      1.051034   323A      1.054292  
     324A      1.054992   325A      1.057454   326A      1.067653  
     327A      1.070392   328A      1.073544   329A      1.079411  
     330A      1.080050   331A      1.088744   332A      1.090617  
     333A      1.092208   334A      1.097386   335A      1.100716  
     336A      1.107019   337A      1.110453   338A      1.114494  
     339A      1.118293   340A      1.123311   341A      1.126849  
     342A      1.128588   343A      1.134331   344A      1.140112  
     345A      1.143788   346A      1.147407   347A      1.151295  
     348A      1.155502   349A      1.156461   350A      1.157043  
     351A      1.159608   352A      1.164340   353A      1.170124  
     354A      1.173577   355A      1.178401   356A      1.180282  
     357A      1.183870   358A      1.193804   359A      1.198486  
     360A      1.205587   361A      1.207249   362A      1.211833  
     363A      1.219538   364A      1.222328   365A      1.224360  
     366A      1.225606   367A      1.229298   368A      1.235873  
     369A      1.240217   370A      1.242957   371A      1.249401  
     372A      1.251050   373A      1.254665   374A      1.260116  
     375A      1.267614   376A      1.271167   377A      1.279082  
     378A      1.282967   379A      1.288783   380A      1.291000  
     381A      1.294843   382A      1.297168   383A      1.298817  
     384A      1.303481   385A      1.309521   386A      1.314551  
     387A      1.316693   388A      1.319248   389A      1.322586  
     390A      1.326987   391A      1.329652   392A      1.339404  
     393A      1.340576   394A      1.344253   395A      1.348223  
     396A      1.352694   397A      1.356997   398A      1.366859  
     399A      1.369381   400A      1.373285   401A      1.378245  
     402A      1.380008   403A      1.382745   404A      1.389281  
     405A      1.393216   406A      1.398754   407A      1.404731  
     408A      1.411978   409A      1.414588   410A      1.416725  
     411A      1.422896   412A      1.427230   413A      1.432811  
     414A      1.434639   415A      1.437540   416A      1.446109  
     417A      1.450378   418A      1.451145   419A      1.454727  
     420A      1.462359   421A      1.464440   422A      1.467068  
     423A      1.473512   424A      1.482559   425A      1.489889  
     426A      1.491872   427A      1.494004   428A      1.508394  
     429A      1.510685   430A      1.514740   431A      1.519996  
     432A      1.527187   433A      1.528619   434A      1.530235  
     435A      1.542010   436A      1.547145   437A      1.552088  
     438A      1.558882   439A      1.560295   440A      1.570094  
     441A      1.572009   442A      1.577860   443A      1.580503  
     444A      1.592127   445A      1.596587   446A      1.606024  
     447A      1.608724   448A      1.613993   449A      1.618654  
     450A      1.621321   451A      1.630052   452A      1.645899  
     453A      1.650308   454A      1.654565   455A      1.660715  
     456A      1.665178   457A      1.670073   458A      1.672846  
     459A      1.677801   460A      1.681909   461A      1.689724  
     462A      1.696604   463A      1.702432   464A      1.707180  
     465A      1.710162   466A      1.712417   467A      1.717568  
     468A      1.725630   469A      1.736305   470A      1.738855  
     471A      1.748890   472A      1.749700   473A      1.754282  
     474A      1.756822   475A      1.772740   476A      1.780971  
     477A      1.785652   478A      1.791120   479A      1.794140  
     480A      1.797095   481A      1.800307   482A      1.810390  
     483A      1.815540   484A      1.819590   485A      1.822984  
     486A      1.828859   487A      1.835261   488A      1.844542  
     489A      1.850709   490A      1.855577   491A      1.860694  
     492A      1.863465   493A      1.869036   494A      1.875077  
     495A      1.881678   496A      1.884906   497A      1.886129  
     498A      1.902628   499A      1.904290   500A      1.910233  
     501A      1.918634   502A      1.919724   503A      1.929849  
     504A      1.938728   505A      1.943822   506A      1.949458  
     507A      1.952662   508A      1.959502   509A      1.963206  
     510A      1.970309   511A      1.975090   512A      1.978599  
     513A      1.981119   514A      1.999225   515A      2.003074  
     516A      2.004115   517A      2.012422   518A      2.020713  
     519A      2.025231   520A      2.033101   521A      2.033797  
     522A      2.042101   523A      2.048811   524A      2.050789  
     525A      2.065258   526A      2.074970   527A      2.078852  
     528A      2.080057   529A      2.082303   530A      2.089817  
     531A      2.097778   532A      2.101907   533A      2.109205  
     534A      2.115275   535A      2.122351   536A      2.125363  
     537A      2.132204   538A      2.143800   539A      2.153129  
     540A      2.156016   541A      2.168392   542A      2.172655  
     543A      2.179982   544A      2.183314   545A      2.189732  
     546A      2.196904   547A      2.202703   548A      2.208216  
     549A      2.218882   550A      2.222763   551A      2.231919  
     552A      2.241993   553A      2.244043   554A      2.254562  
     555A      2.259902   556A      2.264862   557A      2.271111  
     558A      2.280487   559A      2.289836   560A      2.295204  
     561A      2.303916   562A      2.306517   563A      2.313875  
     564A      2.319587   565A      2.322265   566A      2.326833  
     567A      2.336229   568A      2.345946   569A      2.350768  
     570A      2.353951   571A      2.364344   572A      2.369474  
     573A      2.370328   574A      2.374548   575A      2.380989  
     576A      2.386145   577A      2.394567   578A      2.397067  
     579A      2.404200   580A      2.410624   581A      2.421146  
     582A      2.424998   583A      2.430306   584A      2.437135  
     585A      2.441055   586A      2.447893   587A      2.453690  
     588A      2.457147   589A      2.468581   590A      2.474280  
     591A      2.484505   592A      2.489512   593A      2.500949  
     594A      2.501758   595A      2.504586   596A      2.518117  
     597A      2.525699   598A      2.550081   599A      2.553631  
     600A      2.561429   601A      2.564541   602A      2.572142  
     603A      2.576232   604A      2.587429   605A      2.593083  
     606A      2.595068   607A      2.606652   608A      2.611204  
     609A      2.614887   610A      2.623830   611A      2.626144  
     612A      2.633316   613A      2.643827   614A      2.648634  
     615A      2.652776   616A      2.663391   617A      2.666108  
     618A      2.672028   619A      2.676317   620A      2.681128  
     621A      2.691709   622A      2.703318   623A      2.711623  
     624A      2.720403   625A      2.723341   626A      2.729415  
     627A      2.743202   628A      2.748626   629A      2.750683  
     630A      2.753821   631A      2.755941   632A      2.767434  
     633A      2.774490   634A      2.782265   635A      2.793803  
     636A      2.806286   637A      2.812247   638A      2.821578  
     639A      2.829307   640A      2.834081   641A      2.844343  
     642A      2.852965   643A      2.857230   644A      2.867298  
     645A      2.875636   646A      2.881112   647A      2.885202  
     648A      2.893822   649A      2.908255   650A      2.918243  
     651A      2.927252   652A      2.936573   653A      2.944842  
     654A      2.952768   655A      2.963163   656A      2.976429  
     657A      2.987430   658A      2.990949   659A      2.998266  
     660A      3.027783   661A      3.034248   662A      3.041380  
     663A      3.053147   664A      3.064558   665A      3.078151  
     666A      3.084958   667A      3.100379   668A      3.116919  
     669A      3.123333   670A      3.126446   671A      3.140741  
     672A      3.160927   673A      3.168137   674A      3.175506  
     675A      3.187876   676A      3.205405   677A      3.216513  
     678A      3.221859   679A      3.234919   680A      3.248130  
     681A      3.250998   682A      3.255129   683A      3.279918  
     684A      3.281621   685A      3.300656   686A      3.320790  
     687A      3.331452   688A      3.350395   689A      3.357019  
     690A      3.362489   691A      3.372072   692A      3.375792  
     693A      3.407532   694A      3.413532   695A      3.432373  
     696A      3.442619   697A      3.447120   698A      3.464394  
     699A      3.469978   700A      3.506359   701A      3.512270  
     702A      3.519598   703A      3.526221   704A      3.533494  
     705A      3.562453   706A      3.569200   707A      3.581292  
     708A      3.594700   709A      3.598688   710A      3.616571  
     711A      3.617453   712A      3.627857   713A      3.641151  
     714A      3.655783   715A      3.659186   716A      3.685392  
     717A      3.686047   718A      3.702673   719A      3.704565  
     720A      3.717541   721A      3.719967   722A      3.726876  
     723A      3.731461   724A      3.748292   725A      3.755790  
     726A      3.760936   727A      3.764461   728A      3.780506  
     729A      3.795784   730A      3.802354   731A      3.811765  
     732A      3.821642   733A      3.830753   734A      3.848233  
     735A      3.858003   736A      3.882441   737A      3.891385  
     738A      3.905356   739A      3.908741   740A      3.920456  
     741A      3.936964   742A      3.941311   743A      3.956868  
     744A      3.963233   745A      3.969921   746A      3.979975  
     747A      3.990787   748A      4.002383   749A      4.017560  
     750A      4.035550   751A      4.038006   752A      4.043902  
     753A      4.055636   754A      4.072374   755A      4.078328  
     756A      4.085264   757A      4.090352   758A      4.093957  
     759A      4.099098   760A      4.115308   761A      4.123050  
     762A      4.128723   763A      4.136992   764A      4.160336  
     765A      4.162971   766A      4.168609   767A      4.177874  
     768A      4.185948   769A      4.191398   770A      4.193499  
     771A      4.208470   772A      4.213922   773A      4.218815  
     774A      4.225217   775A      4.228740   776A      4.235543  
     777A      4.243584   778A      4.247535   779A      4.259095  
     780A      4.262361   781A      4.269663   782A      4.271527  
     783A      4.291711   784A      4.297661   785A      4.300978  
     786A      4.302345   787A      4.309813   788A      4.320616  
     789A      4.324775   790A      4.332042   791A      4.341661  
     792A      4.348082   793A      4.363433   794A      4.372063  
     795A      4.387122   796A      4.389200   797A      4.391978  
     798A      4.401325   799A      4.413604   800A      4.419682  
     801A      4.429045   802A      4.441949   803A      4.447387  
     804A      4.463820   805A      4.476399   806A      4.479175  
     807A      4.492046   808A      4.493714   809A      4.502639  
     810A      4.517595   811A      4.531482   812A      4.535020  
     813A      4.548112   814A      4.557120   815A      4.557587  
     816A      4.565639   817A      4.573030   818A      4.585837  
     819A      4.596927   820A      4.608656   821A      4.619601  
     822A      4.634348   823A      4.636360   824A      4.644070  
     825A      4.651663   826A      4.654910   827A      4.663497  
     828A      4.666703   829A      4.678946   830A      4.706584  
     831A      4.713782   832A      4.717366   833A      4.718071  
     834A      4.728948   835A      4.737094   836A      4.783860  
     837A      4.788346   838A      4.792056   839A      4.799845  
     840A      4.815703   841A      4.818094   842A      4.820808  
     843A      4.825404   844A      4.831646   845A      4.855565  
     846A      4.861033   847A      4.870139   848A      4.874985  
     849A      4.880289   850A      4.897024   851A      4.899958  
     852A      4.914135   853A      4.919065   854A      4.921074  
     855A      4.923010   856A      4.949895   857A      4.952948  
     858A      4.971487   859A      4.977460   860A      4.987427  
     861A      4.997125   862A      5.013686   863A      5.038279  
     864A      5.041123   865A      5.042938   866A      5.052237  
     867A      5.060573   868A      5.067514   869A      5.078632  
     870A      5.084773   871A      5.091035   872A      5.102284  
     873A      5.105115   874A      5.109913   875A      5.132848  
     876A      5.140353   877A      5.153414   878A      5.165555  
     879A      5.180690   880A      5.194057   881A      5.201482  
     882A      5.210193   883A      5.216823   884A      5.219932  
     885A      5.226697   886A      5.254746   887A      5.256079  
     888A      5.265010   889A      5.274773   890A      5.288258  
     891A      5.296216   892A      5.301327   893A      5.313864  
     894A      5.322595   895A      5.336863   896A      5.349848  
     897A      5.363746   898A      5.374133   899A      5.377928  
     900A      5.379581   901A      5.389483   902A      5.396928  
     903A      5.417300   904A      5.426032   905A      5.427662  
     906A      5.441889   907A      5.450091   908A      5.466342  
     909A      5.477959   910A      5.481051   911A      5.493265  
     912A      5.519904   913A      5.526113   914A      5.530242  
     915A      5.534239   916A      5.545266   917A      5.545525  
     918A      5.559877   919A      5.564344   920A      5.569812  
     921A      5.581993   922A      5.586532   923A      5.602736  
     924A      5.603768   925A      5.606687   926A      5.618830  
     927A      5.620285   928A      5.635474   929A      5.640296  
     930A      5.643951   931A      5.667769   932A      5.674548  
     933A      5.686956   934A      5.689459   935A      5.697268  
     936A      5.705782   937A      5.712160   938A      5.713356  
     939A      5.717745   940A      5.759479   941A      5.771037  
     942A      5.790432   943A      5.798525   944A      5.805290  
     945A      5.826186   946A      5.833484   947A      5.839987  
     948A      5.847179   949A      5.868097   950A      5.890446  
     951A      5.906145   952A      5.932282   953A      5.934666  
     954A      5.936806   955A      5.941791   956A      5.959252  
     957A      5.965873   958A      5.983577   959A      5.989279  
     960A      6.000768   961A      6.018070   962A      6.024333  
     963A      6.067931   964A      6.088566   965A      6.094597  
     966A      6.096471   967A      6.138272   968A      6.144300  
     969A      6.155409   970A      6.160599   971A      6.173597  
     972A      6.181674   973A      6.188840   974A      6.194898  
     975A      6.227362   976A      6.245067   977A      6.255464  
     978A      6.270149   979A      6.278443   980A      6.284049  
     981A      6.289870   982A      6.331966   983A      6.352032  
     984A      6.380068   985A      6.419305   986A      6.448672  
     987A      6.451275   988A      6.457414   989A      6.481650  
     990A      6.484738   991A      6.529738   992A      6.545068  
     993A      6.559252   994A      6.589945   995A      6.593258  
     996A      6.606590   997A      6.616884   998A      6.650755  
     999A      6.667088  1000A      6.692663  1001A      6.695023  
    1002A      6.737761  1003A      6.744886  1004A      6.757829  
    1005A      6.769163  1006A      6.780260  1007A      6.795676  
    1008A      6.814108  1009A      6.818176  1010A      6.850904  
    1011A      6.865633  1012A      6.892285  1013A      6.903621  
    1014A      6.966612  1015A      6.975588  1016A      6.995869  
    1017A      7.024721  1018A      7.046351  1019A      7.055749  
    1020A      7.085264  1021A      7.108765  1022A      7.118551  
    1023A      7.154060  1024A      7.214513  1025A      7.243663  
    1026A      7.259857  1027A      7.287347  1028A      7.323781  
    1029A      7.380847  1030A      7.400727  1031A      7.451110  
    1032A      7.477053  1033A      7.556123  1034A      7.574073  
    1035A      7.585330  1036A      7.592197  1037A      7.597144  
    1038A      7.627710  1039A      7.633882  1040A      7.648751  
    1041A      7.663985  1042A      7.683070  1043A      7.691274  
    1044A      7.755991  1045A      7.767187  1046A      7.799422  
    1047A      7.806432  1048A      7.837818  1049A      7.842569  
    1050A      7.847812  1051A      7.852056  1052A      7.863085  
    1053A      7.893386  1054A      7.910608  1055A      7.950339  
    1056A      7.972019  1057A      8.014055  1058A      8.024364  
    1059A      8.139381  1060A      8.155436  1061A      8.183530  
    1062A      8.240273  1063A      8.265909  1064A      8.270534  
    1065A      8.371635  1066A      8.402545  1067A      8.563437  
    1068A      8.600160  1069A      8.710736  1070A      8.811799  
    1071A      8.886842  1072A      8.933299  1073A      9.013562  
    1074A      9.096251  1075A      9.203931  1076A      9.544965  
    1077A      9.558021  1078A      9.564221  1079A      9.585970  
    1080A      9.800425  1081A      9.871391  1082A      9.982711  
    1083A     10.015724  1084A     10.042194  1085A     10.188075  
    1086A     10.211460  1087A     10.249214  1088A     10.335686  
    1089A     10.458194  1090A     10.521777  1091A     10.534415  
    1092A     10.701551  1093A     10.931211  1094A     11.267382  
    1095A     11.374726  1096A     11.537009  1097A     12.028842  
    1098A     12.029633  1099A     12.041887  1100A     12.093395  
    1101A     12.195145  1102A     12.489926  1103A     12.714873  
    1104A     12.891226  1105A     13.351683  1106A     13.572099  
    1107A     14.164593  1108A     14.201967  1109A     16.046361  
    1110A     16.322486  1111A     16.324843  1112A     17.684208  
    1113A     18.068949  1114A     19.021945  1115A     19.226918  
    1116A     19.383440  1117A     20.035589  1118A     20.881296  
    1119A     51.529818  1120A     51.994952  1121A     53.321761  
    1122A     54.269855  1123A     57.381779  1124A     60.285042  
    1125A     61.277939  1126A     69.250995  1127A     69.683906  

    Final Occupation by Irrep:
              A 
    DOCC [    35 ]

  @DF-RHF Final Energy:  -464.68180292694251

   => Energetics <=

    Nuclear Repulsion Energy =            501.3065880729845389
    One-Electron Energy =               -1625.5707345811733830
    Two-Electron Energy =                 659.5823435812462776
    Total Energy =                       -464.6818029269425097

Computation Completed


Properties will be evaluated at   0.000000,   0.000000,   0.000000 [a0]

Properties computed using the SCF density matrix

  Nuclear Dipole Moment: [e a0]
     X:  -118.7781      Y:   321.8850      Z:   211.5006

  Electronic Dipole Moment: [e a0]
     X:   118.5354      Y:  -320.9632      Z:  -211.4999

  Dipole Moment: [e a0]
     X:    -0.2427      Y:     0.9218      Z:     0.0007     Total:     0.9532

  Dipole Moment: [D]
     X:    -0.6170      Y:     2.3430      Z:     0.0018     Total:     2.4229


*** tstop() called on node151.bme.utexas.edu at Mon Jan 22 15:30:00 2024
Module time:
	user time   =     950.38 seconds =      15.84 minutes
	system time =       8.63 seconds =       0.14 minutes
	total time  =        148 seconds =       2.47 minutes
Total time:
	user time   =    2727.44 seconds =      45.46 minutes
	system time =      32.24 seconds =       0.54 minutes
	total time  =        425 seconds =       7.08 minutes

*** tstart() called on node151.bme.utexas.edu
*** at Mon Jan 22 15:30:00 2024


  //>>>>>>>>>>>>>>>>>>>>>>>>>>>>>>>>>>>//
  //               DFMP2               //
  //<<<<<<<<<<<<<<<<<<<<<<<<<<<<<<<<<<<//

   => Loading Basis Set <=

    Name: (AUG-CC-PVTZ AUX)
    Role: RIFIT
    Keyword: DF_BASIS_MP2
    atoms 1, 3, 16, 18, 22, 24, 26  entry N          line   206 file /opt/anaconda/envs/psi4v1.5/share/psi4/basis/aug-cc-pvtz-ri.gbs 
    atoms 2, 4-6, 11, 17, 19-21, 23 entry C          line   148 file /opt/anaconda/envs/psi4v1.5/share/psi4/basis/aug-cc-pvtz-ri.gbs 
    atoms 7, 9, 12-15, 25, 27-30    entry H          line    30 file /opt/anaconda/envs/psi4v1.5/share/psi4/basis/aug-cc-pvtz-ri.gbs 
    atoms 8, 10                     entry O          line   264 file /opt/anaconda/envs/psi4v1.5/share/psi4/basis/aug-cc-pvtz-ri.gbs 

	 --------------------------------------------------------
	                          DF-MP2                         
	      2nd-Order Density-Fitted Moller-Plesset Theory     
	              RMP2 Wavefunction,   8 Threads             
	                                                         
	        Rob Parrish, Justin Turney, Andy Simmonett,      
	           Ed Hohenstein, and C. David Sherrill          
	 --------------------------------------------------------

   => Auxiliary Basis Set <=

  Basis Set: (AUG-CC-PVTZ AUX)
    Blend: AUG-CC-PVTZ-RI
    Number of shells: 686
    Number of basis functions: 2520
    Number of Cartesian functions: 3189
    Spherical Harmonics?: true
    Max angular momentum: 4

	 --------------------------------------------------------
	                 NBF =  1127, NAUX =  2520
	 --------------------------------------------------------
	   CLASS    FOCC     OCC    AOCC    AVIR     VIR    FVIR
	   PAIRS      10      35      25    1092    1092       0
	 --------------------------------------------------------

	 Will attempt to load fitting metric from file 97.

	-----------------------------------------------------------
	 ==================> DF-MP2 Energies <==================== 
	-----------------------------------------------------------
	 Reference Energy          =    -464.6818029269425097 [Eh]
	 Singles Energy            =      -0.0000000000000000 [Eh]
	 Same-Spin Energy          =      -0.4782557345294152 [Eh]
	 Opposite-Spin Energy      =      -1.3233842094062340 [Eh]
	 Correlation Energy        =      -1.8016399439356492 [Eh]
	 Total Energy              =    -466.4834428708781502 [Eh]
	-----------------------------------------------------------
	 ================> DF-SCS-MP2 Energies <================== 
	-----------------------------------------------------------
	 SCS Same-Spin Scale       =       0.3333333333333333 [-]
	 SCS Opposite-Spin Scale   =       1.2000000000000000 [-]
	 SCS Same-Spin Energy      =      -0.1594185781764717 [Eh]
	 SCS Opposite-Spin Energy  =      -1.5880610512874809 [Eh]
	 SCS Correlation Energy    =      -1.7474796294639525 [Eh]
	 SCS Total Energy          =    -466.4292825564064628 [Eh]
	-----------------------------------------------------------


*** tstop() called on node151.bme.utexas.edu at Mon Jan 22 15:30:43 2024
Module time:
	user time   =     215.61 seconds =       3.59 minutes
	system time =       7.21 seconds =       0.12 minutes
	total time  =         43 seconds =       0.72 minutes
Total time:
	user time   =    2943.06 seconds =      49.05 minutes
	system time =      39.45 seconds =       0.66 minutes
	total time  =        468 seconds =       7.80 minutes
  Constructing Basis Sets for SAPT...

   => Loading Basis Set <=

    Name: (AUG-CC-PVTZ AUX)
    Role: RIFIT
    Keyword: DF_BASIS_SAPT
    atoms 1, 3, 16, 18, 22, 24, 26  entry N          line   206 file /opt/anaconda/envs/psi4v1.5/share/psi4/basis/aug-cc-pvtz-ri.gbs 
    atoms 2, 4-6, 11, 17, 19-21, 23 entry C          line   148 file /opt/anaconda/envs/psi4v1.5/share/psi4/basis/aug-cc-pvtz-ri.gbs 
    atoms 7, 9, 12-15, 25, 27-30    entry H          line    30 file /opt/anaconda/envs/psi4v1.5/share/psi4/basis/aug-cc-pvtz-ri.gbs 
    atoms 8, 10                     entry O          line   264 file /opt/anaconda/envs/psi4v1.5/share/psi4/basis/aug-cc-pvtz-ri.gbs 


  //>>>>>>>>>>>>>>>>>>>>>>>>>>>>>>>>>>>//
  //           SAPT2+(3)DMP2           //
  //<<<<<<<<<<<<<<<<<<<<<<<<<<<<<<<<<<<//


*** tstart() called on node151.bme.utexas.edu
*** at Mon Jan 22 15:30:43 2024

      SAPT2+(3)  
    Ed Hohenstein
     6 June 2009

      Orbital Information
  --------------------------
    NSO        =      1127
    NMO        =      1127
    NRI        =      2520
    NOCC A     =        33
    NOCC B     =        35
    FOCC A     =         9
    FOCC B     =        10
    NVIR A     =      1094
    NVIR B     =      1092

    Estimated memory usage: 59315.2 MB

    Natural Orbital Cutoff:   1.000E-06
    Disp(T3) Truncation:            Yes
    CCD (vv|vv) Truncation:         Yes
    MBPT T2 Truncation:             Yes

    Monomer A: 627 virtual orbitals dropped
    Monomer B: 607 virtual orbitals dropped

    Elst10,r            =    -0.001055532135 [Eh]
    Exch10 (S^2)        =     0.000614533863 [Eh]
    Exch10              =     0.000614714576 [Eh]
    Ind20,r (A<-B)      =    -0.000116441058 [Eh]
    Ind20,r (B<-A)      =    -0.000256866200 [Eh]
    Ind20,r             =    -0.000373307258 [Eh]
    Exch-Ind20,r (A<-B) =     0.000036502046 [Eh]
    Exch-Ind20,r (B<-A) =     0.000155340858 [Eh]
    Exch-Ind20,r        =     0.000191842903 [Eh]
    Disp20              =    -0.003059749188 [Eh]
    Disp20 (NO)         =    -0.002893927870 [Eh]
    Exch-Disp20         =     0.000105329308 [Eh]
    Elst12,r            =     0.000182321608 [Eh]
    Exch11              =    -0.000007293362 [Eh]
    Exch12              =     0.000119148689 [Eh]
    Ind22               =    -0.000032728802 [Eh]
    Disp21              =     0.000755764807 [Eh]
    Disp22 (SDQ)        =    -0.000083125576 [Eh]

    (i =   1 of  25)       2114 seconds
    (i =   2 of  25)       4282 seconds
    (i =   3 of  25)       6514 seconds
    (i =   4 of  25)       8307 seconds
    (i =   5 of  25)      10183 seconds
    (i =   6 of  25)      11635 seconds
    (i =   7 of  25)      13086 seconds
    (i =   8 of  25)      14556 seconds
    (i =   9 of  25)      16172 seconds
    (i =  10 of  25)      17669 seconds
    (i =  11 of  25)      19172 seconds
    (i =  12 of  25)      20655 seconds
    (i =  13 of  25)      22141 seconds
    (i =  14 of  25)      23548 seconds
    (i =  15 of  25)      24959 seconds
    (i =  16 of  25)      26413 seconds
    (i =  17 of  25)      27922 seconds
    (i =  18 of  25)      29432 seconds
    (i =  19 of  25)      30949 seconds
    (i =  20 of  25)      32473 seconds
    (i =  21 of  25)      33989 seconds
    (i =  22 of  25)      35499 seconds
    (i =  23 of  25)      37010 seconds
    (i =  24 of  25)      38524 seconds
    (i =  25 of  25)      40037 seconds

    Disp220 (T)         =    -0.000379938535 [Eh]

    (i =   1 of  24)       1910 seconds
    (i =   2 of  24)       3835 seconds
    (i =   3 of  24)       5824 seconds
    (i =   4 of  24)       7754 seconds
    (i =   5 of  24)       9642 seconds
    (i =   6 of  24)      11344 seconds
    (i =   7 of  24)      13280 seconds
    (i =   8 of  24)      15449 seconds
    (i =   9 of  24)      17775 seconds
    (i =  10 of  24)      20284 seconds
    (i =  11 of  24)      22478 seconds
    (i =  12 of  24)      24350 seconds
    (i =  13 of  24)      26214 seconds
    (i =  14 of  24)      28076 seconds
    (i =  15 of  24)      29945 seconds
    (i =  16 of  24)      31810 seconds
    (i =  17 of  24)      33677 seconds
    (i =  18 of  24)      35543 seconds
    (i =  19 of  24)      37422 seconds
    (i =  20 of  24)      39299 seconds
    (i =  21 of  24)      41179 seconds
    (i =  22 of  24)      43049 seconds
    (i =  23 of  24)      44917 seconds
    (i =  24 of  24)      46787 seconds

    Disp202 (T)         =    -0.000372665990 [Eh]

    Disp22 (T)          =    -0.000752604525 [Eh]

    Est. Disp220 (T)    =    -0.000401708915 [Eh]
    Est. Disp202 (T)    =    -0.000394019655 [Eh]

    Est. Disp22 (T)     =    -0.000795728570 [Eh]
    Elst13,r            =    -0.000057637554 [Eh]
    Disp30              =     0.000035290140 [Eh]

    SAPT Results 
  --------------------------------------------------------------------------------------------------------
    Electrostatics                 -0.93084808 [mEh]      -0.58411599 [kcal/mol]      -2.44394130 [kJ/mol]
      Elst10,r                     -1.05553214 [mEh]      -0.66235641 [kcal/mol]      -2.77129924 [kJ/mol]
      Elst12,r                      0.18232161 [mEh]       0.11440854 [kcal/mol]       0.47868532 [kJ/mol]
      Elst13,r                     -0.05763755 [mEh]      -0.03616811 [kcal/mol]      -0.15132738 [kJ/mol]

    Exchange                        0.72656990 [mEh]       0.45592950 [kcal/mol]       1.90760902 [kJ/mol]
      Exch10                        0.61471458 [mEh]       0.38573922 [kcal/mol]       1.61393290 [kJ/mol]
      Exch10(S^2)                   0.61453386 [mEh]       0.38562582 [kcal/mol]       1.61345844 [kJ/mol]
      Exch11(S^2)                  -0.00729336 [mEh]      -0.00457665 [kcal/mol]      -0.01914872 [kJ/mol]
      Exch12(S^2)                   0.11914869 [mEh]       0.07476693 [kcal/mol]       0.31282484 [kJ/mol]

    Induction                      -0.16991494 [mEh]      -0.10662324 [kcal/mol]      -0.44611162 [kJ/mol]
      Ind20,r                      -0.37330726 [mEh]      -0.23425384 [kcal/mol]      -0.98011807 [kJ/mol]
      Ind22                        -0.03272880 [mEh]      -0.02053763 [kcal/mol]      -0.08592946 [kJ/mol]
      Exch-Ind20,r                  0.19184290 [mEh]       0.12038324 [kcal/mol]       0.50368347 [kJ/mol]
      Exch-Ind22                    0.01681936 [mEh]       0.01055431 [kcal/mol]       0.04415922 [kJ/mol]
      delta HF,r (2)               -0.03718501 [mEh]      -0.02333395 [kcal/mol]      -0.09762924 [kJ/mol]
      delta MP2,r (2)               0.06464387 [mEh]       0.04056464 [kcal/mol]       0.16972246 [kJ/mol]

    Dispersion                     -3.04221908 [mEh]      -1.90902129 [kcal/mol]      -7.98734509 [kJ/mol]
      Disp20                       -3.05974919 [mEh]      -1.92002160 [kcal/mol]      -8.03337039 [kJ/mol]
      Disp30                        0.03529014 [mEh]       0.02214490 [kcal/mol]       0.09265425 [kJ/mol]
      Disp21                        0.75576481 [mEh]       0.47424958 [kcal/mol]       1.98426023 [kJ/mol]
      Disp22 (SDQ)                 -0.08312558 [mEh]      -0.05216209 [kcal/mol]      -0.21824617 [kJ/mol]
      Disp22 (T)                   -0.75260453 [mEh]      -0.47226647 [kcal/mol]      -1.97596291 [kJ/mol]
      Est. Disp22 (T)              -0.79572857 [mEh]      -0.49932722 [kcal/mol]      -2.08918507 [kJ/mol]
      Exch-Disp20                   0.10532931 [mEh]       0.06609514 [kcal/mol]       0.27654206 [kJ/mol]

  Total HF                         -0.65946693 [mEh]      -0.41382175 [kcal/mol]      -1.73143018 [kJ/mol]
  Total SAPT0                      -3.61388681 [mEh]      -2.26774821 [kcal/mol]      -9.48825851 [kJ/mol]
  Total SAPT2                      -3.33561932 [mEh]      -2.09313272 [kcal/mol]      -8.75766731 [kJ/mol]
  Total SAPT2+                     -3.45870865 [mEh]      -2.17037245 [kcal/mol]      -9.08083832 [kJ/mol]
  Total SAPT2+(3)                  -3.48105607 [mEh]      -2.18439566 [kcal/mol]      -9.13951145 [kJ/mol]
  Total SAPT2+dMP2                 -3.39406478 [mEh]      -2.12980781 [kcal/mol]      -8.91111586 [kJ/mol]
  Total SAPT2+(3)dMP2              -3.41641220 [mEh]      -2.14383102 [kcal/mol]      -8.96978899 [kJ/mol]

  Special recipe for scaled SAPT0 (see Manual):
    Electrostatics sSAPT0          -1.05553214 [mEh]      -0.66235641 [kcal/mol]      -2.77129924 [kJ/mol]
    Exchange sSAPT0                 0.61471458 [mEh]       0.38573922 [kcal/mol]       1.61393290 [kJ/mol]
    Induction sSAPT0               -0.21848008 [mEh]      -0.13709832 [kcal/mol]      -0.57361936 [kJ/mol]
    Dispersion sSAPT0              -2.95432693 [mEh]      -1.85386814 [kcal/mol]      -7.75658429 [kJ/mol]
  Total sSAPT0                     -3.61362457 [mEh]      -2.26758365 [kcal/mol]      -9.48756999 [kJ/mol]
  --------------------------------------------------------------------------------------------------------

*** tstop() called on node151.bme.utexas.edu at Tue Jan 23 21:06:50 2024
Module time:
	user time   =  670512.77 seconds =   11175.21 minutes
	system time =    1930.22 seconds =      32.17 minutes
	total time  =     106567 seconds =    1776.12 minutes
Total time:
	user time   =  673456.46 seconds =   11224.27 minutes
	system time =    1969.68 seconds =      32.83 minutes
	total time  =     107035 seconds =    1783.92 minutes

    Psi4 stopped on: Tuesday, 23 January 2024 09:06PM
    Psi4 wall time for execution: 1 day, 5:43:55.17

*** Psi4 exiting successfully. Buy a developer a beer!
