
    -----------------------------------------------------------------------
          Psi4: An Open-Source Ab Initio Electronic Structure Package
                               Psi4 1.5 release

                         Git: Rev {HEAD} e9f4d6d 


    D. G. A. Smith, L. A. Burns, A. C. Simmonett, R. M. Parrish,
    M. C. Schieber, R. Galvelis, P. Kraus, H. Kruse, R. Di Remigio,
    A. Alenaizan, A. M. James, S. Lehtola, J. P. Misiewicz, M. Scheurer,
    R. A. Shaw, J. B. Schriber, Y. Xie, Z. L. Glick, D. A. Sirianni,
    J. S. O'Brien, J. M. Waldrop, A. Kumar, E. G. Hohenstein,
    B. P. Pritchard, B. R. Brooks, H. F. Schaefer III, A. Yu. Sokolov,
    K. Patkowski, A. E. DePrince III, U. Bozkaya, R. A. King,
    F. A. Evangelista, J. M. Turney, T. D. Crawford, C. D. Sherrill,
    J. Chem. Phys. 152(18) 184108 (2020). https://doi.org/10.1063/5.0006002

                            Additional Code Authors
    E. T. Seidl, C. L. Janssen, E. F. Valeev, M. L. Leininger,
    J. F. Gonthier, R. M. Richard, H. R. McAlexander, M. Saitow, X. Wang,
    P. Verma, M. H. Lechner, and A. Jiang

             Previous Authors, Complete List of Code Contributors,
                       and Citations for Specific Modules
    https://github.com/psi4/psi4/blob/master/codemeta.json
    https://github.com/psi4/psi4/graphs/contributors
    http://psicode.org/psi4manual/master/introduction.html#citing-psifour

    -----------------------------------------------------------------------


    Psi4 started on: Wednesday, 24 January 2024 02:00PM

    Process ID: 875834
    Host:       node165.bme.utexas.edu
    PSIDATADIR: /opt/anaconda/envs/psi4v1.5/share/psi4
    Memory:     500.0 MiB
    Threads:    8
    
  ==> Input File <==

--------------------------------------------------------------------------
memory 70GB

molecule {
0 1
N -0.64527 0.537199 0.000379
C -1.914342 0.992571 0.000336
N -2.327871 2.260455 0.000198
C -1.289976 3.113552 0.000134
C 0.071467 2.788444 0.000208
C 0.388103 1.409805 0.000331
N 0.862141 3.925582 0.00012
C 0.0 4.915748 0.0
N -1.315514 4.490519 0.0
H -2.678219 0.213216 0.000396
N 1.647269 0.939941 0.000399
H 2.408453 1.601685 0.000397
H 1.826741 -0.069006 0.000581
H 0.255544 5.970689 -9.4e-05
H -2.145977 5.066056 -9e-05
--
0 1
N 1.494058 -4.434703 3.269537
C 0.536909 -3.423713 3.286863
N 1.070647 -2.152432 3.267019
C 2.418129 -1.819417 3.232905
C 3.362593 -2.938956 3.216458
C 2.850431 -4.194203 3.235735
H 1.131596 -5.377799 3.283657
O -0.66343 -3.660302 3.316952
H 0.368868 -1.362011 3.279459
O 2.770833 -0.633648 3.217891
C 4.832998 -2.640273 3.179118
H 5.419514 -3.569225 3.177064
H 5.086129 -2.053617 2.283426
H 5.126083 -2.031855 4.047612
H 3.484148 -5.079992 3.22563
 units angstrom
 no_reorient
 symmetry c1}
set  {scf_type DF
 basis aug-cc-pvtz
 freeze_core True
 guess SAD}
energy('sapt2+(3)dmp2')
--------------------------------------------------------------------------

  Memory set to  65.193 GiB by Python driver.

Scratch directory: /tmp/
   => Loading Basis Set <=

    Name: AUG-CC-PVTZ
    Role: ORBITAL
    Keyword: BASIS
    atoms 1, 3, 7, 9, 11, 16, 18   entry N          line   285 file /opt/anaconda/envs/psi4v1.5/share/psi4/basis/aug-cc-pvtz.gbs 
    atoms 2, 4-6, 8, 17, 19-21, 26 entry C          line   239 file /opt/anaconda/envs/psi4v1.5/share/psi4/basis/aug-cc-pvtz.gbs 
    atoms 10, 12-15, 22, 24, 27-30 entry H          line    40 file /opt/anaconda/envs/psi4v1.5/share/psi4/basis/aug-cc-pvtz.gbs 
    atoms 23, 25                   entry O          line   331 file /opt/anaconda/envs/psi4v1.5/share/psi4/basis/aug-cc-pvtz.gbs 

   => Loading Basis Set <=

    Name: AUG-CC-PVTZ
    Role: ORBITAL
    Keyword: BASIS
    atoms 1, 3, 7, 9, 11, 16, 18   entry N          line   285 file /opt/anaconda/envs/psi4v1.5/share/psi4/basis/aug-cc-pvtz.gbs 
    atoms 2, 4-6, 8, 17, 19-21, 26 entry C          line   239 file /opt/anaconda/envs/psi4v1.5/share/psi4/basis/aug-cc-pvtz.gbs 
    atoms 10, 12-15, 22, 24, 27-30 entry H          line    40 file /opt/anaconda/envs/psi4v1.5/share/psi4/basis/aug-cc-pvtz.gbs 
    atoms 23, 25                   entry O          line   331 file /opt/anaconda/envs/psi4v1.5/share/psi4/basis/aug-cc-pvtz.gbs 


  //>>>>>>>>>>>>>>>>>>>>>>>>>>>>>>>>>>>//
  //              Dimer HF             //
  //<<<<<<<<<<<<<<<<<<<<<<<<<<<<<<<<<<<//


*** tstart() called on node165.bme.utexas.edu
*** at Wed Jan 24 14:00:28 2024

   => Loading Basis Set <=

    Name: AUG-CC-PVTZ
    Role: ORBITAL
    Keyword: BASIS
    atoms 1, 3, 7, 9, 11, 16, 18   entry N          line   285 file /opt/anaconda/envs/psi4v1.5/share/psi4/basis/aug-cc-pvtz.gbs 
    atoms 2, 4-6, 8, 17, 19-21, 26 entry C          line   239 file /opt/anaconda/envs/psi4v1.5/share/psi4/basis/aug-cc-pvtz.gbs 
    atoms 10, 12-15, 22, 24, 27-30 entry H          line    40 file /opt/anaconda/envs/psi4v1.5/share/psi4/basis/aug-cc-pvtz.gbs 
    atoms 23, 25                   entry O          line   331 file /opt/anaconda/envs/psi4v1.5/share/psi4/basis/aug-cc-pvtz.gbs 


         ---------------------------------------------------------
                                   SCF
               by Justin Turney, Rob Parrish, Andy Simmonett
                          and Daniel G. A. Smith
                              RHF Reference
                        8 Threads,  66757 MiB Core
         ---------------------------------------------------------

  ==> Geometry <==

    Molecular point group: c1
    Full point group: C1

    Geometry (in Angstrom), charge = 0, multiplicity = 1:

       Center              X                  Y                   Z               Mass       
    ------------   -----------------  -----------------  -----------------  -----------------
         N           -1.412125228744     0.610098704710    -1.567409675441    14.003074004430
         C           -2.681197228744     1.065470704710    -1.567452675441    12.000000000000
         N           -3.094726228744     2.333354704710    -1.567590675441    14.003074004430
         C           -2.056831228744     3.186451704710    -1.567654675441    12.000000000000
         C           -0.695388228744     2.861343704710    -1.567580675441    12.000000000000
         C           -0.378752228744     1.482704704710    -1.567457675441    12.000000000000
         N            0.095285771256     3.998481704710    -1.567668675441    14.003074004430
         C           -0.766855228744     4.988647704710    -1.567788675441    12.000000000000
         N           -2.082369228744     4.563418704710    -1.567788675441    14.003074004430
         H           -3.445074228744     0.286115704710    -1.567392675441     1.007825032230
         N            0.880413771256     1.012840704710    -1.567389675441    14.003074004430
         H            1.641597771256     1.674584704710    -1.567391675441     1.007825032230
         H            1.059885771256     0.003893704710    -1.567207675441     1.007825032230
         H           -0.511311228744     6.043588704710    -1.567882675441     1.007825032230
         H           -2.912832228744     5.138955704710    -1.567878675441     1.007825032230
         N            0.727202771256    -4.361803295290     1.701748324559    14.003074004430
         C           -0.229946228744    -3.350813295290     1.719074324559    12.000000000000
         N            0.303791771256    -2.079532295290     1.699230324559    14.003074004430
         C            1.651273771256    -1.746517295290     1.665116324559    12.000000000000
         C            2.595737771256    -2.866056295290     1.648669324559    12.000000000000
         C            2.083575771256    -4.121303295290     1.667946324559    12.000000000000
         H            0.364740771256    -5.304899295290     1.715868324559     1.007825032230
         O           -1.430285228744    -3.587402295290     1.749163324559    15.994914619570
         H           -0.397987228744    -1.289111295290     1.711670324559     1.007825032230
         O            2.003977771256    -0.560748295290     1.650102324559    15.994914619570
         C            4.066142771256    -2.567373295290     1.611329324559    12.000000000000
         H            4.652658771256    -3.496325295290     1.609275324559     1.007825032230
         H            4.319273771256    -1.980717295290     0.715637324559     1.007825032230
         H            4.359227771256    -1.958955295290     2.479823324559     1.007825032230
         H            2.717292771256    -5.007092295290     1.657841324559     1.007825032230

  Running in c1 symmetry.

  Rotational constants: A =      0.02475  B =      0.00488  C =      0.00428 [cm^-1]
  Rotational constants: A =    741.89744  B =    146.19521  C =    128.23332 [MHz]
  Nuclear repulsion = 1298.317930898560462

  Charge       = 0
  Multiplicity = 1
  Electrons    = 136
  Nalpha       = 68
  Nbeta        = 68

  ==> Algorithm <==

  SCF Algorithm Type is DF.
  DIIS enabled.
  MOM disabled.
  Fractional occupation disabled.
  Guess Type is SAD.
  Energy threshold   = 1.00e-08
  Density threshold  = 1.00e-08
  Integral threshold = 1.00e-12

  ==> Primary Basis <==

  Basis Set: AUG-CC-PVTZ
    Blend: AUG-CC-PVTZ
    Number of shells: 365
    Number of basis functions: 1127
    Number of Cartesian functions: 1320
    Spherical Harmonics?: true
    Max angular momentum: 3

   => Loading Basis Set <=

    Name: (AUG-CC-PVTZ AUX)
    Role: JKFIT
    Keyword: DF_BASIS_SCF
    atoms 1, 3, 7, 9, 11, 16, 18   entry N          line   224 file /opt/anaconda/envs/psi4v1.5/share/psi4/basis/aug-cc-pvtz-jkfit.gbs 
    atoms 2, 4-6, 8, 17, 19-21, 26 entry C          line   162 file /opt/anaconda/envs/psi4v1.5/share/psi4/basis/aug-cc-pvtz-jkfit.gbs 
    atoms 10, 12-15, 22, 24, 27-30 entry H          line    70 file /opt/anaconda/envs/psi4v1.5/share/psi4/basis/aug-cc-pvtz-jkfit.gbs 
    atoms 23, 25                   entry O          line   286 file /opt/anaconda/envs/psi4v1.5/share/psi4/basis/aug-cc-pvtz-jkfit.gbs 

  ==> Integral Setup <==

  ==> DiskDFJK: Density-Fitted J/K Matrices <==

    J tasked:                  Yes
    K tasked:                  Yes
    wK tasked:                  No
    OpenMP threads:              8
    Integrals threads:           8
    Memory [MiB]:            50067
    Algorithm:                Core
    Integral Cache:           SAVE
    Schwarz Cutoff:          1E-12
    Fitting Condition:       1E-10

   => Auxiliary Basis Set <=

  Basis Set: (AUG-CC-PVTZ AUX)
    Blend: AUG-CC-PVTZ-JKFIT
    Number of shells: 724
    Number of basis functions: 2482
    Number of Cartesian functions: 3094
    Spherical Harmonics?: true
    Max angular momentum: 4

  Minimum eigenvalue in the overlap matrix is 1.2190608234E-06.
  Reciprocal condition number of the overlap matrix is 6.9038808467E-08.
    Using symmetric orthogonalization.

  ==> Pre-Iterations <==

  SCF Guess: Superposition of Atomic Densities via on-the-fly atomic UHF (no occupation information).

   -------------------------
    Irrep   Nso     Nmo    
   -------------------------
     A       1127    1127 
   -------------------------
    Total    1127    1127
   -------------------------

  ==> Iterations <==

                           Total Energy        Delta E     RMS |[F,P]|

   @DF-RHF iter SAD:  -915.36768744740243   -9.15368e+02   0.00000e+00 
   @DF-RHF iter   1:  -915.81790869003498   -4.50221e-01   9.20991e-04 DIIS
   @DF-RHF iter   2:  -916.20446409627186   -3.86555e-01   5.49283e-04 DIIS
   @DF-RHF iter   3:  -916.34013309649322   -1.35669e-01   1.20628e-04 DIIS
   @DF-RHF iter   4:  -916.34955079999690   -9.41770e-03   5.03251e-05 DIIS
   @DF-RHF iter   5:  -916.35141709633808   -1.86630e-03   9.73007e-06 DIIS
   @DF-RHF iter   6:  -916.35158578604103   -1.68690e-04   4.97222e-06 DIIS
   @DF-RHF iter   7:  -916.35162827578438   -4.24897e-05   2.06837e-06 DIIS
   @DF-RHF iter   8:  -916.35163664092988   -8.36515e-06   7.61811e-07 DIIS
   @DF-RHF iter   9:  -916.35163761635329   -9.75423e-07   3.21165e-07 DIIS
   @DF-RHF iter  10:  -916.35163782388111   -2.07528e-07   1.25749e-07 DIIS
   @DF-RHF iter  11:  -916.35163786125418   -3.73731e-08   5.31019e-08 DIIS
   @DF-RHF iter  12:  -916.35163786810142   -6.84724e-09   1.92830e-08 DIIS
   @DF-RHF iter  13:  -916.35163786912221   -1.02079e-09   8.64851e-09 DIIS
  Energy and wave function converged.


  ==> Post-Iterations <==

    Orbital Energies [Eh]
    ---------------------

    Doubly Occupied:                                                      

       1A    -20.540502     2A    -20.538097     3A    -15.638803  
       4A    -15.632416     5A    -15.626570     6A    -15.581491  
       7A    -15.565102     8A    -15.551203     9A    -15.543212  
      10A    -11.415226    11A    -11.378536    12A    -11.334808  
      13A    -11.330837    14A    -11.319828    15A    -11.313033  
      16A    -11.306236    17A    -11.262106    18A    -11.248028  
      19A    -11.242638    20A     -1.425729    21A     -1.386204  
      22A     -1.358871    23A     -1.301703    24A     -1.289973  
      25A     -1.240383    26A     -1.240090    27A     -1.180225  
      28A     -1.141514    29A     -1.104329    30A     -1.026641  
      31A     -0.966351    32A     -0.911788    33A     -0.892040  
      34A     -0.887933    35A     -0.868209    36A     -0.837566  
      37A     -0.771934    38A     -0.768280    39A     -0.764786  
      40A     -0.733218    41A     -0.704382    42A     -0.691097  
      43A     -0.671542    44A     -0.669794    45A     -0.664279  
      46A     -0.635375    47A     -0.630634    48A     -0.629771  
      49A     -0.611365    50A     -0.606388    51A     -0.588304  
      52A     -0.586888    53A     -0.567332    54A     -0.556431  
      55A     -0.551037    56A     -0.550498    57A     -0.509728  
      58A     -0.492186    59A     -0.489080    60A     -0.475287  
      61A     -0.445600    62A     -0.442960    63A     -0.431607  
      64A     -0.418629    65A     -0.401384    66A     -0.364942  
      67A     -0.352001    68A     -0.302789  

    Virtual:                                                              

      69A      0.016459    70A      0.024995    71A      0.030035  
      72A      0.037925    73A      0.040760    74A      0.042023  
      75A      0.051007    76A      0.054174    77A      0.057894  
      78A      0.058979    79A      0.066013    80A      0.072375  
      81A      0.074289    82A      0.083443    83A      0.087485  
      84A      0.088910    85A      0.093605    86A      0.096695  
      87A      0.100757    88A      0.103711    89A      0.105806  
      90A      0.109351    91A      0.111330    92A      0.113237  
      93A      0.114357    94A      0.119100    95A      0.120862  
      96A      0.122726    97A      0.126534    98A      0.130303  
      99A      0.133454   100A      0.135098   101A      0.136920  
     102A      0.141282   103A      0.143162   104A      0.143839  
     105A      0.147038   106A      0.148358   107A      0.150023  
     108A      0.152513   109A      0.153948   110A      0.159583  
     111A      0.165382   112A      0.169526   113A      0.171579  
     114A      0.176488   115A      0.177503   116A      0.180891  
     117A      0.185737   118A      0.189668   119A      0.193079  
     120A      0.197800   121A      0.201608   122A      0.205311  
     123A      0.206153   124A      0.209680   125A      0.214555  
     126A      0.215524   127A      0.217843   128A      0.223989  
     129A      0.226103   130A      0.230739   131A      0.234059  
     132A      0.234825   133A      0.239599   134A      0.242543  
     135A      0.245508   136A      0.246014   137A      0.247932  
     138A      0.251316   139A      0.256715   140A      0.261451  
     141A      0.262901   142A      0.264531   143A      0.269991  
     144A      0.273007   145A      0.273829   146A      0.278563  
     147A      0.280511   148A      0.284988   149A      0.286887  
     150A      0.288619   151A      0.295733   152A      0.297674  
     153A      0.301173   154A      0.307251   155A      0.308010  
     156A      0.311311   157A      0.313510   158A      0.318425  
     159A      0.321806   160A      0.324127   161A      0.327463  
     162A      0.333814   163A      0.339163   164A      0.340417  
     165A      0.343314   166A      0.344582   167A      0.346364  
     168A      0.348767   169A      0.349292   170A      0.355978  
     171A      0.357056   172A      0.360033   173A      0.362990  
     174A      0.367177   175A      0.369385   176A      0.373564  
     177A      0.375370   178A      0.380716   179A      0.382424  
     180A      0.385560   181A      0.389461   182A      0.392434  
     183A      0.393454   184A      0.398144   185A      0.402084  
     186A      0.403179   187A      0.408485   188A      0.412202  
     189A      0.414553   190A      0.422454   191A      0.423342  
     192A      0.426561   193A      0.429350   194A      0.431012  
     195A      0.434036   196A      0.434671   197A      0.440798  
     198A      0.442436   199A      0.445468   200A      0.447383  
     201A      0.450766   202A      0.452329   203A      0.454299  
     204A      0.457704   205A      0.460773   206A      0.466145  
     207A      0.469773   208A      0.471802   209A      0.473319  
     210A      0.476578   211A      0.478947   212A      0.481479  
     213A      0.486691   214A      0.489753   215A      0.495069  
     216A      0.496489   217A      0.499074   218A      0.500054  
     219A      0.503588   220A      0.508016   221A      0.510209  
     222A      0.511654   223A      0.512249   224A      0.517470  
     225A      0.523078   226A      0.524462   227A      0.525284  
     228A      0.530039   229A      0.534327   230A      0.535254  
     231A      0.541238   232A      0.543027   233A      0.543928  
     234A      0.548945   235A      0.549597   236A      0.551746  
     237A      0.556564   238A      0.561381   239A      0.568627  
     240A      0.570481   241A      0.575180   242A      0.576414  
     243A      0.582314   244A      0.587264   245A      0.590177  
     246A      0.592279   247A      0.597738   248A      0.603799  
     249A      0.604853   250A      0.609135   251A      0.612725  
     252A      0.615588   253A      0.620733   254A      0.627577  
     255A      0.630469   256A      0.633317   257A      0.639266  
     258A      0.643129   259A      0.649975   260A      0.650738  
     261A      0.659592   262A      0.660049   263A      0.662084  
     264A      0.666032   265A      0.672890   266A      0.673948  
     267A      0.675536   268A      0.679841   269A      0.688321  
     270A      0.692910   271A      0.695459   272A      0.698391  
     273A      0.699714   274A      0.709791   275A      0.711212  
     276A      0.717401   277A      0.718141   278A      0.723035  
     279A      0.728905   280A      0.732771   281A      0.734583  
     282A      0.740310   283A      0.744567   284A      0.747327  
     285A      0.750983   286A      0.757101   287A      0.761269  
     288A      0.766587   289A      0.770520   290A      0.772940  
     291A      0.780093   292A      0.783702   293A      0.784475  
     294A      0.788483   295A      0.794769   296A      0.797216  
     297A      0.799359   298A      0.803796   299A      0.808809  
     300A      0.813165   301A      0.814256   302A      0.818495  
     303A      0.822904   304A      0.828738   305A      0.830365  
     306A      0.835339   307A      0.838675   308A      0.842412  
     309A      0.844656   310A      0.848649   311A      0.852156  
     312A      0.857854   313A      0.867045   314A      0.869230  
     315A      0.875006   316A      0.875633   317A      0.878461  
     318A      0.880388   319A      0.886480   320A      0.887992  
     321A      0.897483   322A      0.900836   323A      0.906828  
     324A      0.907791   325A      0.911643   326A      0.916040  
     327A      0.920539   328A      0.925308   329A      0.928010  
     330A      0.930431   331A      0.933376   332A      0.936755  
     333A      0.939484   334A      0.943292   335A      0.945667  
     336A      0.946455   337A      0.950306   338A      0.954162  
     339A      0.956265   340A      0.957824   341A      0.962722  
     342A      0.964132   343A      0.971092   344A      0.979514  
     345A      0.981224   346A      0.986478   347A      0.988818  
     348A      0.991651   349A      0.993365   350A      0.996469  
     351A      0.998961   352A      1.002887   353A      1.006682  
     354A      1.012796   355A      1.013271   356A      1.018192  
     357A      1.018937   358A      1.025710   359A      1.032671  
     360A      1.033820   361A      1.039882   362A      1.044872  
     363A      1.046954   364A      1.048884   365A      1.055891  
     366A      1.058658   367A      1.059962   368A      1.062482  
     369A      1.068801   370A      1.072588   371A      1.077454  
     372A      1.083885   373A      1.086952   374A      1.089673  
     375A      1.091890   376A      1.095417   377A      1.100512  
     378A      1.107448   379A      1.110969   380A      1.111694  
     381A      1.119253   382A      1.122604   383A      1.126456  
     384A      1.126641   385A      1.130918   386A      1.137252  
     387A      1.138097   388A      1.139070   389A      1.146888  
     390A      1.147943   391A      1.150912   392A      1.159139  
     393A      1.162269   394A      1.164251   395A      1.170279  
     396A      1.171803   397A      1.175531   398A      1.180124  
     399A      1.185142   400A      1.188601   401A      1.192946  
     402A      1.199368   403A      1.200962   404A      1.207084  
     405A      1.212311   406A      1.214601   407A      1.220037  
     408A      1.222591   409A      1.228510   410A      1.233053  
     411A      1.239091   412A      1.240690   413A      1.245856  
     414A      1.248939   415A      1.253062   416A      1.256699  
     417A      1.264163   418A      1.272483   419A      1.272964  
     420A      1.275118   421A      1.281086   422A      1.287605  
     423A      1.288594   424A      1.290787   425A      1.297261  
     426A      1.298748   427A      1.305665   428A      1.310338  
     429A      1.314816   430A      1.318329   431A      1.326342  
     432A      1.328107   433A      1.335525   434A      1.338112  
     435A      1.341089   436A      1.347531   437A      1.353145  
     438A      1.355142   439A      1.359882   440A      1.369870  
     441A      1.370863   442A      1.373889   443A      1.380798  
     444A      1.385750   445A      1.390172   446A      1.392273  
     447A      1.393562   448A      1.397079   449A      1.402218  
     450A      1.407880   451A      1.416779   452A      1.419720  
     453A      1.420096   454A      1.423701   455A      1.427953  
     456A      1.439042   457A      1.440370   458A      1.448553  
     459A      1.453469   460A      1.457012   461A      1.460841  
     462A      1.469429   463A      1.470643   464A      1.475619  
     465A      1.480078   466A      1.490805   467A      1.497627  
     468A      1.500754   469A      1.508356   470A      1.509593  
     471A      1.515839   472A      1.519578   473A      1.521208  
     474A      1.523577   475A      1.525581   476A      1.534879  
     477A      1.541198   478A      1.546632   479A      1.553708  
     480A      1.559814   481A      1.562518   482A      1.565189  
     483A      1.577808   484A      1.582116   485A      1.585405  
     486A      1.588939   487A      1.596295   488A      1.596885  
     489A      1.601355   490A      1.608872   491A      1.610834  
     492A      1.617717   493A      1.618872   494A      1.623295  
     495A      1.625533   496A      1.632421   497A      1.637879  
     498A      1.641320   499A      1.647260   500A      1.655096  
     501A      1.660537   502A      1.664837   503A      1.667906  
     504A      1.672616   505A      1.677184   506A      1.683130  
     507A      1.687408   508A      1.693982   509A      1.702833  
     510A      1.708050   511A      1.710259   512A      1.715121  
     513A      1.720908   514A      1.725779   515A      1.731982  
     516A      1.738480   517A      1.741647   518A      1.746493  
     519A      1.750609   520A      1.753192   521A      1.761186  
     522A      1.763500   523A      1.773053   524A      1.789218  
     525A      1.791542   526A      1.798738   527A      1.801712  
     528A      1.806064   529A      1.814103   530A      1.819002  
     531A      1.822222   532A      1.827586   533A      1.831976  
     534A      1.840386   535A      1.845991   536A      1.846560  
     537A      1.855034   538A      1.864194   539A      1.869056  
     540A      1.872344   541A      1.880570   542A      1.896750  
     543A      1.902911   544A      1.912977   545A      1.914743  
     546A      1.920619   547A      1.930389   548A      1.932684  
     549A      1.939319   550A      1.945797   551A      1.951368  
     552A      1.966018   553A      1.974937   554A      1.981492  
     555A      1.983275   556A      1.994378   557A      1.999753  
     558A      2.010448   559A      2.013612   560A      2.023076  
     561A      2.032873   562A      2.044200   563A      2.045869  
     564A      2.054671   565A      2.062685   566A      2.075667  
     567A      2.078351   568A      2.088137   569A      2.092084  
     570A      2.096249   571A      2.099699   572A      2.109825  
     573A      2.116839   574A      2.124087   575A      2.124907  
     576A      2.130303   577A      2.135501   578A      2.141145  
     579A      2.155383   580A      2.159982   581A      2.164543  
     582A      2.174944   583A      2.178364   584A      2.183246  
     585A      2.187181   586A      2.191654   587A      2.195781  
     588A      2.199563   589A      2.204675   590A      2.211170  
     591A      2.215365   592A      2.222976   593A      2.233692  
     594A      2.237711   595A      2.240796   596A      2.243071  
     597A      2.251192   598A      2.256712   599A      2.263425  
     600A      2.268160   601A      2.269679   602A      2.279322  
     603A      2.282896   604A      2.286823   605A      2.289939  
     606A      2.296405   607A      2.304379   608A      2.312908  
     609A      2.314632   610A      2.320013   611A      2.324167  
     612A      2.332381   613A      2.342661   614A      2.354878  
     615A      2.358301   616A      2.372778   617A      2.376569  
     618A      2.386886   619A      2.394969   620A      2.395637  
     621A      2.401053   622A      2.411544   623A      2.412929  
     624A      2.416681   625A      2.426783   626A      2.435445  
     627A      2.437266   628A      2.442267   629A      2.443151  
     630A      2.449658   631A      2.464251   632A      2.465792  
     633A      2.471719   634A      2.484279   635A      2.498167  
     636A      2.501868   637A      2.510296   638A      2.519278  
     639A      2.529581   640A      2.539150   641A      2.553799  
     642A      2.558907   643A      2.563882   644A      2.569692  
     645A      2.572856   646A      2.575720   647A      2.580973  
     648A      2.584631   649A      2.588465   650A      2.593443  
     651A      2.612870   652A      2.619155   653A      2.622225  
     654A      2.629106   655A      2.634381   656A      2.639730  
     657A      2.648842   658A      2.657001   659A      2.670701  
     660A      2.676097   661A      2.681323   662A      2.684565  
     663A      2.686021   664A      2.695973   665A      2.703191  
     666A      2.713258   667A      2.714711   668A      2.722461  
     669A      2.727464   670A      2.735184   671A      2.744401  
     672A      2.748965   673A      2.761433   674A      2.770721  
     675A      2.781447   676A      2.785657   677A      2.798101  
     678A      2.822029   679A      2.827749   680A      2.836932  
     681A      2.840288   682A      2.858271   683A      2.870822  
     684A      2.877982   685A      2.880745   686A      2.886013  
     687A      2.893541   688A      2.898097   689A      2.931493  
     690A      2.935866   691A      2.944286   692A      2.960893  
     693A      2.985366   694A      2.988543   695A      3.005726  
     696A      3.019504   697A      3.030865   698A      3.032096  
     699A      3.050501   700A      3.056898   701A      3.078404  
     702A      3.091184   703A      3.112914   704A      3.123046  
     705A      3.130658   706A      3.143421   707A      3.169643  
     708A      3.174996   709A      3.189861   710A      3.208559  
     711A      3.222816   712A      3.227022   713A      3.242926  
     714A      3.247896   715A      3.250412   716A      3.270703  
     717A      3.278774   718A      3.285006   719A      3.313426  
     720A      3.317136   721A      3.331128   722A      3.337624  
     723A      3.360214   724A      3.368710   725A      3.371580  
     726A      3.376063   727A      3.400421   728A      3.415202  
     729A      3.417571   730A      3.426073   731A      3.434173  
     732A      3.437536   733A      3.447166   734A      3.452836  
     735A      3.464663   736A      3.465202   737A      3.468674  
     738A      3.498753   739A      3.517006   740A      3.522455  
     741A      3.534076   742A      3.538607   743A      3.546845  
     744A      3.551886   745A      3.558462   746A      3.573469  
     747A      3.580852   748A      3.591392   749A      3.602241  
     750A      3.613713   751A      3.619498   752A      3.631459  
     753A      3.635747   754A      3.637329   755A      3.641927  
     756A      3.646657   757A      3.649112   758A      3.651661  
     759A      3.657733   760A      3.667705   761A      3.671851  
     762A      3.696314   763A      3.698123   764A      3.707426  
     765A      3.713249   766A      3.717027   767A      3.723606  
     768A      3.731513   769A      3.738093   770A      3.758051  
     771A      3.759357   772A      3.764601   773A      3.774640  
     774A      3.781741   775A      3.786508   776A      3.796034  
     777A      3.800438   778A      3.805446   779A      3.819351  
     780A      3.822365   781A      3.830746   782A      3.848690  
     783A      3.848886   784A      3.858983   785A      3.868715  
     786A      3.878572   787A      3.882578   788A      3.893779  
     789A      3.905131   790A      3.911308   791A      3.913815  
     792A      3.914787   793A      3.925527   794A      3.935202  
     795A      3.942223   796A      3.949738   797A      3.961855  
     798A      3.963620   799A      3.965166   800A      3.967141  
     801A      3.981134   802A      3.990861   803A      3.993572  
     804A      4.012214   805A      4.022480   806A      4.036704  
     807A      4.043841   808A      4.045802   809A      4.054906  
     810A      4.060199   811A      4.067521   812A      4.081660  
     813A      4.088454   814A      4.099471   815A      4.102517  
     816A      4.114569   817A      4.121878   818A      4.124315  
     819A      4.130028   820A      4.138063   821A      4.144945  
     822A      4.158053   823A      4.165127   824A      4.167857  
     825A      4.171534   826A      4.182811   827A      4.192968  
     828A      4.196378   829A      4.199943   830A      4.208535  
     831A      4.213182   832A      4.216850   833A      4.224538  
     834A      4.227859   835A      4.239759   836A      4.242626  
     837A      4.249699   838A      4.254606   839A      4.260872  
     840A      4.264937   841A      4.267938   842A      4.275060  
     843A      4.289962   844A      4.290744   845A      4.304102  
     846A      4.309389   847A      4.309922   848A      4.324053  
     849A      4.326134   850A      4.328384   851A      4.332615  
     852A      4.340669   853A      4.352031   854A      4.368200  
     855A      4.369605   856A      4.377654   857A      4.387706  
     858A      4.394438   859A      4.402189   860A      4.420456  
     861A      4.420925   862A      4.424705   863A      4.436134  
     864A      4.437586   865A      4.445564   866A      4.456283  
     867A      4.464573   868A      4.476560   869A      4.484533  
     870A      4.497036   871A      4.499578   872A      4.506891  
     873A      4.515553   874A      4.529939   875A      4.536804  
     876A      4.543741   877A      4.548766   878A      4.562219  
     879A      4.570242   880A      4.574395   881A      4.606479  
     882A      4.621778   883A      4.628573   884A      4.635823  
     885A      4.643347   886A      4.649931   887A      4.651562  
     888A      4.658552   889A      4.665332   890A      4.666989  
     891A      4.693174   892A      4.703144   893A      4.716108  
     894A      4.724468   895A      4.727080   896A      4.738074  
     897A      4.748807   898A      4.756653   899A      4.763893  
     900A      4.777076   901A      4.781404   902A      4.791985  
     903A      4.797288   904A      4.802416   905A      4.814850  
     906A      4.822429   907A      4.824203   908A      4.836467  
     909A      4.866184   910A      4.876168   911A      4.881294  
     912A      4.892090   913A      4.902189   914A      4.906639  
     915A      4.911343   916A      4.916869   917A      4.927983  
     918A      4.931381   919A      4.960500   920A      4.963532  
     921A      4.974235   922A      5.000765   923A      5.019894  
     924A      5.022623   925A      5.034171   926A      5.046258  
     927A      5.051871   928A      5.060461   929A      5.072454  
     930A      5.084558   931A      5.099198   932A      5.102331  
     933A      5.108592   934A      5.130450   935A      5.138608  
     936A      5.145312   937A      5.151972   938A      5.153205  
     939A      5.163861   940A      5.176036   941A      5.179774  
     942A      5.191542   943A      5.209672   944A      5.223063  
     945A      5.225208   946A      5.256806   947A      5.270875  
     948A      5.287299   949A      5.293264   950A      5.306002  
     951A      5.319000   952A      5.322768   953A      5.332551  
     954A      5.353046   955A      5.373869   956A      5.380557  
     957A      5.382832   958A      5.385531   959A      5.422427  
     960A      5.428772   961A      5.433907   962A      5.442561  
     963A      5.459159   964A      5.468073   965A      5.471673  
     966A      5.483852   967A      5.497399   968A      5.521731  
     969A      5.529488   970A      5.533269   971A      5.534604  
     972A      5.543201   973A      5.550939   974A      5.557484  
     975A      5.561576   976A      5.582047   977A      5.585957  
     978A      5.594578   979A      5.596570   980A      5.608107  
     981A      5.610666   982A      5.625686   983A      5.630203  
     984A      5.640226   985A      5.647933   986A      5.668324  
     987A      5.668911   988A      5.692210   989A      5.694928  
     990A      5.701299   991A      5.703188   992A      5.718794  
     993A      5.723316   994A      5.728042   995A      5.743176  
     996A      5.755631   997A      5.763303   998A      5.779188  
     999A      5.787981  1000A      5.798804  1001A      5.810921  
    1002A      5.827020  1003A      5.829321  1004A      5.843534  
    1005A      5.854801  1006A      5.879672  1007A      5.897759  
    1008A      5.904185  1009A      5.910153  1010A      5.928772  
    1011A      5.936968  1012A      5.940072  1013A      5.944215  
    1014A      5.949157  1015A      5.973511  1016A      5.987676  
    1017A      5.991608  1018A      5.996185  1019A      6.003868  
    1020A      6.030969  1021A      6.057866  1022A      6.077505  
    1023A      6.088978  1024A      6.097130  1025A      6.104946  
    1026A      6.116366  1027A      6.128489  1028A      6.145125  
    1029A      6.147016  1030A      6.156001  1031A      6.159400  
    1032A      6.166538  1033A      6.192254  1034A      6.196633  
    1035A      6.225014  1036A      6.228034  1037A      6.268407  
    1038A      6.271616  1039A      6.282485  1040A      6.301332  
    1041A      6.336768  1042A      6.381863  1043A      6.387997  
    1044A      6.458197  1045A      6.485251  1046A      6.497415  
    1047A      6.531961  1048A      6.548132  1049A      6.577223  
    1050A      6.595616  1051A      6.614079  1052A      6.642409  
    1053A      6.660973  1054A      6.668589  1055A      6.696277  
    1056A      6.721786  1057A      6.725571  1058A      6.726441  
    1059A      6.733853  1060A      6.748080  1061A      6.763821  
    1062A      6.779538  1063A      6.797973  1064A      6.802479  
    1065A      6.810604  1066A      6.818702  1067A      6.826426  
    1068A      6.867635  1069A      6.874348  1070A      6.894417  
    1071A      6.931347  1072A      6.979825  1073A      6.988323  
    1074A      7.000226  1075A      7.026187  1076A      7.038793  
    1077A      7.049724  1078A      7.085784  1079A      7.087641  
    1080A      7.106276  1081A      7.158131  1082A      7.214025  
    1083A      7.246752  1084A      7.255809  1085A      7.291732  
    1086A      7.335327  1087A      7.387134  1088A      7.391669  
    1089A      7.404783  1090A      7.437512  1091A      7.451612  
    1092A      7.460985  1093A      7.473054  1094A      7.594729  
    1095A      7.634080  1096A      7.656677  1097A      7.680119  
    1098A      7.711362  1099A      7.755295  1100A      7.826013  
    1101A      7.848538  1102A      7.865610  1103A      7.871418  
    1104A      7.928964  1105A      7.987396  1106A      8.024347  
    1107A      8.037721  1108A      8.079073  1109A     15.769701  
    1110A     15.949852  1111A     16.032742  1112A     16.174262  
    1113A     16.258365  1114A     16.339468  1115A     16.627576  
    1116A     17.749232  1117A     17.990589  1118A     18.045534  
    1119A     18.924342  1120A     19.045731  1121A     19.202586  
    1122A     19.398285  1123A     19.934379  1124A     20.033769  
    1125A     20.347231  1126A     20.641167  1127A     20.919974  

    Final Occupation by Irrep:
              A 
    DOCC [    68 ]

  @DF-RHF Final Energy:  -916.35163786912221

   => Energetics <=

    Nuclear Repulsion Energy =           1298.3179308985604621
    One-Electron Energy =               -3828.3236348733730665
    Two-Electron Energy =                1613.6540661056903900
    Total Energy =                       -916.3516378691222144

Computation Completed


Properties will be evaluated at   0.000000,   0.000000,   0.000000 [a0]

Properties computed using the SCF density matrix

  Nuclear Dipole Moment: [e a0]
     X:    11.1227      Y:    -5.5592      Z:     1.9532

  Electronic Dipole Moment: [e a0]
     X:    -9.7897      Y:     4.8326      Z:    -1.9149

  Dipole Moment: [e a0]
     X:     1.3330      Y:    -0.7266      Z:     0.0384     Total:     1.5187

  Dipole Moment: [D]
     X:     3.3883      Y:    -1.8469      Z:     0.0975     Total:     3.8602


*** tstop() called on node165.bme.utexas.edu at Wed Jan 24 14:02:32 2024
Module time:
	user time   =     819.94 seconds =      13.67 minutes
	system time =      43.74 seconds =       0.73 minutes
	total time  =        124 seconds =       2.07 minutes
Total time:
	user time   =     819.94 seconds =      13.67 minutes
	system time =      43.74 seconds =       0.73 minutes
	total time  =        124 seconds =       2.07 minutes

*** tstart() called on node165.bme.utexas.edu
*** at Wed Jan 24 14:02:32 2024


  //>>>>>>>>>>>>>>>>>>>>>>>>>>>>>>>>>>>//
  //               DFMP2               //
  //<<<<<<<<<<<<<<<<<<<<<<<<<<<<<<<<<<<//

   => Loading Basis Set <=

    Name: (AUG-CC-PVTZ AUX)
    Role: RIFIT
    Keyword: DF_BASIS_MP2
    atoms 1, 3, 7, 9, 11, 16, 18   entry N          line   206 file /opt/anaconda/envs/psi4v1.5/share/psi4/basis/aug-cc-pvtz-ri.gbs 
    atoms 2, 4-6, 8, 17, 19-21, 26 entry C          line   148 file /opt/anaconda/envs/psi4v1.5/share/psi4/basis/aug-cc-pvtz-ri.gbs 
    atoms 10, 12-15, 22, 24, 27-30 entry H          line    30 file /opt/anaconda/envs/psi4v1.5/share/psi4/basis/aug-cc-pvtz-ri.gbs 
    atoms 23, 25                   entry O          line   264 file /opt/anaconda/envs/psi4v1.5/share/psi4/basis/aug-cc-pvtz-ri.gbs 

	 --------------------------------------------------------
	                          DF-MP2                         
	      2nd-Order Density-Fitted Moller-Plesset Theory     
	              RMP2 Wavefunction,   8 Threads             
	                                                         
	        Rob Parrish, Justin Turney, Andy Simmonett,      
	           Ed Hohenstein, and C. David Sherrill          
	 --------------------------------------------------------

   => Auxiliary Basis Set <=

  Basis Set: (AUG-CC-PVTZ AUX)
    Blend: AUG-CC-PVTZ-RI
    Number of shells: 686
    Number of basis functions: 2520
    Number of Cartesian functions: 3189
    Spherical Harmonics?: true
    Max angular momentum: 4

	 --------------------------------------------------------
	                 NBF =  1127, NAUX =  2520
	 --------------------------------------------------------
	   CLASS    FOCC     OCC    AOCC    AVIR     VIR    FVIR
	   PAIRS      19      68      49    1059    1059       0
	 --------------------------------------------------------

	 Will save fitting metric to file 97.

	-----------------------------------------------------------
	 ==================> DF-MP2 Energies <==================== 
	-----------------------------------------------------------
	 Reference Energy          =    -916.3516378691222144 [Eh]
	 Singles Energy            =      -0.0000000000000000 [Eh]
	 Same-Spin Energy          =      -0.9131479765438046 [Eh]
	 Opposite-Spin Energy      =      -2.5753927392033535 [Eh]
	 Correlation Energy        =      -3.4885407157471580 [Eh]
	 Total Energy              =    -919.8401785848693635 [Eh]
	-----------------------------------------------------------
	 ================> DF-SCS-MP2 Energies <================== 
	-----------------------------------------------------------
	 SCS Same-Spin Scale       =       0.3333333333333333 [-]
	 SCS Opposite-Spin Scale   =       1.2000000000000000 [-]
	 SCS Same-Spin Energy      =      -0.3043826588479349 [Eh]
	 SCS Opposite-Spin Energy  =      -3.0904712870440241 [Eh]
	 SCS Correlation Energy    =      -3.3948539458919589 [Eh]
	 SCS Total Energy          =    -919.7464918150142239 [Eh]
	-----------------------------------------------------------


*** tstop() called on node165.bme.utexas.edu at Wed Jan 24 14:03:15 2024
Module time:
	user time   =     215.02 seconds =       3.58 minutes
	system time =      12.02 seconds =       0.20 minutes
	total time  =         43 seconds =       0.72 minutes
Total time:
	user time   =    1034.97 seconds =      17.25 minutes
	system time =      55.76 seconds =       0.93 minutes
	total time  =        167 seconds =       2.78 minutes

  //>>>>>>>>>>>>>>>>>>>>>>>>>>>>>>>>>>>//
  //            Monomer A HF           //
  //<<<<<<<<<<<<<<<<<<<<<<<<<<<<<<<<<<<//


*** tstart() called on node165.bme.utexas.edu
*** at Wed Jan 24 14:03:15 2024

   => Loading Basis Set <=

    Name: AUG-CC-PVTZ
    Role: ORBITAL
    Keyword: BASIS
    atoms 1, 3, 7, 9, 11, 16, 18   entry N          line   285 file /opt/anaconda/envs/psi4v1.5/share/psi4/basis/aug-cc-pvtz.gbs 
    atoms 2, 4-6, 8, 17, 19-21, 26 entry C          line   239 file /opt/anaconda/envs/psi4v1.5/share/psi4/basis/aug-cc-pvtz.gbs 
    atoms 10, 12-15, 22, 24, 27-30 entry H          line    40 file /opt/anaconda/envs/psi4v1.5/share/psi4/basis/aug-cc-pvtz.gbs 
    atoms 23, 25                   entry O          line   331 file /opt/anaconda/envs/psi4v1.5/share/psi4/basis/aug-cc-pvtz.gbs 


         ---------------------------------------------------------
                                   SCF
               by Justin Turney, Rob Parrish, Andy Simmonett
                          and Daniel G. A. Smith
                              RHF Reference
                        8 Threads,  66757 MiB Core
         ---------------------------------------------------------

  ==> Geometry <==

    Molecular point group: c1
    Full point group: C1

    Geometry (in Angstrom), charge = 0, multiplicity = 1:

       Center              X                  Y                   Z               Mass       
    ------------   -----------------  -----------------  -----------------  -----------------
         N           -1.412125228744     0.610098704710    -1.567409675441    14.003074004430
         C           -2.681197228744     1.065470704710    -1.567452675441    12.000000000000
         N           -3.094726228744     2.333354704710    -1.567590675441    14.003074004430
         C           -2.056831228744     3.186451704710    -1.567654675441    12.000000000000
         C           -0.695388228744     2.861343704710    -1.567580675441    12.000000000000
         C           -0.378752228744     1.482704704710    -1.567457675441    12.000000000000
         N            0.095285771256     3.998481704710    -1.567668675441    14.003074004430
         C           -0.766855228744     4.988647704710    -1.567788675441    12.000000000000
         N           -2.082369228744     4.563418704710    -1.567788675441    14.003074004430
         H           -3.445074228744     0.286115704710    -1.567392675441     1.007825032230
         N            0.880413771256     1.012840704710    -1.567389675441    14.003074004430
         H            1.641597771256     1.674584704710    -1.567391675441     1.007825032230
         H            1.059885771256     0.003893704710    -1.567207675441     1.007825032230
         H           -0.511311228744     6.043588704710    -1.567882675441     1.007825032230
         H           -2.912832228744     5.138955704710    -1.567878675441     1.007825032230
      Gh(N)           0.727202771256    -4.361803295290     1.701748324559    14.003074004430
      Gh(C)          -0.229946228744    -3.350813295290     1.719074324559    12.000000000000
      Gh(N)           0.303791771256    -2.079532295290     1.699230324559    14.003074004430
      Gh(C)           1.651273771256    -1.746517295290     1.665116324559    12.000000000000
      Gh(C)           2.595737771256    -2.866056295290     1.648669324559    12.000000000000
      Gh(C)           2.083575771256    -4.121303295290     1.667946324559    12.000000000000
      Gh(H)           0.364740771256    -5.304899295290     1.715868324559     1.007825032230
      Gh(O)          -1.430285228744    -3.587402295290     1.749163324559    15.994914619570
      Gh(H)          -0.397987228744    -1.289111295290     1.711670324559     1.007825032230
      Gh(O)           2.003977771256    -0.560748295290     1.650102324559    15.994914619570
      Gh(C)           4.066142771256    -2.567373295290     1.611329324559    12.000000000000
      Gh(H)           4.652658771256    -3.496325295290     1.609275324559     1.007825032230
      Gh(H)           4.319273771256    -1.980717295290     0.715637324559     1.007825032230
      Gh(H)           4.359227771256    -1.958955295290     2.479823324559     1.007825032230
      Gh(H)           2.717292771256    -5.007092295290     1.657841324559     1.007825032230

  Running in c1 symmetry.

  Rotational constants: A =      0.02475  B =      0.00488  C =      0.00428 [cm^-1]
  Rotational constants: A =    741.89744  B =    146.19521  C =    128.23332 [MHz]
  Nuclear repulsion =  501.306590497387333

  Charge       = 0
  Multiplicity = 1
  Electrons    = 70
  Nalpha       = 35
  Nbeta        = 35

  ==> Algorithm <==

  SCF Algorithm Type is DF.
  DIIS enabled.
  MOM disabled.
  Fractional occupation disabled.
  Guess Type is SAD.
  Energy threshold   = 1.00e-08
  Density threshold  = 1.00e-08
  Integral threshold = 1.00e-12

  ==> Primary Basis <==

  Basis Set: AUG-CC-PVTZ
    Blend: AUG-CC-PVTZ
    Number of shells: 365
    Number of basis functions: 1127
    Number of Cartesian functions: 1320
    Spherical Harmonics?: true
    Max angular momentum: 3

   => Loading Basis Set <=

    Name: (AUG-CC-PVTZ AUX)
    Role: JKFIT
    Keyword: DF_BASIS_SCF
    atoms 1, 3, 7, 9, 11, 16, 18   entry N          line   224 file /opt/anaconda/envs/psi4v1.5/share/psi4/basis/aug-cc-pvtz-jkfit.gbs 
    atoms 2, 4-6, 8, 17, 19-21, 26 entry C          line   162 file /opt/anaconda/envs/psi4v1.5/share/psi4/basis/aug-cc-pvtz-jkfit.gbs 
    atoms 10, 12-15, 22, 24, 27-30 entry H          line    70 file /opt/anaconda/envs/psi4v1.5/share/psi4/basis/aug-cc-pvtz-jkfit.gbs 
    atoms 23, 25                   entry O          line   286 file /opt/anaconda/envs/psi4v1.5/share/psi4/basis/aug-cc-pvtz-jkfit.gbs 

  ==> Integral Setup <==

  ==> DiskDFJK: Density-Fitted J/K Matrices <==

    J tasked:                  Yes
    K tasked:                  Yes
    wK tasked:                  No
    OpenMP threads:              8
    Integrals threads:           8
    Memory [MiB]:            50067
    Algorithm:                Core
    Integral Cache:           LOAD
    Schwarz Cutoff:          1E-12
    Fitting Condition:       1E-10

   => Auxiliary Basis Set <=

  Basis Set: (AUG-CC-PVTZ AUX)
    Blend: AUG-CC-PVTZ-JKFIT
    Number of shells: 724
    Number of basis functions: 2482
    Number of Cartesian functions: 3094
    Spherical Harmonics?: true
    Max angular momentum: 4

  Minimum eigenvalue in the overlap matrix is 1.2190608234E-06.
  Reciprocal condition number of the overlap matrix is 6.9038808467E-08.
    Using symmetric orthogonalization.

  ==> Pre-Iterations <==

  SCF Guess: Superposition of Atomic Densities via on-the-fly atomic UHF (no occupation information).

   -------------------------
    Irrep   Nso     Nmo    
   -------------------------
     A       1127    1127 
   -------------------------
    Total    1127    1127
   -------------------------

  ==> Iterations <==

                           Total Energy        Delta E     RMS |[F,P]|

   @DF-RHF iter SAD:  -464.44377846565135   -4.64444e+02   0.00000e+00 
   @DF-RHF iter   1:  -464.44331382120254    4.64644e-04   5.94885e-04 DIIS
   @DF-RHF iter   2:  -464.63438510039339   -1.91071e-01   2.92093e-04 DIIS
   @DF-RHF iter   3:  -464.67787649366204   -4.34914e-02   6.56900e-05 DIIS
   @DF-RHF iter   4:  -464.68108316842728   -3.20667e-03   3.07835e-05 DIIS
   @DF-RHF iter   5:  -464.68170693474775   -6.23766e-04   6.22842e-06 DIIS
   @DF-RHF iter   6:  -464.68176227739633   -5.53426e-05   3.01197e-06 DIIS
   @DF-RHF iter   7:  -464.68177706231597   -1.47849e-05   1.24023e-06 DIIS
   @DF-RHF iter   8:  -464.68178049543565   -3.43312e-06   4.55973e-07 DIIS
   @DF-RHF iter   9:  -464.68178100360007   -5.08164e-07   2.40427e-07 DIIS
   @DF-RHF iter  10:  -464.68178112909766   -1.25498e-07   9.07182e-08 DIIS
   @DF-RHF iter  11:  -464.68178115507675   -2.59791e-08   3.69227e-08 DIIS
   @DF-RHF iter  12:  -464.68178115859348   -3.51673e-09   1.49023e-08 DIIS
   @DF-RHF iter  13:  -464.68178115908853   -4.95049e-10   4.85192e-09 DIIS
  Energy and wave function converged.


  ==> Post-Iterations <==

    Orbital Energies [Eh]
    ---------------------

    Doubly Occupied:                                                      

       1A    -15.631616     2A    -15.589979     3A    -15.570528  
       4A    -15.556401     5A    -15.548224     6A    -11.340711  
       7A    -11.325355     8A    -11.318344     9A    -11.311026  
      10A    -11.253726    11A     -1.364188    12A     -1.295704  
      13A     -1.246888    14A     -1.186046    15A     -1.147035  
      16A     -1.032203    17A     -0.893719    18A     -0.873592  
      19A     -0.842877    20A     -0.778119    21A     -0.739820  
      22A     -0.697373    23A     -0.675792    24A     -0.635955  
      25A     -0.635481    26A     -0.612359    27A     -0.592058  
      28A     -0.557324    29A     -0.498220    30A     -0.494393  
      31A     -0.448044    32A     -0.425081    33A     -0.406349  
      34A     -0.369803    35A     -0.308831  

    Virtual:                                                              

      36A      0.017525    37A      0.022094    38A      0.030215  
      39A      0.036159    40A      0.037531    41A      0.039044  
      42A      0.048317    43A      0.053646    44A      0.054692  
      45A      0.057599    46A      0.064425    47A      0.068615  
      48A      0.074952    49A      0.076320    50A      0.080487  
      51A      0.084567    52A      0.089315    53A      0.092445  
      54A      0.098044    55A      0.098889    56A      0.101318  
      57A      0.104748    58A      0.107846    59A      0.109793  
      60A      0.110252    61A      0.115012    62A      0.119270  
      63A      0.120295    64A      0.125527    65A      0.126671  
      66A      0.130113    67A      0.132048    68A      0.132999  
      69A      0.137170    70A      0.139480    71A      0.141046  
      72A      0.144071    73A      0.146549    74A      0.148390  
      75A      0.151740    76A      0.161752    77A      0.163534  
      78A      0.165908    79A      0.168991    80A      0.170637  
      81A      0.175157    82A      0.178028    83A      0.183326  
      84A      0.184756    85A      0.188047    86A      0.191967  
      87A      0.195771    88A      0.196978    89A      0.198711  
      90A      0.203451    91A      0.204825    92A      0.209343  
      93A      0.212169    94A      0.215285    95A      0.217662  
      96A      0.222815    97A      0.224853    98A      0.228974  
      99A      0.231364   100A      0.235479   101A      0.236177  
     102A      0.238008   103A      0.241590   104A      0.244081  
     105A      0.250012   106A      0.251766   107A      0.258685  
     108A      0.261160   109A      0.262700   110A      0.264666  
     111A      0.267029   112A      0.270696   113A      0.273575  
     114A      0.276619   115A      0.279697   116A      0.285136  
     117A      0.290013   118A      0.291601   119A      0.296960  
     120A      0.299065   121A      0.303744   122A      0.308130  
     123A      0.309807   124A      0.315124   125A      0.318061  
     126A      0.320256   127A      0.323227   128A      0.329437  
     129A      0.334892   130A      0.336048   131A      0.339852  
     132A      0.342003   133A      0.345243   134A      0.349463  
     135A      0.351975   136A      0.353294   137A      0.356279  
     138A      0.357035   139A      0.365122   140A      0.366902  
     141A      0.368803   142A      0.371399   143A      0.380841  
     144A      0.383631   145A      0.384624   146A      0.389027  
     147A      0.391972   148A      0.393668   149A      0.396254  
     150A      0.402544   151A      0.406319   152A      0.407368  
     153A      0.411685   154A      0.415698   155A      0.417094  
     156A      0.420439   157A      0.426109   158A      0.428465  
     159A      0.429748   160A      0.430989   161A      0.434441  
     162A      0.435529   163A      0.437190   164A      0.442540  
     165A      0.444971   166A      0.448623   167A      0.450360  
     168A      0.453288   169A      0.457365   170A      0.458498  
     171A      0.460727   172A      0.467850   173A      0.470068  
     174A      0.474358   175A      0.475841   176A      0.481104  
     177A      0.481983   178A      0.486447   179A      0.490708  
     180A      0.493612   181A      0.495257   182A      0.499077  
     183A      0.500389   184A      0.503980   185A      0.506195  
     186A      0.508469   187A      0.514155   188A      0.515991  
     189A      0.518200   190A      0.523897   191A      0.526694  
     192A      0.529270   193A      0.532985   194A      0.534530  
     195A      0.536163   196A      0.541900   197A      0.543926  
     198A      0.546073   199A      0.548677   200A      0.554249  
     201A      0.557838   202A      0.558437   203A      0.564828  
     204A      0.572410   205A      0.577389   206A      0.579515  
     207A      0.583200   208A      0.587137   209A      0.589326  
     210A      0.592399   211A      0.603000   212A      0.606635  
     213A      0.611258   214A      0.615548   215A      0.616707  
     216A      0.623146   217A      0.623892   218A      0.628084  
     219A      0.637635   220A      0.638543   221A      0.641809  
     222A      0.643612   223A      0.650884   224A      0.653675  
     225A      0.657464   226A      0.661301   227A      0.665935  
     228A      0.667707   229A      0.669484   230A      0.675223  
     231A      0.678268   232A      0.681354   233A      0.684976  
     234A      0.687785   235A      0.692848   236A      0.696559  
     237A      0.701941   238A      0.706000   239A      0.711897  
     240A      0.715638   241A      0.724247   242A      0.726693  
     243A      0.733323   244A      0.735442   245A      0.740155  
     246A      0.748132   247A      0.749169   248A      0.754219  
     249A      0.761484   250A      0.762528   251A      0.764516  
     252A      0.768122   253A      0.772873   254A      0.775549  
     255A      0.778669   256A      0.783421   257A      0.789284  
     258A      0.797157   259A      0.798080   260A      0.800254  
     261A      0.805090   262A      0.810947   263A      0.814329  
     264A      0.817211   265A      0.822265   266A      0.828107  
     267A      0.828906   268A      0.831068   269A      0.834935  
     270A      0.835779   271A      0.845156   272A      0.849073  
     273A      0.851275   274A      0.856378   275A      0.863004  
     276A      0.863544   277A      0.872323   278A      0.874878  
     279A      0.877305   280A      0.880727   281A      0.888682  
     282A      0.895892   283A      0.896468   284A      0.904033  
     285A      0.906581   286A      0.909072   287A      0.911558  
     288A      0.914844   289A      0.923158   290A      0.925545  
     291A      0.928647   292A      0.936845   293A      0.939973  
     294A      0.942925   295A      0.946262   296A      0.948632  
     297A      0.950772   298A      0.955403   299A      0.960465  
     300A      0.963025   301A      0.966959   302A      0.970989  
     303A      0.972783   304A      0.977134   305A      0.981149  
     306A      0.986036   307A      0.988473   308A      0.989918  
     309A      0.992403   310A      0.995241   311A      1.000681  
     312A      1.001374   313A      1.003111   314A      1.010343  
     315A      1.017745   316A      1.021859   317A      1.022364  
     318A      1.028592   319A      1.029574   320A      1.033781  
     321A      1.036419   322A      1.039635   323A      1.043885  
     324A      1.049006   325A      1.051307   326A      1.060464  
     327A      1.061766   328A      1.063838   329A      1.067895  
     330A      1.071442   331A      1.077709   332A      1.084076  
     333A      1.087667   334A      1.093178   335A      1.095280  
     336A      1.097845   337A      1.104109   338A      1.108118  
     339A      1.110525   340A      1.114365   341A      1.116299  
     342A      1.119854   343A      1.121160   344A      1.123482  
     345A      1.129165   346A      1.135160   347A      1.141302  
     348A      1.144061   349A      1.148784   350A      1.150286  
     351A      1.152915   352A      1.157503   353A      1.161278  
     354A      1.162436   355A      1.169794   356A      1.174851  
     357A      1.179043   358A      1.186848   359A      1.187825  
     360A      1.192049   361A      1.202869   362A      1.203851  
     363A      1.212892   364A      1.216378   365A      1.222223  
     366A      1.225190   367A      1.229632   368A      1.232488  
     369A      1.236069   370A      1.238468   371A      1.243854  
     372A      1.245644   373A      1.251881   374A      1.253171  
     375A      1.258019   376A      1.262530   377A      1.265002  
     378A      1.273529   379A      1.275196   380A      1.281861  
     381A      1.284953   382A      1.289534   383A      1.293224  
     384A      1.298939   385A      1.302046   386A      1.304286  
     387A      1.308692   388A      1.315965   389A      1.319177  
     390A      1.324685   391A      1.330146   392A      1.336749  
     393A      1.338559   394A      1.339225   395A      1.339944  
     396A      1.349546   397A      1.354115   398A      1.355774  
     399A      1.361393   400A      1.363710   401A      1.372672  
     402A      1.377301   403A      1.382737   404A      1.388950  
     405A      1.391646   406A      1.395915   407A      1.397577  
     408A      1.403532   409A      1.409965   410A      1.415029  
     411A      1.416982   412A      1.423296   413A      1.423581  
     414A      1.427898   415A      1.432577   416A      1.438739  
     417A      1.445982   418A      1.448967   419A      1.450527  
     420A      1.457536   421A      1.462511   422A      1.466889  
     423A      1.472508   424A      1.478893   425A      1.482201  
     426A      1.489865   427A      1.500797   428A      1.504466  
     429A      1.508169   430A      1.512063   431A      1.515532  
     432A      1.519740   433A      1.525880   434A      1.529681  
     435A      1.537656   436A      1.543307   437A      1.544951  
     438A      1.551258   439A      1.557474   440A      1.559563  
     441A      1.567313   442A      1.575295   443A      1.579488  
     444A      1.583267   445A      1.587066   446A      1.592845  
     447A      1.603041   448A      1.605699   449A      1.610668  
     450A      1.616405   451A      1.624520   452A      1.631971  
     453A      1.636102   454A      1.638809   455A      1.647694  
     456A      1.652712   457A      1.663848   458A      1.665406  
     459A      1.674647   460A      1.679310   461A      1.681510  
     462A      1.691608   463A      1.694544   464A      1.696498  
     465A      1.702811   466A      1.716009   467A      1.719609  
     468A      1.724528   469A      1.727844   470A      1.730899  
     471A      1.735036   472A      1.737542   473A      1.743323  
     474A      1.758087   475A      1.759833   476A      1.767865  
     477A      1.772682   478A      1.779689   479A      1.784765  
     480A      1.786199   481A      1.787654   482A      1.792746  
     483A      1.801126   484A      1.805245   485A      1.806579  
     486A      1.814190   487A      1.823339   488A      1.828552  
     489A      1.836112   490A      1.843566   491A      1.846448  
     492A      1.849713   493A      1.861885   494A      1.866571  
     495A      1.868794   496A      1.876199   497A      1.882041  
     498A      1.895077   499A      1.897331   500A      1.904567  
     501A      1.910272   502A      1.912774   503A      1.918208  
     504A      1.923084   505A      1.929340   506A      1.937973  
     507A      1.941803   508A      1.949764   509A      1.951905  
     510A      1.955544   511A      1.962005   512A      1.970897  
     513A      1.975539   514A      1.982841   515A      1.987341  
     516A      1.996665   517A      2.001559   518A      2.009628  
     519A      2.015401   520A      2.018955   521A      2.031499  
     522A      2.034297   523A      2.039164   524A      2.044651  
     525A      2.055512   526A      2.063501   527A      2.070424  
     528A      2.079867   529A      2.083248   530A      2.084803  
     531A      2.089271   532A      2.092489   533A      2.097124  
     534A      2.103515   535A      2.113983   536A      2.116570  
     537A      2.129570   538A      2.135498   539A      2.140490  
     540A      2.156767   541A      2.161356   542A      2.169490  
     543A      2.174620   544A      2.183915   545A      2.186300  
     546A      2.187511   547A      2.189039   548A      2.205175  
     549A      2.214564   550A      2.218633   551A      2.224482  
     552A      2.238396   553A      2.245794   554A      2.246721  
     555A      2.250495   556A      2.261979   557A      2.267014  
     558A      2.275053   559A      2.277857   560A      2.284353  
     561A      2.292809   562A      2.300190   563A      2.301010  
     564A      2.309465   565A      2.313326   566A      2.320297  
     567A      2.329529   568A      2.332159   569A      2.344119  
     570A      2.351877   571A      2.354642   572A      2.361022  
     573A      2.371684   574A      2.374243   575A      2.380636  
     576A      2.387300   577A      2.394208   578A      2.400805  
     579A      2.402905   580A      2.407030   581A      2.408305  
     582A      2.422124   583A      2.426638   584A      2.427663  
     585A      2.438330   586A      2.440464   587A      2.445599  
     588A      2.456209   589A      2.461659   590A      2.465547  
     591A      2.477607   592A      2.483828   593A      2.493716  
     594A      2.495163   595A      2.506854   596A      2.510463  
     597A      2.526516   598A      2.547546   599A      2.553004  
     600A      2.555931   601A      2.564731   602A      2.567409  
     603A      2.570157   604A      2.580002   605A      2.585502  
     606A      2.588703   607A      2.599867   608A      2.602061  
     609A      2.609865   610A      2.614882   611A      2.624927  
     612A      2.636692   613A      2.640002   614A      2.644506  
     615A      2.653830   616A      2.662248   617A      2.663602  
     618A      2.671424   619A      2.676572   620A      2.682645  
     621A      2.692778   622A      2.694537   623A      2.705199  
     624A      2.711117   625A      2.718049   626A      2.723550  
     627A      2.726945   628A      2.742618   629A      2.744412  
     630A      2.747890   631A      2.749639   632A      2.756428  
     633A      2.764657   634A      2.778469   635A      2.783673  
     636A      2.798242   637A      2.808609   638A      2.819313  
     639A      2.827535   640A      2.833137   641A      2.839653  
     642A      2.855010   643A      2.857082   644A      2.858013  
     645A      2.867969   646A      2.874207   647A      2.877335  
     648A      2.881901   649A      2.891701   650A      2.893186  
     651A      2.918180   652A      2.929011   653A      2.934611  
     654A      2.942273   655A      2.946043   656A      2.965684  
     657A      2.980682   658A      2.982964   659A      3.000176  
     660A      3.022790   661A      3.030278   662A      3.037575  
     663A      3.046428   664A      3.047820   665A      3.065557  
     666A      3.075154   667A      3.086681   668A      3.109894  
     669A      3.113361   670A      3.118198   671A      3.129875  
     672A      3.138761   673A      3.165383   674A      3.172685  
     675A      3.182156   676A      3.188570   677A      3.208077  
     678A      3.210139   679A      3.217237   680A      3.226068  
     681A      3.240021   682A      3.246616   683A      3.268008  
     684A      3.277837   685A      3.282828   686A      3.306007  
     687A      3.316201   688A      3.333039   689A      3.349920  
     690A      3.360366   691A      3.366114   692A      3.380416  
     693A      3.406162   694A      3.418466   695A      3.427854  
     696A      3.433368   697A      3.441014   698A      3.456812  
     699A      3.465625   700A      3.468865   701A      3.505487  
     702A      3.511484   703A      3.518028   704A      3.532969  
     705A      3.542894   706A      3.548919   707A      3.556805  
     708A      3.571626   709A      3.576439   710A      3.604775  
     711A      3.611448   712A      3.627719   713A      3.633250  
     714A      3.641197   715A      3.658650   716A      3.670998  
     717A      3.687608   718A      3.696033   719A      3.702780  
     720A      3.707327   721A      3.709114   722A      3.716968  
     723A      3.731676   724A      3.735445   725A      3.742280  
     726A      3.753295   727A      3.765201   728A      3.777086  
     729A      3.789386   730A      3.795327   731A      3.800537  
     732A      3.814762   733A      3.824872   734A      3.842721  
     735A      3.853855   736A      3.874758   737A      3.886083  
     738A      3.898785   739A      3.908203   740A      3.909239  
     741A      3.922840   742A      3.944352   743A      3.951354  
     744A      3.958156   745A      3.962767   746A      3.981283  
     747A      3.986641   748A      4.004000   749A      4.014740  
     750A      4.033274   751A      4.038052   752A      4.043254  
     753A      4.057033   754A      4.067052   755A      4.075810  
     756A      4.079884   757A      4.086879   758A      4.088404  
     759A      4.112464   760A      4.115430   761A      4.119143  
     762A      4.129199   763A      4.140093   764A      4.157709  
     765A      4.160151   766A      4.162997   767A      4.176659  
     768A      4.184624   769A      4.187641   770A      4.195968  
     771A      4.203768   772A      4.207249   773A      4.216579  
     774A      4.222821   775A      4.230476   776A      4.237238  
     777A      4.243803   778A      4.246502   779A      4.255620  
     780A      4.262548   781A      4.264387   782A      4.273045  
     783A      4.285029   784A      4.291200   785A      4.300063  
     786A      4.306501   787A      4.318197   788A      4.320257  
     789A      4.327282   790A      4.336825   791A      4.339451  
     792A      4.346532   793A      4.358194   794A      4.363784  
     795A      4.379710   796A      4.381293   797A      4.388545  
     798A      4.392279   799A      4.413247   800A      4.415772  
     801A      4.423543   802A      4.435714   803A      4.442667  
     804A      4.467062   805A      4.469619   806A      4.477137  
     807A      4.493407   808A      4.497035   809A      4.513073  
     810A      4.520460   811A      4.527256   812A      4.530469  
     813A      4.536796   814A      4.549129   815A      4.552162  
     816A      4.556843   817A      4.567347   818A      4.577308  
     819A      4.595213   820A      4.601476   821A      4.616510  
     822A      4.627037   823A      4.635416   824A      4.643441  
     825A      4.644355   826A      4.649195   827A      4.652625  
     828A      4.662575   829A      4.675354   830A      4.701766  
     831A      4.706006   832A      4.709267   833A      4.720261  
     834A      4.723053   835A      4.726587   836A      4.774061  
     837A      4.785619   838A      4.793469   839A      4.797141  
     840A      4.806816   841A      4.813335   842A      4.816761  
     843A      4.827773   844A      4.829833   845A      4.848055  
     846A      4.859226   847A      4.861963   848A      4.869388  
     849A      4.873770   850A      4.876708   851A      4.889312  
     852A      4.896008   853A      4.909674   854A      4.914016  
     855A      4.921772   856A      4.939488   857A      4.954116  
     858A      4.956097   859A      4.966882   860A      4.973548  
     861A      4.979864   862A      5.014850   863A      5.028747  
     864A      5.037868   865A      5.040067   866A      5.045420  
     867A      5.048550   868A      5.065905   869A      5.070049  
     870A      5.077005   871A      5.092045   872A      5.097105  
     873A      5.102149   874A      5.107325   875A      5.131940  
     876A      5.134848   877A      5.139058   878A      5.156381  
     879A      5.160545   880A      5.171409   881A      5.191911  
     882A      5.208204   883A      5.212834   884A      5.219469  
     885A      5.219767   886A      5.248381   887A      5.252594  
     888A      5.258564   889A      5.267706   890A      5.283236  
     891A      5.286852   892A      5.302303   893A      5.311391  
     894A      5.314984   895A      5.336100   896A      5.343754  
     897A      5.351142   898A      5.364213   899A      5.370467  
     900A      5.377624   901A      5.379538   902A      5.388790  
     903A      5.416250   904A      5.423172   905A      5.427642  
     906A      5.432042   907A      5.440726   908A      5.466275  
     909A      5.471138   910A      5.479665   911A      5.490130  
     912A      5.518374   913A      5.521555   914A      5.529187  
     915A      5.532526   916A      5.534569   917A      5.546286  
     918A      5.556303   919A      5.561559   920A      5.575981  
     921A      5.581147   922A      5.587079   923A      5.595561  
     924A      5.601501   925A      5.604231   926A      5.614909  
     927A      5.621055   928A      5.630334   929A      5.635765  
     930A      5.639357   931A      5.662839   932A      5.664044  
     933A      5.686520   934A      5.688807   935A      5.696186  
     936A      5.697896   937A      5.701229   938A      5.713210  
     939A      5.717138   940A      5.757894   941A      5.772382  
     942A      5.789785   943A      5.795101   944A      5.804669  
     945A      5.819912   946A      5.822089   947A      5.829670  
     948A      5.839778   949A      5.861690   950A      5.892134  
     951A      5.901545   952A      5.927120   953A      5.932495  
     954A      5.935608   955A      5.944354   956A      5.962782  
     957A      5.966382   958A      5.980112   959A      5.984155  
     960A      5.998122   961A      6.006891   962A      6.024930  
     963A      6.057100   964A      6.080658   965A      6.088878  
     966A      6.091261   967A      6.137471   968A      6.139784  
     969A      6.143923   970A      6.154954   971A      6.170141  
     972A      6.178325   973A      6.186992   974A      6.213701  
     975A      6.221936   976A      6.239891   977A      6.245362  
     978A      6.265833   979A      6.277341   980A      6.279226  
     981A      6.287483   982A      6.329831   983A      6.342783  
     984A      6.380899   985A      6.412139   986A      6.447200  
     987A      6.450495   988A      6.455157   989A      6.473702  
     990A      6.483874   991A      6.526771   992A      6.542915  
     993A      6.553150   994A      6.586767   995A      6.591692  
     996A      6.602867   997A      6.609636   998A      6.646282  
     999A      6.656165  1000A      6.690280  1001A      6.692247  
    1002A      6.728523  1003A      6.740967  1004A      6.755167  
    1005A      6.760629  1006A      6.772559  1007A      6.794073  
    1008A      6.805240  1009A      6.812944  1010A      6.843938  
    1011A      6.859761  1012A      6.879751  1013A      6.889248  
    1014A      6.938292  1015A      6.966844  1016A      6.994222  
    1017A      7.020661  1018A      7.039262  1019A      7.041427  
    1020A      7.081999  1021A      7.099947  1022A      7.107969  
    1023A      7.147868  1024A      7.215253  1025A      7.240263  
    1026A      7.256279  1027A      7.286162  1028A      7.317025  
    1029A      7.367709  1030A      7.399728  1031A      7.448010  
    1032A      7.473519  1033A      7.534413  1034A      7.575226  
    1035A      7.576708  1036A      7.585118  1037A      7.588519  
    1038A      7.613548  1039A      7.631816  1040A      7.648447  
    1041A      7.656081  1042A      7.670196  1043A      7.699582  
    1044A      7.738745  1045A      7.757781  1046A      7.788051  
    1047A      7.801390  1048A      7.831939  1049A      7.838595  
    1050A      7.841987  1051A      7.844812  1052A      7.860453  
    1053A      7.884677  1054A      7.899354  1055A      7.941566  
    1056A      7.971071  1057A      8.006206  1058A      8.016478  
    1059A      8.130073  1060A      8.153957  1061A      8.188223  
    1062A      8.236073  1063A      8.259125  1064A      8.267875  
    1065A      8.369448  1066A      8.396268  1067A      8.558793  
    1068A      8.590456  1069A      8.702864  1070A      8.803788  
    1071A      8.876702  1072A      8.922990  1073A      9.002964  
    1074A      9.088784  1075A      9.197885  1076A      9.533810  
    1077A      9.549245  1078A      9.554101  1079A      9.579369  
    1080A      9.784743  1081A      9.893771  1082A      9.966240  
    1083A     10.001994  1084A     10.030804  1085A     10.152773  
    1086A     10.224700  1087A     10.244614  1088A     10.331517  
    1089A     10.451642  1090A     10.515287  1091A     10.527966  
    1092A     10.695259  1093A     10.921725  1094A     11.258783  
    1095A     11.366670  1096A     11.530110  1097A     12.011376  
    1098A     12.018410  1099A     12.049214  1100A     12.082225  
    1101A     12.170247  1102A     12.482523  1103A     12.710931  
    1104A     12.884084  1105A     13.332214  1106A     13.548073  
    1107A     14.165787  1108A     14.181038  1109A     16.028868  
    1110A     16.254159  1111A     16.334127  1112A     17.745876  
    1113A     18.039183  1114A     18.919362  1115A     19.196177  
    1116A     19.393830  1117A     19.951531  1118A     20.900758  
    1119A     51.539536  1120A     52.021085  1121A     53.317599  
    1122A     54.154396  1123A     57.378499  1124A     60.118793  
    1125A     61.144356  1126A     69.248049  1127A     69.625857  

    Final Occupation by Irrep:
              A 
    DOCC [    35 ]

  @DF-RHF Final Energy:  -464.68178115908853

   => Energetics <=

    Nuclear Repulsion Energy =            501.3065904973873330
    One-Electron Energy =               -1625.5704098740955033
    Two-Electron Energy =                 659.5820382176196972
    Total Energy =                       -464.6817811590884730

Computation Completed


Properties will be evaluated at   0.000000,   0.000000,   0.000000 [a0]

Properties computed using the SCF density matrix

  Nuclear Dipole Moment: [e a0]
     X:  -156.7273      Y:   344.4635      Z:  -207.3602

  Electronic Dipole Moment: [e a0]
     X:   157.0575      Y:  -343.5691      Z:   207.3601

  Dipole Moment: [e a0]
     X:     0.3301      Y:     0.8943      Z:    -0.0001     Total:     0.9533

  Dipole Moment: [D]
     X:     0.8391      Y:     2.2732      Z:    -0.0003     Total:     2.4231


*** tstop() called on node165.bme.utexas.edu at Wed Jan 24 14:04:40 2024
Module time:
	user time   =     599.28 seconds =       9.99 minutes
	system time =      16.92 seconds =       0.28 minutes
	total time  =         85 seconds =       1.42 minutes
Total time:
	user time   =    1634.25 seconds =      27.24 minutes
	system time =      72.68 seconds =       1.21 minutes
	total time  =        252 seconds =       4.20 minutes

*** tstart() called on node165.bme.utexas.edu
*** at Wed Jan 24 14:04:40 2024


  //>>>>>>>>>>>>>>>>>>>>>>>>>>>>>>>>>>>//
  //               DFMP2               //
  //<<<<<<<<<<<<<<<<<<<<<<<<<<<<<<<<<<<//

   => Loading Basis Set <=

    Name: (AUG-CC-PVTZ AUX)
    Role: RIFIT
    Keyword: DF_BASIS_MP2
    atoms 1, 3, 7, 9, 11, 16, 18   entry N          line   206 file /opt/anaconda/envs/psi4v1.5/share/psi4/basis/aug-cc-pvtz-ri.gbs 
    atoms 2, 4-6, 8, 17, 19-21, 26 entry C          line   148 file /opt/anaconda/envs/psi4v1.5/share/psi4/basis/aug-cc-pvtz-ri.gbs 
    atoms 10, 12-15, 22, 24, 27-30 entry H          line    30 file /opt/anaconda/envs/psi4v1.5/share/psi4/basis/aug-cc-pvtz-ri.gbs 
    atoms 23, 25                   entry O          line   264 file /opt/anaconda/envs/psi4v1.5/share/psi4/basis/aug-cc-pvtz-ri.gbs 

	 --------------------------------------------------------
	                          DF-MP2                         
	      2nd-Order Density-Fitted Moller-Plesset Theory     
	              RMP2 Wavefunction,   8 Threads             
	                                                         
	        Rob Parrish, Justin Turney, Andy Simmonett,      
	           Ed Hohenstein, and C. David Sherrill          
	 --------------------------------------------------------

   => Auxiliary Basis Set <=

  Basis Set: (AUG-CC-PVTZ AUX)
    Blend: AUG-CC-PVTZ-RI
    Number of shells: 686
    Number of basis functions: 2520
    Number of Cartesian functions: 3189
    Spherical Harmonics?: true
    Max angular momentum: 4

	 --------------------------------------------------------
	                 NBF =  1127, NAUX =  2520
	 --------------------------------------------------------
	   CLASS    FOCC     OCC    AOCC    AVIR     VIR    FVIR
	   PAIRS      10      35      25    1092    1092       0
	 --------------------------------------------------------

	 Will attempt to load fitting metric from file 97.

	-----------------------------------------------------------
	 ==================> DF-MP2 Energies <==================== 
	-----------------------------------------------------------
	 Reference Energy          =    -464.6817811590885299 [Eh]
	 Singles Energy            =      -0.0000000000000000 [Eh]
	 Same-Spin Energy          =      -0.4782427644756884 [Eh]
	 Opposite-Spin Energy      =      -1.3233028397753177 [Eh]
	 Correlation Energy        =      -1.8015456042510061 [Eh]
	 Total Energy              =    -466.4833267633395621 [Eh]
	-----------------------------------------------------------
	 ================> DF-SCS-MP2 Energies <================== 
	-----------------------------------------------------------
	 SCS Same-Spin Scale       =       0.3333333333333333 [-]
	 SCS Opposite-Spin Scale   =       1.2000000000000000 [-]
	 SCS Same-Spin Energy      =      -0.1594142548252295 [Eh]
	 SCS Opposite-Spin Energy  =      -1.5879634077303812 [Eh]
	 SCS Correlation Energy    =      -1.7473776625556108 [Eh]
	 SCS Total Energy          =    -466.4291588216441369 [Eh]
	-----------------------------------------------------------


*** tstop() called on node165.bme.utexas.edu at Wed Jan 24 14:05:13 2024
Module time:
	user time   =     141.82 seconds =       2.36 minutes
	system time =      10.19 seconds =       0.17 minutes
	total time  =         33 seconds =       0.55 minutes
Total time:
	user time   =    1776.08 seconds =      29.60 minutes
	system time =      82.87 seconds =       1.38 minutes
	total time  =        285 seconds =       4.75 minutes

  //>>>>>>>>>>>>>>>>>>>>>>>>>>>>>>>>>>>//
  //            Monomer B HF           //
  //<<<<<<<<<<<<<<<<<<<<<<<<<<<<<<<<<<<//


*** tstart() called on node165.bme.utexas.edu
*** at Wed Jan 24 14:05:13 2024

   => Loading Basis Set <=

    Name: AUG-CC-PVTZ
    Role: ORBITAL
    Keyword: BASIS
    atoms 1, 3, 7, 9, 11, 16, 18   entry N          line   285 file /opt/anaconda/envs/psi4v1.5/share/psi4/basis/aug-cc-pvtz.gbs 
    atoms 2, 4-6, 8, 17, 19-21, 26 entry C          line   239 file /opt/anaconda/envs/psi4v1.5/share/psi4/basis/aug-cc-pvtz.gbs 
    atoms 10, 12-15, 22, 24, 27-30 entry H          line    40 file /opt/anaconda/envs/psi4v1.5/share/psi4/basis/aug-cc-pvtz.gbs 
    atoms 23, 25                   entry O          line   331 file /opt/anaconda/envs/psi4v1.5/share/psi4/basis/aug-cc-pvtz.gbs 


         ---------------------------------------------------------
                                   SCF
               by Justin Turney, Rob Parrish, Andy Simmonett
                          and Daniel G. A. Smith
                              RHF Reference
                        8 Threads,  66757 MiB Core
         ---------------------------------------------------------

  ==> Geometry <==

    Molecular point group: c1
    Full point group: C1

    Geometry (in Angstrom), charge = 0, multiplicity = 1:

       Center              X                  Y                   Z               Mass       
    ------------   -----------------  -----------------  -----------------  -----------------
      Gh(N)          -1.412125228744     0.610098704710    -1.567409675441    14.003074004430
      Gh(C)          -2.681197228744     1.065470704710    -1.567452675441    12.000000000000
      Gh(N)          -3.094726228744     2.333354704710    -1.567590675441    14.003074004430
      Gh(C)          -2.056831228744     3.186451704710    -1.567654675441    12.000000000000
      Gh(C)          -0.695388228744     2.861343704710    -1.567580675441    12.000000000000
      Gh(C)          -0.378752228744     1.482704704710    -1.567457675441    12.000000000000
      Gh(N)           0.095285771256     3.998481704710    -1.567668675441    14.003074004430
      Gh(C)          -0.766855228744     4.988647704710    -1.567788675441    12.000000000000
      Gh(N)          -2.082369228744     4.563418704710    -1.567788675441    14.003074004430
      Gh(H)          -3.445074228744     0.286115704710    -1.567392675441     1.007825032230
      Gh(N)           0.880413771256     1.012840704710    -1.567389675441    14.003074004430
      Gh(H)           1.641597771256     1.674584704710    -1.567391675441     1.007825032230
      Gh(H)           1.059885771256     0.003893704710    -1.567207675441     1.007825032230
      Gh(H)          -0.511311228744     6.043588704710    -1.567882675441     1.007825032230
      Gh(H)          -2.912832228744     5.138955704710    -1.567878675441     1.007825032230
         N            0.727202771256    -4.361803295290     1.701748324559    14.003074004430
         C           -0.229946228744    -3.350813295290     1.719074324559    12.000000000000
         N            0.303791771256    -2.079532295290     1.699230324559    14.003074004430
         C            1.651273771256    -1.746517295290     1.665116324559    12.000000000000
         C            2.595737771256    -2.866056295290     1.648669324559    12.000000000000
         C            2.083575771256    -4.121303295290     1.667946324559    12.000000000000
         H            0.364740771256    -5.304899295290     1.715868324559     1.007825032230
         O           -1.430285228744    -3.587402295290     1.749163324559    15.994914619570
         H           -0.397987228744    -1.289111295290     1.711670324559     1.007825032230
         O            2.003977771256    -0.560748295290     1.650102324559    15.994914619570
         C            4.066142771256    -2.567373295290     1.611329324559    12.000000000000
         H            4.652658771256    -3.496325295290     1.609275324559     1.007825032230
         H            4.319273771256    -1.980717295290     0.715637324559     1.007825032230
         H            4.359227771256    -1.958955295290     2.479823324559     1.007825032230
         H            2.717292771256    -5.007092295290     1.657841324559     1.007825032230

  Running in c1 symmetry.

  Rotational constants: A =      0.02475  B =      0.00488  C =      0.00428 [cm^-1]
  Rotational constants: A =    741.89744  B =    146.19521  C =    128.23332 [MHz]
  Nuclear repulsion =  438.216120425784709

  Charge       = 0
  Multiplicity = 1
  Electrons    = 66
  Nalpha       = 33
  Nbeta        = 33

  ==> Algorithm <==

  SCF Algorithm Type is DF.
  DIIS enabled.
  MOM disabled.
  Fractional occupation disabled.
  Guess Type is SAD.
  Energy threshold   = 1.00e-08
  Density threshold  = 1.00e-08
  Integral threshold = 1.00e-12

  ==> Primary Basis <==

  Basis Set: AUG-CC-PVTZ
    Blend: AUG-CC-PVTZ
    Number of shells: 365
    Number of basis functions: 1127
    Number of Cartesian functions: 1320
    Spherical Harmonics?: true
    Max angular momentum: 3

   => Loading Basis Set <=

    Name: (AUG-CC-PVTZ AUX)
    Role: JKFIT
    Keyword: DF_BASIS_SCF
    atoms 1, 3, 7, 9, 11, 16, 18   entry N          line   224 file /opt/anaconda/envs/psi4v1.5/share/psi4/basis/aug-cc-pvtz-jkfit.gbs 
    atoms 2, 4-6, 8, 17, 19-21, 26 entry C          line   162 file /opt/anaconda/envs/psi4v1.5/share/psi4/basis/aug-cc-pvtz-jkfit.gbs 
    atoms 10, 12-15, 22, 24, 27-30 entry H          line    70 file /opt/anaconda/envs/psi4v1.5/share/psi4/basis/aug-cc-pvtz-jkfit.gbs 
    atoms 23, 25                   entry O          line   286 file /opt/anaconda/envs/psi4v1.5/share/psi4/basis/aug-cc-pvtz-jkfit.gbs 

  ==> Integral Setup <==

  ==> DiskDFJK: Density-Fitted J/K Matrices <==

    J tasked:                  Yes
    K tasked:                  Yes
    wK tasked:                  No
    OpenMP threads:              8
    Integrals threads:           8
    Memory [MiB]:            50067
    Algorithm:                Core
    Integral Cache:           LOAD
    Schwarz Cutoff:          1E-12
    Fitting Condition:       1E-10

   => Auxiliary Basis Set <=

  Basis Set: (AUG-CC-PVTZ AUX)
    Blend: AUG-CC-PVTZ-JKFIT
    Number of shells: 724
    Number of basis functions: 2482
    Number of Cartesian functions: 3094
    Spherical Harmonics?: true
    Max angular momentum: 4

  Minimum eigenvalue in the overlap matrix is 1.2190608234E-06.
  Reciprocal condition number of the overlap matrix is 6.9038808467E-08.
    Using symmetric orthogonalization.

  ==> Pre-Iterations <==

  SCF Guess: Superposition of Atomic Densities via on-the-fly atomic UHF (no occupation information).

   -------------------------
    Irrep   Nso     Nmo    
   -------------------------
     A       1127    1127 
   -------------------------
    Total    1127    1127
   -------------------------

  ==> Iterations <==

                           Total Energy        Delta E     RMS |[F,P]|

   @DF-RHF iter SAD:  -450.91023173741519   -4.50910e+02   0.00000e+00 
   @DF-RHF iter   1:  -451.37258435446159   -4.62353e-01   7.04308e-04 DIIS
   @DF-RHF iter   2:  -451.57004666467247   -1.97462e-01   4.64794e-04 DIIS
   @DF-RHF iter   3:  -451.66284898483218   -9.28023e-02   8.90222e-05 DIIS
   @DF-RHF iter   4:  -451.66829560676638   -5.44662e-03   3.57182e-05 DIIS
   @DF-RHF iter   5:  -451.66939121709873   -1.09561e-03   7.21357e-06 DIIS
   @DF-RHF iter   6:  -451.66950353657700   -1.12319e-04   3.71963e-06 DIIS
   @DF-RHF iter   7:  -451.66952671950241   -2.31829e-05   1.59076e-06 DIIS
   @DF-RHF iter   8:  -451.66953091651959   -4.19702e-06   6.04538e-07 DIIS
   @DF-RHF iter   9:  -451.66953138810896   -4.71589e-07   2.00961e-07 DIIS
   @DF-RHF iter  10:  -451.66953146699905   -7.88901e-08   7.92240e-08 DIIS
   @DF-RHF iter  11:  -451.66953147606853   -9.06948e-09   3.03362e-08 DIIS
   @DF-RHF iter  12:  -451.66953147749444   -1.42592e-09   9.61548e-09 DIIS
  Energy and wave function converged.


  ==> Post-Iterations <==

    Orbital Energies [Eh]
    ---------------------

    Doubly Occupied:                                                      

       1A    -20.543521     2A    -20.538841     3A    -15.640266  
       4A    -15.635360     5A    -11.417942     6A    -11.379418  
       7A    -11.331023     8A    -11.262674     9A    -11.241730  
      10A     -1.428359    11A     -1.387146    12A     -1.303497  
      13A     -1.242309    14A     -1.104667    15A     -0.966482  
      16A     -0.913034    17A     -0.893832    18A     -0.769693  
      19A     -0.765980    20A     -0.706313    21A     -0.673037  
      22A     -0.666247    23A     -0.637569    24A     -0.611935  
      25A     -0.588088    26A     -0.567335    27A     -0.556751  
      28A     -0.550023    29A     -0.511379    30A     -0.477943  
      31A     -0.446642    32A     -0.433717    33A     -0.352559  

    Virtual:                                                              

      34A      0.015859    35A      0.021810    36A      0.030376  
      37A      0.032896    38A      0.037625    39A      0.041152  
      40A      0.049680    41A      0.051712    42A      0.053994  
      43A      0.056876    44A      0.063626    45A      0.066473  
      46A      0.072395    47A      0.076886    48A      0.082058  
      49A      0.083789    50A      0.085729    51A      0.086246  
      52A      0.090851    53A      0.095546    54A      0.100376  
      55A      0.105143    56A      0.107341    57A      0.108489  
      58A      0.111191    59A      0.112945    60A      0.115063  
      61A      0.117463    62A      0.123295    63A      0.129166  
      64A      0.130844    65A      0.132368    66A      0.133956  
      67A      0.136260    68A      0.142355    69A      0.144009  
      70A      0.146676    71A      0.148022    72A      0.149272  
      73A      0.153871    74A      0.158937    75A      0.160401  
      76A      0.164108    77A      0.168792    78A      0.171917  
      79A      0.174964    80A      0.176926    81A      0.180360  
      82A      0.182172    83A      0.185042    84A      0.190359  
      85A      0.194319    86A      0.198357    87A      0.198637  
      88A      0.203772    89A      0.204475    90A      0.211616  
      91A      0.212414    92A      0.215598    93A      0.218579  
      94A      0.222068    95A      0.224430    96A      0.227678  
      97A      0.230952    98A      0.235003    99A      0.238817  
     100A      0.239993   101A      0.246181   102A      0.251422  
     103A      0.252778   104A      0.253678   105A      0.257792  
     106A      0.260074   107A      0.262190   108A      0.265453  
     109A      0.268426   110A      0.272780   111A      0.277114  
     112A      0.280417   113A      0.286321   114A      0.287484  
     115A      0.288238   116A      0.294113   117A      0.300131  
     118A      0.301837   119A      0.302459   120A      0.306282  
     121A      0.309095   122A      0.312202   123A      0.316062  
     124A      0.316414   125A      0.322736   126A      0.328114  
     127A      0.332756   128A      0.334704   129A      0.340020  
     130A      0.341073   131A      0.346544   132A      0.348971  
     133A      0.351264   134A      0.358227   135A      0.359212  
     136A      0.360312   137A      0.365712   138A      0.369622  
     139A      0.372567   140A      0.374356   141A      0.377252  
     142A      0.381463   143A      0.383433   144A      0.387119  
     145A      0.389563   146A      0.393627   147A      0.398359  
     148A      0.399594   149A      0.406932   150A      0.408896  
     151A      0.410830   152A      0.412448   153A      0.417389  
     154A      0.420242   155A      0.421353   156A      0.425425  
     157A      0.426659   158A      0.429023   159A      0.433670  
     160A      0.435772   161A      0.438654   162A      0.442444  
     163A      0.445218   164A      0.445624   165A      0.448054  
     166A      0.450551   167A      0.452256   168A      0.456729  
     169A      0.458827   170A      0.461470   171A      0.462840  
     172A      0.465810   173A      0.466633   174A      0.470710  
     175A      0.472210   176A      0.476527   177A      0.478656  
     178A      0.485324   179A      0.487102   180A      0.489702  
     181A      0.493906   182A      0.498177   183A      0.501729  
     184A      0.502133   185A      0.506783   186A      0.508667  
     187A      0.511026   188A      0.518200   189A      0.519488  
     190A      0.521968   191A      0.525477   192A      0.531261  
     193A      0.534975   194A      0.538302   195A      0.543052  
     196A      0.548071   197A      0.550852   198A      0.554132  
     199A      0.556677   200A      0.559955   201A      0.562165  
     202A      0.564624   203A      0.570837   204A      0.573851  
     205A      0.576249   206A      0.582178   207A      0.590485  
     208A      0.592559   209A      0.596589   210A      0.600567  
     211A      0.604394   212A      0.610998   213A      0.613191  
     214A      0.617555   215A      0.618869   216A      0.628691  
     217A      0.636508   218A      0.638336   219A      0.641353  
     220A      0.645988   221A      0.651972   222A      0.654742  
     223A      0.661334   224A      0.663939   225A      0.668917  
     226A      0.670986   227A      0.675939   228A      0.681019  
     229A      0.687368   230A      0.689775   231A      0.697206  
     232A      0.700534   233A      0.704710   234A      0.709485  
     235A      0.715119   236A      0.716626   237A      0.726600  
     238A      0.730812   239A      0.734043   240A      0.735795  
     241A      0.739188   242A      0.745609   243A      0.752183  
     244A      0.754379   245A      0.760944   246A      0.766219  
     247A      0.768594   248A      0.769875   249A      0.775219  
     250A      0.776252   251A      0.780896   252A      0.787071  
     253A      0.792481   254A      0.793835   255A      0.795476  
     256A      0.800495   257A      0.806640   258A      0.810454  
     259A      0.816886   260A      0.822385   261A      0.825200  
     262A      0.826845   263A      0.829745   264A      0.833701  
     265A      0.835499   266A      0.840461   267A      0.841825  
     268A      0.847726   269A      0.849338   270A      0.856801  
     271A      0.859332   272A      0.861752   273A      0.864340  
     274A      0.866685   275A      0.873738   276A      0.877289  
     277A      0.879797   278A      0.884816   279A      0.889404  
     280A      0.891605   281A      0.893221   282A      0.896104  
     283A      0.899824   284A      0.903838   285A      0.908839  
     286A      0.913350   287A      0.916673   288A      0.917696  
     289A      0.921278   290A      0.926953   291A      0.927504  
     292A      0.929840   293A      0.933950   294A      0.937214  
     295A      0.938387   296A      0.941045   297A      0.944716  
     298A      0.948574   299A      0.952147   300A      0.954988  
     301A      0.960161   302A      0.961115   303A      0.964013  
     304A      0.964763   305A      0.968024   306A      0.971091  
     307A      0.976644   308A      0.981005   309A      0.986036  
     310A      0.987630   311A      0.991199   312A      0.995071  
     313A      0.997160   314A      1.005767   315A      1.011717  
     316A      1.015853   317A      1.019312   318A      1.025147  
     319A      1.028642   320A      1.035035   321A      1.040146  
     322A      1.041570   323A      1.043844   324A      1.051020  
     325A      1.053155   326A      1.058397   327A      1.061676  
     328A      1.067131   329A      1.068982   330A      1.076845  
     331A      1.083396   332A      1.085920   333A      1.090897  
     334A      1.095476   335A      1.097176   336A      1.103069  
     337A      1.104860   338A      1.114234   339A      1.118370  
     340A      1.121850   341A      1.126871   342A      1.128867  
     343A      1.135264   344A      1.140104   345A      1.142729  
     346A      1.149890   347A      1.151129   348A      1.153120  
     349A      1.159237   350A      1.162500   351A      1.165858  
     352A      1.169421   353A      1.175338   354A      1.179266  
     355A      1.183096   356A      1.186590   357A      1.187313  
     358A      1.199405   359A      1.200969   360A      1.207074  
     361A      1.210896   362A      1.213461   363A      1.215466  
     364A      1.223707   365A      1.225926   366A      1.231559  
     367A      1.234684   368A      1.239937   369A      1.245342  
     370A      1.249761   371A      1.257630   372A      1.260103  
     373A      1.263199   374A      1.267037   375A      1.271616  
     376A      1.275954   377A      1.281493   378A      1.285298  
     379A      1.294200   380A      1.295985   381A      1.299576  
     382A      1.300129   383A      1.307868   384A      1.309735  
     385A      1.317304   386A      1.326694   387A      1.329221  
     388A      1.329872   389A      1.336330   390A      1.342455  
     391A      1.354225   392A      1.356580   393A      1.359936  
     394A      1.361266   395A      1.371902   396A      1.375281  
     397A      1.376679   398A      1.386103   399A      1.386367  
     400A      1.387925   401A      1.393790   402A      1.398300  
     403A      1.403516   404A      1.413248   405A      1.418950  
     406A      1.421054   407A      1.427270   408A      1.429027  
     409A      1.434534   410A      1.438506   411A      1.448790  
     412A      1.451150   413A      1.456820   414A      1.461981  
     415A      1.468169   416A      1.471612   417A      1.483142  
     418A      1.490100   419A      1.494516   420A      1.503187  
     421A      1.510044   422A      1.513936   423A      1.519649  
     424A      1.522467   425A      1.528614   426A      1.530532  
     427A      1.537830   428A      1.541306   429A      1.546564  
     430A      1.555241   431A      1.558009   432A      1.566390  
     433A      1.566635   434A      1.575623   435A      1.582635  
     436A      1.586084   437A      1.592579   438A      1.598658  
     439A      1.607059   440A      1.614922   441A      1.615289  
     442A      1.619214   443A      1.621948   444A      1.624686  
     445A      1.628132   446A      1.630619   447A      1.635978  
     448A      1.646152   449A      1.649478   450A      1.655466  
     451A      1.663168   452A      1.664147   453A      1.669421  
     454A      1.674167   455A      1.679823   456A      1.680983  
     457A      1.685003   458A      1.690667   459A      1.693968  
     460A      1.699367   461A      1.702834   462A      1.707678  
     463A      1.708002   464A      1.716245   465A      1.721556  
     466A      1.725842   467A      1.727710   468A      1.732063  
     469A      1.740923   470A      1.744503   471A      1.747316  
     472A      1.750379   473A      1.754693   474A      1.757449  
     475A      1.762508   476A      1.764240   477A      1.770687  
     478A      1.778671   479A      1.783269   480A      1.786739  
     481A      1.793970   482A      1.804394   483A      1.807221  
     484A      1.811740   485A      1.818046   486A      1.822646  
     487A      1.828944   488A      1.832817   489A      1.835816  
     490A      1.841193   491A      1.843899   492A      1.848166  
     493A      1.850967   494A      1.858333   495A      1.868649  
     496A      1.873497   497A      1.879666   498A      1.881768  
     499A      1.893901   500A      1.897841   501A      1.905069  
     502A      1.914399   503A      1.919446   504A      1.920541  
     505A      1.930768   506A      1.935247   507A      1.937719  
     508A      1.941072   509A      1.947061   510A      1.961716  
     511A      1.968293   512A      1.974978   513A      1.982165  
     514A      1.996484   515A      2.002557   516A      2.008845  
     517A      2.011784   518A      2.014684   519A      2.024556  
     520A      2.028216   521A      2.030520   522A      2.035570  
     523A      2.041187   524A      2.050078   525A      2.059258  
     526A      2.068311   527A      2.070782   528A      2.081063  
     529A      2.085169   530A      2.097149   531A      2.102052  
     532A      2.104107   533A      2.116289   534A      2.122447  
     535A      2.124952   536A      2.128032   537A      2.135097  
     538A      2.142847   539A      2.152243   540A      2.161475  
     541A      2.171143   542A      2.174235   543A      2.178379  
     544A      2.182839   545A      2.185845   546A      2.188587  
     547A      2.193463   548A      2.199307   549A      2.207201  
     550A      2.215349   551A      2.222730   552A      2.228161  
     553A      2.237686   554A      2.242228   555A      2.250584  
     556A      2.257634   557A      2.260174   558A      2.264449  
     559A      2.268249   560A      2.271768   561A      2.284996  
     562A      2.286250   563A      2.292824   564A      2.302273  
     565A      2.304876   566A      2.312832   567A      2.321809  
     568A      2.325795   569A      2.327354   570A      2.338039  
     571A      2.350717   572A      2.355342   573A      2.360311  
     574A      2.371504   575A      2.380833   576A      2.384476  
     577A      2.396024   578A      2.407107   579A      2.412995  
     580A      2.417818   581A      2.423747   582A      2.425677  
     583A      2.436453   584A      2.443797   585A      2.449913  
     586A      2.460883   587A      2.463784   588A      2.486991  
     589A      2.496226   590A      2.503772   591A      2.512130  
     592A      2.516879   593A      2.533503   594A      2.540976  
     595A      2.546783   596A      2.549401   597A      2.553046  
     598A      2.558747   599A      2.560897   600A      2.569009  
     601A      2.573410   602A      2.576297   603A      2.586818  
     604A      2.592180   605A      2.604007   606A      2.612186  
     607A      2.615618   608A      2.618378   609A      2.628359  
     610A      2.634385   611A      2.641703   612A      2.644906  
     613A      2.653724   614A      2.662616   615A      2.670533  
     616A      2.673384   617A      2.681000   618A      2.687102  
     619A      2.704282   620A      2.708264   621A      2.713399  
     622A      2.717116   623A      2.724329   624A      2.730395  
     625A      2.740529   626A      2.744417   627A      2.758398  
     628A      2.761819   629A      2.775209   630A      2.779653  
     631A      2.792180   632A      2.811558   633A      2.821455  
     634A      2.828919   635A      2.831304   636A      2.836150  
     637A      2.851058   638A      2.873412   639A      2.876265  
     640A      2.883051   641A      2.887695   642A      2.888061  
     643A      2.901843   644A      2.914603   645A      2.923148  
     646A      2.929885   647A      2.940658   648A      2.943455  
     649A      2.959780   650A      2.970235   651A      2.979661  
     652A      2.992178   653A      2.995316   654A      3.000394  
     655A      3.007899   656A      3.016819   657A      3.028071  
     658A      3.031933   659A      3.038528   660A      3.046457  
     661A      3.055330   662A      3.058433   663A      3.062995  
     664A      3.067046   665A      3.078701   666A      3.091042  
     667A      3.103455   668A      3.117216   669A      3.120599  
     670A      3.127435   671A      3.160051   672A      3.172177  
     673A      3.181204   674A      3.196889   675A      3.202783  
     676A      3.218897   677A      3.221475   678A      3.228302  
     679A      3.243396   680A      3.271231   681A      3.272634  
     682A      3.276718   683A      3.282921   684A      3.298561  
     685A      3.313452   686A      3.314881   687A      3.324860  
     688A      3.329915   689A      3.334740   690A      3.355487  
     691A      3.358244   692A      3.365056   693A      3.376983  
     694A      3.394244   695A      3.402245   696A      3.414729  
     697A      3.418002   698A      3.430101   699A      3.439385  
     700A      3.454715   701A      3.465859   702A      3.487018  
     703A      3.499711   704A      3.517655   705A      3.537430  
     706A      3.554089   707A      3.564100   708A      3.590024  
     709A      3.600184   710A      3.601263   711A      3.620741  
     712A      3.636070   713A      3.639684   714A      3.649994  
     715A      3.651237   716A      3.660110   717A      3.671218  
     718A      3.686934   719A      3.690114   720A      3.698062  
     721A      3.715635   722A      3.719948   723A      3.734663  
     724A      3.742042   725A      3.757871   726A      3.767012  
     727A      3.779662   728A      3.785985   729A      3.798223  
     730A      3.821544   731A      3.830005   732A      3.844165  
     733A      3.855023   734A      3.864684   735A      3.868536  
     736A      3.876744   737A      3.891361   738A      3.907542  
     739A      3.912114   740A      3.913946   741A      3.933578  
     742A      3.937264   743A      3.961504   744A      3.964160  
     745A      3.966089   746A      3.978161   747A      3.985522  
     748A      4.011814   749A      4.035249   750A      4.047788  
     751A      4.060620   752A      4.069447   753A      4.095506  
     754A      4.099928   755A      4.106087   756A      4.122005  
     757A      4.126926   758A      4.131591   759A      4.132574  
     760A      4.139007   761A      4.147633   762A      4.154742  
     763A      4.162613   764A      4.165630   765A      4.173689  
     766A      4.185999   767A      4.191698   768A      4.197084  
     769A      4.201678   770A      4.207987   771A      4.215775  
     772A      4.219228   773A      4.226802   774A      4.231361  
     775A      4.256091   776A      4.259328   777A      4.263789  
     778A      4.278567   779A      4.285885   780A      4.287858  
     781A      4.304524   782A      4.308608   783A      4.321625  
     784A      4.326156   785A      4.339651   786A      4.349715  
     787A      4.368228   788A      4.375427   789A      4.397511  
     790A      4.420450   791A      4.428603   792A      4.431978  
     793A      4.435183   794A      4.442957   795A      4.452492  
     796A      4.464958   797A      4.469200   798A      4.481429  
     799A      4.495172   800A      4.499345   801A      4.508573  
     802A      4.525492   803A      4.530071   804A      4.533516  
     805A      4.545613   806A      4.566401   807A      4.574653  
     808A      4.590634   809A      4.597812   810A      4.600047  
     811A      4.626257   812A      4.630069   813A      4.633605  
     814A      4.640522   815A      4.642856   816A      4.646077  
     817A      4.661086   818A      4.679127   819A      4.688710  
     820A      4.693170   821A      4.699741   822A      4.704442  
     823A      4.715327   824A      4.725335   825A      4.735131  
     826A      4.742198   827A      4.745771   828A      4.748247  
     829A      4.756158   830A      4.759710   831A      4.764161  
     832A      4.777341   833A      4.781134   834A      4.797699  
     835A      4.807659   836A      4.811081   837A      4.822957  
     838A      4.837567   839A      4.852812   840A      4.872203  
     841A      4.885671   842A      4.892610   843A      4.898290  
     844A      4.904968   845A      4.909688   846A      4.915424  
     847A      4.919267   848A      4.929411   849A      4.935049  
     850A      4.944417   851A      4.951295   852A      4.966962  
     853A      4.969525   854A      4.977981   855A      4.985989  
     856A      4.996476   857A      5.009765   858A      5.015607  
     859A      5.021274   860A      5.026401   861A      5.032341  
     862A      5.043104   863A      5.054516   864A      5.057491  
     865A      5.062647   866A      5.067033   867A      5.069650  
     868A      5.079504   869A      5.098681   870A      5.107849  
     871A      5.121246   872A      5.130453   873A      5.132843  
     874A      5.141788   875A      5.150497   876A      5.152950  
     877A      5.162591   878A      5.171717   879A      5.176011  
     880A      5.189455   881A      5.190339   882A      5.209172  
     883A      5.245702   884A      5.251503   885A      5.270481  
     886A      5.281713   887A      5.289531   888A      5.302711  
     889A      5.318645   890A      5.326363   891A      5.331966  
     892A      5.336643   893A      5.345214   894A      5.361566  
     895A      5.379864   896A      5.382996   897A      5.418793  
     898A      5.430616   899A      5.438733   900A      5.445828  
     901A      5.455986   902A      5.458524   903A      5.466242  
     904A      5.473785   905A      5.485745   906A      5.496768  
     907A      5.507740   908A      5.524376   909A      5.531791  
     910A      5.542953   911A      5.554383   912A      5.558043  
     913A      5.563548   914A      5.586712   915A      5.592940  
     916A      5.605854   917A      5.626439   918A      5.640121  
     919A      5.643635   920A      5.666716   921A      5.678293  
     922A      5.702861   923A      5.726264   924A      5.730165  
     925A      5.741896   926A      5.754955   927A      5.760281  
     928A      5.781223   929A      5.787617   930A      5.793806  
     931A      5.814602   932A      5.828566   933A      5.849833  
     934A      5.860469   935A      5.878530   936A      5.906562  
     937A      5.923084   938A      5.926688   939A      5.936436  
     940A      5.942035   941A      5.983834   942A      5.992296  
     943A      6.010359   944A      6.032495   945A      6.053531  
     946A      6.055876   947A      6.072144   948A      6.077061  
     949A      6.089470   950A      6.096546   951A      6.104127  
     952A      6.116365   953A      6.118553   954A      6.128546  
     955A      6.155377   956A      6.164043   957A      6.194179  
     958A      6.206390   959A      6.211942   960A      6.228498  
     961A      6.267267   962A      6.276162   963A      6.298479  
     964A      6.326077   965A      6.355591   966A      6.382063  
     967A      6.410725   968A      6.442507   969A      6.447132  
     970A      6.467738   971A      6.492071   972A      6.494412  
     973A      6.501440   974A      6.518927   975A      6.529932  
     976A      6.536736   977A      6.548131   978A      6.575548  
     979A      6.590781   980A      6.610121   981A      6.634203  
     982A      6.640268   983A      6.664726   984A      6.700250  
     985A      6.703333   986A      6.718916   987A      6.722647  
     988A      6.725135   989A      6.734033   990A      6.743321  
     991A      6.751975   992A      6.779470   993A      6.787800  
     994A      6.800435   995A      6.808286   996A      6.817671  
     997A      6.822446   998A      6.835584   999A      6.852960  
    1000A      6.866532  1001A      6.872684  1002A      6.884526  
    1003A      6.892362  1004A      6.900699  1005A      6.922582  
    1006A      6.925284  1007A      6.930694  1008A      6.948637  
    1009A      6.966269  1010A      6.978125  1011A      6.987725  
    1012A      7.038451  1013A      7.081712  1014A      7.085701  
    1015A      7.146226  1016A      7.156776  1017A      7.211868  
    1018A      7.222719  1019A      7.230690  1020A      7.252611  
    1021A      7.257995  1022A      7.332502  1023A      7.348971  
    1024A      7.381281  1025A      7.386052  1026A      7.388511  
    1027A      7.419220  1028A      7.431371  1029A      7.437605  
    1030A      7.453167  1031A      7.458762  1032A      7.460297  
    1033A      7.470820  1034A      7.530271  1035A      7.560785  
    1036A      7.588211  1037A      7.590552  1038A      7.632029  
    1039A      7.645436  1040A      7.665271  1041A      7.678326  
    1042A      7.683618  1043A      7.703479  1044A      7.708925  
    1045A      7.712072  1046A      7.734852  1047A      7.758547  
    1048A      7.794209  1049A      7.802525  1050A      7.814040  
    1051A      7.826232  1052A      7.857430  1053A      7.867337  
    1054A      7.870939  1055A      7.912558  1056A      7.927049  
    1057A      7.945163  1058A      7.984157  1059A      7.992557  
    1060A      8.014042  1061A      8.021788  1062A      8.035990  
    1063A      8.053189  1064A      8.077924  1065A      8.129831  
    1066A      8.150667  1067A      8.249859  1068A      8.311717  
    1069A      8.330799  1070A      8.400374  1071A      8.448382  
    1072A      8.485724  1073A      8.552847  1074A      8.694190  
    1075A      8.794578  1076A      8.835798  1077A      8.939103  
    1078A      9.007536  1079A      9.070945  1080A      9.233323  
    1081A      9.294946  1082A      9.476541  1083A      9.494275  
    1084A      9.561175  1085A      9.575984  1086A      9.689573  
    1087A      9.737275  1088A      9.766569  1089A     10.167984  
    1090A     10.257347  1091A     10.386541  1092A     10.725953  
    1093A     11.016457  1094A     11.034710  1095A     11.154715  
    1096A     11.242313  1097A     11.502152  1098A     11.629659  
    1099A     11.753612  1100A     11.896253  1101A     12.018943  
    1102A     12.092837  1103A     12.197908  1104A     12.309727  
    1105A     12.421483  1106A     12.522130  1107A     12.877607  
    1108A     13.040555  1109A     15.772053  1110A     15.949137  
    1111A     16.171499  1112A     16.626051  1113A     17.990198  
    1114A     19.055325  1115A     20.010590  1116A     20.341991  
    1117A     20.642089  1118A     51.544848  1119A     51.690751  
    1120A     52.434404  1121A     54.012114  1122A     56.210389  
    1123A     60.049483  1124A     61.305975  1125A     62.128312  
    1126A     62.464262  1127A     64.214979  

    Final Occupation by Irrep:
              A 
    DOCC [    33 ]

  @DF-RHF Final Energy:  -451.66953147749444

   => Energetics <=

    Nuclear Repulsion Energy =            438.2161204257847089
    One-Electron Energy =               -1484.6806610382009239
    Two-Electron Energy =                 594.7950091349217701
    Total Energy =                       -451.6695314774943881

Computation Completed


Properties will be evaluated at   0.000000,   0.000000,   0.000000 [a0]

Properties computed using the SCF density matrix

  Nuclear Dipole Moment: [e a0]
     X:   167.8500      Y:  -350.0227      Z:   209.3134

  Electronic Dipole Moment: [e a0]
     X:  -166.8527      Y:   348.4178      Z:  -209.3282

  Dipole Moment: [e a0]
     X:     0.9974      Y:    -1.6049      Z:    -0.0148     Total:     1.8896

  Dipole Moment: [D]
     X:     2.5350      Y:    -4.0793      Z:    -0.0376     Total:     4.8029


*** tstop() called on node165.bme.utexas.edu at Wed Jan 24 14:06:32 2024
Module time:
	user time   =     550.87 seconds =       9.18 minutes
	system time =      15.32 seconds =       0.26 minutes
	total time  =         79 seconds =       1.32 minutes
Total time:
	user time   =    2326.98 seconds =      38.78 minutes
	system time =      98.19 seconds =       1.64 minutes
	total time  =        364 seconds =       6.07 minutes

*** tstart() called on node165.bme.utexas.edu
*** at Wed Jan 24 14:06:32 2024


  //>>>>>>>>>>>>>>>>>>>>>>>>>>>>>>>>>>>//
  //               DFMP2               //
  //<<<<<<<<<<<<<<<<<<<<<<<<<<<<<<<<<<<//

   => Loading Basis Set <=

    Name: (AUG-CC-PVTZ AUX)
    Role: RIFIT
    Keyword: DF_BASIS_MP2
    atoms 1, 3, 7, 9, 11, 16, 18   entry N          line   206 file /opt/anaconda/envs/psi4v1.5/share/psi4/basis/aug-cc-pvtz-ri.gbs 
    atoms 2, 4-6, 8, 17, 19-21, 26 entry C          line   148 file /opt/anaconda/envs/psi4v1.5/share/psi4/basis/aug-cc-pvtz-ri.gbs 
    atoms 10, 12-15, 22, 24, 27-30 entry H          line    30 file /opt/anaconda/envs/psi4v1.5/share/psi4/basis/aug-cc-pvtz-ri.gbs 
    atoms 23, 25                   entry O          line   264 file /opt/anaconda/envs/psi4v1.5/share/psi4/basis/aug-cc-pvtz-ri.gbs 

	 --------------------------------------------------------
	                          DF-MP2                         
	      2nd-Order Density-Fitted Moller-Plesset Theory     
	              RMP2 Wavefunction,   8 Threads             
	                                                         
	        Rob Parrish, Justin Turney, Andy Simmonett,      
	           Ed Hohenstein, and C. David Sherrill          
	 --------------------------------------------------------

   => Auxiliary Basis Set <=

  Basis Set: (AUG-CC-PVTZ AUX)
    Blend: AUG-CC-PVTZ-RI
    Number of shells: 686
    Number of basis functions: 2520
    Number of Cartesian functions: 3189
    Spherical Harmonics?: true
    Max angular momentum: 4

	 --------------------------------------------------------
	                 NBF =  1127, NAUX =  2520
	 --------------------------------------------------------
	   CLASS    FOCC     OCC    AOCC    AVIR     VIR    FVIR
	   PAIRS       9      33      24    1094    1094       0
	 --------------------------------------------------------

	 Will attempt to load fitting metric from file 97.

	-----------------------------------------------------------
	 ==================> DF-MP2 Energies <==================== 
	-----------------------------------------------------------
	 Reference Energy          =    -451.6695314774944450 [Eh]
	 Singles Energy            =      -0.0000000000000000 [Eh]
	 Same-Spin Energy          =      -0.4339091413204036 [Eh]
	 Opposite-Spin Energy      =      -1.2510726699535528 [Eh]
	 Correlation Energy        =      -1.6849818112739565 [Eh]
	 Total Energy              =    -453.3545132887683735 [Eh]
	-----------------------------------------------------------
	 ================> DF-SCS-MP2 Energies <================== 
	-----------------------------------------------------------
	 SCS Same-Spin Scale       =       0.3333333333333333 [-]
	 SCS Opposite-Spin Scale   =       1.2000000000000000 [-]
	 SCS Same-Spin Energy      =      -0.1446363804401345 [Eh]
	 SCS Opposite-Spin Energy  =      -1.5012872039442633 [Eh]
	 SCS Correlation Energy    =      -1.6459235843843978 [Eh]
	 SCS Total Energy          =    -453.3154550618788221 [Eh]
	-----------------------------------------------------------


*** tstop() called on node165.bme.utexas.edu at Wed Jan 24 14:07:04 2024
Module time:
	user time   =     139.57 seconds =       2.33 minutes
	system time =       9.50 seconds =       0.16 minutes
	total time  =         32 seconds =       0.53 minutes
Total time:
	user time   =    2466.56 seconds =      41.11 minutes
	system time =     107.69 seconds =       1.79 minutes
	total time  =        396 seconds =       6.60 minutes
  Constructing Basis Sets for SAPT...

   => Loading Basis Set <=

    Name: (AUG-CC-PVTZ AUX)
    Role: RIFIT
    Keyword: DF_BASIS_SAPT
    atoms 1, 3, 7, 9, 11, 16, 18   entry N          line   206 file /opt/anaconda/envs/psi4v1.5/share/psi4/basis/aug-cc-pvtz-ri.gbs 
    atoms 2, 4-6, 8, 17, 19-21, 26 entry C          line   148 file /opt/anaconda/envs/psi4v1.5/share/psi4/basis/aug-cc-pvtz-ri.gbs 
    atoms 10, 12-15, 22, 24, 27-30 entry H          line    30 file /opt/anaconda/envs/psi4v1.5/share/psi4/basis/aug-cc-pvtz-ri.gbs 
    atoms 23, 25                   entry O          line   264 file /opt/anaconda/envs/psi4v1.5/share/psi4/basis/aug-cc-pvtz-ri.gbs 


  //>>>>>>>>>>>>>>>>>>>>>>>>>>>>>>>>>>>//
  //           SAPT2+(3)DMP2           //
  //<<<<<<<<<<<<<<<<<<<<<<<<<<<<<<<<<<<//


*** tstart() called on node165.bme.utexas.edu
*** at Wed Jan 24 14:07:04 2024

      SAPT2+(3)  
    Ed Hohenstein
     6 June 2009

      Orbital Information
  --------------------------
    NSO        =      1127
    NMO        =      1127
    NRI        =      2520
    NOCC A     =        35
    NOCC B     =        33
    FOCC A     =        10
    FOCC B     =         9
    NVIR A     =      1092
    NVIR B     =      1094

    Estimated memory usage: 59315.2 MB

    Natural Orbital Cutoff:   1.000E-06
    Disp(T3) Truncation:            Yes
    CCD (vv|vv) Truncation:         Yes
    MBPT T2 Truncation:             Yes

    Monomer A: 607 virtual orbitals dropped
    Monomer B: 628 virtual orbitals dropped

    Elst10,r            =    -0.000534228866 [Eh]
    Exch10 (S^2)        =     0.000466620975 [Eh]
    Exch10              =     0.000466771428 [Eh]
    Ind20,r (A<-B)      =    -0.000230633783 [Eh]
    Ind20,r (B<-A)      =    -0.000121021372 [Eh]
    Ind20,r             =    -0.000351655155 [Eh]
    Exch-Ind20,r (A<-B) =     0.000090771662 [Eh]
    Exch-Ind20,r (B<-A) =     0.000043967172 [Eh]
    Exch-Ind20,r        =     0.000134738835 [Eh]
    Disp20              =    -0.002207873587 [Eh]
    Disp20 (NO)         =    -0.002084024114 [Eh]
    Exch-Disp20         =     0.000077526309 [Eh]
    Elst12,r            =    -0.000040726498 [Eh]
    Exch11              =    -0.000013558103 [Eh]
    Exch12              =     0.000127966036 [Eh]
    Ind22               =    -0.000036515380 [Eh]
    Disp21              =     0.000479807608 [Eh]
    Disp22 (SDQ)        =    -0.000051957719 [Eh]

    (i =   1 of  24)       1059 seconds
    (i =   2 of  24)       2144 seconds
    (i =   3 of  24)       3487 seconds
    (i =   4 of  24)       4571 seconds
    (i =   5 of  24)       5631 seconds
    (i =   6 of  24)       6692 seconds
    (i =   7 of  24)       7758 seconds
    (i =   8 of  24)       8827 seconds
    (i =   9 of  24)       9889 seconds
    (i =  10 of  24)      10958 seconds
    (i =  11 of  24)      12024 seconds
    (i =  12 of  24)      13098 seconds
    (i =  13 of  24)      14460 seconds
    (i =  14 of  24)      15605 seconds
    (i =  15 of  24)      16697 seconds
    (i =  16 of  24)      17790 seconds
    (i =  17 of  24)      18879 seconds
    (i =  18 of  24)      19968 seconds
    (i =  19 of  24)      21060 seconds
    (i =  20 of  24)      22157 seconds
    (i =  21 of  24)      23251 seconds
    (i =  22 of  24)      24347 seconds
    (i =  23 of  24)      25444 seconds
    (i =  24 of  24)      26538 seconds

    Disp220 (T)         =    -0.000264343919 [Eh]

    (i =   1 of  25)       1064 seconds
    (i =   2 of  25)       2126 seconds
    (i =   3 of  25)       3187 seconds
    (i =   4 of  25)       4252 seconds
    (i =   5 of  25)       5313 seconds
    (i =   6 of  25)       6372 seconds
    (i =   7 of  25)       7753 seconds
    (i =   8 of  25)       8859 seconds
    (i =   9 of  25)       9913 seconds
    (i =  10 of  25)      10946 seconds
    (i =  11 of  25)      11969 seconds
    (i =  12 of  25)      12991 seconds
    (i =  13 of  25)      14017 seconds
    (i =  14 of  25)      15041 seconds
    (i =  15 of  25)      16064 seconds
    (i =  16 of  25)      17108 seconds
    (i =  17 of  25)      18457 seconds
    (i =  18 of  25)      19489 seconds
    (i =  19 of  25)      20507 seconds
    (i =  20 of  25)      21553 seconds
    (i =  21 of  25)      22588 seconds
    (i =  22 of  25)      23641 seconds
    (i =  23 of  25)      24698 seconds
    (i =  24 of  25)      25747 seconds
    (i =  25 of  25)      26798 seconds

    Disp202 (T)         =    -0.000274986332 [Eh]

    Disp22 (T)          =    -0.000539330251 [Eh]

    Est. Disp220 (T)    =    -0.000280053361 [Eh]
    Est. Disp202 (T)    =    -0.000291328231 [Eh]

    Est. Disp22 (T)     =    -0.000571381592 [Eh]
    Elst13,r            =     0.000009704831 [Eh]
    Disp30              =     0.000021904114 [Eh]

    SAPT Results 
  --------------------------------------------------------------------------------------------------------
    Electrostatics                 -0.56525053 [mEh]      -0.35470006 [kcal/mol]      -1.48406507 [kJ/mol]
      Elst10,r                     -0.53422887 [mEh]      -0.33523367 [kcal/mol]      -1.40261770 [kJ/mol]
      Elst12,r                     -0.04072650 [mEh]      -0.02555626 [kcal/mol]      -0.10692740 [kJ/mol]
      Elst13,r                      0.00970483 [mEh]       0.00608987 [kcal/mol]       0.02548003 [kJ/mol]

    Exchange                        0.58117936 [mEh]       0.36469555 [kcal/mol]       1.52588620 [kJ/mol]
      Exch10                        0.46677143 [mEh]       0.29290349 [kcal/mol]       1.22550821 [kJ/mol]
      Exch10(S^2)                   0.46662098 [mEh]       0.29280908 [kcal/mol]       1.22511320 [kJ/mol]
      Exch11(S^2)                  -0.01355810 [mEh]      -0.00850784 [kcal/mol]      -0.03559679 [kJ/mol]
      Exch12(S^2)                   0.12796604 [mEh]       0.08029990 [kcal/mol]       0.33597478 [kJ/mol]

    Induction                      -0.21440948 [mEh]      -0.13454398 [kcal/mol]      -0.56293201 [kJ/mol]
      Ind20,r                      -0.35165515 [mEh]      -0.22066694 [kcal/mol]      -0.92327048 [kJ/mol]
      Ind22                        -0.03651538 [mEh]      -0.02291375 [kcal/mol]      -0.09587112 [kJ/mol]
      Exch-Ind20,r                  0.13473883 [mEh]       0.08454990 [kcal/mol]       0.35375676 [kJ/mol]
      Exch-Ind22                    0.01399109 [mEh]       0.00877954 [kcal/mol]       0.03673361 [kJ/mol]
      delta HF,r (2)               -0.04085878 [mEh]      -0.02563927 [kcal/mol]      -0.10727471 [kJ/mol]
      delta MP2,r (2)               0.06588991 [mEh]       0.04134654 [kcal/mol]       0.17299393 [kJ/mol]

    Dispersion                     -2.25197487 [mEh]      -1.41313556 [kcal/mol]      -5.91255920 [kJ/mol]
      Disp20                       -2.20787359 [mEh]      -1.38546159 [kcal/mol]      -5.79677130 [kJ/mol]
      Disp30                        0.02190411 [mEh]       0.01374504 [kcal/mol]       0.05750924 [kJ/mol]
      Disp21                        0.47980761 [mEh]       0.30108382 [kcal/mol]       1.25973470 [kJ/mol]
      Disp22 (SDQ)                 -0.05195772 [mEh]      -0.03260396 [kcal/mol]      -0.13641497 [kJ/mol]
      Disp22 (T)                   -0.53933025 [mEh]      -0.33843484 [kcal/mol]      -1.41601138 [kJ/mol]
      Est. Disp22 (T)              -0.57138159 [mEh]      -0.35854736 [kcal/mol]      -1.50016216 [kJ/mol]
      Exch-Disp20                   0.07752631 [mEh]       0.04864849 [kcal/mol]       0.20354529 [kJ/mol]

  Total HF                         -0.32523254 [mEh]      -0.20408650 [kcal/mol]      -0.85389791 [kJ/mol]
  Total SAPT0                      -2.45557982 [mEh]      -1.54089960 [kcal/mol]      -6.44712392 [kJ/mol]
  Total SAPT2                      -2.40442267 [mEh]      -1.50879800 [kcal/mol]      -6.31281085 [kJ/mol]
  Total SAPT2+                     -2.54795437 [mEh]      -1.59886551 [kcal/mol]      -6.68965328 [kJ/mol]
  Total SAPT2+(3)                  -2.51634543 [mEh]      -1.57903060 [kcal/mol]      -6.60666401 [kJ/mol]
  Total SAPT2+dMP2                 -2.48206446 [mEh]      -1.55751897 [kcal/mol]      -6.51665935 [kJ/mol]
  Total SAPT2+(3)dMP2              -2.45045552 [mEh]      -1.53768405 [kcal/mol]      -6.43367008 [kJ/mol]

  Special recipe for scaled SAPT0 (see Manual):
    Electrostatics sSAPT0          -0.53422887 [mEh]      -0.33523367 [kcal/mol]      -1.40261770 [kJ/mol]
    Exchange sSAPT0                 0.46677143 [mEh]       0.29290349 [kcal/mol]       1.22550821 [kJ/mol]
    Induction sSAPT0               -0.25764473 [mEh]      -0.16167451 [kcal/mol]      -0.67644614 [kJ/mol]
    Dispersion sSAPT0              -2.13027226 [mEh]      -1.33676603 [kcal/mol]      -5.59302906 [kJ/mol]
  Total sSAPT0                     -2.45537443 [mEh]      -1.54077072 [kcal/mol]      -6.44658468 [kJ/mol]
  --------------------------------------------------------------------------------------------------------

*** tstop() called on node165.bme.utexas.edu at Thu Jan 25 08:03:27 2024
Module time:
	user time   =  380365.70 seconds =    6339.43 minutes
	system time =    3009.81 seconds =      50.16 minutes
	total time  =      64583 seconds =    1076.38 minutes
Total time:
	user time   =  382832.87 seconds =    6380.55 minutes
	system time =    3117.51 seconds =      51.96 minutes
	total time  =      64979 seconds =    1082.98 minutes

    Psi4 stopped on: Thursday, 25 January 2024 08:03AM
    Psi4 wall time for execution: 18:02:59.14

*** Psi4 exiting successfully. Buy a developer a beer!
