
    -----------------------------------------------------------------------
          Psi4: An Open-Source Ab Initio Electronic Structure Package
                               Psi4 1.5 release

                         Git: Rev {HEAD} e9f4d6d 


    D. G. A. Smith, L. A. Burns, A. C. Simmonett, R. M. Parrish,
    M. C. Schieber, R. Galvelis, P. Kraus, H. Kruse, R. Di Remigio,
    A. Alenaizan, A. M. James, S. Lehtola, J. P. Misiewicz, M. Scheurer,
    R. A. Shaw, J. B. Schriber, Y. Xie, Z. L. Glick, D. A. Sirianni,
    J. S. O'Brien, J. M. Waldrop, A. Kumar, E. G. Hohenstein,
    B. P. Pritchard, B. R. Brooks, H. F. Schaefer III, A. Yu. Sokolov,
    K. Patkowski, A. E. DePrince III, U. Bozkaya, R. A. King,
    F. A. Evangelista, J. M. Turney, T. D. Crawford, C. D. Sherrill,
    J. Chem. Phys. 152(18) 184108 (2020). https://doi.org/10.1063/5.0006002

                            Additional Code Authors
    E. T. Seidl, C. L. Janssen, E. F. Valeev, M. L. Leininger,
    J. F. Gonthier, R. M. Richard, H. R. McAlexander, M. Saitow, X. Wang,
    P. Verma, M. H. Lechner, and A. Jiang

             Previous Authors, Complete List of Code Contributors,
                       and Citations for Specific Modules
    https://github.com/psi4/psi4/blob/master/codemeta.json
    https://github.com/psi4/psi4/graphs/contributors
    http://psicode.org/psi4manual/master/introduction.html#citing-psifour

    -----------------------------------------------------------------------


    Psi4 started on: Wednesday, 24 January 2024 11:09AM

    Process ID: 1671636
    Host:       node151.bme.utexas.edu
    PSIDATADIR: /opt/anaconda/envs/psi4v1.5/share/psi4
    Memory:     500.0 MiB
    Threads:    8
    
  ==> Input File <==

--------------------------------------------------------------------------
memory 70GB

molecule {
0 1
N -0.64527 0.537199 0.000379
C -1.914342 0.992571 0.000336
N -2.327871 2.260455 0.000198
C -1.289976 3.113552 0.000134
C 0.071467 2.788444 0.000208
C 0.388103 1.409805 0.000331
N 0.862141 3.925582 0.00012
C 0.0 4.915748 0.0
N -1.315514 4.490519 0.0
H -2.678219 0.213216 0.000396
N 1.647269 0.939941 0.000399
H 2.408453 1.601685 0.000397
H 1.826741 -0.069006 0.000581
H 0.255544 5.970689 -9.4e-05
H -2.145977 5.066056 -9e-05
--
0 1
N -3.18716 2.698056 3.268114
C -2.644244 1.397899 3.271501
N -1.291813 1.280887 3.243105
C -0.505399 2.367959 3.212969
C -1.056032 3.704774 3.209323
C -2.409528 3.816661 3.237802
H -4.19684 2.755398 3.289662
O -3.424134 0.436596 3.30002
N 0.817166 2.17459 3.186133
H 1.214026 1.210533 3.188788
H 1.438554 2.968026 3.163098
H -0.417999 4.584116 3.1849
H -2.927384 4.774921 3.237897
 units angstrom
 no_reorient
 symmetry c1}
set  {scf_type DF
 basis aug-cc-pvtz
 freeze_core True
 guess SAD}
energy('sapt2+(3)dmp2')
--------------------------------------------------------------------------

  Memory set to  65.193 GiB by Python driver.

Scratch directory: /tmp/
   => Loading Basis Set <=

    Name: AUG-CC-PVTZ
    Role: ORBITAL
    Keyword: BASIS
    atoms 1, 3, 7, 9, 11, 16, 18, 24 entry N          line   285 file /opt/anaconda/envs/psi4v1.5/share/psi4/basis/aug-cc-pvtz.gbs 
    atoms 2, 4-6, 8, 17, 19-21       entry C          line   239 file /opt/anaconda/envs/psi4v1.5/share/psi4/basis/aug-cc-pvtz.gbs 
    atoms 10, 12-15, 22, 25-28       entry H          line    40 file /opt/anaconda/envs/psi4v1.5/share/psi4/basis/aug-cc-pvtz.gbs 
    atoms 23                         entry O          line   331 file /opt/anaconda/envs/psi4v1.5/share/psi4/basis/aug-cc-pvtz.gbs 

   => Loading Basis Set <=

    Name: AUG-CC-PVTZ
    Role: ORBITAL
    Keyword: BASIS
    atoms 1, 3, 7, 9, 11, 16, 18, 24 entry N          line   285 file /opt/anaconda/envs/psi4v1.5/share/psi4/basis/aug-cc-pvtz.gbs 
    atoms 2, 4-6, 8, 17, 19-21       entry C          line   239 file /opt/anaconda/envs/psi4v1.5/share/psi4/basis/aug-cc-pvtz.gbs 
    atoms 10, 12-15, 22, 25-28       entry H          line    40 file /opt/anaconda/envs/psi4v1.5/share/psi4/basis/aug-cc-pvtz.gbs 
    atoms 23                         entry O          line   331 file /opt/anaconda/envs/psi4v1.5/share/psi4/basis/aug-cc-pvtz.gbs 


  //>>>>>>>>>>>>>>>>>>>>>>>>>>>>>>>>>>>//
  //              Dimer HF             //
  //<<<<<<<<<<<<<<<<<<<<<<<<<<<<<<<<<<<//


*** tstart() called on node151.bme.utexas.edu
*** at Wed Jan 24 11:09:03 2024

   => Loading Basis Set <=

    Name: AUG-CC-PVTZ
    Role: ORBITAL
    Keyword: BASIS
    atoms 1, 3, 7, 9, 11, 16, 18, 24 entry N          line   285 file /opt/anaconda/envs/psi4v1.5/share/psi4/basis/aug-cc-pvtz.gbs 
    atoms 2, 4-6, 8, 17, 19-21       entry C          line   239 file /opt/anaconda/envs/psi4v1.5/share/psi4/basis/aug-cc-pvtz.gbs 
    atoms 10, 12-15, 22, 25-28       entry H          line    40 file /opt/anaconda/envs/psi4v1.5/share/psi4/basis/aug-cc-pvtz.gbs 
    atoms 23                         entry O          line   331 file /opt/anaconda/envs/psi4v1.5/share/psi4/basis/aug-cc-pvtz.gbs 


         ---------------------------------------------------------
                                   SCF
               by Justin Turney, Rob Parrish, Andy Simmonett
                          and Daniel G. A. Smith
                              RHF Reference
                        8 Threads,  66757 MiB Core
         ---------------------------------------------------------

  ==> Geometry <==

    Molecular point group: c1
    Full point group: C1

    Geometry (in Angstrom), charge = 0, multiplicity = 1:

       Center              X                  Y                   Z               Mass       
    ------------   -----------------  -----------------  -----------------  -----------------
         N            0.364668374816    -1.846946687575    -1.462349161222    14.003074004430
         C           -0.904403625184    -1.391574687575    -1.462392161222    12.000000000000
         N           -1.317932625184    -0.123690687575    -1.462530161222    14.003074004430
         C           -0.280037625184     0.729406312425    -1.462594161222    12.000000000000
         C            1.081405374816     0.404298312425    -1.462520161222    12.000000000000
         C            1.398041374816    -0.974340687575    -1.462397161222    12.000000000000
         N            1.872079374816     1.541436312425    -1.462608161222    14.003074004430
         C            1.009938374816     2.531602312425    -1.462728161222    12.000000000000
         N           -0.305575625184     2.106373312425    -1.462728161222    14.003074004430
         H           -1.668280625184    -2.170929687575    -1.462332161222     1.007825032230
         N            2.657207374816    -1.444204687575    -1.462329161222    14.003074004430
         H            3.418391374816    -0.782460687575    -1.462331161222     1.007825032230
         H            2.836679374816    -2.453151687575    -1.462147161222     1.007825032230
         H            1.265482374816     3.586543312425    -1.462822161222     1.007825032230
         H           -1.136038625184     2.681910312425    -1.462818161222     1.007825032230
         N           -2.177221625184     0.313910312425     1.805385838778    14.003074004430
         C           -1.634305625184    -0.986246687575     1.808772838778    12.000000000000
         N           -0.281874625184    -1.103258687575     1.780376838778    14.003074004430
         C            0.504539374816    -0.016186687575     1.750240838778    12.000000000000
         C           -0.046093625184     1.320628312425     1.746594838778    12.000000000000
         C           -1.399589625184     1.432515312425     1.775073838778    12.000000000000
         H           -3.186901625184     0.371252312425     1.826933838778     1.007825032230
         O           -2.414195625184    -1.947549687575     1.837291838778    15.994914619570
         N            1.827104374816    -0.209555687575     1.723404838778    14.003074004430
         H            2.223964374816    -1.173612687575     1.726059838778     1.007825032230
         H            2.448492374816     0.583880312425     1.700369838778     1.007825032230
         H            0.591939374816     2.199970312425     1.722171838778     1.007825032230
         H           -1.917445625184     2.390775312425     1.775168838778     1.007825032230

  Running in c1 symmetry.

  Rotational constants: A =      0.02134  B =      0.01392  C =      0.01265 [cm^-1]
  Rotational constants: A =    639.83128  B =    417.40608  C =    379.08801 [MHz]
  Nuclear repulsion = 1364.032950358186099

  Charge       = 0
  Multiplicity = 1
  Electrons    = 128
  Nalpha       = 64
  Nbeta        = 64

  ==> Algorithm <==

  SCF Algorithm Type is DF.
  DIIS enabled.
  MOM disabled.
  Fractional occupation disabled.
  Guess Type is SAD.
  Energy threshold   = 1.00e-08
  Density threshold  = 1.00e-08
  Integral threshold = 1.00e-12

  ==> Primary Basis <==

  Basis Set: AUG-CC-PVTZ
    Blend: AUG-CC-PVTZ
    Number of shells: 342
    Number of basis functions: 1058
    Number of Cartesian functions: 1240
    Spherical Harmonics?: true
    Max angular momentum: 3

   => Loading Basis Set <=

    Name: (AUG-CC-PVTZ AUX)
    Role: JKFIT
    Keyword: DF_BASIS_SCF
    atoms 1, 3, 7, 9, 11, 16, 18, 24 entry N          line   224 file /opt/anaconda/envs/psi4v1.5/share/psi4/basis/aug-cc-pvtz-jkfit.gbs 
    atoms 2, 4-6, 8, 17, 19-21       entry C          line   162 file /opt/anaconda/envs/psi4v1.5/share/psi4/basis/aug-cc-pvtz-jkfit.gbs 
    atoms 10, 12-15, 22, 25-28       entry H          line    70 file /opt/anaconda/envs/psi4v1.5/share/psi4/basis/aug-cc-pvtz-jkfit.gbs 
    atoms 23                         entry O          line   286 file /opt/anaconda/envs/psi4v1.5/share/psi4/basis/aug-cc-pvtz-jkfit.gbs 

  ==> Integral Setup <==

  ==> DiskDFJK: Density-Fitted J/K Matrices <==

    J tasked:                  Yes
    K tasked:                  Yes
    wK tasked:                  No
    OpenMP threads:              8
    Integrals threads:           8
    Memory [MiB]:            50067
    Algorithm:                Core
    Integral Cache:           SAVE
    Schwarz Cutoff:          1E-12
    Fitting Condition:       1E-10

   => Auxiliary Basis Set <=

  Basis Set: (AUG-CC-PVTZ AUX)
    Blend: AUG-CC-PVTZ-JKFIT
    Number of shells: 680
    Number of basis functions: 2332
    Number of Cartesian functions: 2908
    Spherical Harmonics?: true
    Max angular momentum: 4

  Minimum eigenvalue in the overlap matrix is 6.6896959322E-07.
  Reciprocal condition number of the overlap matrix is 2.8405762473E-08.
    Using symmetric orthogonalization.

  ==> Pre-Iterations <==

  SCF Guess: Superposition of Atomic Densities via on-the-fly atomic UHF (no occupation information).

   -------------------------
    Irrep   Nso     Nmo    
   -------------------------
     A       1058    1058 
   -------------------------
    Total    1058    1058
   -------------------------

  ==> Iterations <==

                           Total Energy        Delta E     RMS |[F,P]|

   @DF-RHF iter SAD:  -856.82293581223428   -8.56823e+02   0.00000e+00 
   @DF-RHF iter   1:  -856.93548726026484   -1.12551e-01   9.35999e-04 DIIS
   @DF-RHF iter   2:  -857.31598848793431   -3.80501e-01   5.04651e-04 DIIS
   @DF-RHF iter   3:  -857.42186912660020   -1.05881e-01   1.04516e-04 DIIS
   @DF-RHF iter   4:  -857.42861727778927   -6.74815e-03   4.83563e-05 DIIS
   @DF-RHF iter   5:  -857.43001152373915   -1.39425e-03   1.05110e-05 DIIS
   @DF-RHF iter   6:  -857.43014781150009   -1.36288e-04   5.25687e-06 DIIS
   @DF-RHF iter   7:  -857.43018768234458   -3.98708e-05   2.13046e-06 DIIS
   @DF-RHF iter   8:  -857.43019555026444   -7.86792e-06   8.07432e-07 DIIS
   @DF-RHF iter   9:  -857.43019672164382   -1.17138e-06   3.56213e-07 DIIS
   @DF-RHF iter  10:  -857.43019695589442   -2.34251e-07   1.42072e-07 DIIS
   @DF-RHF iter  11:  -857.43019700105060   -4.51562e-08   6.83020e-08 DIIS
   @DF-RHF iter  12:  -857.43019701012281   -9.07221e-09   2.68487e-08 DIIS
   @DF-RHF iter  13:  -857.43019701175410   -1.63129e-09   9.64259e-09 DIIS
  Energy and wave function converged.


  ==> Post-Iterations <==

    Orbital Energies [Eh]
    ---------------------

    Doubly Occupied:                                                      

       1A    -20.485435     2A    -15.634830     3A    -15.613920  
       4A    -15.598778     5A    -15.592084     6A    -15.576850  
       7A    -15.552962     8A    -15.543058     9A    -15.529847  
      10A    -11.357441    11A    -11.351560    12A    -11.339509  
      13A    -11.330827    14A    -11.327173    15A    -11.319015  
      16A    -11.305810    17A    -11.254179    18A    -11.243692  
      19A     -1.368072    20A     -1.365669    21A     -1.294692  
      22A     -1.286760    23A     -1.255697    24A     -1.247271  
      25A     -1.190209    26A     -1.161966    27A     -1.145145  
      28A     -1.058881    29A     -1.033423    30A     -0.896012  
      31A     -0.894359    32A     -0.873030    33A     -0.869717  
      34A     -0.846942    35A     -0.779067    36A     -0.756068  
      37A     -0.752894    38A     -0.740960    39A     -0.720433  
      40A     -0.699246    41A     -0.676764    42A     -0.670632  
      43A     -0.647975    44A     -0.637124    45A     -0.616896  
      46A     -0.614322    47A     -0.609645    48A     -0.605841  
      49A     -0.589276    50A     -0.576332    51A     -0.560312  
      52A     -0.533079    53A     -0.497091    54A     -0.496094  
      55A     -0.477051    56A     -0.447376    57A     -0.429736  
      58A     -0.425436    59A     -0.409550    60A     -0.403454  
      61A     -0.376898    62A     -0.365685    63A     -0.335970  
      64A     -0.309947  

    Virtual:                                                              

      65A      0.010260    66A      0.021253    67A      0.027815  
      68A      0.029924    69A      0.041074    70A      0.045784  
      71A      0.049715    72A      0.050640    73A      0.062157  
      74A      0.063507    75A      0.071023    76A      0.079296  
      77A      0.083126    78A      0.084388    79A      0.087377  
      80A      0.090673    81A      0.094902    82A      0.096744  
      83A      0.102707    84A      0.104494    85A      0.109543  
      86A      0.112603    87A      0.113298    88A      0.118851  
      89A      0.121318    90A      0.126304    91A      0.128077  
      92A      0.129844    93A      0.132133    94A      0.134281  
      95A      0.135207    96A      0.141239    97A      0.144675  
      98A      0.145489    99A      0.150531   100A      0.151238  
     101A      0.155351   102A      0.162130   103A      0.165444  
     104A      0.167661   105A      0.171509   106A      0.177251  
     107A      0.180315   108A      0.183202   109A      0.187904  
     110A      0.189872   111A      0.195674   112A      0.197372  
     113A      0.199248   114A      0.204690   115A      0.204957  
     116A      0.211360   117A      0.215458   118A      0.223195  
     119A      0.225718   120A      0.228699   121A      0.229764  
     122A      0.233334   123A      0.237848   124A      0.239565  
     125A      0.245779   126A      0.247744   127A      0.251423  
     128A      0.257365   129A      0.260561   130A      0.265807  
     131A      0.267105   132A      0.268033   133A      0.274621  
     134A      0.275944   135A      0.280191   136A      0.283415  
     137A      0.285903   138A      0.292537   139A      0.295092  
     140A      0.297303   141A      0.298393   142A      0.303326  
     143A      0.306519   144A      0.311033   145A      0.312569  
     146A      0.316903   147A      0.319679   148A      0.322580  
     149A      0.330891   150A      0.332490   151A      0.335030  
     152A      0.341885   153A      0.344077   154A      0.346139  
     155A      0.348520   156A      0.351675   157A      0.352616  
     158A      0.356177   159A      0.360940   160A      0.370356  
     161A      0.374374   162A      0.375897   163A      0.380021  
     164A      0.383928   165A      0.386874   166A      0.390744  
     167A      0.392116   168A      0.397748   169A      0.400467  
     170A      0.406293   171A      0.408432   172A      0.413622  
     173A      0.417111   174A      0.420117   175A      0.425661  
     176A      0.427291   177A      0.430347   178A      0.433378  
     179A      0.436454   180A      0.438905   181A      0.442599  
     182A      0.446673   183A      0.452060   184A      0.455064  
     185A      0.456417   186A      0.457410   187A      0.462917  
     188A      0.468254   189A      0.470725   190A      0.474559  
     191A      0.477213   192A      0.481244   193A      0.483381  
     194A      0.486363   195A      0.489500   196A      0.492860  
     197A      0.497821   198A      0.500502   199A      0.501958  
     200A      0.505037   201A      0.510391   202A      0.514055  
     203A      0.516709   204A      0.519245   205A      0.522198  
     206A      0.523736   207A      0.528749   208A      0.533709  
     209A      0.535275   210A      0.537226   211A      0.542428  
     212A      0.544374   213A      0.552635   214A      0.555988  
     215A      0.557303   216A      0.560843   217A      0.564268  
     218A      0.566165   219A      0.571180   220A      0.575663  
     221A      0.578253   222A      0.583822   223A      0.584625  
     224A      0.586574   225A      0.592754   226A      0.595026  
     227A      0.599274   228A      0.608496   229A      0.609484  
     230A      0.615370   231A      0.619308   232A      0.624976  
     233A      0.628957   234A      0.636101   235A      0.641102  
     236A      0.644405   237A      0.648345   238A      0.650179  
     239A      0.657863   240A      0.661716   241A      0.662553  
     242A      0.670537   243A      0.670709   244A      0.672712  
     245A      0.680943   246A      0.686985   247A      0.694738  
     248A      0.697585   249A      0.699424   250A      0.703548  
     251A      0.705791   252A      0.710518   253A      0.719566  
     254A      0.726974   255A      0.729587   256A      0.734871  
     257A      0.739886   258A      0.746093   259A      0.749628  
     260A      0.750753   261A      0.758227   262A      0.759684  
     263A      0.763963   264A      0.765427   265A      0.767782  
     266A      0.774549   267A      0.778898   268A      0.782030  
     269A      0.787836   270A      0.790373   271A      0.795619  
     272A      0.798672   273A      0.802052   274A      0.806090  
     275A      0.812628   276A      0.819583   277A      0.820843  
     278A      0.830275   279A      0.833931   280A      0.841558  
     281A      0.845117   282A      0.847758   283A      0.854987  
     284A      0.856405   285A      0.860057   286A      0.862276  
     287A      0.869786   288A      0.873315   289A      0.883542  
     290A      0.888978   291A      0.891319   292A      0.897728  
     293A      0.899309   294A      0.902828   295A      0.907463  
     296A      0.911482   297A      0.915600   298A      0.922765  
     299A      0.927243   300A      0.929335   301A      0.936178  
     302A      0.942208   303A      0.943724   304A      0.949004  
     305A      0.951282   306A      0.955591   307A      0.957952  
     308A      0.964864   309A      0.965930   310A      0.969617  
     311A      0.970806   312A      0.977212   313A      0.983336  
     314A      0.990628   315A      0.998111   316A      0.999805  
     317A      1.002615   318A      1.003960   319A      1.010014  
     320A      1.015576   321A      1.018528   322A      1.020062  
     323A      1.026540   324A      1.033261   325A      1.038657  
     326A      1.041203   327A      1.044884   328A      1.052049  
     329A      1.053302   330A      1.057374   331A      1.061967  
     332A      1.064609   333A      1.068480   334A      1.073054  
     335A      1.080043   336A      1.082366   337A      1.084506  
     338A      1.087935   339A      1.095993   340A      1.100541  
     341A      1.107645   342A      1.108410   343A      1.111973  
     344A      1.119862   345A      1.121803   346A      1.127029  
     347A      1.133392   348A      1.135910   349A      1.142090  
     350A      1.143929   351A      1.146655   352A      1.151132  
     353A      1.157256   354A      1.161429   355A      1.163139  
     356A      1.166737   357A      1.172817   358A      1.179454  
     359A      1.185333   360A      1.187803   361A      1.191582  
     362A      1.193521   363A      1.199727   364A      1.205907  
     365A      1.207036   366A      1.211927   367A      1.212773  
     368A      1.218180   369A      1.224119   370A      1.226568  
     371A      1.228923   372A      1.236579   373A      1.238567  
     374A      1.241300   375A      1.242880   376A      1.250735  
     377A      1.254586   378A      1.263350   379A      1.268929  
     380A      1.272361   381A      1.275798   382A      1.282522  
     383A      1.286881   384A      1.291080   385A      1.297274  
     386A      1.299573   387A      1.303676   388A      1.308930  
     389A      1.311777   390A      1.321051   391A      1.330667  
     392A      1.332519   393A      1.336228   394A      1.339446  
     395A      1.347013   396A      1.353502   397A      1.357492  
     398A      1.360542   399A      1.363863   400A      1.369512  
     401A      1.371712   402A      1.377546   403A      1.386099  
     404A      1.389379   405A      1.392336   406A      1.397778  
     407A      1.401468   408A      1.411259   409A      1.413511  
     410A      1.418216   411A      1.418515   412A      1.426149  
     413A      1.428877   414A      1.435523   415A      1.443146  
     416A      1.446731   417A      1.449444   418A      1.452574  
     419A      1.457963   420A      1.460263   421A      1.470017  
     422A      1.474381   423A      1.476772   424A      1.487583  
     425A      1.488573   426A      1.490466   427A      1.498905  
     428A      1.503824   429A      1.508794   430A      1.516036  
     431A      1.519088   432A      1.528039   433A      1.535951  
     434A      1.538135   435A      1.539959   436A      1.547667  
     437A      1.551487   438A      1.559778   439A      1.567363  
     440A      1.568922   441A      1.573690   442A      1.583581  
     443A      1.585928   444A      1.589960   445A      1.593856  
     446A      1.597782   447A      1.605656   448A      1.614579  
     449A      1.618115   450A      1.619483   451A      1.630582  
     452A      1.634138   453A      1.638325   454A      1.643634  
     455A      1.649055   456A      1.652748   457A      1.659900  
     458A      1.665522   459A      1.669872   460A      1.677604  
     461A      1.679115   462A      1.687342   463A      1.695966  
     464A      1.705400   465A      1.713253   466A      1.715975  
     467A      1.719856   468A      1.721291   469A      1.729140  
     470A      1.736823   471A      1.742174   472A      1.755239  
     473A      1.759689   474A      1.762153   475A      1.765999  
     476A      1.772141   477A      1.779966   478A      1.781683  
     479A      1.792283   480A      1.794399   481A      1.799920  
     482A      1.803015   483A      1.811036   484A      1.815901  
     485A      1.819990   486A      1.832912   487A      1.840468  
     488A      1.843344   489A      1.848719   490A      1.854685  
     491A      1.867311   492A      1.869134   493A      1.875423  
     494A      1.877825   495A      1.885479   496A      1.889442  
     497A      1.899479   498A      1.902238   499A      1.911013  
     500A      1.915209   501A      1.923077   502A      1.926038  
     503A      1.931791   504A      1.943965   505A      1.952333  
     506A      1.956462   507A      1.965759   508A      1.968936  
     509A      1.969821   510A      1.988240   511A      1.993165  
     512A      1.998103   513A      2.002513   514A      2.010424  
     515A      2.019064   516A      2.027103   517A      2.032489  
     518A      2.042970   519A      2.048909   520A      2.061507  
     521A      2.068719   522A      2.077042   523A      2.079778  
     524A      2.080344   525A      2.096485   526A      2.101596  
     527A      2.105961   528A      2.111113   529A      2.116396  
     530A      2.124347   531A      2.138399   532A      2.143115  
     533A      2.149745   534A      2.157307   535A      2.160536  
     536A      2.165822   537A      2.169547   538A      2.172872  
     539A      2.183015   540A      2.185786   541A      2.192208  
     542A      2.195305   543A      2.201888   544A      2.208183  
     545A      2.212145   546A      2.224271   547A      2.233007  
     548A      2.237776   549A      2.247919   550A      2.254399  
     551A      2.261827   552A      2.261981   553A      2.267739  
     554A      2.275716   555A      2.278137   556A      2.290202  
     557A      2.296145   558A      2.303259   559A      2.306084  
     560A      2.315807   561A      2.324471   562A      2.332130  
     563A      2.335685   564A      2.338609   565A      2.347375  
     566A      2.354937   567A      2.356871   568A      2.368864  
     569A      2.374903   570A      2.382467   571A      2.385748  
     572A      2.389604   573A      2.401699   574A      2.405348  
     575A      2.410997   576A      2.422232   577A      2.426929  
     578A      2.428931   579A      2.434683   580A      2.449179  
     581A      2.452181   582A      2.459762   583A      2.467215  
     584A      2.471628   585A      2.477885   586A      2.480472  
     587A      2.488533   588A      2.493802   589A      2.501518  
     590A      2.507388   591A      2.513577   592A      2.523526  
     593A      2.533604   594A      2.543620   595A      2.547421  
     596A      2.555404   597A      2.560680   598A      2.569369  
     599A      2.574804   600A      2.580994   601A      2.582907  
     602A      2.593190   603A      2.597721   604A      2.609532  
     605A      2.617153   606A      2.624816   607A      2.628895  
     608A      2.639792   609A      2.643794   610A      2.647968  
     611A      2.656584   612A      2.670530   613A      2.673890  
     614A      2.687745   615A      2.692981   616A      2.699708  
     617A      2.703701   618A      2.705167   619A      2.716265  
     620A      2.723099   621A      2.740440   622A      2.741283  
     623A      2.750300   624A      2.755211   625A      2.769912  
     626A      2.772814   627A      2.778329   628A      2.784076  
     629A      2.791004   630A      2.796782   631A      2.811665  
     632A      2.816418   633A      2.827058   634A      2.839904  
     635A      2.848119   636A      2.863649   637A      2.866874  
     638A      2.872601   639A      2.879155   640A      2.883631  
     641A      2.903026   642A      2.911138   643A      2.917562  
     644A      2.921511   645A      2.934506   646A      2.946525  
     647A      2.947843   648A      2.963702   649A      2.974404  
     650A      2.984846   651A      3.005751   652A      3.016423  
     653A      3.058259   654A      3.069495   655A      3.076806  
     656A      3.085595   657A      3.098377   658A      3.109509  
     659A      3.117608   660A      3.143968   661A      3.152015  
     662A      3.163940   663A      3.177826   664A      3.193644  
     665A      3.203758   666A      3.224596   667A      3.248581  
     668A      3.282542   669A      3.284398   670A      3.295628  
     671A      3.321333   672A      3.326809   673A      3.346262  
     674A      3.368265   675A      3.374844   676A      3.380174  
     677A      3.386111   678A      3.401682   679A      3.417970  
     680A      3.427646   681A      3.452351   682A      3.456661  
     683A      3.467581   684A      3.472905   685A      3.493904  
     686A      3.497439   687A      3.519409   688A      3.524789  
     689A      3.532352   690A      3.543427   691A      3.548888  
     692A      3.554995   693A      3.572343   694A      3.584677  
     695A      3.598201   696A      3.610440   697A      3.613780  
     698A      3.626185   699A      3.628708   700A      3.635090  
     701A      3.651836   702A      3.656325   703A      3.667265  
     704A      3.682215   705A      3.687308   706A      3.692654  
     707A      3.708722   708A      3.714283   709A      3.725047  
     710A      3.727440   711A      3.734317   712A      3.745760  
     713A      3.754214   714A      3.764893   715A      3.772308  
     716A      3.775691   717A      3.780555   718A      3.799988  
     719A      3.801689   720A      3.807714   721A      3.828519  
     722A      3.835831   723A      3.845708   724A      3.853204  
     725A      3.857107   726A      3.865061   727A      3.877074  
     728A      3.882693   729A      3.887968   730A      3.900075  
     731A      3.905006   732A      3.910632   733A      3.916149  
     734A      3.925748   735A      3.937715   736A      3.940001  
     737A      3.948948   738A      3.952733   739A      3.964967  
     740A      3.972978   741A      3.977432   742A      3.982508  
     743A      3.990662   744A      3.998395   745A      4.007078  
     746A      4.011458   747A      4.033394   748A      4.036186  
     749A      4.045080   750A      4.056183   751A      4.070143  
     752A      4.072686   753A      4.091541   754A      4.097931  
     755A      4.100601   756A      4.108024   757A      4.109516  
     758A      4.114406   759A      4.128374   760A      4.140910  
     761A      4.140926   762A      4.153068   763A      4.162586  
     764A      4.172561   765A      4.177302   766A      4.182967  
     767A      4.191895   768A      4.193853   769A      4.201143  
     770A      4.210088   771A      4.212675   772A      4.227320  
     773A      4.229298   774A      4.234659   775A      4.238461  
     776A      4.251309   777A      4.253990   778A      4.262980  
     779A      4.267060   780A      4.275509   781A      4.283321  
     782A      4.290260   783A      4.301617   784A      4.307137  
     785A      4.308310   786A      4.323360   787A      4.325960  
     788A      4.342263   789A      4.345165   790A      4.354881  
     791A      4.367842   792A      4.370530   793A      4.379853  
     794A      4.381388   795A      4.389161   796A      4.400427  
     797A      4.401191   798A      4.414396   799A      4.419533  
     800A      4.422945   801A      4.435515   802A      4.444402  
     803A      4.453378   804A      4.460323   805A      4.465009  
     806A      4.476145   807A      4.479913   808A      4.489903  
     809A      4.502703   810A      4.512200   811A      4.515288  
     812A      4.524263   813A      4.537287   814A      4.546537  
     815A      4.550785   816A      4.559148   817A      4.570289  
     818A      4.577192   819A      4.584609   820A      4.591333  
     821A      4.607525   822A      4.625794   823A      4.633457  
     824A      4.642283   825A      4.652333   826A      4.657622  
     827A      4.665662   828A      4.669705   829A      4.690476  
     830A      4.696960   831A      4.703853   832A      4.711109  
     833A      4.719595   834A      4.727812   835A      4.734655  
     836A      4.737641   837A      4.750035   838A      4.757496  
     839A      4.767809   840A      4.773951   841A      4.789918  
     842A      4.796631   843A      4.817477   844A      4.822484  
     845A      4.832943   846A      4.854947   847A      4.860426  
     848A      4.863328   849A      4.878134   850A      4.887167  
     851A      4.891762   852A      4.899222   853A      4.909319  
     854A      4.918763   855A      4.929176   856A      4.931762  
     857A      4.954974   858A      4.974206   859A      4.979144  
     860A      4.989348   861A      4.996498   862A      5.013562  
     863A      5.026075   864A      5.033195   865A      5.044479  
     866A      5.059678   867A      5.064170   868A      5.073329  
     869A      5.087439   870A      5.107641   871A      5.111465  
     872A      5.122851   873A      5.127991   874A      5.132877  
     875A      5.148308   876A      5.164332   877A      5.175933  
     878A      5.181871   879A      5.196313   880A      5.204620  
     881A      5.208705   882A      5.227624   883A      5.234696  
     884A      5.245050   885A      5.255218   886A      5.275808  
     887A      5.286537   888A      5.295932   889A      5.304506  
     890A      5.321064   891A      5.326643   892A      5.340338  
     893A      5.351300   894A      5.369930   895A      5.392906  
     896A      5.400309   897A      5.403922   898A      5.419195  
     899A      5.435533   900A      5.439987   901A      5.443457  
     902A      5.458672   903A      5.466297   904A      5.472017  
     905A      5.484198   906A      5.493958   907A      5.510893  
     908A      5.522518   909A      5.527191   910A      5.542978  
     911A      5.552364   912A      5.561689   913A      5.570346  
     914A      5.575043   915A      5.590085   916A      5.594947  
     917A      5.600450   918A      5.608637   919A      5.616899  
     920A      5.630026   921A      5.634771   922A      5.634925  
     923A      5.653822   924A      5.665008   925A      5.669591  
     926A      5.694928   927A      5.698340   928A      5.714514  
     929A      5.717214   930A      5.727656   931A      5.734949  
     932A      5.746079   933A      5.756148   934A      5.758124  
     935A      5.771310   936A      5.784148   937A      5.797201  
     938A      5.803422   939A      5.808822   940A      5.819654  
     941A      5.823987   942A      5.845084   943A      5.851138  
     944A      5.862448   945A      5.870085   946A      5.884727  
     947A      5.895712   948A      5.900667   949A      5.910058  
     950A      5.944457   951A      5.951422   952A      5.956745  
     953A      5.960101   954A      5.971648   955A      5.988479  
     956A      5.996514   957A      6.013586   958A      6.029873  
     959A      6.033204   960A      6.043568   961A      6.053479  
     962A      6.072906   963A      6.089748   964A      6.116028  
     965A      6.130601   966A      6.160160   967A      6.164518  
     968A      6.178807   969A      6.182384   970A      6.189636  
     971A      6.202351   972A      6.210583   973A      6.217763  
     974A      6.227457   975A      6.227981   976A      6.248650  
     977A      6.268395   978A      6.278490   979A      6.291508  
     980A      6.306100   981A      6.319571   982A      6.374632  
     983A      6.415950   984A      6.455731   985A      6.465517  
     986A      6.471831   987A      6.515127   988A      6.548910  
     989A      6.570236   990A      6.578641   991A      6.607260  
     992A      6.637132   993A      6.649360   994A      6.674885  
     995A      6.683074   996A      6.724347   997A      6.728249  
     998A      6.747100   999A      6.754948  1000A      6.767291  
    1001A      6.779351  1002A      6.795155  1003A      6.822984  
    1004A      6.838318  1005A      6.847432  1006A      6.885694  
    1007A      6.896397  1008A      6.926140  1009A      6.950836  
    1010A      7.018463  1011A      7.023214  1012A      7.054474  
    1013A      7.060958  1014A      7.075788  1015A      7.095800  
    1016A      7.107777  1017A      7.112196  1018A      7.144226  
    1019A      7.168641  1020A      7.265380  1021A      7.270852  
    1022A      7.325130  1023A      7.379762  1024A      7.416665  
    1025A      7.445229  1026A      7.471486  1027A      7.475535  
    1028A      7.509086  1029A      7.597432  1030A      7.622786  
    1031A      7.663305  1032A      7.700504  1033A      7.798728  
    1034A      7.820255  1035A      7.859570  1036A      7.889554  
    1037A      7.913198  1038A      7.975018  1039A      8.012853  
    1040A      8.074923  1041A     15.877488  1042A     16.024661  
    1043A     16.248765  1044A     16.522261  1045A     16.602627  
    1046A     16.713469  1047A     17.934634  1048A     18.010939  
    1049A     18.448762  1050A     18.455424  1051A     19.273086  
    1052A     19.599651  1053A     19.944135  1054A     20.066054  
    1055A     20.192230  1056A     20.642088  1057A     21.205850  
    1058A     21.514234  

    Final Occupation by Irrep:
              A 
    DOCC [    64 ]

  @DF-RHF Final Energy:  -857.43019701175410

   => Energetics <=

    Nuclear Repulsion Energy =           1364.0329503581860990
    One-Electron Energy =               -3879.9143421280405164
    Two-Electron Energy =                1658.4511947581002005
    Total Energy =                       -857.4301970117542169

Computation Completed


Properties will be evaluated at   0.000000,   0.000000,   0.000000 [a0]

Properties computed using the SCF density matrix

  Nuclear Dipole Moment: [e a0]
     X:     4.5521      Y:     4.8997      Z:     1.3630

  Electronic Dipole Moment: [e a0]
     X:    -3.0434      Y:    -1.5877      Z:    -1.5120

  Dipole Moment: [e a0]
     X:     1.5087      Y:     3.3120      Z:    -0.1491     Total:     3.6425

  Dipole Moment: [D]
     X:     3.8349      Y:     8.4184      Z:    -0.3789     Total:     9.2584


*** tstop() called on node151.bme.utexas.edu at Wed Jan 24 11:10:34 2024
Module time:
	user time   =     620.45 seconds =      10.34 minutes
	system time =       7.83 seconds =       0.13 minutes
	total time  =         91 seconds =       1.52 minutes
Total time:
	user time   =     620.45 seconds =      10.34 minutes
	system time =       7.83 seconds =       0.13 minutes
	total time  =         91 seconds =       1.52 minutes

*** tstart() called on node151.bme.utexas.edu
*** at Wed Jan 24 11:10:34 2024


  //>>>>>>>>>>>>>>>>>>>>>>>>>>>>>>>>>>>//
  //               DFMP2               //
  //<<<<<<<<<<<<<<<<<<<<<<<<<<<<<<<<<<<//

   => Loading Basis Set <=

    Name: (AUG-CC-PVTZ AUX)
    Role: RIFIT
    Keyword: DF_BASIS_MP2
    atoms 1, 3, 7, 9, 11, 16, 18, 24 entry N          line   206 file /opt/anaconda/envs/psi4v1.5/share/psi4/basis/aug-cc-pvtz-ri.gbs 
    atoms 2, 4-6, 8, 17, 19-21       entry C          line   148 file /opt/anaconda/envs/psi4v1.5/share/psi4/basis/aug-cc-pvtz-ri.gbs 
    atoms 10, 12-15, 22, 25-28       entry H          line    30 file /opt/anaconda/envs/psi4v1.5/share/psi4/basis/aug-cc-pvtz-ri.gbs 
    atoms 23                         entry O          line   264 file /opt/anaconda/envs/psi4v1.5/share/psi4/basis/aug-cc-pvtz-ri.gbs 

	 --------------------------------------------------------
	                          DF-MP2                         
	      2nd-Order Density-Fitted Moller-Plesset Theory     
	              RMP2 Wavefunction,   8 Threads             
	                                                         
	        Rob Parrish, Justin Turney, Andy Simmonett,      
	           Ed Hohenstein, and C. David Sherrill          
	 --------------------------------------------------------

   => Auxiliary Basis Set <=

  Basis Set: (AUG-CC-PVTZ AUX)
    Blend: AUG-CC-PVTZ-RI
    Number of shells: 644
    Number of basis functions: 2368
    Number of Cartesian functions: 2998
    Spherical Harmonics?: true
    Max angular momentum: 4

	 --------------------------------------------------------
	                 NBF =  1058, NAUX =  2368
	 --------------------------------------------------------
	   CLASS    FOCC     OCC    AOCC    AVIR     VIR    FVIR
	   PAIRS      18      64      46     994     994       0
	 --------------------------------------------------------

	 Will save fitting metric to file 97.

	-----------------------------------------------------------
	 ==================> DF-MP2 Energies <==================== 
	-----------------------------------------------------------
	 Reference Energy          =    -857.4301970117541032 [Eh]
	 Singles Energy            =      -0.0000000000000000 [Eh]
	 Same-Spin Energy          =      -0.8747542641569239 [Eh]
	 Opposite-Spin Energy      =      -2.4342316096042511 [Eh]
	 Correlation Energy        =      -3.3089858737611753 [Eh]
	 Total Energy              =    -860.7391828855153335 [Eh]
	-----------------------------------------------------------
	 ================> DF-SCS-MP2 Energies <================== 
	-----------------------------------------------------------
	 SCS Same-Spin Scale       =       0.3333333333333333 [-]
	 SCS Opposite-Spin Scale   =       1.2000000000000000 [-]
	 SCS Same-Spin Energy      =      -0.2915847547189746 [Eh]
	 SCS Opposite-Spin Energy  =      -2.9210779315251014 [Eh]
	 SCS Correlation Energy    =      -3.2126626862440761 [Eh]
	 SCS Total Energy          =    -860.6428596979982331 [Eh]
	-----------------------------------------------------------


*** tstop() called on node151.bme.utexas.edu at Wed Jan 24 11:11:06 2024
Module time:
	user time   =     200.93 seconds =       3.35 minutes
	system time =       3.31 seconds =       0.06 minutes
	total time  =         32 seconds =       0.53 minutes
Total time:
	user time   =     821.38 seconds =      13.69 minutes
	system time =      11.14 seconds =       0.19 minutes
	total time  =        123 seconds =       2.05 minutes

  //>>>>>>>>>>>>>>>>>>>>>>>>>>>>>>>>>>>//
  //            Monomer A HF           //
  //<<<<<<<<<<<<<<<<<<<<<<<<<<<<<<<<<<<//


*** tstart() called on node151.bme.utexas.edu
*** at Wed Jan 24 11:11:06 2024

   => Loading Basis Set <=

    Name: AUG-CC-PVTZ
    Role: ORBITAL
    Keyword: BASIS
    atoms 1, 3, 7, 9, 11, 16, 18, 24 entry N          line   285 file /opt/anaconda/envs/psi4v1.5/share/psi4/basis/aug-cc-pvtz.gbs 
    atoms 2, 4-6, 8, 17, 19-21       entry C          line   239 file /opt/anaconda/envs/psi4v1.5/share/psi4/basis/aug-cc-pvtz.gbs 
    atoms 10, 12-15, 22, 25-28       entry H          line    40 file /opt/anaconda/envs/psi4v1.5/share/psi4/basis/aug-cc-pvtz.gbs 
    atoms 23                         entry O          line   331 file /opt/anaconda/envs/psi4v1.5/share/psi4/basis/aug-cc-pvtz.gbs 


         ---------------------------------------------------------
                                   SCF
               by Justin Turney, Rob Parrish, Andy Simmonett
                          and Daniel G. A. Smith
                              RHF Reference
                        8 Threads,  66757 MiB Core
         ---------------------------------------------------------

  ==> Geometry <==

    Molecular point group: c1
    Full point group: C1

    Geometry (in Angstrom), charge = 0, multiplicity = 1:

       Center              X                  Y                   Z               Mass       
    ------------   -----------------  -----------------  -----------------  -----------------
         N            0.364668374816    -1.846946687575    -1.462349161222    14.003074004430
         C           -0.904403625184    -1.391574687575    -1.462392161222    12.000000000000
         N           -1.317932625184    -0.123690687575    -1.462530161222    14.003074004430
         C           -0.280037625184     0.729406312425    -1.462594161222    12.000000000000
         C            1.081405374816     0.404298312425    -1.462520161222    12.000000000000
         C            1.398041374816    -0.974340687575    -1.462397161222    12.000000000000
         N            1.872079374816     1.541436312425    -1.462608161222    14.003074004430
         C            1.009938374816     2.531602312425    -1.462728161222    12.000000000000
         N           -0.305575625184     2.106373312425    -1.462728161222    14.003074004430
         H           -1.668280625184    -2.170929687575    -1.462332161222     1.007825032230
         N            2.657207374816    -1.444204687575    -1.462329161222    14.003074004430
         H            3.418391374816    -0.782460687575    -1.462331161222     1.007825032230
         H            2.836679374816    -2.453151687575    -1.462147161222     1.007825032230
         H            1.265482374816     3.586543312425    -1.462822161222     1.007825032230
         H           -1.136038625184     2.681910312425    -1.462818161222     1.007825032230
      Gh(N)          -2.177221625184     0.313910312425     1.805385838778    14.003074004430
      Gh(C)          -1.634305625184    -0.986246687575     1.808772838778    12.000000000000
      Gh(N)          -0.281874625184    -1.103258687575     1.780376838778    14.003074004430
      Gh(C)           0.504539374816    -0.016186687575     1.750240838778    12.000000000000
      Gh(C)          -0.046093625184     1.320628312425     1.746594838778    12.000000000000
      Gh(C)          -1.399589625184     1.432515312425     1.775073838778    12.000000000000
      Gh(H)          -3.186901625184     0.371252312425     1.826933838778     1.007825032230
      Gh(O)          -2.414195625184    -1.947549687575     1.837291838778    15.994914619570
      Gh(N)           1.827104374816    -0.209555687575     1.723404838778    14.003074004430
      Gh(H)           2.223964374816    -1.173612687575     1.726059838778     1.007825032230
      Gh(H)           2.448492374816     0.583880312425     1.700369838778     1.007825032230
      Gh(H)           0.591939374816     2.199970312425     1.722171838778     1.007825032230
      Gh(H)          -1.917445625184     2.390775312425     1.775168838778     1.007825032230

  Running in c1 symmetry.

  Rotational constants: A =      0.02134  B =      0.01392  C =      0.01265 [cm^-1]
  Rotational constants: A =    639.83128  B =    417.40608  C =    379.08801 [MHz]
  Nuclear repulsion =  501.306590497387276

  Charge       = 0
  Multiplicity = 1
  Electrons    = 70
  Nalpha       = 35
  Nbeta        = 35

  ==> Algorithm <==

  SCF Algorithm Type is DF.
  DIIS enabled.
  MOM disabled.
  Fractional occupation disabled.
  Guess Type is SAD.
  Energy threshold   = 1.00e-08
  Density threshold  = 1.00e-08
  Integral threshold = 1.00e-12

  ==> Primary Basis <==

  Basis Set: AUG-CC-PVTZ
    Blend: AUG-CC-PVTZ
    Number of shells: 342
    Number of basis functions: 1058
    Number of Cartesian functions: 1240
    Spherical Harmonics?: true
    Max angular momentum: 3

   => Loading Basis Set <=

    Name: (AUG-CC-PVTZ AUX)
    Role: JKFIT
    Keyword: DF_BASIS_SCF
    atoms 1, 3, 7, 9, 11, 16, 18, 24 entry N          line   224 file /opt/anaconda/envs/psi4v1.5/share/psi4/basis/aug-cc-pvtz-jkfit.gbs 
    atoms 2, 4-6, 8, 17, 19-21       entry C          line   162 file /opt/anaconda/envs/psi4v1.5/share/psi4/basis/aug-cc-pvtz-jkfit.gbs 
    atoms 10, 12-15, 22, 25-28       entry H          line    70 file /opt/anaconda/envs/psi4v1.5/share/psi4/basis/aug-cc-pvtz-jkfit.gbs 
    atoms 23                         entry O          line   286 file /opt/anaconda/envs/psi4v1.5/share/psi4/basis/aug-cc-pvtz-jkfit.gbs 

  ==> Integral Setup <==

  ==> DiskDFJK: Density-Fitted J/K Matrices <==

    J tasked:                  Yes
    K tasked:                  Yes
    wK tasked:                  No
    OpenMP threads:              8
    Integrals threads:           8
    Memory [MiB]:            50067
    Algorithm:                Core
    Integral Cache:           LOAD
    Schwarz Cutoff:          1E-12
    Fitting Condition:       1E-10

   => Auxiliary Basis Set <=

  Basis Set: (AUG-CC-PVTZ AUX)
    Blend: AUG-CC-PVTZ-JKFIT
    Number of shells: 680
    Number of basis functions: 2332
    Number of Cartesian functions: 2908
    Spherical Harmonics?: true
    Max angular momentum: 4

  Minimum eigenvalue in the overlap matrix is 6.6896959322E-07.
  Reciprocal condition number of the overlap matrix is 2.8405762473E-08.
    Using symmetric orthogonalization.

  ==> Pre-Iterations <==

  SCF Guess: Superposition of Atomic Densities via on-the-fly atomic UHF (no occupation information).

   -------------------------
    Irrep   Nso     Nmo    
   -------------------------
     A       1058    1058 
   -------------------------
    Total    1058    1058
   -------------------------

  ==> Iterations <==

                           Total Energy        Delta E     RMS |[F,P]|

   @DF-RHF iter SAD:  -464.44378156179891   -4.64444e+02   0.00000e+00 
   @DF-RHF iter   1:  -464.44354872248527    2.32839e-04   6.33725e-04 DIIS
   @DF-RHF iter   2:  -464.63465148277464   -1.91103e-01   3.11169e-04 DIIS
   @DF-RHF iter   3:  -464.67814881767100   -4.34973e-02   6.99817e-05 DIIS
   @DF-RHF iter   4:  -464.68135613632893   -3.20732e-03   3.27991e-05 DIIS
   @DF-RHF iter   5:  -464.68198019209302   -6.24056e-04   6.63648e-06 DIIS
   @DF-RHF iter   6:  -464.68203556652770   -5.53744e-05   3.20907e-06 DIIS
   @DF-RHF iter   7:  -464.68205035681365   -1.47903e-05   1.32165e-06 DIIS
   @DF-RHF iter   8:  -464.68205379209400   -3.43528e-06   4.85957e-07 DIIS
   @DF-RHF iter   9:  -464.68205430095429   -5.08860e-07   2.56255e-07 DIIS
   @DF-RHF iter  10:  -464.68205442654886   -1.25595e-07   9.66786e-08 DIIS
   @DF-RHF iter  11:  -464.68205445256143   -2.60126e-08   3.93526e-08 DIIS
   @DF-RHF iter  12:  -464.68205445608282   -3.52139e-09   1.58864e-08 DIIS
   @DF-RHF iter  13:  -464.68205445657668   -4.93856e-10   5.16972e-09 DIIS
  Energy and wave function converged.


  ==> Post-Iterations <==

    Orbital Energies [Eh]
    ---------------------

    Doubly Occupied:                                                      

       1A    -15.631579     2A    -15.589939     3A    -15.570483  
       4A    -15.556357     5A    -15.548180     6A    -11.340680  
       7A    -11.325321     8A    -11.318327     9A    -11.311004  
      10A    -11.253710    11A     -1.364161    12A     -1.295673  
      13A     -1.246859    14A     -1.186014    15A     -1.147001  
      16A     -1.032181    17A     -0.893690    18A     -0.873563  
      19A     -0.842847    20A     -0.778088    21A     -0.739790  
      22A     -0.697343    23A     -0.675760    24A     -0.635944  
      25A     -0.635449    26A     -0.612329    27A     -0.592027  
      28A     -0.557309    29A     -0.498209    30A     -0.494368  
      31A     -0.448017    32A     -0.425069    33A     -0.406320  
      34A     -0.369787    35A     -0.308830  

    Virtual:                                                              

      36A      0.018642    37A      0.027632    38A      0.030499  
      39A      0.035213    40A      0.042170    41A      0.046410  
      42A      0.048772    43A      0.051742    44A      0.061275  
      45A      0.065115    46A      0.069336    47A      0.079618  
      48A      0.080259    49A      0.083952    50A      0.086191  
      51A      0.088329    52A      0.092577    53A      0.096199  
      54A      0.102746    55A      0.104237    56A      0.108139  
      57A      0.112850    58A      0.117933    59A      0.119977  
      60A      0.121317    61A      0.124478    62A      0.126630  
      63A      0.128279    64A      0.132417    65A      0.134800  
      66A      0.137959    67A      0.141542    68A      0.141814  
      69A      0.144964    70A      0.147462    71A      0.152402  
      72A      0.159144    73A      0.163362    74A      0.166113  
      75A      0.171206    76A      0.173093    77A      0.184250  
      78A      0.186099    79A      0.188481    80A      0.190444  
      81A      0.191719    82A      0.194119    83A      0.195232  
      84A      0.198307    85A      0.204522    86A      0.206229  
      87A      0.208930    88A      0.213723    89A      0.217390  
      90A      0.219835    91A      0.226371    92A      0.228506  
      93A      0.231077    94A      0.235882    95A      0.239462  
      96A      0.244483    97A      0.248158    98A      0.248933  
      99A      0.254453   100A      0.260101   101A      0.263270  
     102A      0.265474   103A      0.267547   104A      0.268758  
     105A      0.271845   106A      0.276017   107A      0.280296  
     108A      0.282409   109A      0.286031   110A      0.291057  
     111A      0.294615   112A      0.295785   113A      0.300148  
     114A      0.303798   115A      0.308589   116A      0.310251  
     117A      0.315918   118A      0.320638   119A      0.325402  
     120A      0.330657   121A      0.332277   122A      0.337834  
     123A      0.340243   124A      0.345953   125A      0.347317  
     126A      0.354642   127A      0.356858   128A      0.364364  
     129A      0.364950   130A      0.366941   131A      0.370767  
     132A      0.378190   133A      0.384746   134A      0.389681  
     135A      0.391207   136A      0.394788   137A      0.397021  
     138A      0.407275   139A      0.408108   140A      0.410148  
     141A      0.412462   142A      0.415321   143A      0.420916  
     144A      0.422749   145A      0.423548   146A      0.431552  
     147A      0.432895   148A      0.437098   149A      0.440055  
     150A      0.443307   151A      0.443734   152A      0.446369  
     153A      0.452581   154A      0.455680   155A      0.459854  
     156A      0.464317   157A      0.466063   158A      0.469929  
     159A      0.470566   160A      0.474759   161A      0.477027  
     162A      0.480305   163A      0.485432   164A      0.488912  
     165A      0.494518   166A      0.497561   167A      0.499625  
     168A      0.499976   169A      0.504755   170A      0.510434  
     171A      0.516695   172A      0.518340   173A      0.521393  
     174A      0.523378   175A      0.524983   176A      0.526429  
     177A      0.538197   178A      0.540389   179A      0.544327  
     180A      0.546785   181A      0.549776   182A      0.552823  
     183A      0.560839   184A      0.561907   185A      0.565005  
     186A      0.572210   187A      0.574529   188A      0.575821  
     189A      0.581375   190A      0.584960   191A      0.589938  
     192A      0.591728   193A      0.593771   194A      0.598751  
     195A      0.599944   196A      0.604248   197A      0.612744  
     198A      0.617709   199A      0.620595   200A      0.626263  
     201A      0.628027   202A      0.634414   203A      0.641640  
     204A      0.643892   205A      0.650439   206A      0.651579  
     207A      0.656567   208A      0.661531   209A      0.667834  
     210A      0.672955   211A      0.675661   212A      0.677504  
     213A      0.686704   214A      0.692229   215A      0.698481  
     216A      0.701078   217A      0.710274   218A      0.715443  
     219A      0.718756   220A      0.723549   221A      0.727156  
     222A      0.729169   223A      0.735020   224A      0.738132  
     225A      0.743355   226A      0.747384   227A      0.749823  
     228A      0.756277   229A      0.757202   230A      0.760904  
     231A      0.763117   232A      0.770884   233A      0.778952  
     234A      0.780748   235A      0.786867   236A      0.791315  
     237A      0.798035   238A      0.802500   239A      0.805943  
     240A      0.809699   241A      0.818263   242A      0.819423  
     243A      0.823275   244A      0.828237   245A      0.834110  
     246A      0.839811   247A      0.845622   248A      0.852112  
     249A      0.853688   250A      0.861374   251A      0.866503  
     252A      0.868472   253A      0.871733   254A      0.873786  
     255A      0.877368   256A      0.879464   257A      0.884931  
     258A      0.892029   259A      0.894580   260A      0.902034  
     261A      0.902675   262A      0.907401   263A      0.915752  
     264A      0.921857   265A      0.925307   266A      0.929520  
     267A      0.935279   268A      0.941957   269A      0.946376  
     270A      0.949138   271A      0.952245   272A      0.955253  
     273A      0.960010   274A      0.965483   275A      0.969957  
     276A      0.974657   277A      0.980200   278A      0.982051  
     279A      0.984956   280A      0.990795   281A      0.993033  
     282A      1.002109   283A      1.004183   284A      1.005644  
     285A      1.009271   286A      1.013383   287A      1.020513  
     288A      1.026773   289A      1.028006   290A      1.034139  
     291A      1.037902   292A      1.041621   293A      1.043497  
     294A      1.049675   295A      1.055994   296A      1.057191  
     297A      1.061970   298A      1.067773   299A      1.073955  
     300A      1.076542   301A      1.081412   302A      1.087322  
     303A      1.089879   304A      1.093428   305A      1.095505  
     306A      1.097912   307A      1.103110   308A      1.108002  
     309A      1.110938   310A      1.119228   311A      1.127115  
     312A      1.130746   313A      1.131881   314A      1.138658  
     315A      1.140422   316A      1.144766   317A      1.146108  
     318A      1.159766   319A      1.165435   320A      1.166481  
     321A      1.168480   322A      1.175350   323A      1.178434  
     324A      1.183194   325A      1.190194   326A      1.198478  
     327A      1.201096   328A      1.205470   329A      1.207796  
     330A      1.211320   331A      1.213715   332A      1.218070  
     333A      1.222339   334A      1.228054   335A      1.233435  
     336A      1.234029   337A      1.240642   338A      1.244871  
     339A      1.249888   340A      1.253335   341A      1.256803  
     342A      1.259816   343A      1.268094   344A      1.271462  
     345A      1.281677   346A      1.282694   347A      1.287172  
     348A      1.293103   349A      1.297675   350A      1.298813  
     351A      1.307456   352A      1.310106   353A      1.312899  
     354A      1.324715   355A      1.327279   356A      1.331125  
     357A      1.338102   358A      1.341564   359A      1.348208  
     360A      1.349777   361A      1.353574   362A      1.362179  
     363A      1.368543   364A      1.378007   365A      1.380687  
     366A      1.385607   367A      1.389622   368A      1.393487  
     369A      1.396572   370A      1.406390   371A      1.408271  
     372A      1.410555   373A      1.418195   374A      1.425741  
     375A      1.430604   376A      1.436371   377A      1.438394  
     378A      1.445800   379A      1.448582   380A      1.455094  
     381A      1.461220   382A      1.469453   383A      1.471161  
     384A      1.473317   385A      1.482469   386A      1.488732  
     387A      1.490482   388A      1.497257   389A      1.503193  
     390A      1.506996   391A      1.520012   392A      1.523622  
     393A      1.529127   394A      1.530494   395A      1.532590  
     396A      1.548089   397A      1.551508   398A      1.557556  
     399A      1.562012   400A      1.566631   401A      1.571838  
     402A      1.576632   403A      1.581937   404A      1.584686  
     405A      1.592925   406A      1.595024   407A      1.599631  
     408A      1.602752   409A      1.614154   410A      1.619343  
     411A      1.621872   412A      1.628438   413A      1.633513  
     414A      1.635366   415A      1.640798   416A      1.650115  
     417A      1.655638   418A      1.664489   419A      1.667353  
     420A      1.673591   421A      1.677600   422A      1.679140  
     423A      1.690361   424A      1.692004   425A      1.701562  
     426A      1.707283   427A      1.709664   428A      1.715592  
     429A      1.720717   430A      1.728537   431A      1.733289  
     432A      1.734769   433A      1.746333   434A      1.747711  
     435A      1.752666   436A      1.763965   437A      1.767764  
     438A      1.777296   439A      1.777990   440A      1.787035  
     441A      1.791939   442A      1.797180   443A      1.803396  
     444A      1.808099   445A      1.815165   446A      1.817926  
     447A      1.829080   448A      1.838684   449A      1.842959  
     450A      1.848529   451A      1.858074   452A      1.859931  
     453A      1.864434   454A      1.867982   455A      1.875397  
     456A      1.883875   457A      1.885744   458A      1.897503  
     459A      1.901256   460A      1.904992   461A      1.910261  
     462A      1.913183   463A      1.916621   464A      1.921254  
     465A      1.929342   466A      1.937712   467A      1.947773  
     468A      1.955058   469A      1.959914   470A      1.965416  
     471A      1.968667   472A      1.975682   473A      1.979757  
     474A      1.996279   475A      2.007156   476A      2.008882  
     477A      2.011181   478A      2.015395   479A      2.024434  
     480A      2.030256   481A      2.044410   482A      2.048453  
     483A      2.053404   484A      2.058285   485A      2.062743  
     486A      2.074774   487A      2.077894   488A      2.083639  
     489A      2.090953   490A      2.100940   491A      2.104338  
     492A      2.110519   493A      2.115129   494A      2.121990  
     495A      2.125226   496A      2.130195   497A      2.144933  
     498A      2.149719   499A      2.159389   500A      2.164191  
     501A      2.170130   502A      2.180350   503A      2.182058  
     504A      2.185945   505A      2.195758   506A      2.198377  
     507A      2.203050   508A      2.212711   509A      2.219198  
     510A      2.222897   511A      2.228178   512A      2.235607  
     513A      2.242727   514A      2.248057   515A      2.250250  
     516A      2.255460   517A      2.268036   518A      2.273909  
     519A      2.279728   520A      2.293114   521A      2.300051  
     522A      2.305635   523A      2.314782   524A      2.316821  
     525A      2.324969   526A      2.334064   527A      2.338965  
     528A      2.349171   529A      2.350568   530A      2.354690  
     531A      2.363785   532A      2.365283   533A      2.370322  
     534A      2.385455   535A      2.389473   536A      2.393664  
     537A      2.397191   538A      2.405076   539A      2.412301  
     540A      2.414806   541A      2.432688   542A      2.434729  
     543A      2.438188   544A      2.445021   545A      2.456912  
     546A      2.461965   547A      2.473089   548A      2.480337  
     549A      2.482453   550A      2.484214   551A      2.493679  
     552A      2.496824   553A      2.506757   554A      2.516433  
     555A      2.524284   556A      2.536307   557A      2.542859  
     558A      2.552895   559A      2.558149   560A      2.570583  
     561A      2.572158   562A      2.579497   563A      2.592444  
     564A      2.598623   565A      2.606312   566A      2.612342  
     567A      2.617035   568A      2.624571   569A      2.633195  
     570A      2.635190   571A      2.647402   572A      2.650632  
     573A      2.655082   574A      2.665341   575A      2.676615  
     576A      2.685911   577A      2.688936   578A      2.698370  
     579A      2.710149   580A      2.713248   581A      2.716405  
     582A      2.722707   583A      2.729357   584A      2.733827  
     585A      2.747210   586A      2.747626   587A      2.753555  
     588A      2.760103   589A      2.772990   590A      2.778601  
     591A      2.786681   592A      2.797377   593A      2.800646  
     594A      2.812360   595A      2.815290   596A      2.830222  
     597A      2.845602   598A      2.850878   599A      2.858344  
     600A      2.863961   601A      2.875545   602A      2.881869  
     603A      2.897279   604A      2.904842   605A      2.907244  
     606A      2.915868   607A      2.921100   608A      2.927183  
     609A      2.929964   610A      2.943953   611A      2.944862  
     612A      2.950718   613A      2.965840   614A      2.976203  
     615A      2.983102   616A      2.991701   617A      2.995889  
     618A      3.005737   619A      3.019387   620A      3.029720  
     621A      3.036579   622A      3.050668   623A      3.080521  
     624A      3.095480   625A      3.100998   626A      3.114615  
     627A      3.121469   628A      3.125222   629A      3.148404  
     630A      3.162246   631A      3.170860   632A      3.189291  
     633A      3.205035   634A      3.206942   635A      3.213154  
     636A      3.215056   637A      3.233045   638A      3.268116  
     639A      3.274099   640A      3.306115   641A      3.310453  
     642A      3.314354   643A      3.335223   644A      3.344209  
     645A      3.355530   646A      3.366582   647A      3.372918  
     648A      3.400842   649A      3.410716   650A      3.433903  
     651A      3.446953   652A      3.455488   653A      3.470068  
     654A      3.475647   655A      3.481496   656A      3.500936  
     657A      3.515449   658A      3.520320   659A      3.540595  
     660A      3.553583   661A      3.561156   662A      3.573977  
     663A      3.590424   664A      3.602796   665A      3.610398  
     666A      3.632879   667A      3.640946   668A      3.656693  
     669A      3.663848   670A      3.668418   671A      3.675770  
     672A      3.688266   673A      3.697239   674A      3.705804  
     675A      3.726321   676A      3.735908   677A      3.750657  
     678A      3.760837   679A      3.768776   680A      3.780108  
     681A      3.788676   682A      3.800239   683A      3.809993  
     684A      3.815845   685A      3.822866   686A      3.826968  
     687A      3.830845   688A      3.833462   689A      3.859629  
     690A      3.878853   691A      3.886175   692A      3.902270  
     693A      3.906273   694A      3.924331   695A      3.932702  
     696A      3.948964   697A      3.958709   698A      3.966720  
     699A      3.972299   700A      3.979613   701A      3.994483  
     702A      4.001812   703A      4.008726   704A      4.022962  
     705A      4.032117   706A      4.047188   707A      4.048821  
     708A      4.061557   709A      4.065625   710A      4.093925  
     711A      4.097753   712A      4.115963   713A      4.122526  
     714A      4.135740   715A      4.145488   716A      4.148588  
     717A      4.153303   718A      4.167661   719A      4.180357  
     720A      4.187443   721A      4.201137   722A      4.206309  
     723A      4.218037   724A      4.226170   725A      4.232696  
     726A      4.247327   727A      4.264418   728A      4.266497  
     729A      4.271902   730A      4.274232   731A      4.276641  
     732A      4.288642   733A      4.300179   734A      4.307038  
     735A      4.317077   736A      4.327369   737A      4.333450  
     738A      4.341502   739A      4.345391   740A      4.361973  
     741A      4.363892   742A      4.379508   743A      4.386879  
     744A      4.395496   745A      4.405916   746A      4.421680  
     747A      4.427500   748A      4.441238   749A      4.444925  
     750A      4.456319   751A      4.464719   752A      4.487976  
     753A      4.494930   754A      4.501176   755A      4.513741  
     756A      4.521231   757A      4.529727   758A      4.538211  
     759A      4.557375   760A      4.565688   761A      4.575442  
     762A      4.587555   763A      4.600822   764A      4.613285  
     765A      4.628423   766A      4.633309   767A      4.633791  
     768A      4.642076   769A      4.654780   770A      4.662479  
     771A      4.668900   772A      4.673848   773A      4.688747  
     774A      4.691162   775A      4.704232   776A      4.723473  
     777A      4.725726   778A      4.729985   779A      4.741902  
     780A      4.747997   781A      4.752466   782A      4.776585  
     783A      4.779906   784A      4.794372   785A      4.807901  
     786A      4.817481   787A      4.823607   788A      4.834375  
     789A      4.840253   790A      4.854176   791A      4.866390  
     792A      4.871382   793A      4.880367   794A      4.890372  
     795A      4.901393   796A      4.919158   797A      4.931711  
     798A      4.937490   799A      4.944141   800A      4.962630  
     801A      4.972042   802A      4.988779   803A      4.993769  
     804A      5.002277   805A      5.010363   806A      5.017774  
     807A      5.025458   808A      5.039471   809A      5.048134  
     810A      5.052720   811A      5.067389   812A      5.072849  
     813A      5.078700   814A      5.088243   815A      5.101801  
     816A      5.117009   817A      5.118315   818A      5.128034  
     819A      5.145161   820A      5.156355   821A      5.162520  
     822A      5.178112   823A      5.182844   824A      5.188830  
     825A      5.198580   826A      5.200869   827A      5.219605  
     828A      5.222051   829A      5.237813   830A      5.249343  
     831A      5.260272   832A      5.268600   833A      5.282295  
     834A      5.303533   835A      5.305751   836A      5.311798  
     837A      5.324305   838A      5.331423   839A      5.342465  
     840A      5.343774   841A      5.357637   842A      5.373785  
     843A      5.385427   844A      5.389839   845A      5.402896  
     846A      5.414161   847A      5.415165   848A      5.422393  
     849A      5.442152   850A      5.449845   851A      5.454515  
     852A      5.466086   853A      5.480980   854A      5.490128  
     855A      5.501809   856A      5.509069   857A      5.525516  
     858A      5.528705   859A      5.547963   860A      5.555760  
     861A      5.564384   862A      5.566947   863A      5.584002  
     864A      5.591203   865A      5.603258   866A      5.613723  
     867A      5.627530   868A      5.635699   869A      5.642217  
     870A      5.652172   871A      5.657951   872A      5.674404  
     873A      5.682505   874A      5.703141   875A      5.717371  
     876A      5.720360   877A      5.729970   878A      5.740880  
     879A      5.749303   880A      5.756120   881A      5.763836  
     882A      5.769716   883A      5.778890   884A      5.785825  
     885A      5.797995   886A      5.819538   887A      5.822627  
     888A      5.848499   889A      5.859278   890A      5.867705  
     891A      5.885397   892A      5.892844   893A      5.898027  
     894A      5.916738   895A      5.933713   896A      5.946122  
     897A      5.955945   898A      5.971704   899A      5.986528  
     900A      5.999029   901A      6.005268   902A      6.015496  
     903A      6.034707   904A      6.045774   905A      6.058685  
     906A      6.066721   907A      6.086512   908A      6.095028  
     909A      6.120106   910A      6.155288   911A      6.159036  
     912A      6.168606   913A      6.169447   914A      6.187965  
     915A      6.194401   916A      6.203116   917A      6.218932  
     918A      6.224430   919A      6.240093   920A      6.268035  
     921A      6.276202   922A      6.290677   923A      6.306935  
     924A      6.365932   925A      6.388294   926A      6.399991  
     927A      6.427322   928A      6.443528   929A      6.468167  
     930A      6.469330   931A      6.492804   932A      6.516289  
     933A      6.522645   934A      6.548188   935A      6.576576  
     936A      6.591048   937A      6.604148   938A      6.611232  
     939A      6.627476   940A      6.647219   941A      6.657610  
     942A      6.681555   943A      6.721893   944A      6.738445  
     945A      6.759168   946A      6.764391   947A      6.774509  
     948A      6.781819   949A      6.807399   950A      6.811034  
     951A      6.842735   952A      6.865220   953A      6.882499  
     954A      6.890257   955A      6.919932   956A      6.937279  
     957A      6.954661   958A      7.005333   959A      7.018307  
     960A      7.038195   961A      7.057806   962A      7.079330  
     963A      7.098798   964A      7.116105   965A      7.131055  
     966A      7.160482   967A      7.262556   968A      7.267933  
     969A      7.305312   970A      7.321775   971A      7.410279  
     972A      7.418425   973A      7.471889   974A      7.475632  
     975A      7.491853   976A      7.541177   977A      7.568921  
     978A      7.582325   979A      7.589101   980A      7.600294  
     981A      7.639454   982A      7.663796   983A      7.664338  
     984A      7.706298   985A      7.734971   986A      7.745263  
     987A      7.768011   988A      7.793503   989A      7.841098  
     990A      7.858752   991A      7.876430   992A      7.889811  
     993A      7.902047   994A      7.916870   995A      7.957002  
     996A      7.987726   997A      8.025455   998A      8.045944  
     999A      8.107235  1000A      8.135879  1001A      8.241899  
    1002A      8.263194  1003A      8.302727  1004A      8.372339  
    1005A      8.459036  1006A      8.625068  1007A      8.681341  
    1008A      8.744445  1009A      8.847799  1010A      8.935262  
    1011A      9.037281  1012A      9.172367  1013A      9.230301  
    1014A      9.433263  1015A      9.586499  1016A      9.677439  
    1017A      9.697406  1018A      9.745196  1019A      9.885462  
    1020A     10.003670  1021A     10.119734  1022A     10.205392  
    1023A     10.281898  1024A     10.397337  1025A     10.467721  
    1026A     10.840712  1027A     11.083271  1028A     11.278013  
    1029A     11.355682  1030A     11.505857  1031A     11.850841  
    1032A     11.898176  1033A     12.037481  1034A     12.068677  
    1035A     12.272314  1036A     12.536244  1037A     12.768198  
    1038A     13.164976  1039A     13.533092  1040A     14.124496  
    1041A     16.246565  1042A     16.521249  1043A     16.603223  
    1044A     17.942914  1045A     18.459183  1046A     19.285642  
    1047A     19.630341  1048A     19.959835  1049A     20.180478  
    1050A     21.491844  1051A     51.875075  1052A     52.107616  
    1053A     54.585053  1054A     56.557980  1055A     60.592682  
    1056A     61.126276  1057A     65.093413  1058A     69.281946  

    Final Occupation by Irrep:
              A 
    DOCC [    35 ]

  @DF-RHF Final Energy:  -464.68205445657668

   => Energetics <=

    Nuclear Repulsion Energy =            501.3065904973872762
    One-Electron Energy =               -1625.5728728529543332
    Two-Electron Energy =                 659.5842278989903207
    Total Energy =                       -464.6820544565766795

Computation Completed


Properties will be evaluated at   0.000000,   0.000000,   0.000000 [a0]

Properties computed using the SCF density matrix

  Nuclear Dipole Moment: [e a0]
     X:    78.3084      Y:    19.4435      Z:  -193.4627

  Electronic Dipole Moment: [e a0]
     X:   -77.9781      Y:   -18.5488      Z:   193.4623

  Dipole Moment: [e a0]
     X:     0.3303      Y:     0.8946      Z:    -0.0004     Total:     0.9537

  Dipole Moment: [D]
     X:     0.8395      Y:     2.2740      Z:    -0.0010     Total:     2.4240


*** tstop() called on node151.bme.utexas.edu at Wed Jan 24 11:12:11 2024
Module time:
	user time   =     445.58 seconds =       7.43 minutes
	system time =       3.70 seconds =       0.06 minutes
	total time  =         65 seconds =       1.08 minutes
Total time:
	user time   =    1266.98 seconds =      21.12 minutes
	system time =      14.84 seconds =       0.25 minutes
	total time  =        188 seconds =       3.13 minutes

*** tstart() called on node151.bme.utexas.edu
*** at Wed Jan 24 11:12:11 2024


  //>>>>>>>>>>>>>>>>>>>>>>>>>>>>>>>>>>>//
  //               DFMP2               //
  //<<<<<<<<<<<<<<<<<<<<<<<<<<<<<<<<<<<//

   => Loading Basis Set <=

    Name: (AUG-CC-PVTZ AUX)
    Role: RIFIT
    Keyword: DF_BASIS_MP2
    atoms 1, 3, 7, 9, 11, 16, 18, 24 entry N          line   206 file /opt/anaconda/envs/psi4v1.5/share/psi4/basis/aug-cc-pvtz-ri.gbs 
    atoms 2, 4-6, 8, 17, 19-21       entry C          line   148 file /opt/anaconda/envs/psi4v1.5/share/psi4/basis/aug-cc-pvtz-ri.gbs 
    atoms 10, 12-15, 22, 25-28       entry H          line    30 file /opt/anaconda/envs/psi4v1.5/share/psi4/basis/aug-cc-pvtz-ri.gbs 
    atoms 23                         entry O          line   264 file /opt/anaconda/envs/psi4v1.5/share/psi4/basis/aug-cc-pvtz-ri.gbs 

	 --------------------------------------------------------
	                          DF-MP2                         
	      2nd-Order Density-Fitted Moller-Plesset Theory     
	              RMP2 Wavefunction,   8 Threads             
	                                                         
	        Rob Parrish, Justin Turney, Andy Simmonett,      
	           Ed Hohenstein, and C. David Sherrill          
	 --------------------------------------------------------

   => Auxiliary Basis Set <=

  Basis Set: (AUG-CC-PVTZ AUX)
    Blend: AUG-CC-PVTZ-RI
    Number of shells: 644
    Number of basis functions: 2368
    Number of Cartesian functions: 2998
    Spherical Harmonics?: true
    Max angular momentum: 4

	 --------------------------------------------------------
	                 NBF =  1058, NAUX =  2368
	 --------------------------------------------------------
	   CLASS    FOCC     OCC    AOCC    AVIR     VIR    FVIR
	   PAIRS      10      35      25    1023    1023       0
	 --------------------------------------------------------

	 Will attempt to load fitting metric from file 97.

	-----------------------------------------------------------
	 ==================> DF-MP2 Energies <==================== 
	-----------------------------------------------------------
	 Reference Energy          =    -464.6820544565766795 [Eh]
	 Singles Energy            =      -0.0000000000000000 [Eh]
	 Same-Spin Energy          =      -0.4784713192263547 [Eh]
	 Opposite-Spin Energy      =      -1.3247467377224520 [Eh]
	 Correlation Energy        =      -1.8032180569488068 [Eh]
	 Total Energy              =    -466.4852725135255014 [Eh]
	-----------------------------------------------------------
	 ================> DF-SCS-MP2 Energies <================== 
	-----------------------------------------------------------
	 SCS Same-Spin Scale       =       0.3333333333333333 [-]
	 SCS Opposite-Spin Scale   =       1.2000000000000000 [-]
	 SCS Same-Spin Energy      =      -0.1594904397421182 [Eh]
	 SCS Opposite-Spin Energy  =      -1.5896960852669424 [Eh]
	 SCS Correlation Energy    =      -1.7491865250090606 [Eh]
	 SCS Total Energy          =    -466.4312409815857450 [Eh]
	-----------------------------------------------------------


*** tstop() called on node151.bme.utexas.edu at Wed Jan 24 11:12:33 2024
Module time:
	user time   =     121.39 seconds =       2.02 minutes
	system time =       2.59 seconds =       0.04 minutes
	total time  =         22 seconds =       0.37 minutes
Total time:
	user time   =    1388.38 seconds =      23.14 minutes
	system time =      17.43 seconds =       0.29 minutes
	total time  =        210 seconds =       3.50 minutes

  //>>>>>>>>>>>>>>>>>>>>>>>>>>>>>>>>>>>//
  //            Monomer B HF           //
  //<<<<<<<<<<<<<<<<<<<<<<<<<<<<<<<<<<<//


*** tstart() called on node151.bme.utexas.edu
*** at Wed Jan 24 11:12:33 2024

   => Loading Basis Set <=

    Name: AUG-CC-PVTZ
    Role: ORBITAL
    Keyword: BASIS
    atoms 1, 3, 7, 9, 11, 16, 18, 24 entry N          line   285 file /opt/anaconda/envs/psi4v1.5/share/psi4/basis/aug-cc-pvtz.gbs 
    atoms 2, 4-6, 8, 17, 19-21       entry C          line   239 file /opt/anaconda/envs/psi4v1.5/share/psi4/basis/aug-cc-pvtz.gbs 
    atoms 10, 12-15, 22, 25-28       entry H          line    40 file /opt/anaconda/envs/psi4v1.5/share/psi4/basis/aug-cc-pvtz.gbs 
    atoms 23                         entry O          line   331 file /opt/anaconda/envs/psi4v1.5/share/psi4/basis/aug-cc-pvtz.gbs 


         ---------------------------------------------------------
                                   SCF
               by Justin Turney, Rob Parrish, Andy Simmonett
                          and Daniel G. A. Smith
                              RHF Reference
                        8 Threads,  66757 MiB Core
         ---------------------------------------------------------

  ==> Geometry <==

    Molecular point group: c1
    Full point group: C1

    Geometry (in Angstrom), charge = 0, multiplicity = 1:

       Center              X                  Y                   Z               Mass       
    ------------   -----------------  -----------------  -----------------  -----------------
      Gh(N)           0.364668374816    -1.846946687575    -1.462349161222    14.003074004430
      Gh(C)          -0.904403625184    -1.391574687575    -1.462392161222    12.000000000000
      Gh(N)          -1.317932625184    -0.123690687575    -1.462530161222    14.003074004430
      Gh(C)          -0.280037625184     0.729406312425    -1.462594161222    12.000000000000
      Gh(C)           1.081405374816     0.404298312425    -1.462520161222    12.000000000000
      Gh(C)           1.398041374816    -0.974340687575    -1.462397161222    12.000000000000
      Gh(N)           1.872079374816     1.541436312425    -1.462608161222    14.003074004430
      Gh(C)           1.009938374816     2.531602312425    -1.462728161222    12.000000000000
      Gh(N)          -0.305575625184     2.106373312425    -1.462728161222    14.003074004430
      Gh(H)          -1.668280625184    -2.170929687575    -1.462332161222     1.007825032230
      Gh(N)           2.657207374816    -1.444204687575    -1.462329161222    14.003074004430
      Gh(H)           3.418391374816    -0.782460687575    -1.462331161222     1.007825032230
      Gh(H)           2.836679374816    -2.453151687575    -1.462147161222     1.007825032230
      Gh(H)           1.265482374816     3.586543312425    -1.462822161222     1.007825032230
      Gh(H)          -1.136038625184     2.681910312425    -1.462818161222     1.007825032230
         N           -2.177221625184     0.313910312425     1.805385838778    14.003074004430
         C           -1.634305625184    -0.986246687575     1.808772838778    12.000000000000
         N           -0.281874625184    -1.103258687575     1.780376838778    14.003074004430
         C            0.504539374816    -0.016186687575     1.750240838778    12.000000000000
         C           -0.046093625184     1.320628312425     1.746594838778    12.000000000000
         C           -1.399589625184     1.432515312425     1.775073838778    12.000000000000
         H           -3.186901625184     0.371252312425     1.826933838778     1.007825032230
         O           -2.414195625184    -1.947549687575     1.837291838778    15.994914619570
         N            1.827104374816    -0.209555687575     1.723404838778    14.003074004430
         H            2.223964374816    -1.173612687575     1.726059838778     1.007825032230
         H            2.448492374816     0.583880312425     1.700369838778     1.007825032230
         H            0.591939374816     2.199970312425     1.722171838778     1.007825032230
         H           -1.917445625184     2.390775312425     1.775168838778     1.007825032230

  Running in c1 symmetry.

  Rotational constants: A =      0.02134  B =      0.01392  C =      0.01265 [cm^-1]
  Rotational constants: A =    639.83128  B =    417.40608  C =    379.08801 [MHz]
  Nuclear repulsion =  355.312360121644588

  Charge       = 0
  Multiplicity = 1
  Electrons    = 58
  Nalpha       = 29
  Nbeta        = 29

  ==> Algorithm <==

  SCF Algorithm Type is DF.
  DIIS enabled.
  MOM disabled.
  Fractional occupation disabled.
  Guess Type is SAD.
  Energy threshold   = 1.00e-08
  Density threshold  = 1.00e-08
  Integral threshold = 1.00e-12

  ==> Primary Basis <==

  Basis Set: AUG-CC-PVTZ
    Blend: AUG-CC-PVTZ
    Number of shells: 342
    Number of basis functions: 1058
    Number of Cartesian functions: 1240
    Spherical Harmonics?: true
    Max angular momentum: 3

   => Loading Basis Set <=

    Name: (AUG-CC-PVTZ AUX)
    Role: JKFIT
    Keyword: DF_BASIS_SCF
    atoms 1, 3, 7, 9, 11, 16, 18, 24 entry N          line   224 file /opt/anaconda/envs/psi4v1.5/share/psi4/basis/aug-cc-pvtz-jkfit.gbs 
    atoms 2, 4-6, 8, 17, 19-21       entry C          line   162 file /opt/anaconda/envs/psi4v1.5/share/psi4/basis/aug-cc-pvtz-jkfit.gbs 
    atoms 10, 12-15, 22, 25-28       entry H          line    70 file /opt/anaconda/envs/psi4v1.5/share/psi4/basis/aug-cc-pvtz-jkfit.gbs 
    atoms 23                         entry O          line   286 file /opt/anaconda/envs/psi4v1.5/share/psi4/basis/aug-cc-pvtz-jkfit.gbs 

  ==> Integral Setup <==

  ==> DiskDFJK: Density-Fitted J/K Matrices <==

    J tasked:                  Yes
    K tasked:                  Yes
    wK tasked:                  No
    OpenMP threads:              8
    Integrals threads:           8
    Memory [MiB]:            50067
    Algorithm:                Core
    Integral Cache:           LOAD
    Schwarz Cutoff:          1E-12
    Fitting Condition:       1E-10

   => Auxiliary Basis Set <=

  Basis Set: (AUG-CC-PVTZ AUX)
    Blend: AUG-CC-PVTZ-JKFIT
    Number of shells: 680
    Number of basis functions: 2332
    Number of Cartesian functions: 2908
    Spherical Harmonics?: true
    Max angular momentum: 4

  Minimum eigenvalue in the overlap matrix is 6.6896959322E-07.
  Reciprocal condition number of the overlap matrix is 2.8405762473E-08.
    Using symmetric orthogonalization.

  ==> Pre-Iterations <==

  SCF Guess: Superposition of Atomic Densities via on-the-fly atomic UHF (no occupation information).

   -------------------------
    Irrep   Nso     Nmo    
   -------------------------
     A       1058    1058 
   -------------------------
    Total    1058    1058
   -------------------------

  ==> Iterations <==

                           Total Energy        Delta E     RMS |[F,P]|

   @DF-RHF iter SAD:  -392.07842316823695   -3.92078e+02   0.00000e+00 
   @DF-RHF iter   1:  -392.50585586085680   -4.27433e-01   6.90332e-04 DIIS
   @DF-RHF iter   2:  -392.69647938169584   -1.90624e-01   3.93295e-04 DIIS
   @DF-RHF iter   3:  -392.75547709372825   -5.89977e-02   7.36648e-05 DIIS
   @DF-RHF iter   4:  -392.75878174878579   -3.30466e-03   3.29108e-05 DIIS
   @DF-RHF iter   5:  -392.75947596545336   -6.94217e-04   6.69750e-06 DIIS
   @DF-RHF iter   6:  -392.75954524587365   -6.92804e-05   3.52947e-06 DIIS
   @DF-RHF iter   7:  -392.75956265415130   -1.74083e-05   1.31982e-06 DIIS
   @DF-RHF iter   8:  -392.75956598922994   -3.33508e-06   4.53150e-07 DIIS
   @DF-RHF iter   9:  -392.75956631113274   -3.21903e-07   1.84680e-07 DIIS
   @DF-RHF iter  10:  -392.75956636345251   -5.23198e-08   6.56800e-08 DIIS
   @DF-RHF iter  11:  -392.75956637180985   -8.35735e-09   1.77760e-08 DIIS
   @DF-RHF iter  12:  -392.75956637237960   -5.69742e-10   5.63977e-09 DIIS
  Energy and wave function converged.


  ==> Post-Iterations <==

    Orbital Energies [Eh]
    ---------------------

    Doubly Occupied:                                                      

       1A    -20.491872     2A    -15.622062     3A    -15.608807  
       4A    -15.538185     5A    -11.364552     6A    -11.359716  
       7A    -11.334042     8A    -11.251120     9A     -1.373000  
      10A     -1.294635    11A     -1.263371    12A     -1.169871  
      13A     -1.065448    14A     -0.903019    15A     -0.877381  
      16A     -0.763355    17A     -0.760472    18A     -0.728033  
      19A     -0.678028    20A     -0.622936    21A     -0.622903  
      22A     -0.612957    23A     -0.582780    24A     -0.542225  
      25A     -0.483486    26A     -0.432646    27A     -0.416258  
      28A     -0.383532    29A     -0.342694  

    Virtual:                                                              

      30A      0.009856    31A      0.019966    32A      0.027334  
      33A      0.028477    34A      0.040424    35A      0.043254  
      36A      0.045723    37A      0.050965    38A      0.057217  
      39A      0.062078    40A      0.066406    41A      0.069455  
      42A      0.078258    43A      0.080082    44A      0.084496  
      45A      0.084988    46A      0.087564    47A      0.090541  
      48A      0.093937    49A      0.099715    50A      0.101623  
      51A      0.109234    52A      0.110865    53A      0.112589  
      54A      0.118621    55A      0.120941    56A      0.124087  
      57A      0.126159    58A      0.128988    59A      0.131527  
      60A      0.135360    61A      0.141030    62A      0.143283  
      63A      0.145529    64A      0.148794    65A      0.153879  
      66A      0.155229    67A      0.159336    68A      0.165472  
      69A      0.167901    70A      0.172467    71A      0.173311  
      72A      0.177300    73A      0.179452    74A      0.183086  
      75A      0.190367    76A      0.191908    77A      0.196896  
      78A      0.199029    79A      0.202552    80A      0.203543  
      81A      0.206505    82A      0.213877    83A      0.215830  
      84A      0.218335    85A      0.222127    86A      0.228108  
      87A      0.230927    88A      0.233818    89A      0.237037  
      90A      0.241412    91A      0.242398    92A      0.243775  
      93A      0.251515    94A      0.252486    95A      0.256932  
      96A      0.263011    97A      0.266677    98A      0.271563  
      99A      0.272698   100A      0.276886   101A      0.279562  
     102A      0.282061   103A      0.284727   104A      0.288929  
     105A      0.292531   106A      0.301287   107A      0.303992  
     108A      0.307529   109A      0.309677   110A      0.313191  
     111A      0.318921   112A      0.322326   113A      0.325708  
     114A      0.327667   115A      0.330084   116A      0.333871  
     117A      0.336993   118A      0.337871   119A      0.344984  
     120A      0.347265   121A      0.350108   122A      0.354453  
     123A      0.359708   124A      0.364500   125A      0.369694  
     126A      0.373562   127A      0.376536   128A      0.383752  
     129A      0.386972   130A      0.388656   131A      0.396462  
     132A      0.400812   133A      0.404616   134A      0.407575  
     135A      0.411054   136A      0.416972   137A      0.419250  
     138A      0.422778   139A      0.425274   140A      0.428076  
     141A      0.429617   142A      0.433867   143A      0.436282  
     144A      0.440098   145A      0.444332   146A      0.447516  
     147A      0.449617   148A      0.452463   149A      0.453705  
     150A      0.455969   151A      0.461897   152A      0.466928  
     153A      0.470922   154A      0.474343   155A      0.475698  
     156A      0.478488   157A      0.483769   158A      0.485578  
     159A      0.487796   160A      0.492788   161A      0.494668  
     162A      0.497552   163A      0.500730   164A      0.503500  
     165A      0.507446   166A      0.511737   167A      0.513066  
     168A      0.519395   169A      0.525774   170A      0.527254  
     171A      0.528164   172A      0.532243   173A      0.535188  
     174A      0.541558   175A      0.544589   176A      0.547648  
     177A      0.552329   178A      0.556607   179A      0.556948  
     180A      0.562951   181A      0.568299   182A      0.572365  
     183A      0.579811   184A      0.583448   185A      0.584272  
     186A      0.586527   187A      0.590065   188A      0.599441  
     189A      0.601384   190A      0.605321   191A      0.612740  
     192A      0.617703   193A      0.626250   194A      0.629244  
     195A      0.630729   196A      0.637668   197A      0.641302  
     198A      0.646426   199A      0.653449   200A      0.655083  
     201A      0.669975   202A      0.671464   203A      0.674240  
     204A      0.680362   205A      0.682204   206A      0.686495  
     207A      0.687504   208A      0.694171   209A      0.703019  
     210A      0.707793   211A      0.708933   212A      0.715264  
     213A      0.723698   214A      0.724539   215A      0.730457  
     216A      0.735122   217A      0.739694   218A      0.745232  
     219A      0.747595   220A      0.752618   221A      0.760833  
     222A      0.763644   223A      0.766030   224A      0.768321  
     225A      0.769620   226A      0.778204   227A      0.779849  
     228A      0.785723   229A      0.793820   230A      0.798917  
     231A      0.802824   232A      0.805906   233A      0.806523  
     234A      0.810381   235A      0.816491   236A      0.822833  
     237A      0.827287   238A      0.829831   239A      0.832184  
     240A      0.838939   241A      0.845146   242A      0.849297  
     243A      0.852251   244A      0.859931   245A      0.866908  
     246A      0.868088   247A      0.871135   248A      0.875667  
     249A      0.880023   250A      0.882690   251A      0.888673  
     252A      0.891734   253A      0.899223   254A      0.900417  
     255A      0.901527   256A      0.908321   257A      0.911401  
     258A      0.917004   259A      0.918415   260A      0.922255  
     261A      0.926126   262A      0.934561   263A      0.938717  
     264A      0.944067   265A      0.946332   266A      0.954952  
     267A      0.955911   268A      0.958595   269A      0.960837  
     270A      0.966200   271A      0.969113   272A      0.974451  
     273A      0.978553   274A      0.985643   275A      0.988660  
     276A      0.994043   277A      0.996840   278A      1.003268  
     279A      1.004873   280A      1.010619   281A      1.012131  
     282A      1.020745   283A      1.025280   284A      1.031537  
     285A      1.037776   286A      1.044023   287A      1.045622  
     288A      1.050856   289A      1.053555   290A      1.056048  
     291A      1.061421   292A      1.072066   293A      1.072820  
     294A      1.075013   295A      1.078428   296A      1.090187  
     297A      1.092105   298A      1.096607   299A      1.100433  
     300A      1.107662   301A      1.113285   302A      1.113542  
     303A      1.118319   304A      1.122730   305A      1.128278  
     306A      1.135246   307A      1.139944   308A      1.144284  
     309A      1.147734   310A      1.149764   311A      1.158876  
     312A      1.162113   313A      1.163399   314A      1.169980  
     315A      1.173100   316A      1.180027   317A      1.184077  
     318A      1.186701   319A      1.192536   320A      1.198106  
     321A      1.200990   322A      1.203247   323A      1.205366  
     324A      1.213453   325A      1.218801   326A      1.220452  
     327A      1.233068   328A      1.234075   329A      1.238094  
     330A      1.242337   331A      1.249715   332A      1.254926  
     333A      1.258091   334A      1.259822   335A      1.266674  
     336A      1.270761   337A      1.275902   338A      1.282814  
     339A      1.285218   340A      1.287797   341A      1.297568  
     342A      1.298656   343A      1.304455   344A      1.309754  
     345A      1.312346   346A      1.321038   347A      1.321489  
     348A      1.328892   349A      1.332727   350A      1.337494  
     351A      1.341815   352A      1.345040   353A      1.347148  
     354A      1.353110   355A      1.360792   356A      1.363661  
     357A      1.371197   358A      1.374957   359A      1.379596  
     360A      1.381442   361A      1.393708   362A      1.396184  
     363A      1.408242   364A      1.414416   365A      1.418438  
     366A      1.422463   367A      1.427103   368A      1.436799  
     369A      1.440311   370A      1.446697   371A      1.455241  
     372A      1.459568   373A      1.464658   374A      1.466972  
     375A      1.470832   376A      1.478674   377A      1.483567  
     378A      1.485008   379A      1.492440   380A      1.498262  
     381A      1.506834   382A      1.509791   383A      1.514465  
     384A      1.517162   385A      1.523540   386A      1.534475  
     387A      1.539349   388A      1.545314   389A      1.549984  
     390A      1.556794   391A      1.557719   392A      1.562496  
     393A      1.566316   394A      1.571555   395A      1.583384  
     396A      1.585893   397A      1.592959   398A      1.596756  
     399A      1.603643   400A      1.605483   401A      1.609247  
     402A      1.615776   403A      1.627432   404A      1.627866  
     405A      1.637697   406A      1.642717   407A      1.649401  
     408A      1.649993   409A      1.662235   410A      1.665854  
     411A      1.674676   412A      1.674946   413A      1.679976  
     414A      1.686179   415A      1.695728   416A      1.705194  
     417A      1.707745   418A      1.711754   419A      1.720156  
     420A      1.723461   421A      1.732925   422A      1.735191  
     423A      1.739005   424A      1.747063   425A      1.750820  
     426A      1.760104   427A      1.762640   428A      1.769876  
     429A      1.772349   430A      1.773865   431A      1.780060  
     432A      1.787883   433A      1.795661   434A      1.798702  
     435A      1.805890   436A      1.808338   437A      1.813886  
     438A      1.818347   439A      1.823189   440A      1.825211  
     441A      1.833865   442A      1.844879   443A      1.846608  
     444A      1.849326   445A      1.857879   446A      1.862241  
     447A      1.867300   448A      1.871355   449A      1.880857  
     450A      1.883995   451A      1.891097   452A      1.895052  
     453A      1.900423   454A      1.903081   455A      1.915457  
     456A      1.920897   457A      1.929227   458A      1.933636  
     459A      1.939466   460A      1.945193   461A      1.949147  
     462A      1.956640   463A      1.965957   464A      1.968082  
     465A      1.977598   466A      1.983896   467A      1.989241  
     468A      1.991721   469A      1.995743   470A      2.003967  
     471A      2.017922   472A      2.026960   473A      2.028526  
     474A      2.032338   475A      2.034879   476A      2.049902  
     477A      2.053073   478A      2.061833   479A      2.069104  
     480A      2.078253   481A      2.084253   482A      2.087679  
     483A      2.098718   484A      2.101527   485A      2.109926  
     486A      2.113117   487A      2.120337   488A      2.130522  
     489A      2.136859   490A      2.141520   491A      2.146180  
     492A      2.152439   493A      2.163388   494A      2.167100  
     495A      2.172147   496A      2.176541   497A      2.184646  
     498A      2.190006   499A      2.193185   500A      2.200765  
     501A      2.205176   502A      2.209978   503A      2.221882  
     504A      2.229531   505A      2.230712   506A      2.238374  
     507A      2.244242   508A      2.251382   509A      2.253396  
     510A      2.265369   511A      2.279947   512A      2.284504  
     513A      2.285142   514A      2.289545   515A      2.296529  
     516A      2.309712   517A      2.315301   518A      2.324075  
     519A      2.327872   520A      2.334546   521A      2.341226  
     522A      2.346560   523A      2.351578   524A      2.357600  
     525A      2.361749   526A      2.378916   527A      2.384678  
     528A      2.389597   529A      2.394772   530A      2.408666  
     531A      2.414568   532A      2.418053   533A      2.426211  
     534A      2.430990   535A      2.435160   536A      2.443021  
     537A      2.454442   538A      2.457198   539A      2.464776  
     540A      2.470888   541A      2.479850   542A      2.480119  
     543A      2.493214   544A      2.496914   545A      2.505714  
     546A      2.513158   547A      2.522414   548A      2.526782  
     549A      2.533771   550A      2.536913   551A      2.546886  
     552A      2.556673   553A      2.560942   554A      2.574180  
     555A      2.575972   556A      2.585223   557A      2.588725  
     558A      2.597647   559A      2.603318   560A      2.616371  
     561A      2.619940   562A      2.626789   563A      2.632039  
     564A      2.647857   565A      2.652732   566A      2.655148  
     567A      2.664845   568A      2.676462   569A      2.682864  
     570A      2.697807   571A      2.707755   572A      2.714488  
     573A      2.715970   574A      2.717691   575A      2.722975  
     576A      2.735595   577A      2.739801   578A      2.748902  
     579A      2.755891   580A      2.760364   581A      2.770779  
     582A      2.772771   583A      2.784077   584A      2.791272  
     585A      2.801819   586A      2.804714   587A      2.810205  
     588A      2.816132   589A      2.832021   590A      2.845878  
     591A      2.850712   592A      2.859568   593A      2.865630  
     594A      2.872894   595A      2.887163   596A      2.892636  
     597A      2.902151   598A      2.909939   599A      2.926576  
     600A      2.937913   601A      2.948340   602A      2.950695  
     603A      2.955292   604A      2.965631   605A      2.973721  
     606A      2.981319   607A      2.994510   608A      3.013247  
     609A      3.019713   610A      3.031849   611A      3.035515  
     612A      3.049331   613A      3.055251   614A      3.060294  
     615A      3.073827   616A      3.081759   617A      3.088992  
     618A      3.097926   619A      3.099158   620A      3.116278  
     621A      3.131436   622A      3.139191   623A      3.146377  
     624A      3.150890   625A      3.162910   626A      3.183175  
     627A      3.185627   628A      3.198383   629A      3.209504  
     630A      3.214680   631A      3.228583   632A      3.245071  
     633A      3.257351   634A      3.270835   635A      3.286992  
     636A      3.296908   637A      3.300020   638A      3.324419  
     639A      3.341505   640A      3.346995   641A      3.355783  
     642A      3.372405   643A      3.383840   644A      3.386594  
     645A      3.402252   646A      3.423450   647A      3.424756  
     648A      3.429799   649A      3.444761   650A      3.464955  
     651A      3.468710   652A      3.482618   653A      3.498982  
     654A      3.507189   655A      3.516071   656A      3.531858  
     657A      3.553271   658A      3.558231   659A      3.587995  
     660A      3.600928   661A      3.620345   662A      3.634883  
     663A      3.647020   664A      3.652545   665A      3.665892  
     666A      3.700433   667A      3.711489   668A      3.716982  
     669A      3.720423   670A      3.737879   671A      3.750177  
     672A      3.757364   673A      3.766368   674A      3.770939  
     675A      3.798569   676A      3.807303   677A      3.827631  
     678A      3.830111   679A      3.850082   680A      3.869767  
     681A      3.881707   682A      3.887515   683A      3.895745  
     684A      3.901731   685A      3.909598   686A      3.926060  
     687A      3.935027   688A      3.948778   689A      3.959355  
     690A      3.980920   691A      3.985878   692A      3.998942  
     693A      4.025226   694A      4.028634   695A      4.032919  
     696A      4.040190   697A      4.058362   698A      4.065924  
     699A      4.090030   700A      4.101385   701A      4.111641  
     702A      4.127820   703A      4.144667   704A      4.155549  
     705A      4.163569   706A      4.173942   707A      4.182186  
     708A      4.190711   709A      4.192589   710A      4.203577  
     711A      4.213873   712A      4.232341   713A      4.242979  
     714A      4.247515   715A      4.255707   716A      4.264607  
     717A      4.282130   718A      4.286720   719A      4.303569  
     720A      4.312005   721A      4.314163   722A      4.326234  
     723A      4.328500   724A      4.335573   725A      4.356155  
     726A      4.370092   727A      4.381839   728A      4.391023  
     729A      4.392153   730A      4.402113   731A      4.408426  
     732A      4.425836   733A      4.427725   734A      4.432321  
     735A      4.439516   736A      4.456888   737A      4.467184  
     738A      4.483604   739A      4.490107   740A      4.500648  
     741A      4.507902   742A      4.523592   743A      4.532328  
     744A      4.553419   745A      4.564839   746A      4.573333  
     747A      4.577789   748A      4.594304   749A      4.607457  
     750A      4.613119   751A      4.623048   752A      4.628080  
     753A      4.638923   754A      4.640961   755A      4.654719  
     756A      4.674464   757A      4.685880   758A      4.689058  
     759A      4.690609   760A      4.700848   761A      4.704112  
     762A      4.721460   763A      4.727635   764A      4.732157  
     765A      4.745276   766A      4.746835   767A      4.754662  
     768A      4.774555   769A      4.783072   770A      4.791067  
     771A      4.794678   772A      4.811046   773A      4.827257  
     774A      4.836415   775A      4.846442   776A      4.851300  
     777A      4.856877   778A      4.871106   779A      4.875005  
     780A      4.880478   781A      4.886581   782A      4.900964  
     783A      4.908466   784A      4.914952   785A      4.929190  
     786A      4.944452   787A      4.951387   788A      4.955670  
     789A      4.978910   790A      4.990840   791A      4.996207  
     792A      4.999369   793A      5.011124   794A      5.013101  
     795A      5.022328   796A      5.029587   797A      5.035078  
     798A      5.038701   799A      5.052849   800A      5.063391  
     801A      5.072976   802A      5.087850   803A      5.088681  
     804A      5.092953   805A      5.104207   806A      5.110834  
     807A      5.122668   808A      5.124091   809A      5.137110  
     810A      5.150096   811A      5.157356   812A      5.162337  
     813A      5.175845   814A      5.180806   815A      5.191834  
     816A      5.196138   817A      5.221797   818A      5.223621  
     819A      5.232921   820A      5.239176   821A      5.249825  
     822A      5.271925   823A      5.274942   824A      5.282354  
     825A      5.302407   826A      5.314853   827A      5.320849  
     828A      5.332603   829A      5.336131   830A      5.343415  
     831A      5.358650   832A      5.366297   833A      5.377040  
     834A      5.398045   835A      5.407076   836A      5.425272  
     837A      5.440003   838A      5.441532   839A      5.448934  
     840A      5.464562   841A      5.481559   842A      5.488094  
     843A      5.499422   844A      5.501326   845A      5.510189  
     846A      5.524328   847A      5.530608   848A      5.542816  
     849A      5.559471   850A      5.564523   851A      5.569461  
     852A      5.584772   853A      5.593302   854A      5.607595  
     855A      5.617703   856A      5.632580   857A      5.641393  
     858A      5.647431   859A      5.662708   860A      5.670645  
     861A      5.686991   862A      5.705435   863A      5.710412  
     864A      5.726925   865A      5.757516   866A      5.767179  
     867A      5.779063   868A      5.794988   869A      5.802473  
     870A      5.804303   871A      5.824144   872A      5.839700  
     873A      5.846370   874A      5.857298   875A      5.883991  
     876A      5.892261   877A      5.898411   878A      5.942226  
     879A      5.948717   880A      5.954367   881A      5.962385  
     882A      5.984042   883A      5.988400   884A      6.023155  
     885A      6.031990   886A      6.071733   887A      6.074911  
     888A      6.089292   889A      6.108628   890A      6.117409  
     891A      6.125877   892A      6.161248   893A      6.164175  
     894A      6.167794   895A      6.193003   896A      6.206174  
     897A      6.216445   898A      6.242564   899A      6.247008  
     900A      6.254974   901A      6.269609   902A      6.279213  
     903A      6.300115   904A      6.302834   905A      6.373448  
     906A      6.377693   907A      6.397868   908A      6.438194  
     909A      6.455110   910A      6.483794   911A      6.488926  
     912A      6.520039   913A      6.523599   914A      6.545528  
     915A      6.553009   916A      6.563715   917A      6.576434  
     918A      6.582613   919A      6.608605   920A      6.627851  
     921A      6.630180   922A      6.643283   923A      6.665286  
     924A      6.687813   925A      6.706612   926A      6.729633  
     927A      6.746629   928A      6.748884   929A      6.754762  
     930A      6.773088   931A      6.790236   932A      6.812206  
     933A      6.819543   934A      6.828279   935A      6.845147  
     936A      6.853243   937A      6.872169   938A      6.895228  
     939A      6.908720   940A      6.934366   941A      6.948144  
     942A      6.958174   943A      6.978274   944A      6.986777  
     945A      7.012013   946A      7.015888   947A      7.042623  
     948A      7.048656   949A      7.073823   950A      7.098340  
     951A      7.119675   952A      7.144413   953A      7.170742  
     954A      7.191588   955A      7.256610   956A      7.268163  
     957A      7.275923   958A      7.363710   959A      7.376606  
     960A      7.385621   961A      7.437402   962A      7.453940  
     963A      7.466203   964A      7.476025   965A      7.493403  
     966A      7.498710   967A      7.530657   968A      7.544770  
     969A      7.579914   970A      7.617295   971A      7.621407  
     972A      7.639147   973A      7.667403   974A      7.690524  
     975A      7.698114   976A      7.708651   977A      7.727549  
     978A      7.746124   979A      7.777662   980A      7.777928  
     981A      7.794552   982A      7.817381   983A      7.830532  
     984A      7.866325   985A      7.891023   986A      7.897519  
     987A      7.919350   988A      7.927969   989A      7.949782  
     990A      7.965534   991A      7.970048   992A      8.007628  
     993A      8.042767   994A      8.050288   995A      8.071773  
     996A      8.110049   997A      8.152254   998A      8.191007  
     999A      8.289385  1000A      8.336514  1001A      8.365449  
    1002A      8.435876  1003A      8.477365  1004A      8.512664  
    1005A      8.566696  1006A      8.733698  1007A      8.808061  
    1008A      8.864118  1009A      8.982765  1010A      9.028212  
    1011A      9.081035  1012A      9.253562  1013A      9.312792  
    1014A      9.503239  1015A      9.587461  1016A      9.658891  
    1017A      9.687018  1018A      9.746849  1019A      9.805579  
    1020A      9.835116  1021A     10.202588  1022A     10.300161  
    1023A     10.444777  1024A     10.788705  1025A     11.087967  
    1026A     11.133917  1027A     11.200404  1028A     11.301799  
    1029A     11.571769  1030A     11.680908  1031A     11.815339  
    1032A     11.931751  1033A     12.076257  1034A     12.134050  
    1035A     12.270723  1036A     12.355049  1037A     12.506037  
    1038A     12.648125  1039A     12.957317  1040A     13.066660  
    1041A     15.884336  1042A     16.071417  1043A     16.690130  
    1044A     18.006783  1045A     18.452172  1046A     20.013892  
    1047A     20.621266  1048A     21.204614  1049A     52.115348  
    1050A     52.410356  1051A     53.083575  1052A     54.835929  
    1053A     57.444587  1054A     60.450511  1055A     62.189053  
    1056A     62.884633  1057A     63.651982  1058A     64.538305  

    Final Occupation by Irrep:
              A 
    DOCC [    29 ]

  @DF-RHF Final Energy:  -392.75956637237960

   => Energetics <=

    Nuclear Repulsion Energy =            355.3123601216445877
    One-Electron Energy =               -1239.1650774275215099
    Two-Electron Energy =                 491.0931509334973271
    Total Energy =                       -392.7595663723795951

Computation Completed


Properties will be evaluated at   0.000000,   0.000000,   0.000000 [a0]

Properties computed using the SCF density matrix

  Nuclear Dipole Moment: [e a0]
     X:   -73.7563      Y:   -14.5437      Z:   194.8257

  Electronic Dipole Moment: [e a0]
     X:    75.0703      Y:    17.2910      Z:  -194.8865

  Dipole Moment: [e a0]
     X:     1.3140      Y:     2.7473      Z:    -0.0608     Total:     3.0460

  Dipole Moment: [D]
     X:     3.3398      Y:     6.9829      Z:    -0.1545     Total:     7.7421


*** tstop() called on node151.bme.utexas.edu at Wed Jan 24 11:13:30 2024
Module time:
	user time   =     374.82 seconds =       6.25 minutes
	system time =       3.65 seconds =       0.06 minutes
	total time  =         57 seconds =       0.95 minutes
Total time:
	user time   =    1763.22 seconds =      29.39 minutes
	system time =      21.08 seconds =       0.35 minutes
	total time  =        267 seconds =       4.45 minutes

*** tstart() called on node151.bme.utexas.edu
*** at Wed Jan 24 11:13:30 2024


  //>>>>>>>>>>>>>>>>>>>>>>>>>>>>>>>>>>>//
  //               DFMP2               //
  //<<<<<<<<<<<<<<<<<<<<<<<<<<<<<<<<<<<//

   => Loading Basis Set <=

    Name: (AUG-CC-PVTZ AUX)
    Role: RIFIT
    Keyword: DF_BASIS_MP2
    atoms 1, 3, 7, 9, 11, 16, 18, 24 entry N          line   206 file /opt/anaconda/envs/psi4v1.5/share/psi4/basis/aug-cc-pvtz-ri.gbs 
    atoms 2, 4-6, 8, 17, 19-21       entry C          line   148 file /opt/anaconda/envs/psi4v1.5/share/psi4/basis/aug-cc-pvtz-ri.gbs 
    atoms 10, 12-15, 22, 25-28       entry H          line    30 file /opt/anaconda/envs/psi4v1.5/share/psi4/basis/aug-cc-pvtz-ri.gbs 
    atoms 23                         entry O          line   264 file /opt/anaconda/envs/psi4v1.5/share/psi4/basis/aug-cc-pvtz-ri.gbs 

	 --------------------------------------------------------
	                          DF-MP2                         
	      2nd-Order Density-Fitted Moller-Plesset Theory     
	              RMP2 Wavefunction,   8 Threads             
	                                                         
	        Rob Parrish, Justin Turney, Andy Simmonett,      
	           Ed Hohenstein, and C. David Sherrill          
	 --------------------------------------------------------

   => Auxiliary Basis Set <=

  Basis Set: (AUG-CC-PVTZ AUX)
    Blend: AUG-CC-PVTZ-RI
    Number of shells: 644
    Number of basis functions: 2368
    Number of Cartesian functions: 2998
    Spherical Harmonics?: true
    Max angular momentum: 4

	 --------------------------------------------------------
	                 NBF =  1058, NAUX =  2368
	 --------------------------------------------------------
	   CLASS    FOCC     OCC    AOCC    AVIR     VIR    FVIR
	   PAIRS       8      29      21    1029    1029       0
	 --------------------------------------------------------

	 Will attempt to load fitting metric from file 97.

	-----------------------------------------------------------
	 ==================> DF-MP2 Energies <==================== 
	-----------------------------------------------------------
	 Reference Energy          =    -392.7595663723795951 [Eh]
	 Singles Energy            =      -0.0000000000000000 [Eh]
	 Same-Spin Energy          =      -0.3849613957288540 [Eh]
	 Opposite-Spin Energy      =      -1.0977267162844546 [Eh]
	 Correlation Energy        =      -1.4826881120133086 [Eh]
	 Total Energy              =    -394.2422544843929018 [Eh]
	-----------------------------------------------------------
	 ================> DF-SCS-MP2 Energies <================== 
	-----------------------------------------------------------
	 SCS Same-Spin Scale       =       0.3333333333333333 [-]
	 SCS Opposite-Spin Scale   =       1.2000000000000000 [-]
	 SCS Same-Spin Energy      =      -0.1283204652429513 [Eh]
	 SCS Opposite-Spin Energy  =      -1.3172720595413454 [Eh]
	 SCS Correlation Energy    =      -1.4455925247842967 [Eh]
	 SCS Total Energy          =    -394.2051588971638694 [Eh]
	-----------------------------------------------------------


*** tstop() called on node151.bme.utexas.edu at Wed Jan 24 11:13:50 2024
Module time:
	user time   =     112.29 seconds =       1.87 minutes
	system time =       2.42 seconds =       0.04 minutes
	total time  =         20 seconds =       0.33 minutes
Total time:
	user time   =    1875.51 seconds =      31.26 minutes
	system time =      23.50 seconds =       0.39 minutes
	total time  =        287 seconds =       4.78 minutes
  Constructing Basis Sets for SAPT...

   => Loading Basis Set <=

    Name: (AUG-CC-PVTZ AUX)
    Role: RIFIT
    Keyword: DF_BASIS_SAPT
    atoms 1, 3, 7, 9, 11, 16, 18, 24 entry N          line   206 file /opt/anaconda/envs/psi4v1.5/share/psi4/basis/aug-cc-pvtz-ri.gbs 
    atoms 2, 4-6, 8, 17, 19-21       entry C          line   148 file /opt/anaconda/envs/psi4v1.5/share/psi4/basis/aug-cc-pvtz-ri.gbs 
    atoms 10, 12-15, 22, 25-28       entry H          line    30 file /opt/anaconda/envs/psi4v1.5/share/psi4/basis/aug-cc-pvtz-ri.gbs 
    atoms 23                         entry O          line   264 file /opt/anaconda/envs/psi4v1.5/share/psi4/basis/aug-cc-pvtz-ri.gbs 


  //>>>>>>>>>>>>>>>>>>>>>>>>>>>>>>>>>>>//
  //           SAPT2+(3)DMP2           //
  //<<<<<<<<<<<<<<<<<<<<<<<<<<<<<<<<<<<//


*** tstart() called on node151.bme.utexas.edu
*** at Wed Jan 24 11:13:50 2024

      SAPT2+(3)  
    Ed Hohenstein
     6 June 2009

      Orbital Information
  --------------------------
    NSO        =      1058
    NMO        =      1058
    NRI        =      2368
    NOCC A     =        35
    NOCC B     =        29
    FOCC A     =        10
    FOCC B     =         8
    NVIR A     =      1023
    NVIR B     =      1029

    Estimated memory usage: 51188.6 MB

    Natural Orbital Cutoff:   1.000E-06
    Disp(T3) Truncation:            Yes
    CCD (vv|vv) Truncation:         Yes
    MBPT T2 Truncation:             Yes

    Monomer A: 524 virtual orbitals dropped
    Monomer B: 608 virtual orbitals dropped

    Elst10,r            =    -0.006676534756 [Eh]
    Exch10 (S^2)        =     0.020539344670 [Eh]
    Exch10              =     0.020583529506 [Eh]
    Ind20,r (A<-B)      =    -0.005057966835 [Eh]
    Ind20,r (B<-A)      =    -0.006279093882 [Eh]
    Ind20,r             =    -0.011337060717 [Eh]
    Exch-Ind20,r (A<-B) =     0.003886611345 [Eh]
    Exch-Ind20,r (B<-A) =     0.005973735256 [Eh]
    Exch-Ind20,r        =     0.009860346601 [Eh]
    Disp20              =    -0.028089709248 [Eh]
    Disp20 (NO)         =    -0.026032686743 [Eh]
    Exch-Disp20         =     0.003395119262 [Eh]
    Elst12,r            =    -0.000351119279 [Eh]
    Exch11              =     0.000592476049 [Eh]
    Exch12              =     0.000577315652 [Eh]
    Ind22               =    -0.000254463900 [Eh]
    Disp21              =     0.009159894364 [Eh]
    Disp22 (SDQ)        =    -0.001168887048 [Eh]

    (i =   1 of  21)       1610 seconds
    (i =   2 of  21)       3242 seconds
    (i =   3 of  21)       4940 seconds
    (i =   4 of  21)       6623 seconds
    (i =   5 of  21)       8308 seconds
    (i =   6 of  21)      10005 seconds
    (i =   7 of  21)      11701 seconds
    (i =   8 of  21)      13403 seconds
    (i =   9 of  21)      15108 seconds
    (i =  10 of  21)      16812 seconds
    (i =  11 of  21)      18512 seconds
    (i =  12 of  21)      20213 seconds
    (i =  13 of  21)      21917 seconds
    (i =  14 of  21)      23622 seconds
    (i =  15 of  21)      25329 seconds
    (i =  16 of  21)      27035 seconds
    (i =  17 of  21)      28734 seconds
    (i =  18 of  21)      30434 seconds
    (i =  19 of  21)      32132 seconds
    (i =  20 of  21)      33832 seconds
    (i =  21 of  21)      35533 seconds

    Disp220 (T)         =    -0.003271076218 [Eh]

    (i =   1 of  25)       1090 seconds
    (i =   2 of  25)       2177 seconds
    (i =   3 of  25)       3267 seconds
    (i =   4 of  25)       4363 seconds
    (i =   5 of  25)       5466 seconds
    (i =   6 of  25)       6563 seconds
    (i =   7 of  25)       7659 seconds
    (i =   8 of  25)       8756 seconds
    (i =   9 of  25)       9853 seconds
    (i =  10 of  25)      10951 seconds
    (i =  11 of  25)      12051 seconds
    (i =  12 of  25)      13149 seconds
    (i =  13 of  25)      14255 seconds
    (i =  14 of  25)      15355 seconds
    (i =  15 of  25)      16447 seconds
    (i =  16 of  25)      17540 seconds
    (i =  17 of  25)      18627 seconds
    (i =  18 of  25)      19713 seconds
    (i =  19 of  25)      20800 seconds
    (i =  20 of  25)      21886 seconds
    (i =  21 of  25)      22969 seconds
    (i =  22 of  25)      24056 seconds
    (i =  23 of  25)      25152 seconds
    (i =  24 of  25)      26252 seconds
    (i =  25 of  25)      27356 seconds

    Disp202 (T)         =    -0.003054969913 [Eh]

    Disp22 (T)          =    -0.006326046131 [Eh]

    Est. Disp220 (T)    =    -0.003529546558 [Eh]
    Est. Disp202 (T)    =    -0.003296364200 [Eh]

    Est. Disp22 (T)     =    -0.006825910758 [Eh]
    Elst13,r            =     0.000672887709 [Eh]
    Disp30              =     0.000755684433 [Eh]

    SAPT Results 
  --------------------------------------------------------------------------------------------------------
    Electrostatics                 -6.35476633 [mEh]      -3.98767607 [kcal/mol]     -16.68443669 [kJ/mol]
      Elst10,r                     -6.67653476 [mEh]      -4.18958881 [kcal/mol]     -17.52923959 [kJ/mol]
      Elst12,r                     -0.35111928 [mEh]      -0.22033067 [kcal/mol]      -0.92186354 [kJ/mol]
      Elst13,r                      0.67288771 [mEh]       0.42224341 [kcal/mol]       1.76666644 [kJ/mol]

    Exchange                       21.75332121 [mEh]      13.65041514 [kcal/mol]      57.11333696 [kJ/mol]
      Exch10                       20.58352951 [mEh]      12.91635977 [kcal/mol]      54.04204927 [kJ/mol]
      Exch10(S^2)                  20.53934467 [mEh]      12.88863337 [kcal/mol]      53.92604200 [kJ/mol]
      Exch11(S^2)                   0.59247605 [mEh]       0.37178433 [kcal/mol]       1.55554565 [kJ/mol]
      Exch12(S^2)                   0.57731565 [mEh]       0.36227104 [kcal/mol]       1.51574204 [kJ/mol]

    Induction                      -1.68696478 [mEh]      -1.05858638 [kcal/mol]      -4.42912543 [kJ/mol]
      Ind20,r                     -11.33706072 [mEh]      -7.11411300 [kcal/mol]     -29.76544881 [kJ/mol]
      Ind22                        -0.25446390 [mEh]      -0.15967851 [kcal/mol]      -0.66809488 [kJ/mol]
      Exch-Ind20,r                  9.86034660 [mEh]       6.18746091 [kcal/mol]      25.88833644 [kJ/mol]
      Exch-Ind22                    0.22131859 [mEh]       0.13887951 [kcal/mol]       0.58107187 [kJ/mol]
      delta HF,r (2)               -1.00646343 [mEh]      -0.63156534 [kcal/mol]      -2.64246938 [kJ/mol]
      delta MP2,r (2)               0.82935808 [mEh]       0.52043005 [kcal/mol]       2.17747933 [kJ/mol]

    Dispersion                    -22.77380899 [mEh]     -14.29078090 [kcal/mol]     -59.79262728 [kJ/mol]
      Disp20                      -28.08970925 [mEh]     -17.62655867 [kcal/mol]     -73.74952147 [kJ/mol]
      Disp30                        0.75568443 [mEh]       0.47419914 [kcal/mol]       1.98404920 [kJ/mol]
      Disp21                        9.15989436 [mEh]       5.74792049 [kcal/mol]      24.04929934 [kJ/mol]
      Disp22 (SDQ)                 -1.16888705 [mEh]      -0.73348770 [kcal/mol]      -3.06891252 [kJ/mol]
      Disp22 (T)                   -6.32604613 [mEh]      -3.96965388 [kcal/mol]     -16.60903183 [kJ/mol]
      Est. Disp22 (T)              -6.82591076 [mEh]      -4.28332367 [kcal/mol]     -17.92142623 [kJ/mol]
      Exch-Disp20                   3.39511926 [mEh]       2.13046950 [kcal/mol]       8.91388439 [kJ/mol]

  Total HF                         11.42381720 [mEh]       7.16855352 [kcal/mol]      29.99322793 [kJ/mol]
  Total SAPT0                     -13.27077278 [mEh]      -8.32753565 [kcal/mol]     -34.84240914 [kJ/mol]
  Total SAPT2                     -12.48524567 [mEh]      -7.83460994 [kcal/mol]     -32.78000800 [kJ/mol]
  Total SAPT2+                    -11.32014912 [mEh]      -7.10350082 [kcal/mol]     -29.72104741 [kJ/mol]
  Total SAPT2+(3)                  -9.89157697 [mEh]      -6.20705826 [kcal/mol]     -25.97033177 [kJ/mol]
  Total SAPT2+dMP2                -10.49079104 [mEh]      -6.58307076 [kcal/mol]     -27.54356808 [kJ/mol]
  Total SAPT2+(3)dMP2              -9.06221890 [mEh]      -5.68662821 [kcal/mol]     -23.79285244 [kJ/mol]

  Special recipe for scaled SAPT0 (see Manual):
    Electrostatics sSAPT0          -6.67653476 [mEh]      -4.18958881 [kcal/mol]     -17.52923959 [kJ/mol]
    Exchange sSAPT0                20.58352951 [mEh]      12.91635977 [kcal/mol]      54.04204927 [kJ/mol]
    Induction sSAPT0               -2.41940496 [mEh]      -1.51819953 [kcal/mol]      -6.35214685 [kJ/mol]
    Dispersion sSAPT0             -24.67263178 [mEh]     -15.48231018 [kcal/mol]     -64.77798581 [kJ/mol]
  Total sSAPT0                    -13.18504199 [mEh]      -8.27373876 [kcal/mol]     -34.61732297 [kJ/mol]
  --------------------------------------------------------------------------------------------------------

*** tstop() called on node151.bme.utexas.edu at Thu Jan 25 08:12:57 2024
Module time:
	user time   =  478081.41 seconds =    7968.02 minutes
	system time =    1159.89 seconds =      19.33 minutes
	total time  =      75547 seconds =    1259.12 minutes
Total time:
	user time   =  479957.69 seconds =    7999.29 minutes
	system time =    1183.41 seconds =      19.72 minutes
	total time  =      75834 seconds =    1263.90 minutes

    Psi4 stopped on: Thursday, 25 January 2024 08:12AM
    Psi4 wall time for execution: 21:03:54.54

*** Psi4 exiting successfully. Buy a developer a beer!
