
    -----------------------------------------------------------------------
          Psi4: An Open-Source Ab Initio Electronic Structure Package
                               Psi4 1.5 release

                         Git: Rev {HEAD} e9f4d6d 


    D. G. A. Smith, L. A. Burns, A. C. Simmonett, R. M. Parrish,
    M. C. Schieber, R. Galvelis, P. Kraus, H. Kruse, R. Di Remigio,
    A. Alenaizan, A. M. James, S. Lehtola, J. P. Misiewicz, M. Scheurer,
    R. A. Shaw, J. B. Schriber, Y. Xie, Z. L. Glick, D. A. Sirianni,
    J. S. O'Brien, J. M. Waldrop, A. Kumar, E. G. Hohenstein,
    B. P. Pritchard, B. R. Brooks, H. F. Schaefer III, A. Yu. Sokolov,
    K. Patkowski, A. E. DePrince III, U. Bozkaya, R. A. King,
    F. A. Evangelista, J. M. Turney, T. D. Crawford, C. D. Sherrill,
    J. Chem. Phys. 152(18) 184108 (2020). https://doi.org/10.1063/5.0006002

                            Additional Code Authors
    E. T. Seidl, C. L. Janssen, E. F. Valeev, M. L. Leininger,
    J. F. Gonthier, R. M. Richard, H. R. McAlexander, M. Saitow, X. Wang,
    P. Verma, M. H. Lechner, and A. Jiang

             Previous Authors, Complete List of Code Contributors,
                       and Citations for Specific Modules
    https://github.com/psi4/psi4/blob/master/codemeta.json
    https://github.com/psi4/psi4/graphs/contributors
    http://psicode.org/psi4manual/master/introduction.html#citing-psifour

    -----------------------------------------------------------------------


    Psi4 started on: Monday, 22 January 2024 03:24PM

    Process ID: 1198404
    Host:       node151.bme.utexas.edu
    PSIDATADIR: /opt/anaconda/envs/psi4v1.5/share/psi4
    Memory:     500.0 MiB
    Threads:    8
    
  ==> Input File <==

--------------------------------------------------------------------------
memory 80GB

molecule {
0 1
N -1.249408 -4.334618 0.000108
C -1.453779 -2.957386 0.000369
N -0.287164 -2.222242 0.000471
C 1.008028 -2.72249 0.000365
C 1.139737 -4.181361 6.4e-05
C 0.0 -4.915748 0.0
H -2.087419 -4.899193 0.000228
O -2.573085 -2.462566 0.000505
H -0.408805 -1.172186 0.000678
O 1.977244 -1.953535 0.000498
C 2.515972 -4.780254 -0.000534
H 2.46354 -5.877599 0.006109
H 3.080111 -4.452913 -0.886592
H 3.085127 -4.442101 0.87814
H 0.011158 -6.004875 -3.7e-05
--
0 1
N -3.18716 2.698056 3.268114
C -2.644244 1.397899 3.271501
N -1.291813 1.280887 3.243105
C -0.505399 2.367959 3.212969
C -1.056032 3.704774 3.209323
C -2.409528 3.816661 3.237802
H -4.19684 2.755398 3.289662
O -3.424134 0.436596 3.30002
N 0.817166 2.17459 3.186133
H 1.214026 1.210533 3.188788
H 1.438554 2.968026 3.163098
H -0.417999 4.584116 3.1849
H -2.927384 4.774921 3.237897
 units angstrom
 no_reorient
 symmetry c1}
set  {scf_type DF
 basis aug-cc-pvtz
 freeze_core True
 guess SAD}
energy('sapt2+(3)dmp2')
--------------------------------------------------------------------------

  Memory set to  74.506 GiB by Python driver.

Scratch directory: /tmp/
   => Loading Basis Set <=

    Name: AUG-CC-PVTZ
    Role: ORBITAL
    Keyword: BASIS
    atoms 1, 3, 16, 18, 24       entry N          line   285 file /opt/anaconda/envs/psi4v1.5/share/psi4/basis/aug-cc-pvtz.gbs 
    atoms 2, 4-6, 11, 17, 19-21  entry C          line   239 file /opt/anaconda/envs/psi4v1.5/share/psi4/basis/aug-cc-pvtz.gbs 
    atoms 7, 9, 12-15, 22, 25-28 entry H          line    40 file /opt/anaconda/envs/psi4v1.5/share/psi4/basis/aug-cc-pvtz.gbs 
    atoms 8, 10, 23              entry O          line   331 file /opt/anaconda/envs/psi4v1.5/share/psi4/basis/aug-cc-pvtz.gbs 

   => Loading Basis Set <=

    Name: AUG-CC-PVTZ
    Role: ORBITAL
    Keyword: BASIS
    atoms 1, 3, 16, 18, 24       entry N          line   285 file /opt/anaconda/envs/psi4v1.5/share/psi4/basis/aug-cc-pvtz.gbs 
    atoms 2, 4-6, 11, 17, 19-21  entry C          line   239 file /opt/anaconda/envs/psi4v1.5/share/psi4/basis/aug-cc-pvtz.gbs 
    atoms 7, 9, 12-15, 22, 25-28 entry H          line    40 file /opt/anaconda/envs/psi4v1.5/share/psi4/basis/aug-cc-pvtz.gbs 
    atoms 8, 10, 23              entry O          line   331 file /opt/anaconda/envs/psi4v1.5/share/psi4/basis/aug-cc-pvtz.gbs 


  //>>>>>>>>>>>>>>>>>>>>>>>>>>>>>>>>>>>//
  //              Dimer HF             //
  //<<<<<<<<<<<<<<<<<<<<<<<<<<<<<<<<<<<//


*** tstart() called on node151.bme.utexas.edu
*** at Mon Jan 22 15:24:39 2024

   => Loading Basis Set <=

    Name: AUG-CC-PVTZ
    Role: ORBITAL
    Keyword: BASIS
    atoms 1, 3, 16, 18, 24       entry N          line   285 file /opt/anaconda/envs/psi4v1.5/share/psi4/basis/aug-cc-pvtz.gbs 
    atoms 2, 4-6, 11, 17, 19-21  entry C          line   239 file /opt/anaconda/envs/psi4v1.5/share/psi4/basis/aug-cc-pvtz.gbs 
    atoms 7, 9, 12-15, 22, 25-28 entry H          line    40 file /opt/anaconda/envs/psi4v1.5/share/psi4/basis/aug-cc-pvtz.gbs 
    atoms 8, 10, 23              entry O          line   331 file /opt/anaconda/envs/psi4v1.5/share/psi4/basis/aug-cc-pvtz.gbs 


         ---------------------------------------------------------
                                   SCF
               by Justin Turney, Rob Parrish, Andy Simmonett
                          and Daniel G. A. Smith
                              RHF Reference
                        8 Threads,  76293 MiB Core
         ---------------------------------------------------------

  ==> Geometry <==

    Molecular point group: c1
    Full point group: C1

    Geometry (in Angstrom), charge = 0, multiplicity = 1:

       Center              X                  Y                   Z               Mass       
    ------------   -----------------  -----------------  -----------------  -----------------
         N           -0.504145270115    -3.578869695316    -1.518206074596    14.003074004430
         C           -0.708516270115    -2.201637695316    -1.517945074596    12.000000000000
         N            0.458098729885    -1.466493695316    -1.517843074596    14.003074004430
         C            1.753290729885    -1.966741695316    -1.517949074596    12.000000000000
         C            1.884999729885    -3.425612695316    -1.518250074596    12.000000000000
         C            0.745262729885    -4.159999695316    -1.518314074596    12.000000000000
         H           -1.342156270115    -4.143444695316    -1.518086074596     1.007825032230
         O           -1.827822270115    -1.706817695316    -1.517809074596    15.994914619570
         H            0.336457729885    -0.416437695316    -1.517636074596     1.007825032230
         O            2.722506729885    -1.197786695316    -1.517816074596    15.994914619570
         C            3.261234729885    -4.024505695316    -1.518848074596    12.000000000000
         H            3.208802729885    -5.121850695316    -1.512205074596     1.007825032230
         H            3.825373729885    -3.697164695316    -2.404906074596     1.007825032230
         H            3.830389729885    -3.686352695316    -0.640174074596     1.007825032230
         H            0.756420729885    -5.249126695316    -1.518351074596     1.007825032230
         N           -2.441897270115     3.453804304684     1.749799925404    14.003074004430
         C           -1.898981270115     2.153647304684     1.753186925404    12.000000000000
         N           -0.546550270115     2.036635304684     1.724790925404    14.003074004430
         C            0.239863729885     3.123707304684     1.694654925404    12.000000000000
         C           -0.310769270115     4.460522304684     1.691008925404    12.000000000000
         C           -1.664265270115     4.572409304684     1.719487925404    12.000000000000
         H           -3.451577270115     3.511146304684     1.771347925404     1.007825032230
         O           -2.678871270115     1.192344304684     1.781705925404    15.994914619570
         N            1.562428729885     2.930338304684     1.667818925404    14.003074004430
         H            1.959288729885     1.966281304684     1.670473925404     1.007825032230
         H            2.183816729885     3.723774304684     1.644783925404     1.007825032230
         H            0.327263729885     5.339864304684     1.666585925404     1.007825032230
         H           -2.182121270115     5.530669304684     1.719582925404     1.007825032230

  Running in c1 symmetry.

  Rotational constants: A =      0.02683  B =      0.00563  C =      0.00485 [cm^-1]
  Rotational constants: A =    804.41233  B =    168.82304  C =    145.36265 [MHz]
  Nuclear repulsion = 1087.028080896955544

  Charge       = 0
  Multiplicity = 1
  Electrons    = 124
  Nalpha       = 62
  Nbeta        = 62

  ==> Algorithm <==

  SCF Algorithm Type is DF.
  DIIS enabled.
  MOM disabled.
  Fractional occupation disabled.
  Guess Type is SAD.
  Energy threshold   = 1.00e-08
  Density threshold  = 1.00e-08
  Integral threshold = 1.00e-12

  ==> Primary Basis <==

  Basis Set: AUG-CC-PVTZ
    Blend: AUG-CC-PVTZ
    Number of shells: 337
    Number of basis functions: 1035
    Number of Cartesian functions: 1210
    Spherical Harmonics?: true
    Max angular momentum: 3

   => Loading Basis Set <=

    Name: (AUG-CC-PVTZ AUX)
    Role: JKFIT
    Keyword: DF_BASIS_SCF
    atoms 1, 3, 16, 18, 24       entry N          line   224 file /opt/anaconda/envs/psi4v1.5/share/psi4/basis/aug-cc-pvtz-jkfit.gbs 
    atoms 2, 4-6, 11, 17, 19-21  entry C          line   162 file /opt/anaconda/envs/psi4v1.5/share/psi4/basis/aug-cc-pvtz-jkfit.gbs 
    atoms 7, 9, 12-15, 22, 25-28 entry H          line    70 file /opt/anaconda/envs/psi4v1.5/share/psi4/basis/aug-cc-pvtz-jkfit.gbs 
    atoms 8, 10, 23              entry O          line   286 file /opt/anaconda/envs/psi4v1.5/share/psi4/basis/aug-cc-pvtz-jkfit.gbs 

  ==> Integral Setup <==

  ==> DiskDFJK: Density-Fitted J/K Matrices <==

    J tasked:                  Yes
    K tasked:                  Yes
    wK tasked:                  No
    OpenMP threads:              8
    Integrals threads:           8
    Memory [MiB]:            57220
    Algorithm:                Core
    Integral Cache:           SAVE
    Schwarz Cutoff:          1E-12
    Fitting Condition:       1E-10

   => Auxiliary Basis Set <=

  Basis Set: (AUG-CC-PVTZ AUX)
    Blend: AUG-CC-PVTZ-JKFIT
    Number of shells: 664
    Number of basis functions: 2274
    Number of Cartesian functions: 2832
    Spherical Harmonics?: true
    Max angular momentum: 4

  Minimum eigenvalue in the overlap matrix is 1.9492582946E-06.
  Reciprocal condition number of the overlap matrix is 1.1262109634E-07.
    Using symmetric orthogonalization.

  ==> Pre-Iterations <==

  SCF Guess: Superposition of Atomic Densities via on-the-fly atomic UHF (no occupation information).

   -------------------------
    Irrep   Nso     Nmo    
   -------------------------
     A       1035    1035 
   -------------------------
    Total    1035    1035
   -------------------------

  ==> Iterations <==

                           Total Energy        Delta E     RMS |[F,P]|

   @DF-RHF iter SAD:  -842.99161208689657   -8.42992e+02   0.00000e+00 
   @DF-RHF iter   1:  -843.87877018145446   -8.87158e-01   1.04152e-03 DIIS
   @DF-RHF iter   2:  -844.26623756298113   -3.87467e-01   6.46357e-04 DIIS
   @DF-RHF iter   3:  -844.41734092635181   -1.51103e-01   1.26894e-04 DIIS
   @DF-RHF iter   4:  -844.42636032877442   -9.01940e-03   5.36316e-05 DIIS
   @DF-RHF iter   5:  -844.42825845366599   -1.89812e-03   1.09598e-05 DIIS
   @DF-RHF iter   6:  -844.42844053326496   -1.82080e-04   5.99839e-06 DIIS
   @DF-RHF iter   7:  -844.42848731434344   -4.67811e-05   2.36631e-06 DIIS
   @DF-RHF iter   8:  -844.42849582772874   -8.51339e-06   8.74458e-07 DIIS
   @DF-RHF iter   9:  -844.42849677350989   -9.45781e-07   3.35654e-07 DIIS
   @DF-RHF iter  10:  -844.42849692408936   -1.50579e-07   1.30841e-07 DIIS
   @DF-RHF iter  11:  -844.42849694777556   -2.36862e-08   5.48965e-08 DIIS
   @DF-RHF iter  12:  -844.42849695143877   -3.66322e-09   1.64585e-08 DIIS
   @DF-RHF iter  13:  -844.42849695181826   -3.79487e-10   5.49941e-09 DIIS
  Energy and wave function converged.


  ==> Post-Iterations <==

    Orbital Energies [Eh]
    ---------------------

    Doubly Occupied:                                                      

       1A    -20.530095     2A    -20.527648     3A    -20.487123  
       4A    -15.628405     5A    -15.622402     6A    -15.617968  
       7A    -15.604045     8A    -15.534491     9A    -11.403155  
      10A    -11.370306    11A    -11.360026    12A    -11.355743  
      13A    -11.330355    14A    -11.322176    15A    -11.253045  
      16A    -11.247299    17A    -11.235185    18A     -1.413962  
      19A     -1.377301    20A     -1.368520    21A     -1.290883  
      22A     -1.290225    23A     -1.259101    24A     -1.230114  
      25A     -1.165808    26A     -1.095406    27A     -1.061558  
      28A     -0.957673    29A     -0.902507    30A     -0.898944  
      31A     -0.882114    32A     -0.873254    33A     -0.759344  
      34A     -0.758591    35A     -0.756243    36A     -0.755145  
      37A     -0.723625    38A     -0.694983    39A     -0.673694  
      40A     -0.661988    41A     -0.653530    42A     -0.623473  
      43A     -0.618898    44A     -0.618758    45A     -0.609032  
      46A     -0.602982    47A     -0.579683    48A     -0.578012  
      49A     -0.559024    50A     -0.547294    51A     -0.542922  
      52A     -0.537841    53A     -0.498758    54A     -0.479090  
      55A     -0.463400    56A     -0.436673    57A     -0.428664  
      58A     -0.421301    59A     -0.411886    60A     -0.379337  
      61A     -0.342566    62A     -0.338501  

    Virtual:                                                              

      63A      0.018153    64A      0.022786    65A      0.026671  
      66A      0.034813    67A      0.040817    68A      0.045573  
      69A      0.050442    70A      0.056781    71A      0.057851  
      72A      0.063956    73A      0.068920    74A      0.075458  
      75A      0.077704    76A      0.082760    77A      0.089579  
      78A      0.094201    79A      0.096691    80A      0.099853  
      81A      0.102829    82A      0.103465    83A      0.104712  
      84A      0.107795    85A      0.113492    86A      0.113745  
      87A      0.117686    88A      0.120776    89A      0.121841  
      90A      0.126152    91A      0.128374    92A      0.130496  
      93A      0.137110    94A      0.140851    95A      0.145750  
      96A      0.146323    97A      0.149522    98A      0.150358  
      99A      0.155625   100A      0.155975   101A      0.158869  
     102A      0.161593   103A      0.167497   104A      0.171334  
     105A      0.174859   106A      0.176455   107A      0.177145  
     108A      0.180682   109A      0.187675   110A      0.191454  
     111A      0.197149   112A      0.199705   113A      0.202765  
     114A      0.207007   115A      0.208185   116A      0.216003  
     117A      0.223098   118A      0.226431   119A      0.230809  
     120A      0.235140   121A      0.238868   122A      0.242267  
     123A      0.245619   124A      0.247840   125A      0.252124  
     126A      0.254262   127A      0.257010   128A      0.260937  
     129A      0.263699   130A      0.267585   131A      0.269685  
     132A      0.274742   133A      0.279281   134A      0.280237  
     135A      0.284236   136A      0.290232   137A      0.291205  
     138A      0.295211   139A      0.298789   140A      0.301003  
     141A      0.303970   142A      0.308425   143A      0.308733  
     144A      0.310678   145A      0.313665   146A      0.320313  
     147A      0.325707   148A      0.327226   149A      0.327907  
     150A      0.332460   151A      0.334265   152A      0.342320  
     153A      0.345255   154A      0.348591   155A      0.350521  
     156A      0.352573   157A      0.355326   158A      0.357422  
     159A      0.360912   160A      0.361616   161A      0.369507  
     162A      0.369943   163A      0.373638   164A      0.376431  
     165A      0.377949   166A      0.383506   167A      0.385266  
     168A      0.386921   169A      0.394188   170A      0.395487  
     171A      0.398521   172A      0.402514   173A      0.405418  
     174A      0.408904   175A      0.413657   176A      0.415264  
     177A      0.416662   178A      0.423562   179A      0.426095  
     180A      0.427700   181A      0.432587   182A      0.435403  
     183A      0.436861   184A      0.438445   185A      0.440703  
     186A      0.444732   187A      0.449947   188A      0.451196  
     189A      0.455930   190A      0.458145   191A      0.462554  
     192A      0.467137   193A      0.469720   194A      0.475106  
     195A      0.475989   196A      0.480707   197A      0.483586  
     198A      0.486005   199A      0.489214   200A      0.493758  
     201A      0.496741   202A      0.499001   203A      0.500508  
     204A      0.505096   205A      0.508648   206A      0.509565  
     207A      0.513770   208A      0.516068   209A      0.518372  
     210A      0.523305   211A      0.526983   212A      0.529440  
     213A      0.530366   214A      0.538276   215A      0.539984  
     216A      0.543505   217A      0.548757   218A      0.555412  
     219A      0.560802   220A      0.563444   221A      0.567870  
     222A      0.569706   223A      0.574185   224A      0.577641  
     225A      0.582661   226A      0.590157   227A      0.592771  
     228A      0.594667   229A      0.599831   230A      0.605682  
     231A      0.617365   232A      0.619125   233A      0.620554  
     234A      0.624560   235A      0.628877   236A      0.636224  
     237A      0.644118   238A      0.647549   239A      0.650566  
     240A      0.654470   241A      0.658245   242A      0.663314  
     243A      0.665095   244A      0.666844   245A      0.669167  
     246A      0.675275   247A      0.677934   248A      0.684897  
     249A      0.693353   250A      0.700397   251A      0.701838  
     252A      0.704729   253A      0.706877   254A      0.709217  
     255A      0.718837   256A      0.723641   257A      0.726946  
     258A      0.728637   259A      0.730679   260A      0.733083  
     261A      0.739953   262A      0.742995   263A      0.751083  
     264A      0.756024   265A      0.764045   266A      0.771675  
     267A      0.773207   268A      0.775351   269A      0.781352  
     270A      0.787224   271A      0.789234   272A      0.793141  
     273A      0.796155   274A      0.801170   275A      0.802744  
     276A      0.809941   277A      0.813662   278A      0.815243  
     279A      0.817650   280A      0.826094   281A      0.836520  
     282A      0.840027   283A      0.840776   284A      0.844957  
     285A      0.849227   286A      0.859971   287A      0.866568  
     288A      0.871394   289A      0.872866   290A      0.877771  
     291A      0.882672   292A      0.886092   293A      0.891426  
     294A      0.894076   295A      0.897009   296A      0.903009  
     297A      0.904521   298A      0.908880   299A      0.912347  
     300A      0.912955   301A      0.919749   302A      0.924869  
     303A      0.927969   304A      0.928802   305A      0.931500  
     306A      0.936099   307A      0.942315   308A      0.947361  
     309A      0.948887   310A      0.951582   311A      0.953772  
     312A      0.958535   313A      0.963092   314A      0.964270  
     315A      0.967447   316A      0.973993   317A      0.974817  
     318A      0.977841   319A      0.984834   320A      0.987790  
     321A      0.988890   322A      0.992773   323A      0.997321  
     324A      1.001381   325A      1.001868   326A      1.008315  
     327A      1.010539   328A      1.017079   329A      1.020817  
     330A      1.026990   331A      1.027351   332A      1.033946  
     333A      1.038014   334A      1.040531   335A      1.050198  
     336A      1.055092   337A      1.057975   338A      1.059664  
     339A      1.066730   340A      1.073084   341A      1.076996  
     342A      1.078247   343A      1.083768   344A      1.085720  
     345A      1.087745   346A      1.094627   347A      1.097842  
     348A      1.099705   349A      1.107205   350A      1.111221  
     351A      1.112013   352A      1.119020   353A      1.123638  
     354A      1.128489   355A      1.130160   356A      1.137339  
     357A      1.144704   358A      1.145583   359A      1.149356  
     360A      1.153136   361A      1.155766   362A      1.160588  
     363A      1.165139   364A      1.168656   365A      1.171408  
     366A      1.173969   367A      1.178565   368A      1.182631  
     369A      1.186446   370A      1.188217   371A      1.191218  
     372A      1.196381   373A      1.200359   374A      1.204959  
     375A      1.207912   376A      1.211498   377A      1.214728  
     378A      1.216995   379A      1.224152   380A      1.229232  
     381A      1.232378   382A      1.237921   383A      1.242547  
     384A      1.245912   385A      1.257494   386A      1.262820  
     387A      1.265918   388A      1.269484   389A      1.272438  
     390A      1.279277   391A      1.285493   392A      1.295175  
     393A      1.300737   394A      1.302463   395A      1.304347  
     396A      1.314658   397A      1.320663   398A      1.325650  
     399A      1.327197   400A      1.332948   401A      1.335122  
     402A      1.342660   403A      1.349334   404A      1.355754  
     405A      1.360558   406A      1.365803   407A      1.368533  
     408A      1.376357   409A      1.378865   410A      1.380544  
     411A      1.389980   412A      1.392581   413A      1.394840  
     414A      1.401879   415A      1.405182   416A      1.407105  
     417A      1.416551   418A      1.420921   419A      1.425232  
     420A      1.430218   421A      1.433896   422A      1.438327  
     423A      1.441322   424A      1.445531   425A      1.450608  
     426A      1.458052   427A      1.461666   428A      1.465467  
     429A      1.475095   430A      1.481550   431A      1.485732  
     432A      1.492337   433A      1.496486   434A      1.501656  
     435A      1.512041   436A      1.516017   437A      1.525017  
     438A      1.528848   439A      1.531976   440A      1.538667  
     441A      1.540753   442A      1.545723   443A      1.548533  
     444A      1.552862   445A      1.564904   446A      1.570861  
     447A      1.573817   448A      1.584461   449A      1.587696  
     450A      1.593053   451A      1.603417   452A      1.606285  
     453A      1.614504   454A      1.618635   455A      1.623619  
     456A      1.626772   457A      1.631346   458A      1.631959  
     459A      1.640115   460A      1.642420   461A      1.653469  
     462A      1.656997   463A      1.657460   464A      1.661478  
     465A      1.665810   466A      1.667586   467A      1.680487  
     468A      1.686836   469A      1.688264   470A      1.697016  
     471A      1.706720   472A      1.713933   473A      1.718917  
     474A      1.728146   475A      1.732021   476A      1.736005  
     477A      1.743000   478A      1.745179   479A      1.753091  
     480A      1.754888   481A      1.762144   482A      1.772805  
     483A      1.787906   484A      1.791293   485A      1.798406  
     486A      1.814873   487A      1.819382   488A      1.824185  
     489A      1.829652   490A      1.833367   491A      1.842521  
     492A      1.844827   493A      1.849445   494A      1.855965  
     495A      1.857687   496A      1.867454   497A      1.871635  
     498A      1.877397   499A      1.883953   500A      1.893156  
     501A      1.901907   502A      1.919107   503A      1.922870  
     504A      1.928391   505A      1.933063   506A      1.943693  
     507A      1.949954   508A      1.956657   509A      1.961135  
     510A      1.974281   511A      1.993335   512A      2.000973  
     513A      2.007362   514A      2.010334   515A      2.023017  
     516A      2.039509   517A      2.044645   518A      2.050746  
     519A      2.052754   520A      2.054888   521A      2.061469  
     522A      2.078572   523A      2.095245   524A      2.100428  
     525A      2.102702   526A      2.109154   527A      2.116518  
     528A      2.128690   529A      2.131960   530A      2.138792  
     531A      2.141851   532A      2.148377   533A      2.156513  
     534A      2.162067   535A      2.168480   536A      2.183055  
     537A      2.184926   538A      2.192282   539A      2.193656  
     540A      2.199028   541A      2.207070   542A      2.213081  
     543A      2.216933   544A      2.225730   545A      2.228178  
     546A      2.239140   547A      2.246614   548A      2.251818  
     549A      2.262969   550A      2.270030   551A      2.275189  
     552A      2.277926   553A      2.289226   554A      2.295107  
     555A      2.305417   556A      2.307835   557A      2.317737  
     558A      2.319023   559A      2.323253   560A      2.341416  
     561A      2.342394   562A      2.346240   563A      2.352429  
     564A      2.358670   565A      2.368621   566A      2.377376  
     567A      2.386492   568A      2.394976   569A      2.402733  
     570A      2.406472   571A      2.420178   572A      2.421973  
     573A      2.436815   574A      2.447025   575A      2.451292  
     576A      2.457609   577A      2.461576   578A      2.474018  
     579A      2.502037   580A      2.503018   581A      2.509755  
     582A      2.517388   583A      2.526439   584A      2.536136  
     585A      2.542539   586A      2.546439   587A      2.555081  
     588A      2.557069   589A      2.561300   590A      2.565316  
     591A      2.574285   592A      2.575467   593A      2.578094  
     594A      2.582799   595A      2.592048   596A      2.593492  
     597A      2.604122   598A      2.614658   599A      2.625215  
     600A      2.635313   601A      2.641237   602A      2.643883  
     603A      2.655140   604A      2.664534   605A      2.683546  
     606A      2.693275   607A      2.694680   608A      2.703809  
     609A      2.710792   610A      2.716904   611A      2.720450  
     612A      2.730541   613A      2.735779   614A      2.740890  
     615A      2.751628   616A      2.763237   617A      2.768019  
     618A      2.770795   619A      2.783135   620A      2.786470  
     621A      2.796335   622A      2.803825   623A      2.822714  
     624A      2.830165   625A      2.838624   626A      2.861029  
     627A      2.872765   628A      2.895032   629A      2.902063  
     630A      2.920049   631A      2.923304   632A      2.940278  
     633A      2.955447   634A      2.970285   635A      2.973228  
     636A      2.985423   637A      2.992357   638A      3.003823  
     639A      3.024466   640A      3.029291   641A      3.042970  
     642A      3.058248   643A      3.069223   644A      3.073521  
     645A      3.097946   646A      3.100735   647A      3.116241  
     648A      3.153877   649A      3.158777   650A      3.174064  
     651A      3.193046   652A      3.195279   653A      3.214869  
     654A      3.226243   655A      3.234506   656A      3.268783  
     657A      3.277112   658A      3.280203   659A      3.295039  
     660A      3.298050   661A      3.310226   662A      3.315665  
     663A      3.325193   664A      3.333863   665A      3.354329  
     666A      3.366333   667A      3.367145   668A      3.377309  
     669A      3.377969   670A      3.400246   671A      3.418190  
     672A      3.427515   673A      3.427917   674A      3.432788  
     675A      3.444782   676A      3.447649   677A      3.462054  
     678A      3.484806   679A      3.491292   680A      3.499242  
     681A      3.515968   682A      3.526893   683A      3.531004  
     684A      3.549835   685A      3.561533   686A      3.571319  
     687A      3.589964   688A      3.597459   689A      3.605218  
     690A      3.612715   691A      3.621203   692A      3.630657  
     693A      3.635705   694A      3.638377   695A      3.651898  
     696A      3.657137   697A      3.662029   698A      3.663822  
     699A      3.667157   700A      3.677783   701A      3.683910  
     702A      3.696965   703A      3.700873   704A      3.717009  
     705A      3.724297   706A      3.728743   707A      3.756607  
     708A      3.761036   709A      3.769149   710A      3.786566  
     711A      3.788960   712A      3.791773   713A      3.800450  
     714A      3.804905   715A      3.818107   716A      3.823004  
     717A      3.828237   718A      3.829060   719A      3.833951  
     720A      3.854256   721A      3.863349   722A      3.871902  
     723A      3.879742   724A      3.881244   725A      3.901290  
     726A      3.917395   727A      3.920996   728A      3.936755  
     729A      3.938804   730A      3.945222   731A      3.958688  
     732A      3.966236   733A      3.968641   734A      3.976772  
     735A      3.978581   736A      3.989523   737A      4.001511  
     738A      4.017699   739A      4.022246   740A      4.029641  
     741A      4.031918   742A      4.045105   743A      4.064866  
     744A      4.071732   745A      4.093782   746A      4.098427  
     747A      4.106296   748A      4.114703   749A      4.117328  
     750A      4.121100   751A      4.132945   752A      4.134846  
     753A      4.136972   754A      4.140860   755A      4.156496  
     756A      4.157324   757A      4.161288   758A      4.171240  
     759A      4.175548   760A      4.203518   761A      4.206109  
     762A      4.213926   763A      4.219498   764A      4.224571  
     765A      4.228548   766A      4.231053   767A      4.236293  
     768A      4.253144   769A      4.264299   770A      4.266630  
     771A      4.277284   772A      4.292048   773A      4.304355  
     774A      4.307905   775A      4.311352   776A      4.316067  
     777A      4.323470   778A      4.330440   779A      4.330670  
     780A      4.336844   781A      4.359172   782A      4.369233  
     783A      4.374549   784A      4.385642   785A      4.392625  
     786A      4.399826   787A      4.404224   788A      4.414846  
     789A      4.429294   790A      4.440785   791A      4.442384  
     792A      4.444921   793A      4.453623   794A      4.458312  
     795A      4.462758   796A      4.465812   797A      4.481720  
     798A      4.493378   799A      4.506414   800A      4.516074  
     801A      4.525468   802A      4.540741   803A      4.552350  
     804A      4.580445   805A      4.608428   806A      4.625885  
     807A      4.633923   808A      4.644940   809A      4.651633  
     810A      4.655986   811A      4.659345   812A      4.671827  
     813A      4.675302   814A      4.680844   815A      4.693478  
     816A      4.703611   817A      4.710166   818A      4.714490  
     819A      4.734053   820A      4.740930   821A      4.745804  
     822A      4.751085   823A      4.761246   824A      4.769167  
     825A      4.782446   826A      4.789753   827A      4.793170  
     828A      4.796253   829A      4.815479   830A      4.828501  
     831A      4.839709   832A      4.850685   833A      4.861022  
     834A      4.879479   835A      4.892517   836A      4.893472  
     837A      4.903420   838A      4.907060   839A      4.917279  
     840A      4.936197   841A      4.948230   842A      4.949482  
     843A      4.957772   844A      4.980201   845A      4.996192  
     846A      5.001939   847A      5.015331   848A      5.026507  
     849A      5.030218   850A      5.041477   851A      5.043861  
     852A      5.064646   853A      5.075305   854A      5.086901  
     855A      5.099161   856A      5.102059   857A      5.107205  
     858A      5.139473   859A      5.145694   860A      5.153728  
     861A      5.156874   862A      5.172662   863A      5.186928  
     864A      5.198674   865A      5.203672   866A      5.216494  
     867A      5.231814   868A      5.242241   869A      5.277868  
     870A      5.292799   871A      5.310243   872A      5.325828  
     873A      5.330930   874A      5.337420   875A      5.359610  
     876A      5.369798   877A      5.387752   878A      5.401532  
     879A      5.431007   880A      5.447432   881A      5.452889  
     882A      5.454457   883A      5.463730   884A      5.464077  
     885A      5.473174   886A      5.478650   887A      5.502851  
     888A      5.524063   889A      5.529200   890A      5.535721  
     891A      5.538504   892A      5.545184   893A      5.556931  
     894A      5.563724   895A      5.571134   896A      5.573574  
     897A      5.588232   898A      5.594587   899A      5.601585  
     900A      5.622418   901A      5.634853   902A      5.640924  
     903A      5.671213   904A      5.672767   905A      5.703764  
     906A      5.725757   907A      5.742387   908A      5.751719  
     909A      5.754891   910A      5.761668   911A      5.771268  
     912A      5.793348   913A      5.796188   914A      5.811481  
     915A      5.837093   916A      5.847495   917A      5.860058  
     918A      5.879102   919A      5.887393   920A      5.892513  
     921A      5.911555   922A      5.933033   923A      5.936442  
     924A      5.938865   925A      5.949369   926A      5.995699  
     927A      6.000605   928A      6.002876   929A      6.025552  
     930A      6.063863   931A      6.068703   932A      6.084707  
     933A      6.111247   934A      6.120342   935A      6.120954  
     936A      6.131019   937A      6.135066   938A      6.137135  
     939A      6.163899   940A      6.164614   941A      6.169614  
     942A      6.192004   943A      6.200208   944A      6.225160  
     945A      6.264797   946A      6.275710   947A      6.302487  
     948A      6.367253   949A      6.387020   950A      6.393778  
     951A      6.496994   952A      6.502398   953A      6.574312  
     954A      6.580813   955A      6.617131   956A      6.645120  
     957A      6.654589   958A      6.681338   959A      6.702675  
     960A      6.713481   961A      6.718970   962A      6.729665  
     963A      6.733952   964A      6.737716   965A      6.748463  
     966A      6.778009   967A      6.789809   968A      6.802460  
     969A      6.808982   970A      6.809747   971A      6.827803  
     972A      6.857330   973A      6.874405   974A      6.877641  
     975A      6.881527   976A      6.936975   977A      6.983057  
     978A      6.993472   979A      6.994352   980A      7.024441  
     981A      7.031040   982A      7.036070   983A      7.043637  
     984A      7.096415   985A      7.128324   986A      7.158675  
     987A      7.212335   988A      7.213644   989A      7.256286  
     990A      7.346753   991A      7.348594   992A      7.397411  
     993A      7.399744   994A      7.409665   995A      7.424284  
     996A      7.435347   997A      7.438756   998A      7.443747  
     999A      7.480164  1000A      7.572275  1001A      7.638554  
    1002A      7.645213  1003A      7.679655  1004A      7.696281  
    1005A      7.718499  1006A      7.721306  1007A      7.737093  
    1008A      7.826872  1009A      7.868746  1010A      7.872079  
    1011A      7.935886  1012A      7.948284  1013A      7.969483  
    1014A      7.989412  1015A      8.030615  1016A      8.042806  
    1017A      8.059965  1018A      8.076824  1019A     15.545778  
    1020A     15.725848  1021A     15.824469  1022A     15.937523  
    1023A     16.150189  1024A     16.296032  1025A     16.620278  
    1026A     17.579523  1027A     17.971095  1028A     18.068881  
    1029A     18.990881  1030A     19.271445  1031A     19.929514  
    1032A     20.063913  1033A     20.293273  1034A     20.460110  
    1035A     20.574264  

    Final Occupation by Irrep:
              A 
    DOCC [    62 ]

  @DF-RHF Final Energy:  -844.42849695181826

   => Energetics <=

    Nuclear Repulsion Energy =           1087.0280808969555437
    One-Electron Energy =               -3311.8089927502351202
    Two-Electron Energy =                1380.3524149014613158
    Total Energy =                       -844.4284969518182606

Computation Completed


Properties will be evaluated at   0.000000,   0.000000,   0.000000 [a0]

Properties computed using the SCF density matrix

  Nuclear Dipole Moment: [e a0]
     X:     8.8566      Y:    -2.1204      Z:    -0.6108

  Electronic Dipole Moment: [e a0]
     X:    -7.8123      Y:     3.0057      Z:     0.5962

  Dipole Moment: [e a0]
     X:     1.0444      Y:     0.8852      Z:    -0.0146     Total:     1.3691

  Dipole Moment: [D]
     X:     2.6545      Y:     2.2500      Z:    -0.0370     Total:     3.4800


*** tstop() called on node151.bme.utexas.edu at Mon Jan 22 15:26:20 2024
Module time:
	user time   =     693.28 seconds =      11.55 minutes
	system time =       7.72 seconds =       0.13 minutes
	total time  =        101 seconds =       1.68 minutes
Total time:
	user time   =     693.28 seconds =      11.55 minutes
	system time =       7.72 seconds =       0.13 minutes
	total time  =        101 seconds =       1.68 minutes

*** tstart() called on node151.bme.utexas.edu
*** at Mon Jan 22 15:26:20 2024


  //>>>>>>>>>>>>>>>>>>>>>>>>>>>>>>>>>>>//
  //               DFMP2               //
  //<<<<<<<<<<<<<<<<<<<<<<<<<<<<<<<<<<<//

   => Loading Basis Set <=

    Name: (AUG-CC-PVTZ AUX)
    Role: RIFIT
    Keyword: DF_BASIS_MP2
    atoms 1, 3, 16, 18, 24       entry N          line   206 file /opt/anaconda/envs/psi4v1.5/share/psi4/basis/aug-cc-pvtz-ri.gbs 
    atoms 2, 4-6, 11, 17, 19-21  entry C          line   148 file /opt/anaconda/envs/psi4v1.5/share/psi4/basis/aug-cc-pvtz-ri.gbs 
    atoms 7, 9, 12-15, 22, 25-28 entry H          line    30 file /opt/anaconda/envs/psi4v1.5/share/psi4/basis/aug-cc-pvtz-ri.gbs 
    atoms 8, 10, 23              entry O          line   264 file /opt/anaconda/envs/psi4v1.5/share/psi4/basis/aug-cc-pvtz-ri.gbs 

	 --------------------------------------------------------
	                          DF-MP2                         
	      2nd-Order Density-Fitted Moller-Plesset Theory     
	              RMP2 Wavefunction,   8 Threads             
	                                                         
	        Rob Parrish, Justin Turney, Andy Simmonett,      
	           Ed Hohenstein, and C. David Sherrill          
	 --------------------------------------------------------

   => Auxiliary Basis Set <=

  Basis Set: (AUG-CC-PVTZ AUX)
    Blend: AUG-CC-PVTZ-RI
    Number of shells: 630
    Number of basis functions: 2308
    Number of Cartesian functions: 2917
    Spherical Harmonics?: true
    Max angular momentum: 4

	 --------------------------------------------------------
	                 NBF =  1035, NAUX =  2308
	 --------------------------------------------------------
	   CLASS    FOCC     OCC    AOCC    AVIR     VIR    FVIR
	   PAIRS      17      62      45     973     973       0
	 --------------------------------------------------------

	 Will save fitting metric to file 97.

	-----------------------------------------------------------
	 ==================> DF-MP2 Energies <==================== 
	-----------------------------------------------------------
	 Reference Energy          =    -844.4284969518182606 [Eh]
	 Singles Energy            =      -0.0000000000000000 [Eh]
	 Same-Spin Energy          =      -0.8191743057386552 [Eh]
	 Opposite-Spin Energy      =      -2.3478531379114678 [Eh]
	 Correlation Energy        =      -3.1670274436501229 [Eh]
	 Total Energy              =    -847.5955243954683738 [Eh]
	-----------------------------------------------------------
	 ================> DF-SCS-MP2 Energies <================== 
	-----------------------------------------------------------
	 SCS Same-Spin Scale       =       0.3333333333333333 [-]
	 SCS Opposite-Spin Scale   =       1.2000000000000000 [-]
	 SCS Same-Spin Energy      =      -0.2730581019128850 [Eh]
	 SCS Opposite-Spin Energy  =      -2.8174237654937611 [Eh]
	 SCS Correlation Energy    =      -3.0904818674066461 [Eh]
	 SCS Total Energy          =    -847.5189788192249125 [Eh]
	-----------------------------------------------------------


*** tstop() called on node151.bme.utexas.edu at Mon Jan 22 15:26:58 2024
Module time:
	user time   =     222.02 seconds =       3.70 minutes
	system time =       4.98 seconds =       0.08 minutes
	total time  =         38 seconds =       0.63 minutes
Total time:
	user time   =     915.31 seconds =      15.26 minutes
	system time =      12.70 seconds =       0.21 minutes
	total time  =        139 seconds =       2.32 minutes

  //>>>>>>>>>>>>>>>>>>>>>>>>>>>>>>>>>>>//
  //            Monomer A HF           //
  //<<<<<<<<<<<<<<<<<<<<<<<<<<<<<<<<<<<//


*** tstart() called on node151.bme.utexas.edu
*** at Mon Jan 22 15:26:58 2024

   => Loading Basis Set <=

    Name: AUG-CC-PVTZ
    Role: ORBITAL
    Keyword: BASIS
    atoms 1, 3, 16, 18, 24       entry N          line   285 file /opt/anaconda/envs/psi4v1.5/share/psi4/basis/aug-cc-pvtz.gbs 
    atoms 2, 4-6, 11, 17, 19-21  entry C          line   239 file /opt/anaconda/envs/psi4v1.5/share/psi4/basis/aug-cc-pvtz.gbs 
    atoms 7, 9, 12-15, 22, 25-28 entry H          line    40 file /opt/anaconda/envs/psi4v1.5/share/psi4/basis/aug-cc-pvtz.gbs 
    atoms 8, 10, 23              entry O          line   331 file /opt/anaconda/envs/psi4v1.5/share/psi4/basis/aug-cc-pvtz.gbs 


         ---------------------------------------------------------
                                   SCF
               by Justin Turney, Rob Parrish, Andy Simmonett
                          and Daniel G. A. Smith
                              RHF Reference
                        8 Threads,  76293 MiB Core
         ---------------------------------------------------------

  ==> Geometry <==

    Molecular point group: c1
    Full point group: C1

    Geometry (in Angstrom), charge = 0, multiplicity = 1:

       Center              X                  Y                   Z               Mass       
    ------------   -----------------  -----------------  -----------------  -----------------
         N           -0.504145270115    -3.578869695316    -1.518206074596    14.003074004430
         C           -0.708516270115    -2.201637695316    -1.517945074596    12.000000000000
         N            0.458098729885    -1.466493695316    -1.517843074596    14.003074004430
         C            1.753290729885    -1.966741695316    -1.517949074596    12.000000000000
         C            1.884999729885    -3.425612695316    -1.518250074596    12.000000000000
         C            0.745262729885    -4.159999695316    -1.518314074596    12.000000000000
         H           -1.342156270115    -4.143444695316    -1.518086074596     1.007825032230
         O           -1.827822270115    -1.706817695316    -1.517809074596    15.994914619570
         H            0.336457729885    -0.416437695316    -1.517636074596     1.007825032230
         O            2.722506729885    -1.197786695316    -1.517816074596    15.994914619570
         C            3.261234729885    -4.024505695316    -1.518848074596    12.000000000000
         H            3.208802729885    -5.121850695316    -1.512205074596     1.007825032230
         H            3.825373729885    -3.697164695316    -2.404906074596     1.007825032230
         H            3.830389729885    -3.686352695316    -0.640174074596     1.007825032230
         H            0.756420729885    -5.249126695316    -1.518351074596     1.007825032230
      Gh(N)          -2.441897270115     3.453804304684     1.749799925404    14.003074004430
      Gh(C)          -1.898981270115     2.153647304684     1.753186925404    12.000000000000
      Gh(N)          -0.546550270115     2.036635304684     1.724790925404    14.003074004430
      Gh(C)           0.239863729885     3.123707304684     1.694654925404    12.000000000000
      Gh(C)          -0.310769270115     4.460522304684     1.691008925404    12.000000000000
      Gh(C)          -1.664265270115     4.572409304684     1.719487925404    12.000000000000
      Gh(H)          -3.451577270115     3.511146304684     1.771347925404     1.007825032230
      Gh(O)          -2.678871270115     1.192344304684     1.781705925404    15.994914619570
      Gh(N)           1.562428729885     2.930338304684     1.667818925404    14.003074004430
      Gh(H)           1.959288729885     1.966281304684     1.670473925404     1.007825032230
      Gh(H)           2.183816729885     3.723774304684     1.644783925404     1.007825032230
      Gh(H)           0.327263729885     5.339864304684     1.666585925404     1.007825032230
      Gh(H)          -2.182121270115     5.530669304684     1.719582925404     1.007825032230

  Running in c1 symmetry.

  Rotational constants: A =      0.02683  B =      0.00563  C =      0.00485 [cm^-1]
  Rotational constants: A =    804.41233  B =    168.82304  C =    145.36265 [MHz]
  Nuclear repulsion =  438.216117793050785

  Charge       = 0
  Multiplicity = 1
  Electrons    = 66
  Nalpha       = 33
  Nbeta        = 33

  ==> Algorithm <==

  SCF Algorithm Type is DF.
  DIIS enabled.
  MOM disabled.
  Fractional occupation disabled.
  Guess Type is SAD.
  Energy threshold   = 1.00e-08
  Density threshold  = 1.00e-08
  Integral threshold = 1.00e-12

  ==> Primary Basis <==

  Basis Set: AUG-CC-PVTZ
    Blend: AUG-CC-PVTZ
    Number of shells: 337
    Number of basis functions: 1035
    Number of Cartesian functions: 1210
    Spherical Harmonics?: true
    Max angular momentum: 3

   => Loading Basis Set <=

    Name: (AUG-CC-PVTZ AUX)
    Role: JKFIT
    Keyword: DF_BASIS_SCF
    atoms 1, 3, 16, 18, 24       entry N          line   224 file /opt/anaconda/envs/psi4v1.5/share/psi4/basis/aug-cc-pvtz-jkfit.gbs 
    atoms 2, 4-6, 11, 17, 19-21  entry C          line   162 file /opt/anaconda/envs/psi4v1.5/share/psi4/basis/aug-cc-pvtz-jkfit.gbs 
    atoms 7, 9, 12-15, 22, 25-28 entry H          line    70 file /opt/anaconda/envs/psi4v1.5/share/psi4/basis/aug-cc-pvtz-jkfit.gbs 
    atoms 8, 10, 23              entry O          line   286 file /opt/anaconda/envs/psi4v1.5/share/psi4/basis/aug-cc-pvtz-jkfit.gbs 

  ==> Integral Setup <==

  ==> DiskDFJK: Density-Fitted J/K Matrices <==

    J tasked:                  Yes
    K tasked:                  Yes
    wK tasked:                  No
    OpenMP threads:              8
    Integrals threads:           8
    Memory [MiB]:            57220
    Algorithm:                Core
    Integral Cache:           LOAD
    Schwarz Cutoff:          1E-12
    Fitting Condition:       1E-10

   => Auxiliary Basis Set <=

  Basis Set: (AUG-CC-PVTZ AUX)
    Blend: AUG-CC-PVTZ-JKFIT
    Number of shells: 664
    Number of basis functions: 2274
    Number of Cartesian functions: 2832
    Spherical Harmonics?: true
    Max angular momentum: 4

  Minimum eigenvalue in the overlap matrix is 1.9492582946E-06.
  Reciprocal condition number of the overlap matrix is 1.1262109634E-07.
    Using symmetric orthogonalization.

  ==> Pre-Iterations <==

  SCF Guess: Superposition of Atomic Densities via on-the-fly atomic UHF (no occupation information).

   -------------------------
    Irrep   Nso     Nmo    
   -------------------------
     A       1035    1035 
   -------------------------
    Total    1035    1035
   -------------------------

  ==> Iterations <==

                           Total Energy        Delta E     RMS |[F,P]|

   @DF-RHF iter SAD:  -450.91023146947134   -4.50910e+02   0.00000e+00 
   @DF-RHF iter   1:  -451.37254962219157   -4.62318e-01   7.66908e-04 DIIS
   @DF-RHF iter   2:  -451.57000809009526   -1.97458e-01   5.06104e-04 DIIS
   @DF-RHF iter   3:  -451.66280932941316   -9.28012e-02   9.69340e-05 DIIS
   @DF-RHF iter   4:  -451.66825568053531   -5.44635e-03   3.88915e-05 DIIS
   @DF-RHF iter   5:  -451.66935118745107   -1.09551e-03   7.85418e-06 DIIS
   @DF-RHF iter   6:  -451.66946348472590   -1.12297e-04   4.04998e-06 DIIS
   @DF-RHF iter   7:  -451.66948666236448   -2.31776e-05   1.73198e-06 DIIS
   @DF-RHF iter   8:  -451.66949085809307   -4.19573e-06   6.58201e-07 DIIS
   @DF-RHF iter   9:  -451.66949132954511   -4.71452e-07   2.18779e-07 DIIS
   @DF-RHF iter  10:  -451.66949140839728   -7.88522e-08   8.62549e-08 DIIS
   @DF-RHF iter  11:  -451.66949141746323   -9.06596e-09   3.30269e-08 DIIS
   @DF-RHF iter  12:  -451.66949141889188   -1.42865e-09   1.04682e-08 DIIS
   @DF-RHF iter  13:  -451.66949141902990   -1.38016e-10   3.44035e-09 DIIS
  Energy and wave function converged.


  ==> Post-Iterations <==

    Orbital Energies [Eh]
    ---------------------

    Doubly Occupied:                                                      

       1A    -20.543529     2A    -20.538865     3A    -15.640275  
       4A    -15.635368     5A    -11.417949     6A    -11.379429  
       7A    -11.331029     8A    -11.262679     9A    -11.241730  
      10A     -1.428366    11A     -1.387160    12A     -1.303504  
      13A     -1.242316    14A     -1.104672    15A     -0.966487  
      16A     -0.913040    17A     -0.893839    18A     -0.769699  
      19A     -0.765987    20A     -0.706320    21A     -0.673045  
      22A     -0.666251    23A     -0.637576    24A     -0.611942  
      25A     -0.588091    26A     -0.567340    27A     -0.556754  
      28A     -0.550027    29A     -0.511385    30A     -0.477949  
      31A     -0.446652    32A     -0.433722    33A     -0.352563  

    Virtual:                                                              

      34A      0.015954    35A      0.022077    36A      0.030553  
      37A      0.036596    38A      0.039228    39A      0.041561  
      40A      0.049392    41A      0.053147    42A      0.056808  
      43A      0.059206    44A      0.065460    45A      0.068648  
      46A      0.072721    47A      0.076252    48A      0.082682  
      49A      0.086941    50A      0.089804    51A      0.094326  
      52A      0.096343    53A      0.099561    54A      0.101228  
      55A      0.103321    56A      0.108938    57A      0.112607  
      58A      0.115619    59A      0.116295    60A      0.120057  
      61A      0.126235    62A      0.129811    63A      0.133458  
      64A      0.135519    65A      0.137507    66A      0.139187  
      67A      0.141355    68A      0.145794    69A      0.147176  
      70A      0.153018    71A      0.154482    72A      0.155649  
      73A      0.158249    74A      0.160803    75A      0.169593  
      76A      0.169946    77A      0.177220    78A      0.178768  
      79A      0.182024    80A      0.185560    81A      0.188522  
      82A      0.190822    83A      0.193677    84A      0.195753  
      85A      0.200164    86A      0.205719    87A      0.207262  
      88A      0.215402    89A      0.220826    90A      0.223838  
      91A      0.227825    92A      0.231580    93A      0.233415  
      94A      0.236339    95A      0.238306    96A      0.243235  
      97A      0.243899    98A      0.248428    99A      0.250044  
     100A      0.255406   101A      0.257910   102A      0.260055  
     103A      0.269498   104A      0.273116   105A      0.276919  
     106A      0.279139   107A      0.286601   108A      0.288622  
     109A      0.291651   110A      0.294143   111A      0.296704  
     112A      0.301327   113A      0.304335   114A      0.306670  
     115A      0.313379   116A      0.315045   117A      0.319251  
     118A      0.323899   119A      0.327285   120A      0.332387  
     121A      0.333524   122A      0.334796   123A      0.340092  
     124A      0.341135   125A      0.346904   126A      0.348286  
     127A      0.351412   128A      0.357259   129A      0.357987  
     130A      0.363154   131A      0.367299   132A      0.368715  
     133A      0.372369   134A      0.374858   135A      0.379507  
     136A      0.384274   137A      0.385346   138A      0.387020  
     139A      0.390181   140A      0.392111   141A      0.396800  
     142A      0.398601   143A      0.405722   144A      0.407905  
     145A      0.409892   146A      0.411898   147A      0.412499  
     148A      0.419817   149A      0.424600   150A      0.425827  
     151A      0.428735   152A      0.430545   153A      0.431756  
     154A      0.432744   155A      0.438120   156A      0.438877  
     157A      0.442208   158A      0.444885   159A      0.448579  
     160A      0.450343   161A      0.454915   162A      0.457486  
     163A      0.460939   164A      0.464966   165A      0.468308  
     166A      0.470531   167A      0.472025   168A      0.475031  
     169A      0.483757   170A      0.489583   171A      0.490643  
     172A      0.493824   173A      0.497909   174A      0.502441  
     175A      0.504135   176A      0.508983   177A      0.515271  
     178A      0.516636   179A      0.521050   180A      0.523867  
     181A      0.524682   182A      0.528758   183A      0.537357  
     184A      0.540863   185A      0.542970   186A      0.546705  
     187A      0.549257   188A      0.552907   189A      0.561132  
     190A      0.563077   191A      0.566975   192A      0.570698  
     193A      0.576619   194A      0.580435   195A      0.581701  
     196A      0.585367   197A      0.587588   198A      0.596556  
     199A      0.604549   200A      0.607729   201A      0.613921  
     202A      0.620840   203A      0.626438   204A      0.632329  
     205A      0.637460   206A      0.640794   207A      0.643536  
     208A      0.644353   209A      0.648913   210A      0.654654  
     211A      0.657903   212A      0.658407   213A      0.667958  
     214A      0.684172   215A      0.686647   216A      0.691902  
     217A      0.695485   218A      0.702893   219A      0.705888  
     220A      0.710154   221A      0.712542   222A      0.717894  
     223A      0.720075   224A      0.723137   225A      0.731305  
     226A      0.736417   227A      0.740235   228A      0.748134  
     229A      0.755298   230A      0.758586   231A      0.759383  
     232A      0.769025   233A      0.774436   234A      0.778188  
     235A      0.784916   236A      0.786501   237A      0.790574  
     238A      0.791945   239A      0.796378   240A      0.806889  
     241A      0.809587   242A      0.813936   243A      0.818791  
     244A      0.821030   245A      0.825094   246A      0.826519  
     247A      0.831630   248A      0.832516   249A      0.838018  
     250A      0.844768   251A      0.845728   252A      0.850828  
     253A      0.855533   254A      0.860661   255A      0.863855  
     256A      0.865891   257A      0.869682   258A      0.874111  
     259A      0.877260   260A      0.880223   261A      0.884153  
     262A      0.885163   263A      0.888031   264A      0.892590  
     265A      0.898562   266A      0.900722   267A      0.902152  
     268A      0.906515   269A      0.916549   270A      0.918427  
     271A      0.922716   272A      0.926339   273A      0.930814  
     274A      0.931837   275A      0.935000   276A      0.936664  
     277A      0.944827   278A      0.946876   279A      0.950372  
     280A      0.953372   281A      0.960809   282A      0.963299  
     283A      0.964343   284A      0.967810   285A      0.973831  
     286A      0.975551   287A      0.979480   288A      0.983113  
     289A      0.987280   290A      0.993257   291A      0.998906  
     292A      1.001959   293A      1.003309   294A      1.008275  
     295A      1.017005   296A      1.018790   297A      1.020561  
     298A      1.027510   299A      1.030589   300A      1.034966  
     301A      1.042580   302A      1.047591   303A      1.050674  
     304A      1.056598   305A      1.062220   306A      1.064870  
     307A      1.067484   308A      1.074117   309A      1.080745  
     310A      1.084662   311A      1.090069   312A      1.093176  
     313A      1.097395   314A      1.103445   315A      1.104331  
     316A      1.107568   317A      1.113377   318A      1.118516  
     319A      1.124190   320A      1.132537   321A      1.138685  
     322A      1.144493   323A      1.144885   324A      1.150719  
     325A      1.154539   326A      1.156966   327A      1.160300  
     328A      1.161719   329A      1.167089   330A      1.167798  
     331A      1.172895   332A      1.175922   333A      1.178501  
     334A      1.182177   335A      1.190531   336A      1.194488  
     337A      1.197601   338A      1.200516   339A      1.202511  
     340A      1.204949   341A      1.210557   342A      1.216199  
     343A      1.226398   344A      1.232390   345A      1.234926  
     346A      1.241669   347A      1.247616   348A      1.250568  
     349A      1.254660   350A      1.257347   351A      1.263876  
     352A      1.270823   353A      1.276033   354A      1.280749  
     355A      1.283506   356A      1.290048   357A      1.294860  
     358A      1.300308   359A      1.303682   360A      1.307045  
     361A      1.313314   362A      1.324181   363A      1.328867  
     364A      1.331063   365A      1.335593   366A      1.342999  
     367A      1.346493   368A      1.348681   369A      1.361353  
     370A      1.363293   371A      1.371772   372A      1.374638  
     373A      1.378865   374A      1.381344   375A      1.386964  
     376A      1.391284   377A      1.394570   378A      1.401090  
     379A      1.405793   380A      1.414243   381A      1.417064  
     382A      1.422181   383A      1.437453   384A      1.437760  
     385A      1.444153   386A      1.450544   387A      1.452732  
     388A      1.459709   389A      1.464237   390A      1.473210  
     391A      1.475030   392A      1.487562   393A      1.493736  
     394A      1.502289   395A      1.510891   396A      1.516931  
     397A      1.520694   398A      1.525249   399A      1.529377  
     400A      1.532800   401A      1.538946   402A      1.541660  
     403A      1.546744   404A      1.551020   405A      1.554568  
     406A      1.568287   407A      1.577906   408A      1.589291  
     409A      1.595607   410A      1.599637   411A      1.603894  
     412A      1.610365   413A      1.613243   414A      1.616772  
     415A      1.618115   416A      1.624848   417A      1.626918  
     418A      1.631292   419A      1.634396   420A      1.641678  
     421A      1.647039   422A      1.649669   423A      1.653638  
     424A      1.656197   425A      1.667312   426A      1.675052  
     427A      1.678067   428A      1.682735   429A      1.686669  
     430A      1.693431   431A      1.700988   432A      1.705941  
     433A      1.708983   434A      1.712270   435A      1.722536  
     436A      1.724233   437A      1.725987   438A      1.730360  
     439A      1.738386   440A      1.742053   441A      1.744829  
     442A      1.747213   443A      1.749348   444A      1.759267  
     445A      1.761928   446A      1.772816   447A      1.780901  
     448A      1.790528   449A      1.795556   450A      1.807295  
     451A      1.810173   452A      1.815356   453A      1.820985  
     454A      1.826534   455A      1.831373   456A      1.834500  
     457A      1.836845   458A      1.840320   459A      1.846131  
     460A      1.851586   461A      1.855674   462A      1.869464  
     463A      1.870841   464A      1.889593   465A      1.891876  
     466A      1.911485   467A      1.913738   468A      1.916575  
     469A      1.917293   470A      1.921287   471A      1.933107  
     472A      1.940566   473A      1.941671   474A      1.958793  
     475A      1.965886   476A      1.967821   477A      1.982205  
     478A      1.985850   479A      1.998035   480A      1.999203  
     481A      2.014099   482A      2.024860   483A      2.033287  
     484A      2.040197   485A      2.043143   486A      2.048263  
     487A      2.051645   488A      2.060272   489A      2.068956  
     490A      2.090712   491A      2.098082   492A      2.109591  
     493A      2.120734   494A      2.125517   495A      2.130783  
     496A      2.142868   497A      2.147377   498A      2.149566  
     499A      2.164189   500A      2.173220   501A      2.178599  
     502A      2.184616   503A      2.193529   504A      2.196580  
     505A      2.199719   506A      2.209677   507A      2.215682  
     508A      2.220387   509A      2.229237   510A      2.235031  
     511A      2.239270   512A      2.250858   513A      2.251401  
     514A      2.259913   515A      2.261390   516A      2.270516  
     517A      2.275004   518A      2.277799   519A      2.287917  
     520A      2.294874   521A      2.299345   522A      2.308763  
     523A      2.312804   524A      2.320040   525A      2.326202  
     526A      2.334458   527A      2.336114   528A      2.347966  
     529A      2.364594   530A      2.372524   531A      2.381917  
     532A      2.389877   533A      2.394606   534A      2.408742  
     535A      2.410640   536A      2.417843   537A      2.419652  
     538A      2.423699   539A      2.438363   540A      2.448714  
     541A      2.459200   542A      2.471656   543A      2.493568  
     544A      2.501611   545A      2.512153   546A      2.523597  
     547A      2.530179   548A      2.543134   549A      2.547218  
     550A      2.551991   551A      2.560596   552A      2.562566  
     553A      2.566159   554A      2.570719   555A      2.573458  
     556A      2.580031   557A      2.594770   558A      2.595908  
     559A      2.610200   560A      2.615746   561A      2.622892  
     562A      2.624204   563A      2.630228   564A      2.630340  
     565A      2.644281   566A      2.644851   567A      2.672024  
     568A      2.678063   569A      2.683327   570A      2.691634  
     571A      2.694374   572A      2.707834   573A      2.715015  
     574A      2.719609   575A      2.726951   576A      2.728533  
     577A      2.741072   578A      2.748253   579A      2.754352  
     580A      2.763027   581A      2.766818   582A      2.773859  
     583A      2.776449   584A      2.787059   585A      2.790704  
     586A      2.802238   587A      2.808486   588A      2.818662  
     589A      2.823117   590A      2.863184   591A      2.868487  
     592A      2.875590   593A      2.879548   594A      2.883102  
     595A      2.885697   596A      2.900266   597A      2.906970  
     598A      2.913642   599A      2.926747   600A      2.931650  
     601A      2.944399   602A      2.951640   603A      2.979481  
     604A      2.983849   605A      2.991528   606A      2.999069  
     607A      3.012391   608A      3.017485   609A      3.031321  
     610A      3.032632   611A      3.043881   612A      3.050526  
     613A      3.068522   614A      3.087694   615A      3.094190  
     616A      3.113112   617A      3.140170   618A      3.143202  
     619A      3.164117   620A      3.176401   621A      3.190602  
     622A      3.206752   623A      3.214961   624A      3.223118  
     625A      3.235513   626A      3.259992   627A      3.269451  
     628A      3.273357   629A      3.283675   630A      3.285692  
     631A      3.288403   632A      3.302268   633A      3.311619  
     634A      3.323425   635A      3.357091   636A      3.364722  
     637A      3.367577   638A      3.371827   639A      3.392097  
     640A      3.409400   641A      3.417992   642A      3.419067  
     643A      3.424558   644A      3.427129   645A      3.438768  
     646A      3.453912   647A      3.473854   648A      3.481927  
     649A      3.517835   650A      3.552270   651A      3.558266  
     652A      3.580131   653A      3.592452   654A      3.597646  
     655A      3.603115   656A      3.605094   657A      3.625302  
     658A      3.630481   659A      3.643399   660A      3.649608  
     661A      3.652291   662A      3.654875   663A      3.664437  
     664A      3.676938   665A      3.687585   666A      3.709285  
     667A      3.718658   668A      3.725241   669A      3.745985  
     670A      3.752436   671A      3.758164   672A      3.778234  
     673A      3.780238   674A      3.795053   675A      3.818188  
     676A      3.824063   677A      3.844570   678A      3.850912  
     679A      3.862072   680A      3.869340   681A      3.874062  
     682A      3.900898   683A      3.907628   684A      3.921487  
     685A      3.927239   686A      3.929021   687A      3.937543  
     688A      3.959083   689A      3.959874   690A      3.979055  
     691A      4.006038   692A      4.008232   693A      4.012107  
     694A      4.023334   695A      4.034980   696A      4.055844  
     697A      4.058676   698A      4.082868   699A      4.089276  
     700A      4.096749   701A      4.100676   702A      4.113101  
     703A      4.126169   704A      4.126897   705A      4.130412  
     706A      4.149625   707A      4.164402   708A      4.172067  
     709A      4.177742   710A      4.195094   711A      4.196355  
     712A      4.209641   713A      4.215664   714A      4.222054  
     715A      4.230305   716A      4.238975   717A      4.245023  
     718A      4.254127   719A      4.256277   720A      4.282373  
     721A      4.299511   722A      4.302640   723A      4.306403  
     724A      4.308815   725A      4.319873   726A      4.321271  
     727A      4.361062   728A      4.366016   729A      4.373839  
     730A      4.389690   731A      4.393187   732A      4.400001  
     733A      4.418615   734A      4.431690   735A      4.433623  
     736A      4.443641   737A      4.445147   738A      4.451230  
     739A      4.477556   740A      4.483759   741A      4.492491  
     742A      4.505484   743A      4.508206   744A      4.517001  
     745A      4.542762   746A      4.552974   747A      4.569072  
     748A      4.587617   749A      4.603239   750A      4.613307  
     751A      4.617563   752A      4.622152   753A      4.626190  
     754A      4.634029   755A      4.644522   756A      4.656092  
     757A      4.658234   758A      4.660167   759A      4.670214  
     760A      4.672963   761A      4.694373   762A      4.702340  
     763A      4.729053   764A      4.732880   765A      4.739448  
     766A      4.749171   767A      4.757529   768A      4.758563  
     769A      4.770032   770A      4.774906   771A      4.782764  
     772A      4.788567   773A      4.796222   774A      4.815043  
     775A      4.819068   776A      4.839685   777A      4.844032  
     778A      4.880165   779A      4.882115   780A      4.893650  
     781A      4.896993   782A      4.899537   783A      4.908113  
     784A      4.921752   785A      4.929965   786A      4.943114  
     787A      4.959810   788A      4.962648   789A      4.969369  
     790A      4.987324   791A      4.991069   792A      4.994390  
     793A      5.002357   794A      5.006341   795A      5.015472  
     796A      5.017882   797A      5.030829   798A      5.046986  
     799A      5.055954   800A      5.059598   801A      5.064537  
     802A      5.075910   803A      5.094642   804A      5.126937  
     805A      5.131100   806A      5.142396   807A      5.149683  
     808A      5.153647   809A      5.154316   810A      5.164285  
     811A      5.176510   812A      5.181036   813A      5.189341  
     814A      5.204187   815A      5.244785   816A      5.268609  
     817A      5.272468   818A      5.279449   819A      5.292064  
     820A      5.306686   821A      5.313075   822A      5.316922  
     823A      5.328282   824A      5.347666   825A      5.372419  
     826A      5.377748   827A      5.383212   828A      5.419762  
     829A      5.438140   830A      5.446386   831A      5.449367  
     832A      5.454957   833A      5.462941   834A      5.467156  
     835A      5.485051   836A      5.489348   837A      5.493101  
     838A      5.522882   839A      5.525270   840A      5.534588  
     841A      5.543912   842A      5.548690   843A      5.579728  
     844A      5.589953   845A      5.597277   846A      5.606799  
     847A      5.623813   848A      5.628147   849A      5.632266  
     850A      5.635543   851A      5.662618   852A      5.689877  
     853A      5.707533   854A      5.716589   855A      5.741881  
     856A      5.752344   857A      5.782474   858A      5.797157  
     859A      5.798658   860A      5.826164   861A      5.847211  
     862A      5.860768   863A      5.870467   864A      5.877998  
     865A      5.884885   866A      5.901139   867A      5.923964  
     868A      5.938755   869A      5.963866   870A      5.983732  
     871A      5.987253   872A      6.003998   873A      6.024698  
     874A      6.033482   875A      6.054073   876A      6.055233  
     877A      6.075192   878A      6.088007   879A      6.099560  
     880A      6.112327   881A      6.126913   882A      6.129035  
     883A      6.154105   884A      6.158843   885A      6.187582  
     886A      6.200109   887A      6.203092   888A      6.263231  
     889A      6.292603   890A      6.312316   891A      6.328533  
     892A      6.373736   893A      6.377573   894A      6.404557  
     895A      6.412448   896A      6.425623   897A      6.487373  
     898A      6.527083   899A      6.546336   900A      6.568068  
     901A      6.570076   902A      6.571689   903A      6.594001  
     904A      6.632864   905A      6.664143   906A      6.665812  
     907A      6.710968   908A      6.711912   909A      6.718631  
     910A      6.719860   911A      6.721929   912A      6.737371  
     913A      6.744953   914A      6.771002   915A      6.780230  
     916A      6.794024   917A      6.797482   918A      6.817964  
     919A      6.834279   920A      6.846925   921A      6.863441  
     922A      6.869403   923A      6.877932   924A      6.891080  
     925A      6.925053   926A      6.948634   927A      6.970847  
     928A      6.980049   929A      6.984147   930A      7.016915  
     931A      7.021383   932A      7.083908   933A      7.114832  
     934A      7.147318   935A      7.202480   936A      7.242686  
     937A      7.244464   938A      7.333303   939A      7.341234  
     940A      7.357619   941A      7.380986   942A      7.384015  
     943A      7.416478   944A      7.424657   945A      7.431929  
     946A      7.443580   947A      7.467937   948A      7.480682  
     949A      7.533001   950A      7.543928   951A      7.595892  
     952A      7.614161   953A      7.620396   954A      7.627975  
     955A      7.639825   956A      7.661788   957A      7.664353  
     958A      7.686626   959A      7.706592   960A      7.710588  
     961A      7.714434   962A      7.738177   963A      7.762907  
     964A      7.817067   965A      7.840276   966A      7.854447  
     967A      7.857758   968A      7.901981   969A      7.921284  
     970A      7.942743   971A      7.975001   972A      7.979488  
     973A      8.008450   974A      8.014067   975A      8.025146  
     976A      8.032431   977A      8.065840   978A      8.074690  
     979A      8.146778   980A      8.189007   981A      8.259972  
     982A      8.338662   983A      8.423620   984A      8.589339  
     985A      8.647898   986A      8.705694   987A      8.824990  
     988A      8.882683   989A      9.000018   990A      9.148451  
     991A      9.193232   992A      9.391286   993A      9.494057  
     994A      9.527324   995A      9.549855   996A      9.605914  
     997A      9.762500   998A      9.956300   999A     10.051763  
    1000A     10.130247  1001A     10.142147  1002A     10.304775  
    1003A     10.444759  1004A     10.788588  1005A     10.964498  
    1006A     11.120070  1007A     11.300102  1008A     11.394076  
    1009A     11.702825  1010A     11.801085  1011A     11.938356  
    1012A     11.981233  1013A     12.209167  1014A     12.445639  
    1015A     12.730866  1016A     12.944522  1017A     13.430901  
    1018A     14.076160  1019A     15.714019  1020A     15.925560  
    1021A     16.139997  1022A     16.608702  1023A     17.961432  
    1024A     18.982761  1025A     19.951545  1026A     20.279654  
    1027A     20.560792  1028A     51.135830  1029A     51.225097  
    1030A     53.352776  1031A     54.967896  1032A     59.788764  
    1033A     60.464859  1034A     63.318381  1035A     68.738613  

    Final Occupation by Irrep:
              A 
    DOCC [    33 ]

  @DF-RHF Final Energy:  -451.66949141902990

   => Energetics <=

    Nuclear Repulsion Energy =            438.2161177930507847
    One-Electron Energy =               -1484.6801401180721314
    Two-Electron Energy =                 594.7945309059913370
    Total Energy =                       -451.6694914190298960

Computation Completed


Properties will be evaluated at   0.000000,   0.000000,   0.000000 [a0]

Properties computed using the SCF density matrix

  Nuclear Dipole Moment: [e a0]
     X:   111.6225      Y:  -331.7220      Z:  -189.3440

  Electronic Dipole Moment: [e a0]
     X:  -111.7262      Y:   329.8351      Z:   189.3436

  Dipole Moment: [e a0]
     X:    -0.1037      Y:    -1.8870      Z:    -0.0004     Total:     1.8898

  Dipole Moment: [D]
     X:    -0.2636      Y:    -4.7962      Z:    -0.0011     Total:     4.8034


*** tstop() called on node151.bme.utexas.edu at Mon Jan 22 15:28:30 2024
Module time:
	user time   =     587.39 seconds =       9.79 minutes
	system time =       5.23 seconds =       0.09 minutes
	total time  =         92 seconds =       1.53 minutes
Total time:
	user time   =    1502.70 seconds =      25.05 minutes
	system time =      17.93 seconds =       0.30 minutes
	total time  =        231 seconds =       3.85 minutes

*** tstart() called on node151.bme.utexas.edu
*** at Mon Jan 22 15:28:30 2024


  //>>>>>>>>>>>>>>>>>>>>>>>>>>>>>>>>>>>//
  //               DFMP2               //
  //<<<<<<<<<<<<<<<<<<<<<<<<<<<<<<<<<<<//

   => Loading Basis Set <=

    Name: (AUG-CC-PVTZ AUX)
    Role: RIFIT
    Keyword: DF_BASIS_MP2
    atoms 1, 3, 16, 18, 24       entry N          line   206 file /opt/anaconda/envs/psi4v1.5/share/psi4/basis/aug-cc-pvtz-ri.gbs 
    atoms 2, 4-6, 11, 17, 19-21  entry C          line   148 file /opt/anaconda/envs/psi4v1.5/share/psi4/basis/aug-cc-pvtz-ri.gbs 
    atoms 7, 9, 12-15, 22, 25-28 entry H          line    30 file /opt/anaconda/envs/psi4v1.5/share/psi4/basis/aug-cc-pvtz-ri.gbs 
    atoms 8, 10, 23              entry O          line   264 file /opt/anaconda/envs/psi4v1.5/share/psi4/basis/aug-cc-pvtz-ri.gbs 

	 --------------------------------------------------------
	                          DF-MP2                         
	      2nd-Order Density-Fitted Moller-Plesset Theory     
	              RMP2 Wavefunction,   8 Threads             
	                                                         
	        Rob Parrish, Justin Turney, Andy Simmonett,      
	           Ed Hohenstein, and C. David Sherrill          
	 --------------------------------------------------------

   => Auxiliary Basis Set <=

  Basis Set: (AUG-CC-PVTZ AUX)
    Blend: AUG-CC-PVTZ-RI
    Number of shells: 630
    Number of basis functions: 2308
    Number of Cartesian functions: 2917
    Spherical Harmonics?: true
    Max angular momentum: 4

	 --------------------------------------------------------
	                 NBF =  1035, NAUX =  2308
	 --------------------------------------------------------
	   CLASS    FOCC     OCC    AOCC    AVIR     VIR    FVIR
	   PAIRS       9      33      24    1002    1002       0
	 --------------------------------------------------------

	 Will attempt to load fitting metric from file 97.

	-----------------------------------------------------------
	 ==================> DF-MP2 Energies <==================== 
	-----------------------------------------------------------
	 Reference Energy          =    -451.6694914190298960 [Eh]
	 Singles Energy            =      -0.0000000000000000 [Eh]
	 Same-Spin Energy          =      -0.4338884615663121 [Eh]
	 Opposite-Spin Energy      =      -1.2509252397118376 [Eh]
	 Correlation Energy        =      -1.6848137012781497 [Eh]
	 Total Energy              =    -453.3543051203080267 [Eh]
	-----------------------------------------------------------
	 ================> DF-SCS-MP2 Energies <================== 
	-----------------------------------------------------------
	 SCS Same-Spin Scale       =       0.3333333333333333 [-]
	 SCS Opposite-Spin Scale   =       1.2000000000000000 [-]
	 SCS Same-Spin Energy      =      -0.1446294871887707 [Eh]
	 SCS Opposite-Spin Energy  =      -1.5011102876542051 [Eh]
	 SCS Correlation Energy    =      -1.6457397748429758 [Eh]
	 SCS Total Energy          =    -453.3152311938728758 [Eh]
	-----------------------------------------------------------


*** tstop() called on node151.bme.utexas.edu at Mon Jan 22 15:29:04 2024
Module time:
	user time   =     167.10 seconds =       2.78 minutes
	system time =       5.50 seconds =       0.09 minutes
	total time  =         34 seconds =       0.57 minutes
Total time:
	user time   =    1669.81 seconds =      27.83 minutes
	system time =      23.43 seconds =       0.39 minutes
	total time  =        265 seconds =       4.42 minutes

  //>>>>>>>>>>>>>>>>>>>>>>>>>>>>>>>>>>>//
  //            Monomer B HF           //
  //<<<<<<<<<<<<<<<<<<<<<<<<<<<<<<<<<<<//


*** tstart() called on node151.bme.utexas.edu
*** at Mon Jan 22 15:29:04 2024

   => Loading Basis Set <=

    Name: AUG-CC-PVTZ
    Role: ORBITAL
    Keyword: BASIS
    atoms 1, 3, 16, 18, 24       entry N          line   285 file /opt/anaconda/envs/psi4v1.5/share/psi4/basis/aug-cc-pvtz.gbs 
    atoms 2, 4-6, 11, 17, 19-21  entry C          line   239 file /opt/anaconda/envs/psi4v1.5/share/psi4/basis/aug-cc-pvtz.gbs 
    atoms 7, 9, 12-15, 22, 25-28 entry H          line    40 file /opt/anaconda/envs/psi4v1.5/share/psi4/basis/aug-cc-pvtz.gbs 
    atoms 8, 10, 23              entry O          line   331 file /opt/anaconda/envs/psi4v1.5/share/psi4/basis/aug-cc-pvtz.gbs 


         ---------------------------------------------------------
                                   SCF
               by Justin Turney, Rob Parrish, Andy Simmonett
                          and Daniel G. A. Smith
                              RHF Reference
                        8 Threads,  76293 MiB Core
         ---------------------------------------------------------

  ==> Geometry <==

    Molecular point group: c1
    Full point group: C1

    Geometry (in Angstrom), charge = 0, multiplicity = 1:

       Center              X                  Y                   Z               Mass       
    ------------   -----------------  -----------------  -----------------  -----------------
      Gh(N)          -0.504145270115    -3.578869695316    -1.518206074596    14.003074004430
      Gh(C)          -0.708516270115    -2.201637695316    -1.517945074596    12.000000000000
      Gh(N)           0.458098729885    -1.466493695316    -1.517843074596    14.003074004430
      Gh(C)           1.753290729885    -1.966741695316    -1.517949074596    12.000000000000
      Gh(C)           1.884999729885    -3.425612695316    -1.518250074596    12.000000000000
      Gh(C)           0.745262729885    -4.159999695316    -1.518314074596    12.000000000000
      Gh(H)          -1.342156270115    -4.143444695316    -1.518086074596     1.007825032230
      Gh(O)          -1.827822270115    -1.706817695316    -1.517809074596    15.994914619570
      Gh(H)           0.336457729885    -0.416437695316    -1.517636074596     1.007825032230
      Gh(O)           2.722506729885    -1.197786695316    -1.517816074596    15.994914619570
      Gh(C)           3.261234729885    -4.024505695316    -1.518848074596    12.000000000000
      Gh(H)           3.208802729885    -5.121850695316    -1.512205074596     1.007825032230
      Gh(H)           3.825373729885    -3.697164695316    -2.404906074596     1.007825032230
      Gh(H)           3.830389729885    -3.686352695316    -0.640174074596     1.007825032230
      Gh(H)           0.756420729885    -5.249126695316    -1.518351074596     1.007825032230
         N           -2.441897270115     3.453804304684     1.749799925404    14.003074004430
         C           -1.898981270115     2.153647304684     1.753186925404    12.000000000000
         N           -0.546550270115     2.036635304684     1.724790925404    14.003074004430
         C            0.239863729885     3.123707304684     1.694654925404    12.000000000000
         C           -0.310769270115     4.460522304684     1.691008925404    12.000000000000
         C           -1.664265270115     4.572409304684     1.719487925404    12.000000000000
         H           -3.451577270115     3.511146304684     1.771347925404     1.007825032230
         O           -2.678871270115     1.192344304684     1.781705925404    15.994914619570
         N            1.562428729885     2.930338304684     1.667818925404    14.003074004430
         H            1.959288729885     1.966281304684     1.670473925404     1.007825032230
         H            2.183816729885     3.723774304684     1.644783925404     1.007825032230
         H            0.327263729885     5.339864304684     1.666585925404     1.007825032230
         H           -2.182121270115     5.530669304684     1.719582925404     1.007825032230

  Running in c1 symmetry.

  Rotational constants: A =      0.02683  B =      0.00563  C =      0.00485 [cm^-1]
  Rotational constants: A =    804.41233  B =    168.82304  C =    145.36265 [MHz]
  Nuclear repulsion =  355.312360121644645

  Charge       = 0
  Multiplicity = 1
  Electrons    = 58
  Nalpha       = 29
  Nbeta        = 29

  ==> Algorithm <==

  SCF Algorithm Type is DF.
  DIIS enabled.
  MOM disabled.
  Fractional occupation disabled.
  Guess Type is SAD.
  Energy threshold   = 1.00e-08
  Density threshold  = 1.00e-08
  Integral threshold = 1.00e-12

  ==> Primary Basis <==

  Basis Set: AUG-CC-PVTZ
    Blend: AUG-CC-PVTZ
    Number of shells: 337
    Number of basis functions: 1035
    Number of Cartesian functions: 1210
    Spherical Harmonics?: true
    Max angular momentum: 3

   => Loading Basis Set <=

    Name: (AUG-CC-PVTZ AUX)
    Role: JKFIT
    Keyword: DF_BASIS_SCF
    atoms 1, 3, 16, 18, 24       entry N          line   224 file /opt/anaconda/envs/psi4v1.5/share/psi4/basis/aug-cc-pvtz-jkfit.gbs 
    atoms 2, 4-6, 11, 17, 19-21  entry C          line   162 file /opt/anaconda/envs/psi4v1.5/share/psi4/basis/aug-cc-pvtz-jkfit.gbs 
    atoms 7, 9, 12-15, 22, 25-28 entry H          line    70 file /opt/anaconda/envs/psi4v1.5/share/psi4/basis/aug-cc-pvtz-jkfit.gbs 
    atoms 8, 10, 23              entry O          line   286 file /opt/anaconda/envs/psi4v1.5/share/psi4/basis/aug-cc-pvtz-jkfit.gbs 

  ==> Integral Setup <==

  ==> DiskDFJK: Density-Fitted J/K Matrices <==

    J tasked:                  Yes
    K tasked:                  Yes
    wK tasked:                  No
    OpenMP threads:              8
    Integrals threads:           8
    Memory [MiB]:            57220
    Algorithm:                Core
    Integral Cache:           LOAD
    Schwarz Cutoff:          1E-12
    Fitting Condition:       1E-10

   => Auxiliary Basis Set <=

  Basis Set: (AUG-CC-PVTZ AUX)
    Blend: AUG-CC-PVTZ-JKFIT
    Number of shells: 664
    Number of basis functions: 2274
    Number of Cartesian functions: 2832
    Spherical Harmonics?: true
    Max angular momentum: 4

  Minimum eigenvalue in the overlap matrix is 1.9492582946E-06.
  Reciprocal condition number of the overlap matrix is 1.1262109634E-07.
    Using symmetric orthogonalization.

  ==> Pre-Iterations <==

  SCF Guess: Superposition of Atomic Densities via on-the-fly atomic UHF (no occupation information).

   -------------------------
    Irrep   Nso     Nmo    
   -------------------------
     A       1035    1035 
   -------------------------
    Total    1035    1035
   -------------------------

  ==> Iterations <==

                           Total Energy        Delta E     RMS |[F,P]|

   @DF-RHF iter SAD:  -392.07842047412902   -3.92078e+02   0.00000e+00 
   @DF-RHF iter   1:  -392.50559136621240   -4.27171e-01   7.05639e-04 DIIS
   @DF-RHF iter   2:  -392.69616858085033   -1.90577e-01   4.02030e-04 DIIS
   @DF-RHF iter   3:  -392.75516745120098   -5.89989e-02   7.53037e-05 DIIS
   @DF-RHF iter   4:  -392.75847194860603   -3.30450e-03   3.36342e-05 DIIS
   @DF-RHF iter   5:  -392.75916596354642   -6.94015e-04   6.84520e-06 DIIS
   @DF-RHF iter   6:  -392.75923521802173   -6.92545e-05   3.60790e-06 DIIS
   @DF-RHF iter   7:  -392.75925262668432   -1.74087e-05   1.34883e-06 DIIS
   @DF-RHF iter   8:  -392.75925595961030   -3.33293e-06   4.62914e-07 DIIS
   @DF-RHF iter   9:  -392.75925628074378   -3.21133e-07   1.88673e-07 DIIS
   @DF-RHF iter  10:  -392.75925633301136   -5.22676e-08   6.71123e-08 DIIS
   @DF-RHF iter  11:  -392.75925634136024   -8.34888e-09   1.81389e-08 DIIS
   @DF-RHF iter  12:  -392.75925634192726   -5.67013e-10   5.76396e-09 DIIS
  Energy and wave function converged.


  ==> Post-Iterations <==

    Orbital Energies [Eh]
    ---------------------

    Doubly Occupied:                                                      

       1A    -20.491958     2A    -15.622111     3A    -15.608861  
       4A    -15.538240     5A    -11.364600     6A    -11.359752  
       7A    -11.334081     8A    -11.251166     9A     -1.373044  
      10A     -1.294678    11A     -1.263414    12A     -1.169917  
      13A     -1.065488    14A     -0.903063    15A     -0.877423  
      16A     -0.763398    17A     -0.760517    18A     -0.728079  
      19A     -0.678072    20A     -0.622955    21A     -0.622952  
      22A     -0.613004    23A     -0.582825    24A     -0.542246  
      25A     -0.483503    26A     -0.432690    27A     -0.416305  
      28A     -0.383545    29A     -0.342710  

    Virtual:                                                              

      30A      0.014073    31A      0.020817    32A      0.025127  
      33A      0.035284    34A      0.039077    35A      0.040826  
      36A      0.047993    37A      0.054238    38A      0.057205  
      39A      0.062743    40A      0.067124    41A      0.072437  
      42A      0.076677    43A      0.080266    44A      0.084916  
      45A      0.086864    46A      0.089138    47A      0.096464  
      48A      0.098440    49A      0.099264    50A      0.100590  
      51A      0.105172    52A      0.106151    53A      0.112064  
      54A      0.114093    55A      0.116829    56A      0.118764  
      57A      0.123722    58A      0.125901    59A      0.128081  
      60A      0.132217    61A      0.139081    62A      0.142019  
      63A      0.145841    64A      0.150399    65A      0.151269  
      66A      0.153216    67A      0.156628    68A      0.157920  
      69A      0.160678    70A      0.164194    71A      0.168136  
      72A      0.171526    73A      0.174246    74A      0.180483  
      75A      0.186106    76A      0.188328    77A      0.190832  
      78A      0.193559    79A      0.196191    80A      0.202336  
      81A      0.206034    82A      0.209576    83A      0.212253  
      84A      0.216428    85A      0.220093    86A      0.224340  
      87A      0.230618    88A      0.232906    89A      0.237049  
      90A      0.240206    91A      0.245254    92A      0.247303  
      93A      0.252374    94A      0.254368    95A      0.255289  
      96A      0.263832    97A      0.266956    98A      0.269597  
      99A      0.273681   100A      0.276752   101A      0.278312  
     102A      0.280600   103A      0.283845   104A      0.286244  
     105A      0.292616   106A      0.294881   107A      0.296251  
     108A      0.300026   109A      0.301682   110A      0.309106  
     111A      0.312439   112A      0.314213   113A      0.317216  
     114A      0.322157   115A      0.324559   116A      0.333239  
     117A      0.334447   118A      0.338220   119A      0.339567  
     120A      0.344594   121A      0.349078   122A      0.349977  
     123A      0.351873   124A      0.356425   125A      0.359234  
     126A      0.363722   127A      0.367543   128A      0.369019  
     129A      0.374914   130A      0.377119   131A      0.379182  
     132A      0.385787   133A      0.386241   134A      0.390979  
     135A      0.394100   136A      0.397163   137A      0.401083  
     138A      0.403701   139A      0.408990   140A      0.410170  
     141A      0.412904   142A      0.415016   143A      0.417361  
     144A      0.423401   145A      0.426397   146A      0.430499  
     147A      0.432709   148A      0.435560   149A      0.437767  
     150A      0.440571   151A      0.443776   152A      0.448507  
     153A      0.449629   154A      0.452310   155A      0.460794  
     156A      0.461233   157A      0.464953   158A      0.467668  
     159A      0.470142   160A      0.475281   161A      0.475602  
     162A      0.482916   163A      0.485843   164A      0.488511  
     165A      0.493431   166A      0.498010   167A      0.500784  
     168A      0.503957   169A      0.504935   170A      0.511703  
     171A      0.512015   172A      0.516006   173A      0.517472  
     174A      0.522100   175A      0.528182   176A      0.530217  
     177A      0.532562   178A      0.537523   179A      0.540432  
     180A      0.543915   181A      0.552840   182A      0.554819  
     183A      0.559847   184A      0.561223   185A      0.569314  
     186A      0.574785   187A      0.578988   188A      0.583303  
     189A      0.589511   190A      0.594656   191A      0.599531  
     192A      0.604151   193A      0.607199   194A      0.612887  
     195A      0.620664   196A      0.622153   197A      0.624087  
     198A      0.628180   199A      0.635554   200A      0.637955  
     201A      0.644611   202A      0.648196   203A      0.651539  
     204A      0.655738   205A      0.660463   206A      0.662998  
     207A      0.668537   208A      0.673646   209A      0.674435  
     210A      0.680818   211A      0.683068   212A      0.689286  
     213A      0.692294   214A      0.698638   215A      0.702075  
     216A      0.703945   217A      0.707744   218A      0.712534  
     219A      0.716015   220A      0.718226   221A      0.722936  
     222A      0.729421   223A      0.730688   224A      0.737164  
     225A      0.746001   226A      0.751009   227A      0.761533  
     228A      0.764373   229A      0.771777   230A      0.776433  
     231A      0.776855   232A      0.778951   233A      0.782179  
     234A      0.788940   235A      0.793804   236A      0.795169  
     237A      0.801657   238A      0.805276   239A      0.807934  
     240A      0.820050   241A      0.822860   242A      0.828295  
     243A      0.835477   244A      0.841152   245A      0.843434  
     246A      0.848115   247A      0.854021   248A      0.856389  
     249A      0.859132   250A      0.862519   251A      0.866383  
     252A      0.871387   253A      0.876834   254A      0.880991  
     255A      0.888237   256A      0.894238   257A      0.897914  
     258A      0.901699   259A      0.906445   260A      0.908854  
     261A      0.915158   262A      0.920276   263A      0.923118  
     264A      0.926202   265A      0.931862   266A      0.939791  
     267A      0.941780   268A      0.944932   269A      0.954896  
     270A      0.955219   271A      0.958002   272A      0.958781  
     273A      0.963928   274A      0.966998   275A      0.971096  
     276A      0.976246   277A      0.976943   278A      0.981292  
     279A      0.984521   280A      0.990437   281A      0.992470  
     282A      0.995196   283A      0.997509   284A      0.998936  
     285A      1.003029   286A      1.008654   287A      1.015299  
     288A      1.018875   289A      1.020797   290A      1.024873  
     291A      1.027349   292A      1.034338   293A      1.039050  
     294A      1.046631   295A      1.049841   296A      1.052975  
     297A      1.059652   298A      1.064520   299A      1.070231  
     300A      1.070710   301A      1.073678   302A      1.080019  
     303A      1.082208   304A      1.087910   305A      1.090680  
     306A      1.093390   307A      1.099026   308A      1.101103  
     309A      1.102611   310A      1.108717   311A      1.110339  
     312A      1.114020   313A      1.122717   314A      1.127774  
     315A      1.132675   316A      1.136674   317A      1.140009  
     318A      1.142218   319A      1.151659   320A      1.152994  
     321A      1.163945   322A      1.165641   323A      1.169270  
     324A      1.169726   325A      1.175549   326A      1.178859  
     327A      1.181670   328A      1.185215   329A      1.186388  
     330A      1.190696   331A      1.195320   332A      1.202996  
     333A      1.207743   334A      1.212407   335A      1.214705  
     336A      1.218492   337A      1.222372   338A      1.230178  
     339A      1.234679   340A      1.239028   341A      1.243802  
     342A      1.244226   343A      1.253496   344A      1.256065  
     345A      1.264369   346A      1.266276   347A      1.266517  
     348A      1.276113   349A      1.284520   350A      1.291311  
     351A      1.296174   352A      1.299906   353A      1.302471  
     354A      1.315693   355A      1.318421   356A      1.321817  
     357A      1.322481   358A      1.329435   359A      1.333705  
     360A      1.335241   361A      1.346336   362A      1.348053  
     363A      1.352054   364A      1.359349   365A      1.361203  
     366A      1.367360   367A      1.370847   368A      1.372887  
     369A      1.378151   370A      1.379344   371A      1.392194  
     372A      1.395575   373A      1.400155   374A      1.401823  
     375A      1.407873   376A      1.412007   377A      1.419071  
     378A      1.420491   379A      1.422376   380A      1.429019  
     381A      1.433441   382A      1.438771   383A      1.442087  
     384A      1.442959   385A      1.450488   386A      1.451014  
     387A      1.461220   388A      1.472546   389A      1.476177  
     390A      1.480841   391A      1.486412   392A      1.489023  
     393A      1.495272   394A      1.509556   395A      1.511596  
     396A      1.519480   397A      1.523338   398A      1.528787  
     399A      1.538173   400A      1.546895   401A      1.550158  
     402A      1.557305   403A      1.561762   404A      1.567217  
     405A      1.570864   406A      1.576598   407A      1.585513  
     408A      1.595347   409A      1.598961   410A      1.601858  
     411A      1.608894   412A      1.616515   413A      1.623650  
     414A      1.634792   415A      1.638004   416A      1.646321  
     417A      1.650012   418A      1.654228   419A      1.660195  
     420A      1.666195   421A      1.672224   422A      1.679003  
     423A      1.690075   424A      1.703478   425A      1.714206  
     426A      1.720546   427A      1.722086   428A      1.730496  
     429A      1.732362   430A      1.733005   431A      1.742205  
     432A      1.748845   433A      1.752464   434A      1.774074  
     435A      1.778580   436A      1.780908   437A      1.782293  
     438A      1.786580   439A      1.790794   440A      1.798742  
     441A      1.811713   442A      1.813932   443A      1.818214  
     444A      1.822146   445A      1.831856   446A      1.833389  
     447A      1.836264   448A      1.843613   449A      1.848896  
     450A      1.859773   451A      1.865492   452A      1.868497  
     453A      1.874859   454A      1.881462   455A      1.884105  
     456A      1.886191   457A      1.893548   458A      1.905070  
     459A      1.911997   460A      1.920091   461A      1.926232  
     462A      1.939147   463A      1.942520   464A      1.944983  
     465A      1.947124   466A      1.956926   467A      1.962153  
     468A      1.970453   469A      1.980914   470A      1.983641  
     471A      1.999228   472A      2.004122   473A      2.011292  
     474A      2.018544   475A      2.026062   476A      2.027931  
     477A      2.034090   478A      2.039626   479A      2.044462  
     480A      2.054463   481A      2.055974   482A      2.063272  
     483A      2.072826   484A      2.088544   485A      2.092533  
     486A      2.094883   487A      2.103407   488A      2.107806  
     489A      2.113639   490A      2.126117   491A      2.139918  
     492A      2.144432   493A      2.150134   494A      2.159502  
     495A      2.162202   496A      2.172318   497A      2.184631  
     498A      2.192008   499A      2.195778   500A      2.200948  
     501A      2.218855   502A      2.221800   503A      2.231403  
     504A      2.243888   505A      2.254111   506A      2.261942  
     507A      2.264035   508A      2.266763   509A      2.289700  
     510A      2.294267   511A      2.303191   512A      2.311656  
     513A      2.315273   514A      2.315327   515A      2.328703  
     516A      2.337981   517A      2.343691   518A      2.347349  
     519A      2.351825   520A      2.355793   521A      2.363831  
     522A      2.367002   523A      2.373259   524A      2.380175  
     525A      2.387949   526A      2.397657   527A      2.399648  
     528A      2.409436   529A      2.418962   530A      2.427199  
     531A      2.440834   532A      2.444426   533A      2.451137  
     534A      2.455327   535A      2.465400   536A      2.468830  
     537A      2.493634   538A      2.499935   539A      2.508208  
     540A      2.512049   541A      2.516070   542A      2.534837  
     543A      2.539888   544A      2.543437   545A      2.547827  
     546A      2.550835   547A      2.554005   548A      2.567090  
     549A      2.574083   550A      2.577312   551A      2.578589  
     552A      2.584575   553A      2.606375   554A      2.615580  
     555A      2.616394   556A      2.626800   557A      2.637426  
     558A      2.641920   559A      2.644525   560A      2.654275  
     561A      2.660569   562A      2.666656   563A      2.679606  
     564A      2.681785   565A      2.697052   566A      2.700004  
     567A      2.706026   568A      2.711234   569A      2.713246  
     570A      2.734062   571A      2.735617   572A      2.740122  
     573A      2.746940   574A      2.751283   575A      2.753668  
     576A      2.758395   577A      2.759490   578A      2.772790  
     579A      2.786048   580A      2.787202   581A      2.794634  
     582A      2.800102   583A      2.822800   584A      2.833717  
     585A      2.840037   586A      2.850418   587A      2.861743  
     588A      2.864169   589A      2.866980   590A      2.889589  
     591A      2.895937   592A      2.897881   593A      2.921626  
     594A      2.923480   595A      2.936489   596A      2.945596  
     597A      2.964777   598A      2.967748   599A      2.970356  
     600A      2.978552   601A      2.985411   602A      2.992148  
     603A      3.019088   604A      3.029153   605A      3.038692  
     606A      3.045875   607A      3.061148   608A      3.066421  
     609A      3.070933   610A      3.091182   611A      3.105766  
     612A      3.115719   613A      3.125586   614A      3.150895  
     615A      3.154974   616A      3.171577   617A      3.184747  
     618A      3.191810   619A      3.192997   620A      3.214083  
     621A      3.222785   622A      3.240431   623A      3.267122  
     624A      3.276907   625A      3.283058   626A      3.292580  
     627A      3.304250   628A      3.307570   629A      3.319170  
     630A      3.324195   631A      3.350764   632A      3.356850  
     633A      3.363006   634A      3.371553   635A      3.375981  
     636A      3.407767   637A      3.427744   638A      3.440985  
     639A      3.444187   640A      3.468703   641A      3.484222  
     642A      3.494929   643A      3.511829   644A      3.514264  
     645A      3.526812   646A      3.546487   647A      3.557636  
     648A      3.570720   649A      3.594703   650A      3.614261  
     651A      3.618517   652A      3.625478   653A      3.653584  
     654A      3.659319   655A      3.679181   656A      3.682189  
     657A      3.696219   658A      3.707336   659A      3.714590  
     660A      3.717357   661A      3.723201   662A      3.744324  
     663A      3.754629   664A      3.765216   665A      3.787511  
     666A      3.793945   667A      3.802760   668A      3.814844  
     669A      3.819643   670A      3.824987   671A      3.830592  
     672A      3.859306   673A      3.880568   674A      3.897171  
     675A      3.916563   676A      3.937369   677A      3.955265  
     678A      3.961746   679A      3.972467   680A      3.974357  
     681A      3.997838   682A      4.007675   683A      4.017943  
     684A      4.025888   685A      4.034003   686A      4.066438  
     687A      4.070902   688A      4.084897   689A      4.090970  
     690A      4.091183   691A      4.110786   692A      4.113553  
     693A      4.126638   694A      4.129739   695A      4.132270  
     696A      4.132657   697A      4.152582   698A      4.156917  
     699A      4.161127   700A      4.167039   701A      4.188855  
     702A      4.207420   703A      4.211037   704A      4.217542  
     705A      4.221162   706A      4.225195   707A      4.229298  
     708A      4.248160   709A      4.257078   710A      4.269345  
     711A      4.272541   712A      4.292673   713A      4.297461  
     714A      4.300255   715A      4.304169   716A      4.321394  
     717A      4.326573   718A      4.332064   719A      4.344487  
     720A      4.353351   721A      4.360253   722A      4.365613  
     723A      4.382633   724A      4.386843   725A      4.389615  
     726A      4.395845   727A      4.409331   728A      4.425256  
     729A      4.437801   730A      4.442010   731A      4.454564  
     732A      4.458901   733A      4.464327   734A      4.469930  
     735A      4.482032   736A      4.511812   737A      4.520804  
     738A      4.529704   739A      4.536568   740A      4.547780  
     741A      4.557409   742A      4.584142   743A      4.599027  
     744A      4.603942   745A      4.621471   746A      4.633819  
     747A      4.638482   748A      4.650155   749A      4.653991  
     750A      4.654698   751A      4.670595   752A      4.675030  
     753A      4.687257   754A      4.697896   755A      4.706527  
     756A      4.710843   757A      4.717402   758A      4.729609  
     759A      4.731895   760A      4.742823   761A      4.773712  
     762A      4.788715   763A      4.798411   764A      4.811134  
     765A      4.815532   766A      4.829799   767A      4.835152  
     768A      4.846045   769A      4.852617   770A      4.856270  
     771A      4.869176   772A      4.875406   773A      4.877414  
     774A      4.888437   775A      4.896548   776A      4.899348  
     777A      4.917533   778A      4.940569   779A      4.944000  
     780A      4.946584   781A      4.953231   782A      4.968443  
     783A      4.979272   784A      4.984266   785A      4.991948  
     786A      5.010806   787A      5.024942   788A      5.035831  
     789A      5.037996   790A      5.041895   791A      5.050815  
     792A      5.066462   793A      5.070367   794A      5.083126  
     795A      5.093295   796A      5.098985   797A      5.101260  
     798A      5.105135   799A      5.139500   800A      5.141598  
     801A      5.150201   802A      5.182641   803A      5.196916  
     804A      5.200885   805A      5.209743   806A      5.215883  
     807A      5.227558   808A      5.237260   809A      5.252544  
     810A      5.256760   811A      5.271835   812A      5.293087  
     813A      5.297796   814A      5.316000   815A      5.326602  
     816A      5.338016   817A      5.343087   818A      5.357316  
     819A      5.365639   820A      5.370804   821A      5.391532  
     822A      5.398657   823A      5.426627   824A      5.433563  
     825A      5.448042   826A      5.448776   827A      5.450259  
     828A      5.459808   829A      5.472825   830A      5.473527  
     831A      5.493623   832A      5.522648   833A      5.524766  
     834A      5.525750   835A      5.534366   836A      5.541364  
     837A      5.557527   838A      5.559716   839A      5.566827  
     840A      5.569291   841A      5.581796   842A      5.590483  
     843A      5.602902   844A      5.615953   845A      5.618274  
     846A      5.635304   847A      5.637609   848A      5.667484  
     849A      5.670761   850A      5.699811   851A      5.707184  
     852A      5.738762   853A      5.749180   854A      5.766827  
     855A      5.789764   856A      5.796021   857A      5.807314  
     858A      5.827964   859A      5.835225   860A      5.843569  
     861A      5.868593   862A      5.875394   863A      5.887753  
     864A      5.928367   865A      5.931354   866A      5.940056  
     867A      5.965156   868A      5.983734   869A      5.995850  
     870A      6.014232   871A      6.021413   872A      6.059664  
     873A      6.064100   874A      6.093398   875A      6.116609  
     876A      6.125981   877A      6.132614   878A      6.152905  
     879A      6.161516   880A      6.171978   881A      6.183677  
     882A      6.187787   883A      6.220758   884A      6.244961  
     885A      6.252604   886A      6.261062   887A      6.283032  
     888A      6.285171   889A      6.346136   890A      6.363180  
     891A      6.389092   892A      6.418125   893A      6.447235  
     894A      6.449521   895A      6.479956   896A      6.496712  
     897A      6.544728   898A      6.570039   899A      6.592839  
     900A      6.609199   901A      6.613355   902A      6.650397  
     903A      6.653828   904A      6.693894   905A      6.699118  
     906A      6.708354   907A      6.730828   908A      6.740276  
     909A      6.764956   910A      6.778167   911A      6.785010  
     912A      6.805336   913A      6.810031   914A      6.851236  
     915A      6.852858   916A      6.863554   917A      6.872783  
     918A      6.886255   919A      6.933817   920A      6.971685  
     921A      6.989756   922A      7.023696   923A      7.026607  
     924A      7.036970   925A      7.039278   926A      7.112511  
     927A      7.123856   928A      7.150834   929A      7.207813  
     930A      7.209442   931A      7.260243   932A      7.320776  
     933A      7.343134   934A      7.374119   935A      7.404740  
     936A      7.421867   937A      7.433702   938A      7.475256  
     939A      7.546969   940A      7.565702   941A      7.576524  
     942A      7.584850   943A      7.590210   944A      7.628274  
     945A      7.629114   946A      7.640753   947A      7.661063  
     948A      7.668761   949A      7.688810   950A      7.690796  
     951A      7.731949   952A      7.746188   953A      7.757052  
     954A      7.786914   955A      7.805362   956A      7.838588  
     957A      7.846503   958A      7.847536   959A      7.865940  
     960A      7.894068   961A      7.909121   962A      7.938969  
     963A      7.945920   964A      7.965298   965A      7.972560  
     966A      8.009312   967A      8.012821   968A      8.053195  
     969A      8.136166   970A      8.154341   971A      8.177487  
     972A      8.234183   973A      8.261533   974A      8.263659  
     975A      8.365393   976A      8.400805   977A      8.561273  
     978A      8.590152   979A      8.708860   980A      8.810639  
     981A      8.887693   982A      8.931682   983A      9.012506  
     984A      9.094326   985A      9.208894   986A      9.542802  
     987A      9.546607   988A      9.557438   989A      9.577415  
     990A      9.788704   991A      9.863122   992A      9.977643  
     993A      9.997468   994A     10.035892   995A     10.156296  
     996A     10.177783   997A     10.245878   998A     10.326330  
     999A     10.454102  1000A     10.518215  1001A     10.529440  
    1002A     10.699303  1003A     10.929676  1004A     11.264467  
    1005A     11.368465  1006A     11.535696  1007A     12.015206  
    1008A     12.017914  1009A     12.031019  1010A     12.089912  
    1011A     12.170343  1012A     12.486363  1013A     12.711973  
    1014A     12.894772  1015A     13.308231  1016A     13.545009  
    1017A     14.157374  1018A     14.196843  1019A     15.542593  
    1020A     15.820055  1021A     16.292000  1022A     17.575456  
    1023A     18.065075  1024A     19.269577  1025A     20.028461  
    1026A     20.455943  1027A     51.475443  1028A     51.906743  
    1029A     53.240401  1030A     54.097269  1031A     57.322429  
    1032A     60.007961  1033A     61.111101  1034A     69.055527  
    1035A     69.512014  

    Final Occupation by Irrep:
              A 
    DOCC [    29 ]

  @DF-RHF Final Energy:  -392.75925634192726

   => Energetics <=

    Nuclear Repulsion Energy =            355.3123601216446446
    One-Electron Energy =               -1239.1620267345169850
    Two-Electron Energy =                 491.0904102709451422
    Total Energy =                       -392.7592563419272551

Computation Completed


Properties will be evaluated at   0.000000,   0.000000,   0.000000 [a0]

Properties computed using the SCF density matrix

  Nuclear Dipole Moment: [e a0]
     X:  -102.7658      Y:   329.6016      Z:   188.7332

  Electronic Dipole Moment: [e a0]
     X:   104.0798      Y:  -326.8538      Z:  -188.7945

  Dipole Moment: [e a0]
     X:     1.3140      Y:     2.7477      Z:    -0.0613     Total:     3.0464

  Dipole Moment: [D]
     X:     3.3399      Y:     6.9841      Z:    -0.1558     Total:     7.7431


*** tstop() called on node151.bme.utexas.edu at Mon Jan 22 15:30:40 2024
Module time:
	user time   =     593.94 seconds =       9.90 minutes
	system time =       7.60 seconds =       0.13 minutes
	total time  =         96 seconds =       1.60 minutes
Total time:
	user time   =    2263.78 seconds =      37.73 minutes
	system time =      31.03 seconds =       0.52 minutes
	total time  =        361 seconds =       6.02 minutes

*** tstart() called on node151.bme.utexas.edu
*** at Mon Jan 22 15:30:40 2024


  //>>>>>>>>>>>>>>>>>>>>>>>>>>>>>>>>>>>//
  //               DFMP2               //
  //<<<<<<<<<<<<<<<<<<<<<<<<<<<<<<<<<<<//

   => Loading Basis Set <=

    Name: (AUG-CC-PVTZ AUX)
    Role: RIFIT
    Keyword: DF_BASIS_MP2
    atoms 1, 3, 16, 18, 24       entry N          line   206 file /opt/anaconda/envs/psi4v1.5/share/psi4/basis/aug-cc-pvtz-ri.gbs 
    atoms 2, 4-6, 11, 17, 19-21  entry C          line   148 file /opt/anaconda/envs/psi4v1.5/share/psi4/basis/aug-cc-pvtz-ri.gbs 
    atoms 7, 9, 12-15, 22, 25-28 entry H          line    30 file /opt/anaconda/envs/psi4v1.5/share/psi4/basis/aug-cc-pvtz-ri.gbs 
    atoms 8, 10, 23              entry O          line   264 file /opt/anaconda/envs/psi4v1.5/share/psi4/basis/aug-cc-pvtz-ri.gbs 

	 --------------------------------------------------------
	                          DF-MP2                         
	      2nd-Order Density-Fitted Moller-Plesset Theory     
	              RMP2 Wavefunction,   8 Threads             
	                                                         
	        Rob Parrish, Justin Turney, Andy Simmonett,      
	           Ed Hohenstein, and C. David Sherrill          
	 --------------------------------------------------------

   => Auxiliary Basis Set <=

  Basis Set: (AUG-CC-PVTZ AUX)
    Blend: AUG-CC-PVTZ-RI
    Number of shells: 630
    Number of basis functions: 2308
    Number of Cartesian functions: 2917
    Spherical Harmonics?: true
    Max angular momentum: 4

	 --------------------------------------------------------
	                 NBF =  1035, NAUX =  2308
	 --------------------------------------------------------
	   CLASS    FOCC     OCC    AOCC    AVIR     VIR    FVIR
	   PAIRS       8      29      21    1006    1006       0
	 --------------------------------------------------------

	 Will attempt to load fitting metric from file 97.

	-----------------------------------------------------------
	 ==================> DF-MP2 Energies <==================== 
	-----------------------------------------------------------
	 Reference Energy          =    -392.7592563419272551 [Eh]
	 Singles Energy            =      -0.0000000000000000 [Eh]
	 Same-Spin Energy          =      -0.3847510690382466 [Eh]
	 Opposite-Spin Energy      =      -1.0963180049621817 [Eh]
	 Correlation Energy        =      -1.4810690740004282 [Eh]
	 Total Energy              =    -394.2403254159276571 [Eh]
	-----------------------------------------------------------
	 ================> DF-SCS-MP2 Energies <================== 
	-----------------------------------------------------------
	 SCS Same-Spin Scale       =       0.3333333333333333 [-]
	 SCS Opposite-Spin Scale   =       1.2000000000000000 [-]
	 SCS Same-Spin Energy      =      -0.1282503563460822 [Eh]
	 SCS Opposite-Spin Energy  =      -1.3155816059546179 [Eh]
	 SCS Correlation Energy    =      -1.4438319623007001 [Eh]
	 SCS Total Energy          =    -394.2030883042279470 [Eh]
	-----------------------------------------------------------


*** tstop() called on node151.bme.utexas.edu at Mon Jan 22 15:31:07 2024
Module time:
	user time   =     140.03 seconds =       2.33 minutes
	system time =       4.14 seconds =       0.07 minutes
	total time  =         27 seconds =       0.45 minutes
Total time:
	user time   =    2403.82 seconds =      40.06 minutes
	system time =      35.17 seconds =       0.59 minutes
	total time  =        388 seconds =       6.47 minutes
  Constructing Basis Sets for SAPT...

   => Loading Basis Set <=

    Name: (AUG-CC-PVTZ AUX)
    Role: RIFIT
    Keyword: DF_BASIS_SAPT
    atoms 1, 3, 16, 18, 24       entry N          line   206 file /opt/anaconda/envs/psi4v1.5/share/psi4/basis/aug-cc-pvtz-ri.gbs 
    atoms 2, 4-6, 11, 17, 19-21  entry C          line   148 file /opt/anaconda/envs/psi4v1.5/share/psi4/basis/aug-cc-pvtz-ri.gbs 
    atoms 7, 9, 12-15, 22, 25-28 entry H          line    30 file /opt/anaconda/envs/psi4v1.5/share/psi4/basis/aug-cc-pvtz-ri.gbs 
    atoms 8, 10, 23              entry O          line   264 file /opt/anaconda/envs/psi4v1.5/share/psi4/basis/aug-cc-pvtz-ri.gbs 


  //>>>>>>>>>>>>>>>>>>>>>>>>>>>>>>>>>>>//
  //           SAPT2+(3)DMP2           //
  //<<<<<<<<<<<<<<<<<<<<<<<<<<<<<<<<<<<//


*** tstart() called on node151.bme.utexas.edu
*** at Mon Jan 22 15:31:08 2024

      SAPT2+(3)  
    Ed Hohenstein
     6 June 2009

      Orbital Information
  --------------------------
    NSO        =      1035
    NMO        =      1035
    NRI        =      2308
    NOCC A     =        33
    NOCC B     =        29
    FOCC A     =         9
    FOCC B     =         8
    NVIR A     =      1002
    NVIR B     =      1006

    Estimated memory usage: 45136.8 MB

    Natural Orbital Cutoff:   1.000E-06
    Disp(T3) Truncation:            Yes
    CCD (vv|vv) Truncation:         Yes
    MBPT T2 Truncation:             Yes

    Monomer A: 536 virtual orbitals dropped
    Monomer B: 598 virtual orbitals dropped

    Elst10,r            =     0.000550957542 [Eh]
    Exch10 (S^2)        =     0.000034053035 [Eh]
    Exch10              =     0.000034053424 [Eh]
    Ind20,r (A<-B)      =    -0.000301693699 [Eh]
    Ind20,r (B<-A)      =    -0.000043713526 [Eh]
    Ind20,r             =    -0.000345407226 [Eh]
    Exch-Ind20,r (A<-B) =     0.000001885975 [Eh]
    Exch-Ind20,r (B<-A) =     0.000005962795 [Eh]
    Exch-Ind20,r        =     0.000007848770 [Eh]
    Disp20              =    -0.000986658892 [Eh]
    Disp20 (NO)         =    -0.000957918887 [Eh]
    Exch-Disp20         =     0.000007113005 [Eh]
    Elst12,r            =    -0.000211666814 [Eh]
    Exch11              =    -0.000002774412 [Eh]
    Exch12              =     0.000018361990 [Eh]
    Ind22               =     0.000012567537 [Eh]
    Disp21              =     0.000213293153 [Eh]
    Disp22 (SDQ)        =    -0.000027852905 [Eh]

    (i =   1 of  21)       1452 seconds
    (i =   2 of  21)       2876 seconds
    (i =   3 of  21)       4626 seconds
    (i =   4 of  21)       6424 seconds
    (i =   5 of  21)       8212 seconds
    (i =   6 of  21)      10063 seconds
    (i =   7 of  21)      11543 seconds
    (i =   8 of  21)      13153 seconds
    (i =   9 of  21)      14482 seconds
    (i =  10 of  21)      15703 seconds
    (i =  11 of  21)      16925 seconds
    (i =  12 of  21)      18159 seconds
    (i =  13 of  21)      19525 seconds
    (i =  14 of  21)      20792 seconds
    (i =  15 of  21)      22054 seconds
    (i =  16 of  21)      23327 seconds
    (i =  17 of  21)      24557 seconds
    (i =  18 of  21)      25805 seconds
    (i =  19 of  21)      26989 seconds
    (i =  20 of  21)      28175 seconds
    (i =  21 of  21)      29361 seconds

    Disp220 (T)         =    -0.000128535651 [Eh]

    (i =   1 of  24)        798 seconds
    (i =   2 of  24)       1596 seconds
    (i =   3 of  24)       2395 seconds
    (i =   4 of  24)       3193 seconds
    (i =   5 of  24)       3993 seconds
    (i =   6 of  24)       4795 seconds
    (i =   7 of  24)       5600 seconds
    (i =   8 of  24)       6404 seconds
    (i =   9 of  24)       7207 seconds
    (i =  10 of  24)       8010 seconds
    (i =  11 of  24)       8809 seconds
    (i =  12 of  24)       9608 seconds
    (i =  13 of  24)      10406 seconds
    (i =  14 of  24)      11205 seconds
    (i =  15 of  24)      12005 seconds
    (i =  16 of  24)      12804 seconds
    (i =  17 of  24)      13605 seconds
    (i =  18 of  24)      14406 seconds
    (i =  19 of  24)      15221 seconds
    (i =  20 of  24)      16035 seconds
    (i =  21 of  24)      16851 seconds
    (i =  22 of  24)      17668 seconds
    (i =  23 of  24)      18483 seconds
    (i =  24 of  24)      19300 seconds

    Disp202 (T)         =    -0.000127697010 [Eh]

    Disp22 (T)          =    -0.000256232661 [Eh]

    Est. Disp220 (T)    =    -0.000132392048 [Eh]
    Est. Disp202 (T)    =    -0.000131528246 [Eh]

    Est. Disp22 (T)     =    -0.000263920294 [Eh]
    Elst13,r            =     0.000120547503 [Eh]
    Disp30              =     0.000003701973 [Eh]

    SAPT Results 
  --------------------------------------------------------------------------------------------------------
    Electrostatics                  0.45983823 [mEh]       0.28855285 [kcal/mol]       1.20730511 [kJ/mol]
      Elst10,r                      0.55095754 [mEh]       0.34573108 [kcal/mol]       1.44653883 [kJ/mol]
      Elst12,r                     -0.21166681 [mEh]      -0.13282293 [kcal/mol]      -0.55573114 [kJ/mol]
      Elst13,r                      0.12054750 [mEh]       0.07564470 [kcal/mol]       0.31649742 [kJ/mol]

    Exchange                        0.04964100 [mEh]       0.03115020 [kcal/mol]       0.13033243 [kJ/mol]
      Exch10                        0.03405342 [mEh]       0.02136885 [kcal/mol]       0.08940725 [kJ/mol]
      Exch10(S^2)                   0.03405304 [mEh]       0.02136860 [kcal/mol]       0.08940623 [kJ/mol]
      Exch11(S^2)                  -0.00277441 [mEh]      -0.00174097 [kcal/mol]      -0.00728422 [kJ/mol]
      Exch12(S^2)                   0.01836199 [mEh]       0.01152232 [kcal/mol]       0.04820940 [kJ/mol]

    Induction                      -0.30324507 [mEh]      -0.19028916 [kcal/mol]      -0.79616983 [kJ/mol]
      Ind20,r                      -0.34540723 [mEh]      -0.21674631 [kcal/mol]      -0.90686655 [kJ/mol]
      Ind22                         0.01256754 [mEh]       0.00788625 [kcal/mol]       0.03299606 [kJ/mol]
      Exch-Ind20,r                  0.00784877 [mEh]       0.00492518 [kcal/mol]       0.02060694 [kJ/mol]
      Exch-Ind22                   -0.00028558 [mEh]      -0.00017920 [kcal/mol]      -0.00074978 [kJ/mol]
      delta HF,r (2)                0.00335663 [mEh]       0.00210632 [kcal/mol]       0.00881283 [kJ/mol]
      delta MP2,r (2)               0.01867479 [mEh]       0.01171861 [kcal/mol]       0.04903066 [kJ/mol]

    Dispersion                     -1.05432396 [mEh]      -0.66159827 [kcal/mol]      -2.76812718 [kJ/mol]
      Disp20                       -0.98665889 [mEh]      -0.61913780 [kcal/mol]      -2.59047256 [kJ/mol]
      Disp30                        0.00370197 [mEh]       0.00232302 [kcal/mol]       0.00971953 [kJ/mol]
      Disp21                        0.21329315 [mEh]       0.13384347 [kcal/mol]       0.56000110 [kJ/mol]
      Disp22 (SDQ)                 -0.02785291 [mEh]      -0.01747796 [kcal/mol]      -0.07312779 [kJ/mol]
      Disp22 (T)                   -0.25623266 [mEh]      -0.16078842 [kcal/mol]      -0.67273876 [kJ/mol]
      Est. Disp22 (T)              -0.26392029 [mEh]      -0.16561248 [kcal/mol]      -0.69292264 [kJ/mol]
      Exch-Disp20                   0.00711300 [mEh]       0.00446348 [kcal/mol]       0.01867519 [kJ/mol]

  Total HF                          0.25080914 [mEh]       0.15738511 [kcal/mol]       0.65849930 [kJ/mol]
  Total SAPT0                      -0.72873675 [mEh]      -0.45728921 [kcal/mol]      -1.91329807 [kJ/mol]
  Total SAPT2                      -0.91253402 [mEh]      -0.57262374 [kcal/mol]      -2.39585775 [kJ/mol]
  Total SAPT2+                     -0.99101407 [mEh]      -0.62187072 [kcal/mol]      -2.60190708 [kJ/mol]
  Total SAPT2+(3)                  -0.86676459 [mEh]      -0.54390299 [kcal/mol]      -2.27569013 [kJ/mol]
  Total SAPT2+dMP2                 -0.97233928 [mEh]      -0.61015211 [kcal/mol]      -2.55287642 [kJ/mol]
  Total SAPT2+(3)dMP2              -0.84808980 [mEh]      -0.53218439 [kcal/mol]      -2.22665947 [kJ/mol]

  Special recipe for scaled SAPT0 (see Manual):
    Electrostatics sSAPT0           0.55095754 [mEh]       0.34573108 [kcal/mol]       1.44653883 [kJ/mol]
    Exchange sSAPT0                 0.03405342 [mEh]       0.02136885 [kcal/mol]       0.08940725 [kJ/mol]
    Induction sSAPT0               -0.33420156 [mEh]      -0.20971464 [kcal/mol]      -0.87744607 [kJ/mol]
    Dispersion sSAPT0              -0.97954564 [mEh]      -0.61467417 [kcal/mol]      -2.57179673 [kJ/mol]
  Total sSAPT0                     -0.72873624 [mEh]      -0.45728889 [kcal/mol]      -1.91329672 [kJ/mol]
  --------------------------------------------------------------------------------------------------------

*** tstop() called on node151.bme.utexas.edu at Tue Jan 23 08:41:40 2024
Module time:
	user time   =  403356.25 seconds =    6722.60 minutes
	system time =    1396.88 seconds =      23.28 minutes
	total time  =      61832 seconds =    1030.53 minutes
Total time:
	user time   =  405760.81 seconds =    6762.68 minutes
	system time =    1432.06 seconds =      23.87 minutes
	total time  =      62221 seconds =    1037.02 minutes

    Psi4 stopped on: Tuesday, 23 January 2024 08:41AM
    Psi4 wall time for execution: 17:17:01.06

*** Psi4 exiting successfully. Buy a developer a beer!
