
    -----------------------------------------------------------------------
          Psi4: An Open-Source Ab Initio Electronic Structure Package
                               Psi4 1.5 release

                         Git: Rev {HEAD} e9f4d6d 


    D. G. A. Smith, L. A. Burns, A. C. Simmonett, R. M. Parrish,
    M. C. Schieber, R. Galvelis, P. Kraus, H. Kruse, R. Di Remigio,
    A. Alenaizan, A. M. James, S. Lehtola, J. P. Misiewicz, M. Scheurer,
    R. A. Shaw, J. B. Schriber, Y. Xie, Z. L. Glick, D. A. Sirianni,
    J. S. O'Brien, J. M. Waldrop, A. Kumar, E. G. Hohenstein,
    B. P. Pritchard, B. R. Brooks, H. F. Schaefer III, A. Yu. Sokolov,
    K. Patkowski, A. E. DePrince III, U. Bozkaya, R. A. King,
    F. A. Evangelista, J. M. Turney, T. D. Crawford, C. D. Sherrill,
    J. Chem. Phys. 152(18) 184108 (2020). https://doi.org/10.1063/5.0006002

                            Additional Code Authors
    E. T. Seidl, C. L. Janssen, E. F. Valeev, M. L. Leininger,
    J. F. Gonthier, R. M. Richard, H. R. McAlexander, M. Saitow, X. Wang,
    P. Verma, M. H. Lechner, and A. Jiang

             Previous Authors, Complete List of Code Contributors,
                       and Citations for Specific Modules
    https://github.com/psi4/psi4/blob/master/codemeta.json
    https://github.com/psi4/psi4/graphs/contributors
    http://psicode.org/psi4manual/master/introduction.html#citing-psifour

    -----------------------------------------------------------------------


    Psi4 started on: Monday, 22 January 2024 03:24PM

    Process ID: 377098
    Host:       node165.bme.utexas.edu
    PSIDATADIR: /opt/anaconda/envs/psi4v1.5/share/psi4
    Memory:     500.0 MiB
    Threads:    8
    
  ==> Input File <==

--------------------------------------------------------------------------
memory 80GB

molecule {
0 1
N -0.64527 0.537199 0.000379
C -1.914342 0.992571 0.000336
N -2.327871 2.260455 0.000198
C -1.289976 3.113552 0.000134
C 0.071467 2.788444 0.000208
C 0.388103 1.409805 0.000331
N 0.862141 3.925582 0.00012
C 0.0 4.915748 0.0
N -1.315514 4.490519 0.0
H -2.678219 0.213216 0.000396
N 1.647269 0.939941 0.000399
H 2.408453 1.601685 0.000397
H 1.826741 -0.069006 0.000581
H 0.255544 5.970689 -9.4e-05
H -2.145977 5.066056 -9e-05
--
0 1
N -0.202642 -1.399569 3.250717
C -1.034346 -2.494965 3.281911
N -0.592816 -3.74736 3.286855
C 0.754293 -3.819439 3.257982
C 1.6944 -2.779552 3.225047
C 1.202119 -1.436173 3.220151
N 2.987142 -3.2823 3.202425
C 2.83846 -4.582272 3.220948
N 1.504626 -4.969498 3.254917
H -0.621424 -0.450609 3.248827
N -2.362733 -2.245381 3.308286
H -2.750571 -1.296644 3.305715
H -2.976517 -3.043637 3.33119
O 1.845786 -0.373056 3.193476
H 3.641974 -5.311778 3.211781
H 1.136271 -5.910013 3.274075
 units angstrom
 no_reorient
 symmetry c1}
set  {scf_type DF
 basis aug-cc-pvtz
 freeze_core True
 guess SAD}
energy('sapt2+(3)dmp2')
--------------------------------------------------------------------------

  Memory set to  74.506 GiB by Python driver.

Scratch directory: /tmp/
   => Loading Basis Set <=

    Name: AUG-CC-PVTZ
    Role: ORBITAL
    Keyword: BASIS
    atoms 1, 3, 7, 9, 11, 16, 18, 22, 24, 26 entry N          line   285 file /opt/anaconda/envs/psi4v1.5/share/psi4/basis/aug-cc-pvtz.gbs 
    atoms 2, 4-6, 8, 17, 19-21, 23           entry C          line   239 file /opt/anaconda/envs/psi4v1.5/share/psi4/basis/aug-cc-pvtz.gbs 
    atoms 10, 12-15, 25, 27-28, 30-31        entry H          line    40 file /opt/anaconda/envs/psi4v1.5/share/psi4/basis/aug-cc-pvtz.gbs 
    atoms 29                                 entry O          line   331 file /opt/anaconda/envs/psi4v1.5/share/psi4/basis/aug-cc-pvtz.gbs 

   => Loading Basis Set <=

    Name: AUG-CC-PVTZ
    Role: ORBITAL
    Keyword: BASIS
    atoms 1, 3, 7, 9, 11, 16, 18, 22, 24, 26 entry N          line   285 file /opt/anaconda/envs/psi4v1.5/share/psi4/basis/aug-cc-pvtz.gbs 
    atoms 2, 4-6, 8, 17, 19-21, 23           entry C          line   239 file /opt/anaconda/envs/psi4v1.5/share/psi4/basis/aug-cc-pvtz.gbs 
    atoms 10, 12-15, 25, 27-28, 30-31        entry H          line    40 file /opt/anaconda/envs/psi4v1.5/share/psi4/basis/aug-cc-pvtz.gbs 
    atoms 29                                 entry O          line   331 file /opt/anaconda/envs/psi4v1.5/share/psi4/basis/aug-cc-pvtz.gbs 


  //>>>>>>>>>>>>>>>>>>>>>>>>>>>>>>>>>>>//
  //              Dimer HF             //
  //<<<<<<<<<<<<<<<<<<<<<<<<<<<<<<<<<<<//


*** tstart() called on node165.bme.utexas.edu
*** at Mon Jan 22 15:24:39 2024

   => Loading Basis Set <=

    Name: AUG-CC-PVTZ
    Role: ORBITAL
    Keyword: BASIS
    atoms 1, 3, 7, 9, 11, 16, 18, 22, 24, 26 entry N          line   285 file /opt/anaconda/envs/psi4v1.5/share/psi4/basis/aug-cc-pvtz.gbs 
    atoms 2, 4-6, 8, 17, 19-21, 23           entry C          line   239 file /opt/anaconda/envs/psi4v1.5/share/psi4/basis/aug-cc-pvtz.gbs 
    atoms 10, 12-15, 25, 27-28, 30-31        entry H          line    40 file /opt/anaconda/envs/psi4v1.5/share/psi4/basis/aug-cc-pvtz.gbs 
    atoms 29                                 entry O          line   331 file /opt/anaconda/envs/psi4v1.5/share/psi4/basis/aug-cc-pvtz.gbs 


         ---------------------------------------------------------
                                   SCF
               by Justin Turney, Rob Parrish, Andy Simmonett
                          and Daniel G. A. Smith
                              RHF Reference
                        8 Threads,  76293 MiB Core
         ---------------------------------------------------------

  ==> Geometry <==

    Molecular point group: c1
    Full point group: C1

    Geometry (in Angstrom), charge = 0, multiplicity = 1:

       Center              X                  Y                   Z               Mass       
    ------------   -----------------  -----------------  -----------------  -----------------
         N           -0.833614097518     0.819635496591    -1.713596595604    14.003074004430
         C           -2.102686097518     1.275007496591    -1.713639595604    12.000000000000
         N           -2.516215097518     2.542891496591    -1.713777595604    14.003074004430
         C           -1.478320097518     3.395988496591    -1.713841595604    12.000000000000
         C           -0.116877097518     3.070880496591    -1.713767595604    12.000000000000
         C            0.199758902482     1.692241496591    -1.713644595604    12.000000000000
         N            0.673796902482     4.208018496591    -1.713855595604    14.003074004430
         C           -0.188344097518     5.198184496591    -1.713975595604    12.000000000000
         N           -1.503858097518     4.772955496591    -1.713975595604    14.003074004430
         H           -2.866563097518     0.495652496591    -1.713579595604     1.007825032230
         N            1.458924902482     1.222377496591    -1.713576595604    14.003074004430
         H            2.220108902482     1.884121496591    -1.713578595604     1.007825032230
         H            1.638396902482     0.213430496591    -1.713394595604     1.007825032230
         H            0.067199902482     6.253125496591    -1.714069595604     1.007825032230
         H           -2.334321097518     5.348492496591    -1.714065595604     1.007825032230
         N           -0.390986097518    -1.117132503409     1.536741404396    14.003074004430
         C           -1.222690097518    -2.212528503409     1.567935404396    12.000000000000
         N           -0.781160097518    -3.464923503409     1.572879404396    14.003074004430
         C            0.565948902482    -3.537002503409     1.544006404396    12.000000000000
         C            1.506055902482    -2.497115503409     1.511071404396    12.000000000000
         C            1.013774902482    -1.153736503409     1.506175404396    12.000000000000
         N            2.798797902482    -2.999863503409     1.488449404396    14.003074004430
         C            2.650115902482    -4.299835503409     1.506972404396    12.000000000000
         N            1.316281902482    -4.687061503409     1.540941404396    14.003074004430
         H           -0.809768097518    -0.168172503409     1.534851404396     1.007825032230
         N           -2.551077097518    -1.962944503409     1.594310404396    14.003074004430
         H           -2.938915097518    -1.014207503409     1.591739404396     1.007825032230
         H           -3.164861097518    -2.761200503409     1.617214404396     1.007825032230
         O            1.657441902482    -0.090619503409     1.479500404396    15.994914619570
         H            3.453629902482    -5.029341503409     1.497805404396     1.007825032230
         H            0.947926902482    -5.627576503409     1.560099404396     1.007825032230

  Running in c1 symmetry.

  Rotational constants: A =      0.02296  B =      0.00477  C =      0.00423 [cm^-1]
  Rotational constants: A =    688.39597  B =    142.88168  C =    126.83394 [MHz]
  Nuclear repulsion = 1550.246949177111674

  Charge       = 0
  Multiplicity = 1
  Electrons    = 148
  Nalpha       = 74
  Nbeta        = 74

  ==> Algorithm <==

  SCF Algorithm Type is DF.
  DIIS enabled.
  MOM disabled.
  Fractional occupation disabled.
  Guess Type is SAD.
  Energy threshold   = 1.00e-08
  Density threshold  = 1.00e-08
  Integral threshold = 1.00e-12

  ==> Primary Basis <==

  Basis Set: AUG-CC-PVTZ
    Blend: AUG-CC-PVTZ
    Number of shells: 384
    Number of basis functions: 1196
    Number of Cartesian functions: 1405
    Spherical Harmonics?: true
    Max angular momentum: 3

   => Loading Basis Set <=

    Name: (AUG-CC-PVTZ AUX)
    Role: JKFIT
    Keyword: DF_BASIS_SCF
    atoms 1, 3, 7, 9, 11, 16, 18, 22, 24, 26 entry N          line   224 file /opt/anaconda/envs/psi4v1.5/share/psi4/basis/aug-cc-pvtz-jkfit.gbs 
    atoms 2, 4-6, 8, 17, 19-21, 23           entry C          line   162 file /opt/anaconda/envs/psi4v1.5/share/psi4/basis/aug-cc-pvtz-jkfit.gbs 
    atoms 10, 12-15, 25, 27-28, 30-31        entry H          line    70 file /opt/anaconda/envs/psi4v1.5/share/psi4/basis/aug-cc-pvtz-jkfit.gbs 
    atoms 29                                 entry O          line   286 file /opt/anaconda/envs/psi4v1.5/share/psi4/basis/aug-cc-pvtz-jkfit.gbs 

  ==> Integral Setup <==

  ==> DiskDFJK: Density-Fitted J/K Matrices <==

    J tasked:                  Yes
    K tasked:                  Yes
    wK tasked:                  No
    OpenMP threads:              8
    Integrals threads:           8
    Memory [MiB]:            57220
    Algorithm:                Core
    Integral Cache:           SAVE
    Schwarz Cutoff:          1E-12
    Fitting Condition:       1E-10

   => Auxiliary Basis Set <=

  Basis Set: (AUG-CC-PVTZ AUX)
    Blend: AUG-CC-PVTZ-JKFIT
    Number of shells: 770
    Number of basis functions: 2644
    Number of Cartesian functions: 3301
    Spherical Harmonics?: true
    Max angular momentum: 4

  Minimum eigenvalue in the overlap matrix is 1.1023082287E-06.
  Reciprocal condition number of the overlap matrix is 5.9810861307E-08.
    Using symmetric orthogonalization.

  ==> Pre-Iterations <==

  SCF Guess: Superposition of Atomic Densities via on-the-fly atomic UHF (no occupation information).

   -------------------------
    Irrep   Nso     Nmo    
   -------------------------
     A       1196    1196 
   -------------------------
    Total    1196    1196
   -------------------------

  ==> Iterations <==

                           Total Energy        Delta E     RMS |[F,P]|

   @DF-RHF iter SAD: -1003.77957925301541   -1.00378e+03   0.00000e+00 
   @DF-RHF iter   1: -1003.72260589949258    5.69734e-02   8.69208e-04 DIIS
   @DF-RHF iter   2: -1004.13355553590463   -4.10950e-01   4.84257e-04 DIIS
   @DF-RHF iter   3: -1004.25788814151838   -1.24333e-01   1.09637e-04 DIIS
   @DF-RHF iter   4: -1004.26675071952945   -8.86258e-03   4.66517e-05 DIIS
   @DF-RHF iter   5: -1004.26845377718712   -1.70306e-03   9.32559e-06 DIIS
   @DF-RHF iter   6: -1004.26860891259366   -1.55135e-04   4.75227e-06 DIIS
   @DF-RHF iter   7: -1004.26865291647698   -4.40039e-05   2.00624e-06 DIIS
   @DF-RHF iter   8: -1004.26866209188029   -9.17540e-06   7.40353e-07 DIIS
   @DF-RHF iter   9: -1004.26866330554935   -1.21367e-06   3.33869e-07 DIIS
   @DF-RHF iter  10: -1004.26866355250036   -2.46951e-07   1.31631e-07 DIIS
   @DF-RHF iter  11: -1004.26866359878647   -4.62861e-08   5.90427e-08 DIIS
   @DF-RHF iter  12: -1004.26866360715428   -8.36781e-09   2.31586e-08 DIIS
   @DF-RHF iter  13: -1004.26866360849090   -1.33662e-09   8.89458e-09 DIIS
  Energy and wave function converged.


  ==> Post-Iterations <==

    Orbital Energies [Eh]
    ---------------------

    Doubly Occupied:                                                      

       1A    -20.508169     2A    -15.629689     3A    -15.629373  
       4A    -15.626360     5A    -15.615652     6A    -15.577967  
       7A    -15.567015     8A    -15.562273     9A    -15.559946  
      10A    -15.556973    11A    -15.547402    12A    -11.399993  
      13A    -11.357234    14A    -11.336692    15A    -11.323221  
      16A    -11.321902    17A    -11.316444    18A    -11.312814  
      19A    -11.308002    20A    -11.250955    21A    -11.241228  
      22A     -1.382593    23A     -1.361820    24A     -1.346307  
      25A     -1.327836    26A     -1.292917    27A     -1.241701  
      28A     -1.220925    29A     -1.212112    30A     -1.181852  
      31A     -1.170003    32A     -1.144824    33A     -1.029702  
      34A     -1.024396    35A     -0.900167    36A     -0.890503  
      37A     -0.888119    38A     -0.872083    39A     -0.840256  
      40A     -0.834028    41A     -0.799102    42A     -0.773870  
      43A     -0.738868    44A     -0.735335    45A     -0.733672  
      46A     -0.704593    47A     -0.692555    48A     -0.671718  
      49A     -0.666612    50A     -0.653116    51A     -0.633781  
      52A     -0.632424    53A     -0.630921    54A     -0.607574  
      55A     -0.601858    56A     -0.594551    57A     -0.593311  
      58A     -0.591838    59A     -0.553609    60A     -0.539888  
      61A     -0.494941    62A     -0.493215    63A     -0.490631  
      64A     -0.450725    65A     -0.446749    66A     -0.432427  
      67A     -0.424930    68A     -0.421419    69A     -0.418268  
      70A     -0.406077    71A     -0.404095    72A     -0.368912  
      73A     -0.304954    74A     -0.292124  

    Virtual:                                                              

      75A      0.018445    76A      0.022888    77A      0.025361  
      78A      0.038400    79A      0.039510    80A      0.042185  
      81A      0.048118    82A      0.052354    83A      0.060232  
      84A      0.063160    85A      0.069476    86A      0.076896  
      87A      0.084498    88A      0.088215    89A      0.090943  
      90A      0.092385    91A      0.094232    92A      0.096927  
      93A      0.100882    94A      0.106141    95A      0.107568  
      96A      0.109512    97A      0.113003    98A      0.116352  
      99A      0.117976   100A      0.120311   101A      0.122948  
     102A      0.126514   103A      0.128295   104A      0.129304  
     105A      0.132100   106A      0.133640   107A      0.135441  
     108A      0.138047   109A      0.143214   110A      0.144936  
     111A      0.147440   112A      0.149668   113A      0.151869  
     114A      0.154688   115A      0.157330   116A      0.158023  
     117A      0.161122   118A      0.169064   119A      0.173607  
     120A      0.176527   121A      0.179556   122A      0.183525  
     123A      0.187833   124A      0.189907   125A      0.192456  
     126A      0.195003   127A      0.196452   128A      0.200156  
     129A      0.204831   130A      0.205463   131A      0.208780  
     132A      0.212453   133A      0.215488   134A      0.219747  
     135A      0.219864   136A      0.222043   137A      0.226537  
     138A      0.227492   139A      0.231587   140A      0.233813  
     141A      0.235357   142A      0.237148   143A      0.239979  
     144A      0.245346   145A      0.249113   146A      0.251691  
     147A      0.253225   148A      0.255778   149A      0.260900  
     150A      0.262215   151A      0.266125   152A      0.269812  
     153A      0.271799   154A      0.273658   155A      0.275226  
     156A      0.278771   157A      0.285133   158A      0.290084  
     159A      0.293721   160A      0.299812   161A      0.301432  
     162A      0.303287   163A      0.305694   164A      0.310535  
     165A      0.310724   166A      0.317439   167A      0.321671  
     168A      0.322524   169A      0.327247   170A      0.333155  
     171A      0.333835   172A      0.338393   173A      0.341994  
     174A      0.343092   175A      0.344713   176A      0.348464  
     177A      0.351132   178A      0.353559   179A      0.356802  
     180A      0.357985   181A      0.360926   182A      0.366447  
     183A      0.368262   184A      0.372854   185A      0.374547  
     186A      0.377845   187A      0.381205   188A      0.381642  
     189A      0.388414   190A      0.390058   191A      0.391227  
     192A      0.392635   193A      0.394732   194A      0.398790  
     195A      0.402511   196A      0.404506   197A      0.410747  
     198A      0.411374   199A      0.419239   200A      0.421814  
     201A      0.425511   202A      0.427732   203A      0.430509  
     204A      0.431628   205A      0.436691   206A      0.439350  
     207A      0.442389   208A      0.446293   209A      0.448820  
     210A      0.451806   211A      0.454278   212A      0.457001  
     213A      0.460633   214A      0.461258   215A      0.464799  
     216A      0.469541   217A      0.469859   218A      0.473705  
     219A      0.474836   220A      0.476098   221A      0.477750  
     222A      0.483524   223A      0.484340   224A      0.488419  
     225A      0.495170   226A      0.496385   227A      0.498887  
     228A      0.504191   229A      0.504551   230A      0.509956  
     231A      0.511428   232A      0.511925   233A      0.514816  
     234A      0.516322   235A      0.522369   236A      0.524759  
     237A      0.527302   238A      0.530557   239A      0.533683  
     240A      0.535879   241A      0.537714   242A      0.543966  
     243A      0.544735   244A      0.547180   245A      0.552227  
     246A      0.555299   247A      0.556797   248A      0.558010  
     249A      0.565003   250A      0.566873   251A      0.572223  
     252A      0.573609   253A      0.578871   254A      0.584611  
     255A      0.586321   256A      0.589267   257A      0.592074  
     258A      0.596644   259A      0.598693   260A      0.603750  
     261A      0.604762   262A      0.612404   263A      0.617840  
     264A      0.620513   265A      0.625725   266A      0.626374  
     267A      0.627105   268A      0.634631   269A      0.636449  
     270A      0.641295   271A      0.647382   272A      0.652792  
     273A      0.654486   274A      0.661248   275A      0.664998  
     276A      0.668731   277A      0.669054   278A      0.675067  
     279A      0.675672   280A      0.681127   281A      0.683357  
     282A      0.685283   283A      0.691939   284A      0.695038  
     285A      0.698347   286A      0.701491   287A      0.705874  
     288A      0.707948   289A      0.710289   290A      0.715281  
     291A      0.717050   292A      0.721934   293A      0.723774  
     294A      0.728699   295A      0.731418   296A      0.735209  
     297A      0.742520   298A      0.744862   299A      0.745525  
     300A      0.753302   301A      0.755164   302A      0.761796  
     303A      0.765509   304A      0.766759   305A      0.769554  
     306A      0.772205   307A      0.778718   308A      0.779838  
     309A      0.781246   310A      0.784329   311A      0.786466  
     312A      0.789853   313A      0.795593   314A      0.799389  
     315A      0.806140   316A      0.809732   317A      0.814113  
     318A      0.818145   319A      0.822094   320A      0.824817  
     321A      0.828945   322A      0.832275   323A      0.834207  
     324A      0.842131   325A      0.844026   326A      0.847279  
     327A      0.850451   328A      0.855846   329A      0.857148  
     330A      0.865640   331A      0.867962   332A      0.870316  
     333A      0.880017   334A      0.884949   335A      0.885607  
     336A      0.888769   337A      0.890372   338A      0.893031  
     339A      0.896206   340A      0.901482   341A      0.907796  
     342A      0.909986   343A      0.912902   344A      0.915436  
     345A      0.918942   346A      0.919229   347A      0.925505  
     348A      0.930356   349A      0.937421   350A      0.939395  
     351A      0.940690   352A      0.943626   353A      0.950635  
     354A      0.954314   355A      0.956145   356A      0.962081  
     357A      0.965987   358A      0.968599   359A      0.972745  
     360A      0.979595   361A      0.981763   362A      0.982402  
     363A      0.989295   364A      0.991084   365A      0.996863  
     366A      0.999672   367A      1.003581   368A      1.006815  
     369A      1.009596   370A      1.017631   371A      1.019349  
     372A      1.021219   373A      1.023923   374A      1.030600  
     375A      1.033539   376A      1.035848   377A      1.037378  
     378A      1.043737   379A      1.046579   380A      1.048446  
     381A      1.050426   382A      1.058618   383A      1.061749  
     384A      1.065080   385A      1.067780   386A      1.069425  
     387A      1.072944   388A      1.077141   389A      1.079813  
     390A      1.087001   391A      1.087753   392A      1.089458  
     393A      1.095845   394A      1.096145   395A      1.099320  
     396A      1.104507   397A      1.107302   398A      1.110146  
     399A      1.112424   400A      1.116766   401A      1.120892  
     402A      1.127081   403A      1.129540   404A      1.131770  
     405A      1.139805   406A      1.140574   407A      1.144555  
     408A      1.149472   409A      1.154433   410A      1.156227  
     411A      1.157494   412A      1.168198   413A      1.173383  
     414A      1.176597   415A      1.177541   416A      1.183646  
     417A      1.186566   418A      1.189570   419A      1.191594  
     420A      1.196020   421A      1.199033   422A      1.204029  
     423A      1.210825   424A      1.213528   425A      1.216985  
     426A      1.220620   427A      1.221588   428A      1.228670  
     429A      1.232174   430A      1.235767   431A      1.241128  
     432A      1.242834   433A      1.247798   434A      1.251342  
     435A      1.256934   436A      1.259961   437A      1.270151  
     438A      1.275928   439A      1.277111   440A      1.280200  
     441A      1.282417   442A      1.286636   443A      1.291240  
     444A      1.295055   445A      1.299595   446A      1.303561  
     447A      1.307082   448A      1.311702   449A      1.316451  
     450A      1.321074   451A      1.324316   452A      1.327503  
     453A      1.334937   454A      1.335931   455A      1.337918  
     456A      1.342409   457A      1.344350   458A      1.352632  
     459A      1.357765   460A      1.361187   461A      1.362709  
     462A      1.366440   463A      1.371967   464A      1.374140  
     465A      1.379973   466A      1.381694   467A      1.382410  
     468A      1.388232   469A      1.395714   470A      1.400981  
     471A      1.408046   472A      1.408740   473A      1.409936  
     474A      1.416365   475A      1.424033   476A      1.427291  
     477A      1.432130   478A      1.434644   479A      1.439359  
     480A      1.445295   481A      1.450090   482A      1.452016  
     483A      1.454687   484A      1.466731   485A      1.468809  
     486A      1.473398   487A      1.478648   488A      1.482248  
     489A      1.488362   490A      1.490574   491A      1.499619  
     492A      1.502531   493A      1.506363   494A      1.507281  
     495A      1.511958   496A      1.514170   497A      1.519422  
     498A      1.525396   499A      1.531630   500A      1.536970  
     501A      1.542701   502A      1.548035   503A      1.550051  
     504A      1.556313   505A      1.557178   506A      1.560354  
     507A      1.563399   508A      1.568173   509A      1.574959  
     510A      1.579855   511A      1.585221   512A      1.592618  
     513A      1.597286   514A      1.601159   515A      1.604399  
     516A      1.606589   517A      1.608786   518A      1.616824  
     519A      1.623290   520A      1.629219   521A      1.638603  
     522A      1.646028   523A      1.654495   524A      1.664202  
     525A      1.665306   526A      1.666422   527A      1.668420  
     528A      1.675441   529A      1.682130   530A      1.682890  
     531A      1.690626   532A      1.694922   533A      1.697336  
     534A      1.705527   535A      1.709067   536A      1.715098  
     537A      1.719273   538A      1.725442   539A      1.730528  
     540A      1.733037   541A      1.737673   542A      1.740402  
     543A      1.749442   544A      1.752939   545A      1.757294  
     546A      1.764757   547A      1.768506   548A      1.771995  
     549A      1.772696   550A      1.783964   551A      1.796448  
     552A      1.803470   553A      1.804282   554A      1.804590  
     555A      1.812200   556A      1.814871   557A      1.820194  
     558A      1.827163   559A      1.831968   560A      1.836742  
     561A      1.847519   562A      1.853954   563A      1.856601  
     564A      1.865738   565A      1.872335   566A      1.876348  
     567A      1.883048   568A      1.887068   569A      1.894601  
     570A      1.905891   571A      1.907974   572A      1.911922  
     573A      1.920635   574A      1.929908   575A      1.934016  
     576A      1.948049   577A      1.952162   578A      1.958207  
     579A      1.966806   580A      1.968076   581A      1.976229  
     582A      1.982942   583A      1.990121   584A      1.997091  
     585A      2.003231   586A      2.006919   587A      2.014845  
     588A      2.021194   589A      2.029214   590A      2.032556  
     591A      2.038012   592A      2.047810   593A      2.058734  
     594A      2.064408   595A      2.069732   596A      2.077442  
     597A      2.083010   598A      2.087071   599A      2.091553  
     600A      2.099404   601A      2.103159   602A      2.104606  
     603A      2.108339   604A      2.112010   605A      2.119907  
     606A      2.127109   607A      2.133222   608A      2.138460  
     609A      2.141710   610A      2.152972   611A      2.157390  
     612A      2.164298   613A      2.170865   614A      2.174074  
     615A      2.177839   616A      2.179195   617A      2.185213  
     618A      2.196135   619A      2.199074   620A      2.208184  
     621A      2.210243   622A      2.219970   623A      2.227476  
     624A      2.230677   625A      2.234352   626A      2.238907  
     627A      2.245219   628A      2.254143   629A      2.257929  
     630A      2.266655   631A      2.270235   632A      2.275131  
     633A      2.285481   634A      2.288836   635A      2.297146  
     636A      2.301772   637A      2.312863   638A      2.316301  
     639A      2.322610   640A      2.325245   641A      2.329121  
     642A      2.335334   643A      2.341087   644A      2.343464  
     645A      2.350473   646A      2.352434   647A      2.361486  
     648A      2.371244   649A      2.374937   650A      2.377307  
     651A      2.380789   652A      2.388314   653A      2.393416  
     654A      2.406266   655A      2.407066   656A      2.409314  
     657A      2.416623   658A      2.425187   659A      2.428112  
     660A      2.431169   661A      2.432201   662A      2.437418  
     663A      2.444110   664A      2.447312   665A      2.463712  
     666A      2.466502   667A      2.471468   668A      2.471959  
     669A      2.475086   670A      2.476092   671A      2.490353  
     672A      2.495161   673A      2.500446   674A      2.513146  
     675A      2.515315   676A      2.520485   677A      2.528323  
     678A      2.531449   679A      2.542787   680A      2.543703  
     681A      2.554795   682A      2.569888   683A      2.577904  
     684A      2.581539   685A      2.591059   686A      2.599186  
     687A      2.603585   688A      2.607844   689A      2.616275  
     690A      2.618063   691A      2.624638   692A      2.628713  
     693A      2.639399   694A      2.650379   695A      2.657497  
     696A      2.661908   697A      2.666749   698A      2.676244  
     699A      2.680590   700A      2.683279   701A      2.686606  
     702A      2.699175   703A      2.703131   704A      2.706540  
     705A      2.722657   706A      2.727146   707A      2.730999  
     708A      2.740390   709A      2.749843   710A      2.759607  
     711A      2.766050   712A      2.767636   713A      2.770233  
     714A      2.783259   715A      2.791055   716A      2.802412  
     717A      2.808630   718A      2.816612   719A      2.831603  
     720A      2.836192   721A      2.837637   722A      2.854639  
     723A      2.855034   724A      2.867052   725A      2.872366  
     726A      2.885593   727A      2.887131   728A      2.896317  
     729A      2.910482   730A      2.913911   731A      2.923616  
     732A      2.938785   733A      2.948567   734A      2.951755  
     735A      2.979253   736A      2.993058   737A      3.008477  
     738A      3.027841   739A      3.037944   740A      3.050745  
     741A      3.054705   742A      3.069658   743A      3.082734  
     744A      3.100994   745A      3.108902   746A      3.111211  
     747A      3.131977   748A      3.134799   749A      3.148397  
     750A      3.157671   751A      3.161362   752A      3.175759  
     753A      3.188299   754A      3.205740   755A      3.227792  
     756A      3.234137   757A      3.238657   758A      3.249827  
     759A      3.257767   760A      3.266007   761A      3.274337  
     762A      3.296974   763A      3.302075   764A      3.328142  
     765A      3.339580   766A      3.358058   767A      3.366887  
     768A      3.378375   769A      3.380744   770A      3.404447  
     771A      3.415381   772A      3.425177   773A      3.428636  
     774A      3.433327   775A      3.441787   776A      3.450620  
     777A      3.467152   778A      3.474623   779A      3.500947  
     780A      3.509130   781A      3.518764   782A      3.524611  
     783A      3.533981   784A      3.535925   785A      3.547035  
     786A      3.551229   787A      3.564543   788A      3.575780  
     789A      3.581994   790A      3.586797   791A      3.598446  
     792A      3.604036   793A      3.611542   794A      3.624033  
     795A      3.626315   796A      3.633996   797A      3.638149  
     798A      3.644069   799A      3.649430   800A      3.652226  
     801A      3.666004   802A      3.669030   803A      3.675087  
     804A      3.698924   805A      3.702993   806A      3.717099  
     807A      3.718734   808A      3.722918   809A      3.732738  
     810A      3.737401   811A      3.740771   812A      3.752183  
     813A      3.763088   814A      3.769368   815A      3.774417  
     816A      3.783210   817A      3.788215   818A      3.799779  
     819A      3.804220   820A      3.810971   821A      3.818671  
     822A      3.825609   823A      3.832861   824A      3.849300  
     825A      3.852327   826A      3.857116   827A      3.862459  
     828A      3.871127   829A      3.880004   830A      3.894553  
     831A      3.897341   832A      3.907898   833A      3.914574  
     834A      3.918220   835A      3.926250   836A      3.926813  
     837A      3.938818   838A      3.942459   839A      3.956040  
     840A      3.959441   841A      3.961966   842A      3.975406  
     843A      3.981282   844A      3.987865   845A      3.995174  
     846A      4.001035   847A      4.012085   848A      4.029295  
     849A      4.030861   850A      4.034995   851A      4.044442  
     852A      4.055252   853A      4.056974   854A      4.070654  
     855A      4.074951   856A      4.078798   857A      4.093057  
     858A      4.099257   859A      4.108735   860A      4.110769  
     861A      4.118504   862A      4.121716   863A      4.126170  
     864A      4.130395   865A      4.141713   866A      4.150093  
     867A      4.158097   868A      4.166226   869A      4.171117  
     870A      4.172752   871A      4.180896   872A      4.184700  
     873A      4.193050   874A      4.195777   875A      4.204140  
     876A      4.213363   877A      4.222567   878A      4.224696  
     879A      4.229915   880A      4.238429   881A      4.246679  
     882A      4.247140   883A      4.251498   884A      4.253917  
     885A      4.258344   886A      4.260433   887A      4.268279  
     888A      4.272365   889A      4.289636   890A      4.294866  
     891A      4.296026   892A      4.297844   893A      4.308677  
     894A      4.316892   895A      4.327899   896A      4.329737  
     897A      4.332567   898A      4.337548   899A      4.341091  
     900A      4.348082   901A      4.357972   902A      4.366651  
     903A      4.367487   904A      4.372368   905A      4.381109  
     906A      4.390002   907A      4.399123   908A      4.401003  
     909A      4.410084   910A      4.421559   911A      4.429159  
     912A      4.435959   913A      4.445761   914A      4.452395  
     915A      4.456660   916A      4.470382   917A      4.481478  
     918A      4.493296   919A      4.496251   920A      4.500472  
     921A      4.506079   922A      4.514506   923A      4.519538  
     924A      4.534468   925A      4.539001   926A      4.551281  
     927A      4.560303   928A      4.562788   929A      4.571595  
     930A      4.579073   931A      4.595089   932A      4.608176  
     933A      4.614871   934A      4.616554   935A      4.627296  
     936A      4.644020   937A      4.649617   938A      4.658664  
     939A      4.661330   940A      4.666350   941A      4.672398  
     942A      4.690607   943A      4.692017   944A      4.705236  
     945A      4.727189   946A      4.729392   947A      4.737849  
     948A      4.748740   949A      4.786434   950A      4.792314  
     951A      4.794085   952A      4.801094   953A      4.807826  
     954A      4.817008   955A      4.818187   956A      4.821294  
     957A      4.829009   958A      4.837027   959A      4.843357  
     960A      4.873261   961A      4.877049   962A      4.880317  
     963A      4.893871   964A      4.904160   965A      4.909382  
     966A      4.921362   967A      4.927494   968A      4.930764  
     969A      4.937251   970A      4.960284   971A      4.967813  
     972A      4.977000   973A      4.999429   974A      5.009937  
     975A      5.020945   976A      5.024046   977A      5.036001  
     978A      5.052069   979A      5.055593   980A      5.058119  
     981A      5.082506   982A      5.099476   983A      5.101073  
     984A      5.108300   985A      5.116438   986A      5.135977  
     987A      5.146693   988A      5.153977   989A      5.166537  
     990A      5.169215   991A      5.185980   992A      5.196214  
     993A      5.210210   994A      5.217692   995A      5.224101  
     996A      5.226023   997A      5.238051   998A      5.256542  
     999A      5.266751  1000A      5.289847  1001A      5.290094  
    1002A      5.299173  1003A      5.306904  1004A      5.322322  
    1005A      5.331440  1006A      5.344710  1007A      5.358135  
    1008A      5.361505  1009A      5.375344  1010A      5.378277  
    1011A      5.390505  1012A      5.402242  1013A      5.427003  
    1014A      5.429328  1015A      5.434970  1016A      5.441668  
    1017A      5.470699  1018A      5.475347  1019A      5.488924  
    1020A      5.491652  1021A      5.502723  1022A      5.512226  
    1023A      5.523030  1024A      5.524938  1025A      5.529158  
    1026A      5.538618  1027A      5.547006  1028A      5.551727  
    1029A      5.554043  1030A      5.570448  1031A      5.573096  
    1032A      5.578691  1033A      5.588669  1034A      5.594753  
    1035A      5.605517  1036A      5.607628  1037A      5.614759  
    1038A      5.621237  1039A      5.628398  1040A      5.646044  
    1041A      5.647800  1042A      5.648743  1043A      5.655214  
    1044A      5.665285  1045A      5.674124  1046A      5.674440  
    1047A      5.693114  1048A      5.696052  1049A      5.700235  
    1050A      5.702156  1051A      5.710137  1052A      5.718704  
    1053A      5.722809  1054A      5.728731  1055A      5.754324  
    1056A      5.757810  1057A      5.762913  1058A      5.768261  
    1059A      5.781847  1060A      5.803842  1061A      5.806890  
    1062A      5.817196  1063A      5.823305  1064A      5.830214  
    1065A      5.835778  1066A      5.846998  1067A      5.852009  
    1068A      5.874933  1069A      5.884113  1070A      5.896923  
    1071A      5.909360  1072A      5.914936  1073A      5.927582  
    1074A      5.936765  1075A      5.938794  1076A      5.940770  
    1077A      5.949227  1078A      5.951290  1079A      5.974924  
    1080A      5.994174  1081A      6.000574  1082A      6.006400  
    1083A      6.024116  1084A      6.043566  1085A      6.069286  
    1086A      6.072512  1087A      6.084485  1088A      6.098972  
    1089A      6.102699  1090A      6.110387  1091A      6.118494  
    1092A      6.144382  1093A      6.148248  1094A      6.156754  
    1095A      6.164488  1096A      6.176013  1097A      6.190997  
    1098A      6.207078  1099A      6.222849  1100A      6.225143  
    1101A      6.226605  1102A      6.233531  1103A      6.246293  
    1104A      6.273612  1105A      6.281940  1106A      6.287008  
    1107A      6.313456  1108A      6.346914  1109A      6.350958  
    1110A      6.391985  1111A      6.431559  1112A      6.459212  
    1113A      6.488649  1114A      6.490928  1115A      6.511495  
    1116A      6.534155  1117A      6.551060  1118A      6.559634  
    1119A      6.586405  1120A      6.596535  1121A      6.616210  
    1122A      6.617559  1123A      6.639372  1124A      6.666519  
    1125A      6.697106  1126A      6.700486  1127A      6.727934  
    1128A      6.738198  1129A      6.759790  1130A      6.763173  
    1131A      6.766894  1132A      6.798897  1133A      6.807992  
    1134A      6.817957  1135A      6.826540  1136A      6.844522  
    1137A      6.881785  1138A      6.896799  1139A      6.927667  
    1140A      7.000177  1141A      7.012512  1142A      7.014785  
    1143A      7.027304  1144A      7.038935  1145A      7.047470  
    1146A      7.053638  1147A      7.085281  1148A      7.090436  
    1149A      7.114211  1150A      7.119607  1151A      7.197298  
    1152A      7.246560  1153A      7.247225  1154A      7.257653  
    1155A      7.290207  1156A      7.407231  1157A      7.426841  
    1158A      7.441083  1159A      7.452814  1160A      7.478446  
    1161A      7.488841  1162A      7.500362  1163A      7.546820  
    1164A      7.604164  1165A      7.661877  1166A      7.672736  
    1167A      7.765979  1168A      7.815952  1169A      7.849696  
    1170A      7.861640  1171A      7.865086  1172A      7.890625  
    1173A      7.982743  1174A      7.998265  1175A      8.089469  
    1176A     16.010324  1177A     16.138280  1178A     16.300079  
    1179A     16.342537  1180A     16.346064  1181A     16.592024  
    1182A     16.837918  1183A     17.669817  1184A     17.786505  
    1185A     18.068363  1186A     18.215249  1187A     19.023908  
    1188A     19.125705  1189A     19.236082  1190A     19.347724  
    1191A     19.439670  1192A     20.034980  1193A     20.372668  
    1194A     20.738469  1195A     21.004637  1196A     21.198213  

    Final Occupation by Irrep:
              A 
    DOCC [    74 ]

  @DF-RHF Final Energy: -1004.26866360849090

   => Energetics <=

    Nuclear Repulsion Energy =           1550.2469491771116736
    One-Electron Energy =               -4449.6109921787938219
    Two-Electron Energy =                1895.0953793931912514
    Total Energy =                      -1004.2686636084908969

Computation Completed


Properties will be evaluated at   0.000000,   0.000000,   0.000000 [a0]

Properties computed using the SCF density matrix

  Nuclear Dipole Moment: [e a0]
     X:    -3.5356      Y:    -0.3788      Z:    -0.7095

  Electronic Dipole Moment: [e a0]
     X:     1.3589      Y:    -0.1117      Z:     0.7762

  Dipole Moment: [e a0]
     X:    -2.1767      Y:    -0.4906      Z:     0.0667     Total:     2.2323

  Dipole Moment: [D]
     X:    -5.5326      Y:    -1.2469      Z:     0.1695     Total:     5.6739


*** tstop() called on node165.bme.utexas.edu at Mon Jan 22 15:27:09 2024
Module time:
	user time   =     992.56 seconds =      16.54 minutes
	system time =      61.22 seconds =       1.02 minutes
	total time  =        150 seconds =       2.50 minutes
Total time:
	user time   =     992.56 seconds =      16.54 minutes
	system time =      61.22 seconds =       1.02 minutes
	total time  =        150 seconds =       2.50 minutes

*** tstart() called on node165.bme.utexas.edu
*** at Mon Jan 22 15:27:09 2024


  //>>>>>>>>>>>>>>>>>>>>>>>>>>>>>>>>>>>//
  //               DFMP2               //
  //<<<<<<<<<<<<<<<<<<<<<<<<<<<<<<<<<<<//

   => Loading Basis Set <=

    Name: (AUG-CC-PVTZ AUX)
    Role: RIFIT
    Keyword: DF_BASIS_MP2
    atoms 1, 3, 7, 9, 11, 16, 18, 22, 24, 26 entry N          line   206 file /opt/anaconda/envs/psi4v1.5/share/psi4/basis/aug-cc-pvtz-ri.gbs 
    atoms 2, 4-6, 8, 17, 19-21, 23           entry C          line   148 file /opt/anaconda/envs/psi4v1.5/share/psi4/basis/aug-cc-pvtz-ri.gbs 
    atoms 10, 12-15, 25, 27-28, 30-31        entry H          line    30 file /opt/anaconda/envs/psi4v1.5/share/psi4/basis/aug-cc-pvtz-ri.gbs 
    atoms 29                                 entry O          line   264 file /opt/anaconda/envs/psi4v1.5/share/psi4/basis/aug-cc-pvtz-ri.gbs 

	 --------------------------------------------------------
	                          DF-MP2                         
	      2nd-Order Density-Fitted Moller-Plesset Theory     
	              RMP2 Wavefunction,   8 Threads             
	                                                         
	        Rob Parrish, Justin Turney, Andy Simmonett,      
	           Ed Hohenstein, and C. David Sherrill          
	 --------------------------------------------------------

   => Auxiliary Basis Set <=

  Basis Set: (AUG-CC-PVTZ AUX)
    Blend: AUG-CC-PVTZ-RI
    Number of shells: 728
    Number of basis functions: 2686
    Number of Cartesian functions: 3406
    Spherical Harmonics?: true
    Max angular momentum: 4

	 --------------------------------------------------------
	                 NBF =  1196, NAUX =  2686
	 --------------------------------------------------------
	   CLASS    FOCC     OCC    AOCC    AVIR     VIR    FVIR
	   PAIRS      21      74      53    1122    1122       0
	 --------------------------------------------------------

	 Will save fitting metric to file 97.

	-----------------------------------------------------------
	 ==================> DF-MP2 Energies <==================== 
	-----------------------------------------------------------
	 Reference Energy          =   -1004.2686636084908969 [Eh]
	 Singles Energy            =      -0.0000000000000000 [Eh]
	 Same-Spin Energy          =      -1.0223559501551343 [Eh]
	 Opposite-Spin Energy      =      -2.8224696677189041 [Eh]
	 Correlation Energy        =      -3.8448256178740383 [Eh]
	 Total Energy              =   -1008.1134892263648908 [Eh]
	-----------------------------------------------------------
	 ================> DF-SCS-MP2 Energies <================== 
	-----------------------------------------------------------
	 SCS Same-Spin Scale       =       0.3333333333333333 [-]
	 SCS Opposite-Spin Scale   =       1.2000000000000000 [-]
	 SCS Same-Spin Energy      =      -0.3407853167183781 [Eh]
	 SCS Opposite-Spin Energy  =      -3.3869636012626847 [Eh]
	 SCS Correlation Energy    =      -3.7277489179810628 [Eh]
	 SCS Total Energy          =   -1007.9964125264719996 [Eh]
	-----------------------------------------------------------


*** tstop() called on node165.bme.utexas.edu at Mon Jan 22 15:28:01 2024
Module time:
	user time   =     278.47 seconds =       4.64 minutes
	system time =      10.43 seconds =       0.17 minutes
	total time  =         52 seconds =       0.87 minutes
Total time:
	user time   =    1271.03 seconds =      21.18 minutes
	system time =      71.65 seconds =       1.19 minutes
	total time  =        202 seconds =       3.37 minutes

  //>>>>>>>>>>>>>>>>>>>>>>>>>>>>>>>>>>>//
  //            Monomer A HF           //
  //<<<<<<<<<<<<<<<<<<<<<<<<<<<<<<<<<<<//


*** tstart() called on node165.bme.utexas.edu
*** at Mon Jan 22 15:28:01 2024

   => Loading Basis Set <=

    Name: AUG-CC-PVTZ
    Role: ORBITAL
    Keyword: BASIS
    atoms 1, 3, 7, 9, 11, 16, 18, 22, 24, 26 entry N          line   285 file /opt/anaconda/envs/psi4v1.5/share/psi4/basis/aug-cc-pvtz.gbs 
    atoms 2, 4-6, 8, 17, 19-21, 23           entry C          line   239 file /opt/anaconda/envs/psi4v1.5/share/psi4/basis/aug-cc-pvtz.gbs 
    atoms 10, 12-15, 25, 27-28, 30-31        entry H          line    40 file /opt/anaconda/envs/psi4v1.5/share/psi4/basis/aug-cc-pvtz.gbs 
    atoms 29                                 entry O          line   331 file /opt/anaconda/envs/psi4v1.5/share/psi4/basis/aug-cc-pvtz.gbs 


         ---------------------------------------------------------
                                   SCF
               by Justin Turney, Rob Parrish, Andy Simmonett
                          and Daniel G. A. Smith
                              RHF Reference
                        8 Threads,  76293 MiB Core
         ---------------------------------------------------------

  ==> Geometry <==

    Molecular point group: c1
    Full point group: C1

    Geometry (in Angstrom), charge = 0, multiplicity = 1:

       Center              X                  Y                   Z               Mass       
    ------------   -----------------  -----------------  -----------------  -----------------
         N           -0.833614097518     0.819635496591    -1.713596595604    14.003074004430
         C           -2.102686097518     1.275007496591    -1.713639595604    12.000000000000
         N           -2.516215097518     2.542891496591    -1.713777595604    14.003074004430
         C           -1.478320097518     3.395988496591    -1.713841595604    12.000000000000
         C           -0.116877097518     3.070880496591    -1.713767595604    12.000000000000
         C            0.199758902482     1.692241496591    -1.713644595604    12.000000000000
         N            0.673796902482     4.208018496591    -1.713855595604    14.003074004430
         C           -0.188344097518     5.198184496591    -1.713975595604    12.000000000000
         N           -1.503858097518     4.772955496591    -1.713975595604    14.003074004430
         H           -2.866563097518     0.495652496591    -1.713579595604     1.007825032230
         N            1.458924902482     1.222377496591    -1.713576595604    14.003074004430
         H            2.220108902482     1.884121496591    -1.713578595604     1.007825032230
         H            1.638396902482     0.213430496591    -1.713394595604     1.007825032230
         H            0.067199902482     6.253125496591    -1.714069595604     1.007825032230
         H           -2.334321097518     5.348492496591    -1.714065595604     1.007825032230
      Gh(N)          -0.390986097518    -1.117132503409     1.536741404396    14.003074004430
      Gh(C)          -1.222690097518    -2.212528503409     1.567935404396    12.000000000000
      Gh(N)          -0.781160097518    -3.464923503409     1.572879404396    14.003074004430
      Gh(C)           0.565948902482    -3.537002503409     1.544006404396    12.000000000000
      Gh(C)           1.506055902482    -2.497115503409     1.511071404396    12.000000000000
      Gh(C)           1.013774902482    -1.153736503409     1.506175404396    12.000000000000
      Gh(N)           2.798797902482    -2.999863503409     1.488449404396    14.003074004430
      Gh(C)           2.650115902482    -4.299835503409     1.506972404396    12.000000000000
      Gh(N)           1.316281902482    -4.687061503409     1.540941404396    14.003074004430
      Gh(H)          -0.809768097518    -0.168172503409     1.534851404396     1.007825032230
      Gh(N)          -2.551077097518    -1.962944503409     1.594310404396    14.003074004430
      Gh(H)          -2.938915097518    -1.014207503409     1.591739404396     1.007825032230
      Gh(H)          -3.164861097518    -2.761200503409     1.617214404396     1.007825032230
      Gh(O)           1.657441902482    -0.090619503409     1.479500404396    15.994914619570
      Gh(H)           3.453629902482    -5.029341503409     1.497805404396     1.007825032230
      Gh(H)           0.947926902482    -5.627576503409     1.560099404396     1.007825032230

  Running in c1 symmetry.

  Rotational constants: A =      0.02296  B =      0.00477  C =      0.00423 [cm^-1]
  Rotational constants: A =    688.39597  B =    142.88168  C =    126.83394 [MHz]
  Nuclear repulsion =  501.306590497387219

  Charge       = 0
  Multiplicity = 1
  Electrons    = 70
  Nalpha       = 35
  Nbeta        = 35

  ==> Algorithm <==

  SCF Algorithm Type is DF.
  DIIS enabled.
  MOM disabled.
  Fractional occupation disabled.
  Guess Type is SAD.
  Energy threshold   = 1.00e-08
  Density threshold  = 1.00e-08
  Integral threshold = 1.00e-12

  ==> Primary Basis <==

  Basis Set: AUG-CC-PVTZ
    Blend: AUG-CC-PVTZ
    Number of shells: 384
    Number of basis functions: 1196
    Number of Cartesian functions: 1405
    Spherical Harmonics?: true
    Max angular momentum: 3

   => Loading Basis Set <=

    Name: (AUG-CC-PVTZ AUX)
    Role: JKFIT
    Keyword: DF_BASIS_SCF
    atoms 1, 3, 7, 9, 11, 16, 18, 22, 24, 26 entry N          line   224 file /opt/anaconda/envs/psi4v1.5/share/psi4/basis/aug-cc-pvtz-jkfit.gbs 
    atoms 2, 4-6, 8, 17, 19-21, 23           entry C          line   162 file /opt/anaconda/envs/psi4v1.5/share/psi4/basis/aug-cc-pvtz-jkfit.gbs 
    atoms 10, 12-15, 25, 27-28, 30-31        entry H          line    70 file /opt/anaconda/envs/psi4v1.5/share/psi4/basis/aug-cc-pvtz-jkfit.gbs 
    atoms 29                                 entry O          line   286 file /opt/anaconda/envs/psi4v1.5/share/psi4/basis/aug-cc-pvtz-jkfit.gbs 

  ==> Integral Setup <==

  ==> DiskDFJK: Density-Fitted J/K Matrices <==

    J tasked:                  Yes
    K tasked:                  Yes
    wK tasked:                  No
    OpenMP threads:              8
    Integrals threads:           8
    Memory [MiB]:            57220
    Algorithm:                Core
    Integral Cache:           LOAD
    Schwarz Cutoff:          1E-12
    Fitting Condition:       1E-10

   => Auxiliary Basis Set <=

  Basis Set: (AUG-CC-PVTZ AUX)
    Blend: AUG-CC-PVTZ-JKFIT
    Number of shells: 770
    Number of basis functions: 2644
    Number of Cartesian functions: 3301
    Spherical Harmonics?: true
    Max angular momentum: 4

  Minimum eigenvalue in the overlap matrix is 1.1023082287E-06.
  Reciprocal condition number of the overlap matrix is 5.9810861307E-08.
    Using symmetric orthogonalization.

  ==> Pre-Iterations <==

  SCF Guess: Superposition of Atomic Densities via on-the-fly atomic UHF (no occupation information).

   -------------------------
    Irrep   Nso     Nmo    
   -------------------------
     A       1196    1196 
   -------------------------
    Total    1196    1196
   -------------------------

  ==> Iterations <==

                           Total Energy        Delta E     RMS |[F,P]|

   @DF-RHF iter SAD:  -464.44377899769859   -4.64444e+02   0.00000e+00 
   @DF-RHF iter   1:  -464.44335702727290    4.21970e-04   5.60570e-04 DIIS
   @DF-RHF iter   2:  -464.63443131706697   -1.91074e-01   2.75245e-04 DIIS
   @DF-RHF iter   3:  -464.67792333241033   -4.34920e-02   6.19015e-05 DIIS
   @DF-RHF iter   4:  -464.68113011655447   -3.20678e-03   2.90083e-05 DIIS
   @DF-RHF iter   5:  -464.68175391778101   -6.23801e-04   5.86937e-06 DIIS
   @DF-RHF iter   6:  -464.68180926071966   -5.53429e-05   2.83808e-06 DIIS
   @DF-RHF iter   7:  -464.68182404334095   -1.47826e-05   1.16863e-06 DIIS
   @DF-RHF iter   8:  -464.68182747569210   -3.43235e-06   4.29618e-07 DIIS
   @DF-RHF iter   9:  -464.68182798375176   -5.08060e-07   2.26539e-07 DIIS
   @DF-RHF iter  10:  -464.68182810920945   -1.25458e-07   8.54770e-08 DIIS
   @DF-RHF iter  11:  -464.68182813518303   -2.59736e-08   3.47942e-08 DIIS
   @DF-RHF iter  12:  -464.68182813869919   -3.51616e-09   1.40445e-08 DIIS
   @DF-RHF iter  13:  -464.68182813919884   -4.99654e-10   4.57255e-09 DIIS
  Energy and wave function converged.


  ==> Post-Iterations <==

    Orbital Energies [Eh]
    ---------------------

    Doubly Occupied:                                                      

       1A    -15.631609     2A    -15.589968     3A    -15.570521  
       4A    -15.556392     5A    -15.548210     6A    -11.340702  
       7A    -11.325351     8A    -11.318336     9A    -11.311017  
      10A    -11.253718    11A     -1.364181    12A     -1.295696  
      13A     -1.246879    14A     -1.186039    15A     -1.147025  
      16A     -1.032196    17A     -0.893711    18A     -0.873584  
      19A     -0.842871    20A     -0.778111    21A     -0.739812  
      22A     -0.697365    23A     -0.675784    24A     -0.635952  
      25A     -0.635473    26A     -0.612352    27A     -0.592048  
      28A     -0.557320    29A     -0.498216    30A     -0.494387  
      31A     -0.448036    32A     -0.425076    33A     -0.406341  
      34A     -0.369799    35A     -0.308830  

    Virtual:                                                              

      36A      0.018326    37A      0.021845    38A      0.029921  
      39A      0.034518    40A      0.039081    41A      0.041080  
      42A      0.048588    43A      0.054113    44A      0.054964  
      45A      0.057961    46A      0.066416    47A      0.070696  
      48A      0.074064    49A      0.076642    50A      0.082662  
      51A      0.087988    52A      0.090689    53A      0.092670  
      54A      0.095293    55A      0.097629    56A      0.103455  
      57A      0.106320    58A      0.107688    59A      0.110109  
      60A      0.110889    61A      0.114964    62A      0.117911  
      63A      0.118871    64A      0.123883    65A      0.124871  
      66A      0.132458    67A      0.135130    68A      0.136977  
      69A      0.138215    70A      0.140417    71A      0.145084  
      72A      0.146913    73A      0.147834    74A      0.151101  
      75A      0.156692    76A      0.157227    77A      0.160756  
      78A      0.164722    79A      0.168539    80A      0.169834  
      81A      0.173037    82A      0.178744    83A      0.180675  
      84A      0.182552    85A      0.185459    86A      0.187166  
      87A      0.191356    88A      0.192913    89A      0.198693  
      90A      0.200722    91A      0.205187    92A      0.208647  
      93A      0.210788    94A      0.211977    95A      0.215102  
      96A      0.217057    97A      0.219922    98A      0.221973  
      99A      0.224445   100A      0.228116   101A      0.230112  
     102A      0.234177   103A      0.235029   104A      0.237642  
     105A      0.240710   106A      0.243666   107A      0.245495  
     108A      0.249593   109A      0.255211   110A      0.257603  
     111A      0.259757   112A      0.261955   113A      0.266129  
     114A      0.269860   115A      0.273406   116A      0.277531  
     117A      0.282895   118A      0.284467   119A      0.285676  
     120A      0.289566   121A      0.294638   122A      0.297852  
     123A      0.300085   124A      0.302511   125A      0.309242  
     126A      0.309816   127A      0.312671   128A      0.315341  
     129A      0.320411   130A      0.326161   131A      0.329010  
     132A      0.332062   133A      0.332509   134A      0.337688  
     135A      0.342869   136A      0.346223   137A      0.349059  
     138A      0.351188   139A      0.353975   140A      0.357259  
     141A      0.363005   142A      0.367793   143A      0.375223  
     144A      0.376886   145A      0.380027   146A      0.383512  
     147A      0.384712   148A      0.387071   149A      0.388768  
     150A      0.393811   151A      0.398542   152A      0.402152  
     153A      0.403027   154A      0.404973   155A      0.407435  
     156A      0.411161   157A      0.414992   158A      0.418082  
     159A      0.423207   160A      0.423358   161A      0.427499  
     162A      0.429394   163A      0.430587   164A      0.434944  
     165A      0.438276   166A      0.440514   167A      0.441956  
     168A      0.444502   169A      0.448773   170A      0.449333  
     171A      0.451141   172A      0.455817   173A      0.458091  
     174A      0.459124   175A      0.462641   176A      0.465283  
     177A      0.466682   178A      0.470562   179A      0.472071  
     180A      0.477877   181A      0.479924   182A      0.481623  
     183A      0.487919   184A      0.490421   185A      0.494915  
     186A      0.495813   187A      0.496790   188A      0.499551  
     189A      0.504773   190A      0.506420   191A      0.507376  
     192A      0.508461   193A      0.515232   194A      0.518156  
     195A      0.522950   196A      0.526826   197A      0.528259  
     198A      0.530546   199A      0.532450   200A      0.537102  
     201A      0.538212   202A      0.543223   203A      0.547694  
     204A      0.550172   205A      0.553479   206A      0.559603  
     207A      0.561844   208A      0.563723   209A      0.569966  
     210A      0.572883   211A      0.574462   212A      0.581402  
     213A      0.582368   214A      0.586235   215A      0.593525  
     216A      0.595883   217A      0.600725   218A      0.605040  
     219A      0.609709   220A      0.616098   221A      0.620918  
     222A      0.625225   223A      0.626081   224A      0.627535  
     225A      0.636646   226A      0.639110   227A      0.642890  
     228A      0.644679   229A      0.649672   230A      0.651920  
     231A      0.663190   232A      0.665913   233A      0.668416  
     234A      0.670134   235A      0.672619   236A      0.674166  
     237A      0.680933   238A      0.686724   239A      0.693363  
     240A      0.697430   241A      0.698686   242A      0.706191  
     243A      0.708550   244A      0.712819   245A      0.716570  
     246A      0.718570   247A      0.723068   248A      0.729933  
     249A      0.735374   250A      0.738586   251A      0.742211  
     252A      0.746353   253A      0.748277   254A      0.752051  
     255A      0.755465   256A      0.760755   257A      0.767294  
     258A      0.768784   259A      0.771775   260A      0.775491  
     261A      0.781014   262A      0.782478   263A      0.787562  
     264A      0.790915   265A      0.795790   266A      0.801343  
     267A      0.803121   268A      0.807713   269A      0.812980  
     270A      0.813959   271A      0.814230   272A      0.820650  
     273A      0.825544   274A      0.826226   275A      0.830037  
     276A      0.831824   277A      0.834618   278A      0.840494  
     279A      0.842365   280A      0.845131   281A      0.848498  
     282A      0.852510   283A      0.857348   284A      0.859790  
     285A      0.861934   286A      0.863871   287A      0.870225  
     288A      0.872526   289A      0.878687   290A      0.880542  
     291A      0.881986   292A      0.888282   293A      0.893117  
     294A      0.897363   295A      0.899878   296A      0.905607  
     297A      0.906705   298A      0.910283   299A      0.914374  
     300A      0.918185   301A      0.923713   302A      0.926112  
     303A      0.932403   304A      0.932715   305A      0.935930  
     306A      0.940653   307A      0.941047   308A      0.945384  
     309A      0.950287   310A      0.953317   311A      0.955685  
     312A      0.959273   313A      0.960889   314A      0.967382  
     315A      0.970408   316A      0.973835   317A      0.976564  
     318A      0.981527   319A      0.983772   320A      0.988006  
     321A      0.991763   322A      0.995653   323A      0.998077  
     324A      1.001034   325A      1.006194   326A      1.010086  
     327A      1.011046   328A      1.017293   329A      1.019265  
     330A      1.023381   331A      1.027891   332A      1.032906  
     333A      1.037729   334A      1.044412   335A      1.050121  
     336A      1.051274   337A      1.052711   338A      1.057158  
     339A      1.061979   340A      1.064232   341A      1.067010  
     342A      1.070769   343A      1.074426   344A      1.075262  
     345A      1.085829   346A      1.090432   347A      1.091052  
     348A      1.095066   349A      1.103424   350A      1.108793  
     351A      1.110425   352A      1.113005   353A      1.116971  
     354A      1.119782   355A      1.125179   356A      1.130376  
     357A      1.133913   358A      1.135584   359A      1.138375  
     360A      1.139960   361A      1.152636   362A      1.155945  
     363A      1.157582   364A      1.162981   365A      1.166671  
     366A      1.168837   367A      1.170579   368A      1.174304  
     369A      1.181566   370A      1.185918   371A      1.190968  
     372A      1.192437   373A      1.194959   374A      1.198129  
     375A      1.204114   376A      1.207450   377A      1.209729  
     378A      1.215242   379A      1.221221   380A      1.225577  
     381A      1.227964   382A      1.232101   383A      1.232345  
     384A      1.240224   385A      1.244285   386A      1.249698  
     387A      1.253254   388A      1.254593   389A      1.258413  
     390A      1.264763   391A      1.273422   392A      1.275345  
     393A      1.278578   394A      1.284484   395A      1.290345  
     396A      1.297554   397A      1.300032   398A      1.306061  
     399A      1.309308   400A      1.314227   401A      1.317787  
     402A      1.322268   403A      1.324982   404A      1.333625  
     405A      1.333940   406A      1.341845   407A      1.343027  
     408A      1.346442   409A      1.350148   410A      1.359048  
     411A      1.361465   412A      1.367957   413A      1.369357  
     414A      1.376417   415A      1.380601   416A      1.382445  
     417A      1.387095   418A      1.390470   419A      1.398121  
     420A      1.405339   421A      1.409086   422A      1.413719  
     423A      1.416205   424A      1.425568   425A      1.429864  
     426A      1.436582   427A      1.440163   428A      1.445199  
     429A      1.455525   430A      1.457934   431A      1.465272  
     432A      1.469210   433A      1.471633   434A      1.475357  
     435A      1.484860   436A      1.491632   437A      1.497561  
     438A      1.505941   439A      1.512264   440A      1.514855  
     441A      1.518481   442A      1.522373   443A      1.526538  
     444A      1.528711   445A      1.534850   446A      1.537180  
     447A      1.538680   448A      1.546637   449A      1.555287  
     450A      1.563856   451A      1.566432   452A      1.569608  
     453A      1.577105   454A      1.578014   455A      1.583380  
     456A      1.587313   457A      1.592359   458A      1.596324  
     459A      1.606247   460A      1.607280   461A      1.614945  
     462A      1.618503   463A      1.628558   464A      1.629954  
     465A      1.631358   466A      1.635897   467A      1.640085  
     468A      1.649631   469A      1.652811   470A      1.655039  
     471A      1.662347   472A      1.664644   473A      1.671324  
     474A      1.672470   475A      1.681716   476A      1.683034  
     477A      1.693015   478A      1.696460   479A      1.700726  
     480A      1.707377   481A      1.709671   482A      1.713936  
     483A      1.719809   484A      1.720536   485A      1.724667  
     486A      1.726944   487A      1.731269   488A      1.738606  
     489A      1.742494   490A      1.749182   491A      1.751965  
     492A      1.757608   493A      1.763382   494A      1.768269  
     495A      1.770933   496A      1.775872   497A      1.777415  
     498A      1.782939   499A      1.788355   500A      1.791586  
     501A      1.792680   502A      1.797554   503A      1.798811  
     504A      1.803965   505A      1.806976   506A      1.817645  
     507A      1.821205   508A      1.826225   509A      1.827749  
     510A      1.841706   511A      1.842683   512A      1.851342  
     513A      1.857390   514A      1.863086   515A      1.865009  
     516A      1.866818   517A      1.872320   518A      1.876636  
     519A      1.885824   520A      1.889408   521A      1.891194  
     522A      1.903433   523A      1.905541   524A      1.917295  
     525A      1.924836   526A      1.926011   527A      1.935240  
     528A      1.942204   529A      1.944874   530A      1.953868  
     531A      1.959069   532A      1.962481   533A      1.963534  
     534A      1.975454   535A      1.977320   536A      1.986949  
     537A      1.989332   538A      1.994014   539A      2.001494  
     540A      2.007378   541A      2.018174   542A      2.020736  
     543A      2.026266   544A      2.029168   545A      2.039055  
     546A      2.041316   547A      2.044341   548A      2.051017  
     549A      2.064825   550A      2.069513   551A      2.076081  
     552A      2.078990   553A      2.086019   554A      2.087486  
     555A      2.095007   556A      2.097121   557A      2.101628  
     558A      2.103694   559A      2.116073   560A      2.120064  
     561A      2.120591   562A      2.128665   563A      2.132357  
     564A      2.138322   565A      2.147066   566A      2.151920  
     567A      2.153827   568A      2.160835   569A      2.168159  
     570A      2.171150   571A      2.179902   572A      2.182232  
     573A      2.186578   574A      2.192532   575A      2.199116  
     576A      2.210241   577A      2.217320   578A      2.223071  
     579A      2.225013   580A      2.235617   581A      2.240648  
     582A      2.252099   583A      2.263239   584A      2.266140  
     585A      2.275323   586A      2.287688   587A      2.288641  
     588A      2.293044   589A      2.299405   590A      2.304055  
     591A      2.310124   592A      2.312431   593A      2.319869  
     594A      2.329907   595A      2.333495   596A      2.337522  
     597A      2.345938   598A      2.351676   599A      2.358892  
     600A      2.363339   601A      2.365038   602A      2.381055  
     603A      2.383932   604A      2.393464   605A      2.401779  
     606A      2.407865   607A      2.410784   608A      2.413681  
     609A      2.421979   610A      2.425239   611A      2.434582  
     612A      2.439903   613A      2.441758   614A      2.447700  
     615A      2.455242   616A      2.459302   617A      2.467587  
     618A      2.473783   619A      2.480471   620A      2.488853  
     621A      2.493978   622A      2.495645   623A      2.504917  
     624A      2.509231   625A      2.514269   626A      2.521080  
     627A      2.536711   628A      2.556788   629A      2.557997  
     630A      2.565974   631A      2.577172   632A      2.579792  
     633A      2.588905   634A      2.595711   635A      2.597438  
     636A      2.610687   637A      2.613909   638A      2.618191  
     639A      2.621892   640A      2.634050   641A      2.639793  
     642A      2.647666   643A      2.656415   644A      2.661275  
     645A      2.662828   646A      2.673737   647A      2.676006  
     648A      2.681875   649A      2.689603   650A      2.693833  
     651A      2.704211   652A      2.708899   653A      2.715934  
     654A      2.718652   655A      2.731544   656A      2.737168  
     657A      2.749516   658A      2.752861   659A      2.764764  
     660A      2.768495   661A      2.776256   662A      2.786406  
     663A      2.792771   664A      2.799220   665A      2.804093  
     666A      2.814775   667A      2.827774   668A      2.835242  
     669A      2.837930   670A      2.850238   671A      2.856812  
     672A      2.867162   673A      2.869293   674A      2.876931  
     675A      2.881755   676A      2.887113   677A      2.892466  
     678A      2.896608   679A      2.901334   680A      2.917070  
     681A      2.920160   682A      2.929199   683A      2.939444  
     684A      2.948678   685A      2.961160   686A      2.964382  
     687A      2.977003   688A      2.988819   689A      2.991768  
     690A      3.000733   691A      3.014372   692A      3.023731  
     693A      3.035052   694A      3.039185   695A      3.049399  
     696A      3.055533   697A      3.067148   698A      3.073516  
     699A      3.080573   700A      3.081010   701A      3.097080  
     702A      3.102816   703A      3.115568   704A      3.122854  
     705A      3.131441   706A      3.139020   707A      3.151192  
     708A      3.167673   709A      3.173108   710A      3.184162  
     711A      3.186670   712A      3.197398   713A      3.209292  
     714A      3.220007   715A      3.221732   716A      3.230071  
     717A      3.240743   718A      3.252749   719A      3.257307  
     720A      3.265124   721A      3.268554   722A      3.284502  
     723A      3.295531   724A      3.306678   725A      3.337092  
     726A      3.338650   727A      3.362362   728A      3.369935  
     729A      3.377737   730A      3.386710   731A      3.400698  
     732A      3.408078   733A      3.423218   734A      3.429507  
     735A      3.433722   736A      3.446373   737A      3.458707  
     738A      3.468292   739A      3.477159   740A      3.493784  
     741A      3.508977   742A      3.519425   743A      3.525419  
     744A      3.529161   745A      3.535964   746A      3.559320  
     747A      3.567725   748A      3.582707   749A      3.591691  
     750A      3.594412   751A      3.605274   752A      3.625066  
     753A      3.633277   754A      3.643257   755A      3.651619  
     756A      3.660434   757A      3.665690   758A      3.679694  
     759A      3.702606   760A      3.712986   761A      3.719611  
     762A      3.725052   763A      3.730786   764A      3.751084  
     765A      3.769251   766A      3.771563   767A      3.777568  
     768A      3.786964   769A      3.792837   770A      3.808693  
     771A      3.817205   772A      3.830041   773A      3.847678  
     774A      3.853241   775A      3.864119   776A      3.870530  
     777A      3.892676   778A      3.895534   779A      3.909117  
     780A      3.914870   781A      3.922844   782A      3.933739  
     783A      3.954304   784A      3.958986   785A      3.962993  
     786A      3.971964   787A      3.989286   788A      3.997476  
     789A      4.000291   790A      4.018407   791A      4.030464  
     792A      4.049425   793A      4.053746   794A      4.063122  
     795A      4.074358   796A      4.087781   797A      4.095303  
     798A      4.099263   799A      4.109491   800A      4.123014  
     801A      4.132771   802A      4.146929   803A      4.149694  
     804A      4.156297   805A      4.165657   806A      4.169491  
     807A      4.181517   808A      4.190527   809A      4.194133  
     810A      4.199787   811A      4.208501   812A      4.215335  
     813A      4.222841   814A      4.230136   815A      4.237512  
     816A      4.245272   817A      4.250354   818A      4.251528  
     819A      4.259748   820A      4.266502   821A      4.276899  
     822A      4.283260   823A      4.294444   824A      4.300641  
     825A      4.311790   826A      4.314456   827A      4.326929  
     828A      4.329066   829A      4.340999   830A      4.355973  
     831A      4.367883   832A      4.378985   833A      4.385813  
     834A      4.396794   835A      4.406563   836A      4.421595  
     837A      4.430414   838A      4.440381   839A      4.455966  
     840A      4.459286   841A      4.476685   842A      4.493503  
     843A      4.498087   844A      4.501300   845A      4.513949  
     846A      4.518898   847A      4.533940   848A      4.534306  
     849A      4.536458   850A      4.540862   851A      4.546469  
     852A      4.553406   853A      4.559423   854A      4.561683  
     855A      4.582433   856A      4.598104   857A      4.608886  
     858A      4.616881   859A      4.623307   860A      4.633803  
     861A      4.644082   862A      4.649757   863A      4.656602  
     864A      4.658814   865A      4.662838   866A      4.665838  
     867A      4.678274   868A      4.683799   869A      4.704252  
     870A      4.712194   871A      4.718759   872A      4.724419  
     873A      4.732536   874A      4.739790   875A      4.762862  
     876A      4.772031   877A      4.780816   878A      4.791198  
     879A      4.801090   880A      4.817383   881A      4.819284  
     882A      4.824539   883A      4.832168   884A      4.853000  
     885A      4.855231   886A      4.863948   887A      4.872571  
     888A      4.874853   889A      4.888654   890A      4.903172  
     891A      4.916660   892A      4.919612   893A      4.925991  
     894A      4.928425   895A      4.944769   896A      4.947934  
     897A      4.951429   898A      4.960971   899A      4.966979  
     900A      4.971292   901A      4.973894   902A      4.997843  
     903A      5.000227   904A      5.006605   905A      5.016706  
     906A      5.017299   907A      5.026690   908A      5.046312  
     909A      5.047909   910A      5.056858   911A      5.063682  
     912A      5.077492   913A      5.081124   914A      5.083710  
     915A      5.102374   916A      5.103814   917A      5.106426  
     918A      5.115224   919A      5.132888   920A      5.142903  
     921A      5.147010   922A      5.161898   923A      5.166103  
     924A      5.174088   925A      5.179494   926A      5.186142  
     927A      5.200341   928A      5.219635   929A      5.221051  
     930A      5.251777   931A      5.255391   932A      5.261298  
     933A      5.277421   934A      5.287128   935A      5.291805  
     936A      5.301592   937A      5.313857   938A      5.322062  
     939A      5.335061   940A      5.345113   941A      5.348024  
     942A      5.371152   943A      5.378166   944A      5.386957  
     945A      5.389301   946A      5.399087   947A      5.411728  
     948A      5.421212   949A      5.432238   950A      5.443338  
     951A      5.446495   952A      5.458543   953A      5.469661  
     954A      5.480385   955A      5.489763   956A      5.517943  
     957A      5.526256   958A      5.533386   959A      5.538102  
     960A      5.549803   961A      5.557416   962A      5.566693  
     963A      5.572355   964A      5.577482   965A      5.584573  
     966A      5.594074   967A      5.597648   968A      5.603862  
     969A      5.606541   970A      5.613681   971A      5.628866  
     972A      5.650658   973A      5.670627   974A      5.676800  
     975A      5.689721   976A      5.696120   977A      5.699786  
     978A      5.709630   979A      5.715714   980A      5.721859  
     981A      5.728129   982A      5.740309   983A      5.762410  
     984A      5.770437   985A      5.776773   986A      5.787881  
     987A      5.800976   988A      5.812372   989A      5.819122  
     990A      5.827827   991A      5.839449   992A      5.855427  
     993A      5.894266   994A      5.908349   995A      5.922010  
     996A      5.926945   997A      5.935697   998A      5.938159  
     999A      5.947926  1000A      5.956864  1001A      5.970922  
    1002A      6.001498  1003A      6.003640  1004A      6.012915  
    1005A      6.032499  1006A      6.042773  1007A      6.073898  
    1008A      6.089134  1009A      6.097292  1010A      6.099228  
    1011A      6.109072  1012A      6.139414  1013A      6.148599  
    1014A      6.149351  1015A      6.160929  1016A      6.189729  
    1017A      6.200158  1018A      6.205169  1019A      6.212837  
    1020A      6.220311  1021A      6.230082  1022A      6.269185  
    1023A      6.273828  1024A      6.279006  1025A      6.280203  
    1026A      6.336627  1027A      6.349611  1028A      6.383262  
    1029A      6.390350  1030A      6.404233  1031A      6.415655  
    1032A      6.449009  1033A      6.453919  1034A      6.476869  
    1035A      6.486131  1036A      6.491236  1037A      6.508598  
    1038A      6.516536  1039A      6.527409  1040A      6.532831  
    1041A      6.541924  1042A      6.547813  1043A      6.551422  
    1044A      6.584935  1045A      6.593915  1046A      6.611676  
    1047A      6.615802  1048A      6.648001  1049A      6.658943  
    1050A      6.661907  1051A      6.695433  1052A      6.699214  
    1053A      6.718511  1054A      6.729300  1055A      6.738712  
    1056A      6.759148  1057A      6.780782  1058A      6.786902  
    1059A      6.796128  1060A      6.814778  1061A      6.821280  
    1062A      6.825726  1063A      6.833469  1064A      6.880210  
    1065A      6.891445  1066A      6.894605  1067A      6.932055  
    1068A      6.939964  1069A      6.985399  1070A      6.996286  
    1071A      6.997681  1072A      7.025722  1073A      7.036915  
    1074A      7.052365  1075A      7.085737  1076A      7.109308  
    1077A      7.126170  1078A      7.178382  1079A      7.246259  
    1080A      7.249816  1081A      7.262499  1082A      7.286803  
    1083A      7.288926  1084A      7.379983  1085A      7.402951  
    1086A      7.410752  1087A      7.417477  1088A      7.434222  
    1089A      7.450964  1090A      7.465607  1091A      7.520191  
    1092A      7.566859  1093A      7.588738  1094A      7.609067  
    1095A      7.611596  1096A      7.639783  1097A      7.649154  
    1098A      7.655209  1099A      7.656854  1100A      7.658933  
    1101A      7.667265  1102A      7.690052  1103A      7.721169  
    1104A      7.739434  1105A      7.757965  1106A      7.767150  
    1107A      7.774449  1108A      7.819231  1109A      7.847783  
    1110A      7.862155  1111A      7.897702  1112A      7.912123  
    1113A      7.927814  1114A      7.942312  1115A      7.977763  
    1116A      7.990212  1117A      8.007607  1118A      8.033160  
    1119A      8.059642  1120A      8.167745  1121A      8.188965  
    1122A      8.242771  1123A      8.267054  1124A      8.316384  
    1125A      8.346729  1126A      8.403863  1127A      8.490571  
    1128A      8.578574  1129A      8.580079  1130A      8.714974  
    1131A      8.723839  1132A      8.800947  1133A      8.840632  
    1134A      8.949778  1135A      9.022433  1136A      9.065110  
    1137A      9.165865  1138A      9.250787  1139A      9.350537  
    1140A      9.432122  1141A      9.490811  1142A      9.534522  
    1143A      9.575089  1144A      9.639378  1145A      9.754316  
    1146A      9.778922  1147A      9.976589  1148A     10.018264  
    1149A     10.168295  1150A     10.273224  1151A     10.309091  
    1152A     10.410971  1153A     10.455778  1154A     10.560607  
    1155A     10.723211  1156A     11.075616  1157A     11.164962  
    1158A     11.267461  1159A     11.374112  1160A     11.443934  
    1161A     11.636335  1162A     11.721952  1163A     11.974239  
    1164A     12.027030  1165A     12.039585  1166A     12.100193  
    1167A     12.174425  1168A     12.296437  1169A     12.385799  
    1170A     12.598135  1171A     12.791646  1172A     12.937293  
    1173A     13.343950  1174A     13.524950  1175A     14.198632  
    1176A     16.072521  1177A     16.304196  1178A     16.341040  
    1179A     17.768016  1180A     18.066722  1181A     19.025378  
    1182A     19.236772  1183A     19.428920  1184A     20.117792  
    1185A     20.965947  1186A     51.726658  1187A     52.145275  
    1188A     52.881000  1189A     53.867789  1190A     56.298863  
    1191A     60.018164  1192A     61.391485  1193A     61.925192  
    1194A     63.407654  1195A     65.428001  1196A     69.970528  

    Final Occupation by Irrep:
              A 
    DOCC [    35 ]

  @DF-RHF Final Energy:  -464.68182813919884

   => Energetics <=

    Nuclear Repulsion Energy =            501.3065904973872193
    One-Electron Energy =               -1625.5710216945724369
    Two-Electron Energy =                 659.5826030579864891
    Total Energy =                       -464.6818281391988421

Computation Completed


Properties will be evaluated at   0.000000,   0.000000,   0.000000 [a0]

Properties computed using the SCF density matrix

  Nuclear Dipole Moment: [e a0]
     X:   -80.2014      Y:   372.1812      Z:  -226.6979

  Electronic Dipole Moment: [e a0]
     X:    80.5314      Y:  -371.2869      Z:   226.6977

  Dipole Moment: [e a0]
     X:     0.3300      Y:     0.8943      Z:    -0.0002     Total:     0.9533

  Dipole Moment: [D]
     X:     0.8389      Y:     2.2731      Z:    -0.0006     Total:     2.4229


*** tstop() called on node165.bme.utexas.edu at Mon Jan 22 15:29:14 2024
Module time:
	user time   =     519.25 seconds =       8.65 minutes
	system time =       6.93 seconds =       0.12 minutes
	total time  =         73 seconds =       1.22 minutes
Total time:
	user time   =    1790.28 seconds =      29.84 minutes
	system time =      78.58 seconds =       1.31 minutes
	total time  =        275 seconds =       4.58 minutes

*** tstart() called on node165.bme.utexas.edu
*** at Mon Jan 22 15:29:14 2024


  //>>>>>>>>>>>>>>>>>>>>>>>>>>>>>>>>>>>//
  //               DFMP2               //
  //<<<<<<<<<<<<<<<<<<<<<<<<<<<<<<<<<<<//

   => Loading Basis Set <=

    Name: (AUG-CC-PVTZ AUX)
    Role: RIFIT
    Keyword: DF_BASIS_MP2
    atoms 1, 3, 7, 9, 11, 16, 18, 22, 24, 26 entry N          line   206 file /opt/anaconda/envs/psi4v1.5/share/psi4/basis/aug-cc-pvtz-ri.gbs 
    atoms 2, 4-6, 8, 17, 19-21, 23           entry C          line   148 file /opt/anaconda/envs/psi4v1.5/share/psi4/basis/aug-cc-pvtz-ri.gbs 
    atoms 10, 12-15, 25, 27-28, 30-31        entry H          line    30 file /opt/anaconda/envs/psi4v1.5/share/psi4/basis/aug-cc-pvtz-ri.gbs 
    atoms 29                                 entry O          line   264 file /opt/anaconda/envs/psi4v1.5/share/psi4/basis/aug-cc-pvtz-ri.gbs 

	 --------------------------------------------------------
	                          DF-MP2                         
	      2nd-Order Density-Fitted Moller-Plesset Theory     
	              RMP2 Wavefunction,   8 Threads             
	                                                         
	        Rob Parrish, Justin Turney, Andy Simmonett,      
	           Ed Hohenstein, and C. David Sherrill          
	 --------------------------------------------------------

   => Auxiliary Basis Set <=

  Basis Set: (AUG-CC-PVTZ AUX)
    Blend: AUG-CC-PVTZ-RI
    Number of shells: 728
    Number of basis functions: 2686
    Number of Cartesian functions: 3406
    Spherical Harmonics?: true
    Max angular momentum: 4

	 --------------------------------------------------------
	                 NBF =  1196, NAUX =  2686
	 --------------------------------------------------------
	   CLASS    FOCC     OCC    AOCC    AVIR     VIR    FVIR
	   PAIRS      10      35      25    1161    1161       0
	 --------------------------------------------------------

	 Will attempt to load fitting metric from file 97.

	-----------------------------------------------------------
	 ==================> DF-MP2 Energies <==================== 
	-----------------------------------------------------------
	 Reference Energy          =    -464.6818281391988421 [Eh]
	 Singles Energy            =      -0.0000000000000000 [Eh]
	 Same-Spin Energy          =      -0.4782750441058113 [Eh]
	 Opposite-Spin Energy      =      -1.3235095969370945 [Eh]
	 Correlation Energy        =      -1.8017846410429059 [Eh]
	 Total Energy              =    -466.4836127802417423 [Eh]
	-----------------------------------------------------------
	 ================> DF-SCS-MP2 Energies <================== 
	-----------------------------------------------------------
	 SCS Same-Spin Scale       =       0.3333333333333333 [-]
	 SCS Opposite-Spin Scale   =       1.2000000000000000 [-]
	 SCS Same-Spin Energy      =      -0.1594250147019371 [Eh]
	 SCS Opposite-Spin Energy  =      -1.5882115163245134 [Eh]
	 SCS Correlation Energy    =      -1.7476365310264506 [Eh]
	 SCS Total Energy          =    -466.4294646702252862 [Eh]
	-----------------------------------------------------------


*** tstop() called on node165.bme.utexas.edu at Mon Jan 22 15:29:49 2024
Module time:
	user time   =     160.44 seconds =       2.67 minutes
	system time =       8.89 seconds =       0.15 minutes
	total time  =         35 seconds =       0.58 minutes
Total time:
	user time   =    1950.73 seconds =      32.51 minutes
	system time =      87.47 seconds =       1.46 minutes
	total time  =        310 seconds =       5.17 minutes

  //>>>>>>>>>>>>>>>>>>>>>>>>>>>>>>>>>>>//
  //            Monomer B HF           //
  //<<<<<<<<<<<<<<<<<<<<<<<<<<<<<<<<<<<//


*** tstart() called on node165.bme.utexas.edu
*** at Mon Jan 22 15:29:49 2024

   => Loading Basis Set <=

    Name: AUG-CC-PVTZ
    Role: ORBITAL
    Keyword: BASIS
    atoms 1, 3, 7, 9, 11, 16, 18, 22, 24, 26 entry N          line   285 file /opt/anaconda/envs/psi4v1.5/share/psi4/basis/aug-cc-pvtz.gbs 
    atoms 2, 4-6, 8, 17, 19-21, 23           entry C          line   239 file /opt/anaconda/envs/psi4v1.5/share/psi4/basis/aug-cc-pvtz.gbs 
    atoms 10, 12-15, 25, 27-28, 30-31        entry H          line    40 file /opt/anaconda/envs/psi4v1.5/share/psi4/basis/aug-cc-pvtz.gbs 
    atoms 29                                 entry O          line   331 file /opt/anaconda/envs/psi4v1.5/share/psi4/basis/aug-cc-pvtz.gbs 


         ---------------------------------------------------------
                                   SCF
               by Justin Turney, Rob Parrish, Andy Simmonett
                          and Daniel G. A. Smith
                              RHF Reference
                        8 Threads,  76293 MiB Core
         ---------------------------------------------------------

  ==> Geometry <==

    Molecular point group: c1
    Full point group: C1

    Geometry (in Angstrom), charge = 0, multiplicity = 1:

       Center              X                  Y                   Z               Mass       
    ------------   -----------------  -----------------  -----------------  -----------------
      Gh(N)          -0.833614097518     0.819635496591    -1.713596595604    14.003074004430
      Gh(C)          -2.102686097518     1.275007496591    -1.713639595604    12.000000000000
      Gh(N)          -2.516215097518     2.542891496591    -1.713777595604    14.003074004430
      Gh(C)          -1.478320097518     3.395988496591    -1.713841595604    12.000000000000
      Gh(C)          -0.116877097518     3.070880496591    -1.713767595604    12.000000000000
      Gh(C)           0.199758902482     1.692241496591    -1.713644595604    12.000000000000
      Gh(N)           0.673796902482     4.208018496591    -1.713855595604    14.003074004430
      Gh(C)          -0.188344097518     5.198184496591    -1.713975595604    12.000000000000
      Gh(N)          -1.503858097518     4.772955496591    -1.713975595604    14.003074004430
      Gh(H)          -2.866563097518     0.495652496591    -1.713579595604     1.007825032230
      Gh(N)           1.458924902482     1.222377496591    -1.713576595604    14.003074004430
      Gh(H)           2.220108902482     1.884121496591    -1.713578595604     1.007825032230
      Gh(H)           1.638396902482     0.213430496591    -1.713394595604     1.007825032230
      Gh(H)           0.067199902482     6.253125496591    -1.714069595604     1.007825032230
      Gh(H)          -2.334321097518     5.348492496591    -1.714065595604     1.007825032230
         N           -0.390986097518    -1.117132503409     1.536741404396    14.003074004430
         C           -1.222690097518    -2.212528503409     1.567935404396    12.000000000000
         N           -0.781160097518    -3.464923503409     1.572879404396    14.003074004430
         C            0.565948902482    -3.537002503409     1.544006404396    12.000000000000
         C            1.506055902482    -2.497115503409     1.511071404396    12.000000000000
         C            1.013774902482    -1.153736503409     1.506175404396    12.000000000000
         N            2.798797902482    -2.999863503409     1.488449404396    14.003074004430
         C            2.650115902482    -4.299835503409     1.506972404396    12.000000000000
         N            1.316281902482    -4.687061503409     1.540941404396    14.003074004430
         H           -0.809768097518    -0.168172503409     1.534851404396     1.007825032230
         N           -2.551077097518    -1.962944503409     1.594310404396    14.003074004430
         H           -2.938915097518    -1.014207503409     1.591739404396     1.007825032230
         H           -3.164861097518    -2.761200503409     1.617214404396     1.007825032230
         O            1.657441902482    -0.090619503409     1.479500404396    15.994914619570
         H            3.453629902482    -5.029341503409     1.497805404396     1.007825032230
         H            0.947926902482    -5.627576503409     1.560099404396     1.007825032230

  Running in c1 symmetry.

  Rotational constants: A =      0.02296  B =      0.00477  C =      0.00423 [cm^-1]
  Rotational constants: A =    688.39597  B =    142.88168  C =    126.83394 [MHz]
  Nuclear repulsion =  593.872097807175578

  Charge       = 0
  Multiplicity = 1
  Electrons    = 78
  Nalpha       = 39
  Nbeta        = 39

  ==> Algorithm <==

  SCF Algorithm Type is DF.
  DIIS enabled.
  MOM disabled.
  Fractional occupation disabled.
  Guess Type is SAD.
  Energy threshold   = 1.00e-08
  Density threshold  = 1.00e-08
  Integral threshold = 1.00e-12

  ==> Primary Basis <==

  Basis Set: AUG-CC-PVTZ
    Blend: AUG-CC-PVTZ
    Number of shells: 384
    Number of basis functions: 1196
    Number of Cartesian functions: 1405
    Spherical Harmonics?: true
    Max angular momentum: 3

   => Loading Basis Set <=

    Name: (AUG-CC-PVTZ AUX)
    Role: JKFIT
    Keyword: DF_BASIS_SCF
    atoms 1, 3, 7, 9, 11, 16, 18, 22, 24, 26 entry N          line   224 file /opt/anaconda/envs/psi4v1.5/share/psi4/basis/aug-cc-pvtz-jkfit.gbs 
    atoms 2, 4-6, 8, 17, 19-21, 23           entry C          line   162 file /opt/anaconda/envs/psi4v1.5/share/psi4/basis/aug-cc-pvtz-jkfit.gbs 
    atoms 10, 12-15, 25, 27-28, 30-31        entry H          line    70 file /opt/anaconda/envs/psi4v1.5/share/psi4/basis/aug-cc-pvtz-jkfit.gbs 
    atoms 29                                 entry O          line   286 file /opt/anaconda/envs/psi4v1.5/share/psi4/basis/aug-cc-pvtz-jkfit.gbs 

  ==> Integral Setup <==

  ==> DiskDFJK: Density-Fitted J/K Matrices <==

    J tasked:                  Yes
    K tasked:                  Yes
    wK tasked:                  No
    OpenMP threads:              8
    Integrals threads:           8
    Memory [MiB]:            57220
    Algorithm:                Core
    Integral Cache:           LOAD
    Schwarz Cutoff:          1E-12
    Fitting Condition:       1E-10

   => Auxiliary Basis Set <=

  Basis Set: (AUG-CC-PVTZ AUX)
    Blend: AUG-CC-PVTZ-JKFIT
    Number of shells: 770
    Number of basis functions: 2644
    Number of Cartesian functions: 3301
    Spherical Harmonics?: true
    Max angular momentum: 4

  Minimum eigenvalue in the overlap matrix is 1.1023082287E-06.
  Reciprocal condition number of the overlap matrix is 5.9810861307E-08.
    Using symmetric orthogonalization.

  ==> Pre-Iterations <==

  SCF Guess: Superposition of Atomic Densities via on-the-fly atomic UHF (no occupation information).

   -------------------------
    Irrep   Nso     Nmo    
   -------------------------
     A       1196    1196 
   -------------------------
    Total    1196    1196
   -------------------------

  ==> Iterations <==

                           Total Energy        Delta E     RMS |[F,P]|

   @DF-RHF iter SAD:  -539.30121248510727   -5.39301e+02   0.00000e+00 
   @DF-RHF iter   1:  -539.27255091556935    2.86616e-02   6.66741e-04 DIIS
   @DF-RHF iter   2:  -539.49753107345225   -2.24980e-01   3.97781e-04 DIIS
   @DF-RHF iter   3:  -539.57807857245166   -8.05475e-02   8.31176e-05 DIIS
   @DF-RHF iter   4:  -539.58320099092316   -5.12242e-03   3.35106e-05 DIIS
   @DF-RHF iter   5:  -539.58415472088768   -9.53730e-04   7.14782e-06 DIIS
   @DF-RHF iter   6:  -539.58425346009574   -9.87392e-05   3.76475e-06 DIIS
   @DF-RHF iter   7:  -539.58428094750946   -2.74874e-05   1.59329e-06 DIIS
   @DF-RHF iter   8:  -539.58428638091800   -5.43341e-06   5.41738e-07 DIIS
   @DF-RHF iter   9:  -539.58428697818226   -5.97264e-07   2.21115e-07 DIIS
   @DF-RHF iter  10:  -539.58428708720999   -1.09028e-07   9.37718e-08 DIIS
   @DF-RHF iter  11:  -539.58428710522219   -1.80122e-08   3.98975e-08 DIIS
   @DF-RHF iter  12:  -539.58428710806663   -2.84444e-09   1.31019e-08 DIIS
   @DF-RHF iter  13:  -539.58428710843702   -3.70392e-10   5.40002e-09 DIIS
  Energy and wave function converged.


  ==> Post-Iterations <==

    Orbital Energies [Eh]
    ---------------------

    Doubly Occupied:                                                      

       1A    -20.511551     2A    -15.636349     3A    -15.628601  
       4A    -15.621767     5A    -15.567140     6A    -15.561319  
       7A    -11.405368     8A    -11.360815     9A    -11.325994  
      10A    -11.309609    11A    -11.244190    12A     -1.387087  
      13A     -1.348823    14A     -1.332123    15A     -1.226591  
      16A     -1.216792    17A     -1.172439    18A     -1.027623  
      19A     -0.904057    20A     -0.893250    21A     -0.836210  
      22A     -0.803830    23A     -0.744196    24A     -0.739681  
      25A     -0.709736    26A     -0.669790    27A     -0.657890  
      28A     -0.634718    29A     -0.604157    30A     -0.597979  
      31A     -0.595883    32A     -0.544376    33A     -0.493924  
      34A     -0.455061    35A     -0.435124    36A     -0.428778  
      37A     -0.423983    38A     -0.406603    39A     -0.295015  

    Virtual:                                                              

      40A      0.009581    41A      0.021636    42A      0.024649  
      43A      0.031223    44A      0.034734    45A      0.040727  
      46A      0.044233    47A      0.052748    48A      0.056847  
      49A      0.059648    50A      0.063026    51A      0.066816  
      52A      0.074544    53A      0.079655    54A      0.083967  
      55A      0.085791    56A      0.090504    57A      0.093560  
      58A      0.094575    59A      0.095158    60A      0.101998  
      61A      0.105216    62A      0.108483    63A      0.111574  
      64A      0.114278    65A      0.114892    66A      0.118911  
      67A      0.120545    68A      0.122233    69A      0.127213  
      70A      0.129833    71A      0.130861    72A      0.134956  
      73A      0.136129    74A      0.139282    75A      0.143272  
      76A      0.146494    77A      0.149819    78A      0.150048  
      79A      0.155365    80A      0.157622    81A      0.160081  
      82A      0.163825    83A      0.168896    84A      0.172574  
      85A      0.175443    86A      0.176939    87A      0.178001  
      88A      0.181113    89A      0.183816    90A      0.189393  
      91A      0.190560    92A      0.192054    93A      0.196485  
      94A      0.200791    95A      0.203140    96A      0.203594  
      97A      0.207368    98A      0.210719    99A      0.212524  
     100A      0.216748   101A      0.219435   102A      0.222618  
     103A      0.226672   104A      0.228895   105A      0.230335  
     106A      0.233465   107A      0.236263   108A      0.239083  
     109A      0.240341   110A      0.246741   111A      0.249401  
     112A      0.253621   113A      0.256980   114A      0.259170  
     115A      0.261591   116A      0.261988   117A      0.263299  
     118A      0.269199   119A      0.273680   120A      0.275620  
     121A      0.281421   122A      0.284307   123A      0.290532  
     124A      0.292100   125A      0.294303   126A      0.297705  
     127A      0.299029   128A      0.302942   129A      0.304318  
     130A      0.307324   131A      0.313517   132A      0.316063  
     133A      0.319571   134A      0.323336   135A      0.330622  
     136A      0.334832   137A      0.337793   138A      0.339525  
     139A      0.342689   140A      0.345717   141A      0.348673  
     142A      0.350782   143A      0.352654   144A      0.359524  
     145A      0.362914   146A      0.363396   147A      0.368772  
     148A      0.372336   149A      0.373864   150A      0.375350  
     151A      0.380233   152A      0.381056   153A      0.382603  
     154A      0.386740   155A      0.388317   156A      0.391610  
     157A      0.394220   158A      0.403220   159A      0.404366  
     160A      0.409943   161A      0.411110   162A      0.413036  
     163A      0.418852   164A      0.420982   165A      0.423258  
     166A      0.427243   167A      0.430797   168A      0.431850  
     169A      0.436132   170A      0.440178   171A      0.442803  
     172A      0.445346   173A      0.449918   174A      0.450242  
     175A      0.451138   176A      0.452974   177A      0.456615  
     178A      0.459280   179A      0.461593   180A      0.464625  
     181A      0.469164   182A      0.471985   183A      0.472585  
     184A      0.475852   185A      0.476783   186A      0.480386  
     187A      0.483693   188A      0.485957   189A      0.486461  
     190A      0.491626   191A      0.495580   192A      0.498181  
     193A      0.499766   194A      0.507694   195A      0.508225  
     196A      0.509539   197A      0.515563   198A      0.516722  
     199A      0.516877   200A      0.521234   201A      0.524580  
     202A      0.527467   203A      0.529681   204A      0.537098  
     205A      0.542180   206A      0.545135   207A      0.546804  
     208A      0.551531   209A      0.553006   210A      0.560807  
     211A      0.563404   212A      0.567510   213A      0.568816  
     214A      0.574321   215A      0.576954   216A      0.582300  
     217A      0.583428   218A      0.585479   219A      0.591331  
     220A      0.592330   221A      0.600409   222A      0.602074  
     223A      0.607461   224A      0.609494   225A      0.611338  
     226A      0.616005   227A      0.625170   228A      0.629539  
     229A      0.631534   230A      0.632789   231A      0.642673  
     232A      0.644104   233A      0.647851   234A      0.652218  
     235A      0.657182   236A      0.661970   237A      0.665801  
     238A      0.669022   239A      0.670944   240A      0.676591  
     241A      0.681073   242A      0.684399   243A      0.691100  
     244A      0.693464   245A      0.699593   246A      0.701090  
     247A      0.705016   248A      0.710362   249A      0.712288  
     250A      0.714790   251A      0.717213   252A      0.724343  
     253A      0.726425   254A      0.732134   255A      0.734986  
     256A      0.739266   257A      0.745098   258A      0.747656  
     259A      0.749872   260A      0.751839   261A      0.756867  
     262A      0.762120   263A      0.764802   264A      0.768713  
     265A      0.772190   266A      0.775298   267A      0.779061  
     268A      0.784696   269A      0.789585   270A      0.790428  
     271A      0.795328   272A      0.799594   273A      0.806258  
     274A      0.808693   275A      0.809858   276A      0.814348  
     277A      0.816293   278A      0.821478   279A      0.826043  
     280A      0.829732   281A      0.829986   282A      0.836025  
     283A      0.839378   284A      0.843114   285A      0.845998  
     286A      0.847955   287A      0.851583   288A      0.855525  
     289A      0.859930   290A      0.865727   291A      0.866510  
     292A      0.871822   293A      0.876956   294A      0.878707  
     295A      0.882717   296A      0.887773   297A      0.893275  
     298A      0.895165   299A      0.897924   300A      0.903448  
     301A      0.905546   302A      0.909651   303A      0.910691  
     304A      0.914619   305A      0.916226   306A      0.921489  
     307A      0.922367   308A      0.924922   309A      0.931386  
     310A      0.932515   311A      0.936785   312A      0.941938  
     313A      0.944037   314A      0.947308   315A      0.950522  
     316A      0.953844   317A      0.956281   318A      0.960710  
     319A      0.963516   320A      0.966305   321A      0.973508  
     322A      0.976096   323A      0.978078   324A      0.981488  
     325A      0.986771   326A      0.988297   327A      0.993296  
     328A      0.998648   329A      1.007546   330A      1.009076  
     331A      1.016082   332A      1.019534   333A      1.021292  
     334A      1.028212   335A      1.031555   336A      1.037232  
     337A      1.038285   338A      1.044274   339A      1.045885  
     340A      1.048850   341A      1.050406   342A      1.054492  
     343A      1.059787   344A      1.064734   345A      1.069463  
     346A      1.070540   347A      1.077393   348A      1.081321  
     349A      1.086013   350A      1.086412   351A      1.094031  
     352A      1.097353   353A      1.098446   354A      1.101352  
     355A      1.107407   356A      1.108048   357A      1.113038  
     358A      1.117027   359A      1.121245   360A      1.125671  
     361A      1.132168   362A      1.135249   363A      1.138455  
     364A      1.140331   365A      1.141964   366A      1.149790  
     367A      1.158182   368A      1.158939   369A      1.162958  
     370A      1.164295   371A      1.168802   372A      1.171183  
     373A      1.175903   374A      1.179973   375A      1.184208  
     376A      1.193615   377A      1.202831   378A      1.204669  
     379A      1.207552   380A      1.215623   381A      1.217525  
     382A      1.220658   383A      1.224039   384A      1.229300  
     385A      1.230245   386A      1.233065   387A      1.239236  
     388A      1.239398   389A      1.244895   390A      1.250558  
     391A      1.256250   392A      1.258362   393A      1.263898  
     394A      1.272636   395A      1.273042   396A      1.276471  
     397A      1.281141   398A      1.285137   399A      1.289243  
     400A      1.296122   401A      1.300971   402A      1.305131  
     403A      1.307904   404A      1.309533   405A      1.313898  
     406A      1.319353   407A      1.327191   408A      1.330447  
     409A      1.334071   410A      1.337956   411A      1.339987  
     412A      1.346630   413A      1.349652   414A      1.350904  
     415A      1.358982   416A      1.362909   417A      1.365839  
     418A      1.372542   419A      1.376961   420A      1.380267  
     421A      1.382202   422A      1.389065   423A      1.397252  
     424A      1.405317   425A      1.408220   426A      1.412625  
     427A      1.413202   428A      1.419161   429A      1.425258  
     430A      1.431773   431A      1.433124   432A      1.434284  
     433A      1.441155   434A      1.445006   435A      1.446824  
     436A      1.457033   437A      1.466513   438A      1.471740  
     439A      1.475463   440A      1.479196   441A      1.481410  
     442A      1.487825   443A      1.490034   444A      1.493326  
     445A      1.498945   446A      1.511386   447A      1.515614  
     448A      1.518309   449A      1.527040   450A      1.533216  
     451A      1.539106   452A      1.543551   453A      1.544405  
     454A      1.548155   455A      1.555076   456A      1.559653  
     457A      1.562777   458A      1.563852   459A      1.568405  
     460A      1.572004   461A      1.577797   462A      1.584697  
     463A      1.590533   464A      1.591178   465A      1.597744  
     466A      1.608252   467A      1.613038   468A      1.621494  
     469A      1.624170   470A      1.629790   471A      1.639261  
     472A      1.642357   473A      1.644722   474A      1.649611  
     475A      1.657400   476A      1.663679   477A      1.665044  
     478A      1.669608   479A      1.674064   480A      1.678877  
     481A      1.684939   482A      1.690767   483A      1.691677  
     484A      1.700003   485A      1.705906   486A      1.709097  
     487A      1.715838   488A      1.717907   489A      1.721238  
     490A      1.722386   491A      1.725461   492A      1.729218  
     493A      1.734333   494A      1.737301   495A      1.746893  
     496A      1.748537   497A      1.752335   498A      1.756328  
     499A      1.760941   500A      1.762566   501A      1.772099  
     502A      1.773737   503A      1.776158   504A      1.782781  
     505A      1.785808   506A      1.789033   507A      1.796348  
     508A      1.799076   509A      1.807478   510A      1.809630  
     511A      1.813756   512A      1.825550   513A      1.826392  
     514A      1.829174   515A      1.835661   516A      1.843834  
     517A      1.848998   518A      1.850428   519A      1.856271  
     520A      1.860228   521A      1.869216   522A      1.870595  
     523A      1.875185   524A      1.884234   525A      1.887894  
     526A      1.893291   527A      1.896217   528A      1.909485  
     529A      1.918125   530A      1.923888   531A      1.930388  
     532A      1.933477   533A      1.941650   534A      1.945059  
     535A      1.951259   536A      1.953033   537A      1.960878  
     538A      1.968105   539A      1.975120   540A      1.984152  
     541A      1.986078   542A      1.997259   543A      2.001929  
     544A      2.004854   545A      2.011085   546A      2.015714  
     547A      2.018908   548A      2.025836   549A      2.027095  
     550A      2.041084   551A      2.042889   552A      2.053480  
     553A      2.060973   554A      2.064323   555A      2.070393  
     556A      2.072402   557A      2.077848   558A      2.084695  
     559A      2.090489   560A      2.096118   561A      2.097780  
     562A      2.100716   563A      2.110833   564A      2.116506  
     565A      2.121823   566A      2.123169   567A      2.127528  
     568A      2.140378   569A      2.147154   570A      2.150952  
     571A      2.156352   572A      2.161032   573A      2.164338  
     574A      2.171579   575A      2.180429   576A      2.184165  
     577A      2.188723   578A      2.198255   579A      2.199583  
     580A      2.207283   581A      2.219710   582A      2.222628  
     583A      2.226706   584A      2.232071   585A      2.244470  
     586A      2.247684   587A      2.254035   588A      2.263660  
     589A      2.267230   590A      2.271798   591A      2.283569  
     592A      2.287333   593A      2.292354   594A      2.300853  
     595A      2.302850   596A      2.313040   597A      2.321352  
     598A      2.329764   599A      2.333051   600A      2.339521  
     601A      2.345100   602A      2.345620   603A      2.352718  
     604A      2.355275   605A      2.361786   606A      2.366914  
     607A      2.371749   608A      2.376304   609A      2.383983  
     610A      2.388712   611A      2.403476   612A      2.407803  
     613A      2.416528   614A      2.422852   615A      2.424851  
     616A      2.429297   617A      2.431726   618A      2.434712  
     619A      2.440656   620A      2.447446   621A      2.460864  
     622A      2.463307   623A      2.466473   624A      2.473529  
     625A      2.477807   626A      2.491336   627A      2.493715  
     628A      2.504195   629A      2.508367   630A      2.517704  
     631A      2.526242   632A      2.530130   633A      2.541492  
     634A      2.542715   635A      2.549531   636A      2.558570  
     637A      2.564267   638A      2.570379   639A      2.584675  
     640A      2.586161   641A      2.589648   642A      2.601888  
     643A      2.606036   644A      2.611187   645A      2.621422  
     646A      2.628819   647A      2.631466   648A      2.640227  
     649A      2.645276   650A      2.657417   651A      2.662555  
     652A      2.669225   653A      2.671444   654A      2.674094  
     655A      2.679578   656A      2.696275   657A      2.698778  
     658A      2.709178   659A      2.718177   660A      2.722047  
     661A      2.727264   662A      2.736598   663A      2.742111  
     664A      2.757103   665A      2.759401   666A      2.762397  
     667A      2.768989   668A      2.771698   669A      2.785939  
     670A      2.789173   671A      2.797959   672A      2.807344  
     673A      2.818781   674A      2.825617   675A      2.833289  
     676A      2.835676   677A      2.856624   678A      2.862112  
     679A      2.865263   680A      2.875068   681A      2.881365  
     682A      2.882967   683A      2.888538   684A      2.889914  
     685A      2.898588   686A      2.919277   687A      2.929114  
     688A      2.934856   689A      2.943588   690A      2.946247  
     691A      2.958370   692A      2.975284   693A      2.986702  
     694A      3.001398   695A      3.006189   696A      3.006313  
     697A      3.019170   698A      3.025786   699A      3.045004  
     700A      3.047601   701A      3.049885   702A      3.055268  
     703A      3.062888   704A      3.067241   705A      3.069690  
     706A      3.079704   707A      3.093352   708A      3.095872  
     709A      3.104272   710A      3.111330   711A      3.116359  
     712A      3.138738   713A      3.141016   714A      3.150550  
     715A      3.157296   716A      3.171212   717A      3.181362  
     718A      3.192461   719A      3.204850   720A      3.213588  
     721A      3.221685   722A      3.231012   723A      3.239387  
     724A      3.259011   725A      3.261077   726A      3.280343  
     727A      3.294072   728A      3.299497   729A      3.310055  
     730A      3.316340   731A      3.342864   732A      3.344160  
     733A      3.357890   734A      3.366145   735A      3.370491  
     736A      3.379506   737A      3.396200   738A      3.405047  
     739A      3.421209   740A      3.426543   741A      3.427442  
     742A      3.442225   743A      3.473637   744A      3.487286  
     745A      3.503380   746A      3.518682   747A      3.528131  
     748A      3.542780   749A      3.550296   750A      3.565872  
     751A      3.576842   752A      3.592768   753A      3.606344  
     754A      3.612029   755A      3.624957   756A      3.634374  
     757A      3.647489   758A      3.663279   759A      3.668424  
     760A      3.689779   761A      3.692308   762A      3.704244  
     763A      3.713906   764A      3.721562   765A      3.727174  
     766A      3.737939   767A      3.748050   768A      3.757964  
     769A      3.768614   770A      3.784848   771A      3.796560  
     772A      3.813147   773A      3.822137   774A      3.847419  
     775A      3.853521   776A      3.858957   777A      3.871313  
     778A      3.872098   779A      3.878268   780A      3.892325  
     781A      3.910531   782A      3.911367   783A      3.914704  
     784A      3.928157   785A      3.937173   786A      3.953479  
     787A      3.971037   788A      3.974134   789A      3.980627  
     790A      3.988526   791A      4.004253   792A      4.027173  
     793A      4.031534   794A      4.044383   795A      4.069312  
     796A      4.072658   797A      4.077622   798A      4.095698  
     799A      4.101732   800A      4.113386   801A      4.115261  
     802A      4.122296   803A      4.124109   804A      4.136881  
     805A      4.140529   806A      4.148438   807A      4.156724  
     808A      4.166368   809A      4.168200   810A      4.175866  
     811A      4.181551   812A      4.188178   813A      4.194210  
     814A      4.201073   815A      4.204242   816A      4.213510  
     817A      4.218137   818A      4.221278   819A      4.236761  
     820A      4.242274   821A      4.245927   822A      4.248839  
     823A      4.259289   824A      4.269315   825A      4.286093  
     826A      4.289525   827A      4.292905   828A      4.304418  
     829A      4.307031   830A      4.326214   831A      4.336407  
     832A      4.339173   833A      4.340513   834A      4.346068  
     835A      4.360778   836A      4.364234   837A      4.365953  
     838A      4.385814   839A      4.403215   840A      4.420017  
     841A      4.429765   842A      4.438039   843A      4.445179  
     844A      4.456139   845A      4.465161   846A      4.471812  
     847A      4.486855   848A      4.497234   849A      4.498201  
     850A      4.504432   851A      4.513977   852A      4.525631  
     853A      4.528973   854A      4.529533   855A      4.542518  
     856A      4.553211   857A      4.573831   858A      4.577012  
     859A      4.585847   860A      4.592258   861A      4.608092  
     862A      4.611075   863A      4.615380   864A      4.629820  
     865A      4.641271   866A      4.654994   867A      4.658284  
     868A      4.664171   869A      4.670321   870A      4.685046  
     871A      4.697504   872A      4.701587   873A      4.705367  
     874A      4.715704   875A      4.724963   876A      4.733126  
     877A      4.739842   878A      4.747766   879A      4.756916  
     880A      4.764679   881A      4.779214   882A      4.789430  
     883A      4.799842   884A      4.808521   885A      4.816564  
     886A      4.817584   887A      4.827148   888A      4.836208  
     889A      4.849077   890A      4.867955   891A      4.872205  
     892A      4.877000   893A      4.886974   894A      4.893776  
     895A      4.906592   896A      4.910987   897A      4.917344  
     898A      4.924961   899A      4.930655   900A      4.940909  
     901A      4.947375   902A      4.954909   903A      4.957830  
     904A      4.967513   905A      4.981418   906A      4.989228  
     907A      4.992026   908A      5.000409   909A      5.012984  
     910A      5.019938   911A      5.029789   912A      5.032157  
     913A      5.035317   914A      5.048519   915A      5.052434  
     916A      5.068985   917A      5.073694   918A      5.077450  
     919A      5.083294   920A      5.088110   921A      5.113035  
     922A      5.115349   923A      5.130577   924A      5.136025  
     925A      5.141657   926A      5.157328   927A      5.164112  
     928A      5.167790   929A      5.186290   930A      5.191835  
     931A      5.204231   932A      5.209985   933A      5.220725  
     934A      5.234662   935A      5.251734   936A      5.261787  
     937A      5.263105   938A      5.277972   939A      5.285734  
     940A      5.298930   941A      5.303458   942A      5.327463  
     943A      5.334017   944A      5.341201   945A      5.344153  
     946A      5.348874   947A      5.359552   948A      5.361711  
     949A      5.375827   950A      5.415814   951A      5.422517  
     952A      5.434284   953A      5.439024   954A      5.453504  
     955A      5.468399   956A      5.471985   957A      5.478622  
     958A      5.483637   959A      5.490279   960A      5.499564  
     961A      5.506296   962A      5.514859   963A      5.522933  
     964A      5.526826   965A      5.544614   966A      5.550840  
     967A      5.555223   968A      5.563931   969A      5.567901  
     970A      5.582503   971A      5.601945   972A      5.609431  
     973A      5.613047   974A      5.640597   975A      5.642458  
     976A      5.644820   977A      5.647079   978A      5.656378  
     979A      5.672162   980A      5.685307   981A      5.694985  
     982A      5.709173   983A      5.710712   984A      5.731617  
     985A      5.750437   986A      5.754905   987A      5.758235  
     988A      5.761357   989A      5.782985   990A      5.791490  
     991A      5.800130   992A      5.813979   993A      5.817371  
     994A      5.830153   995A      5.842571   996A      5.865442  
     997A      5.869152   998A      5.878925   999A      5.910337  
    1000A      5.923531  1001A      5.931267  1002A      5.935943  
    1003A      5.937666  1004A      5.946698  1005A      5.989767  
    1006A      6.013000  1007A      6.018034  1008A      6.053413  
    1009A      6.059423  1010A      6.062656  1011A      6.069017  
    1012A      6.073788  1013A      6.084119  1014A      6.101442  
    1015A      6.102104  1016A      6.108665  1017A      6.114777  
    1018A      6.124038  1019A      6.146010  1020A      6.170960  
    1021A      6.200997  1022A      6.210292  1023A      6.216333  
    1024A      6.217913  1025A      6.221478  1026A      6.236186  
    1027A      6.241374  1028A      6.280444  1029A      6.284014  
    1030A      6.311327  1031A      6.326630  1032A      6.344824  
    1033A      6.354998  1034A      6.413211  1035A      6.426316  
    1036A      6.447774  1037A      6.450973  1038A      6.470110  
    1039A      6.484770  1040A      6.493743  1041A      6.503015  
    1042A      6.508284  1043A      6.524222  1044A      6.534675  
    1045A      6.541871  1046A      6.551564  1047A      6.558818  
    1048A      6.579555  1049A      6.604035  1050A      6.609698  
    1051A      6.624172  1052A      6.634651  1053A      6.641005  
    1054A      6.691100  1055A      6.699212  1056A      6.710531  
    1057A      6.724389  1058A      6.739755  1059A      6.752009  
    1060A      6.758484  1061A      6.772639  1062A      6.790287  
    1063A      6.805012  1064A      6.817752  1065A      6.826810  
    1066A      6.838764  1067A      6.842077  1068A      6.854175  
    1069A      6.877069  1070A      6.885498  1071A      6.897235  
    1072A      6.912311  1073A      6.923909  1074A      6.930355  
    1075A      6.938265  1076A      6.949540  1077A      6.978016  
    1078A      7.009063  1079A      7.013018  1080A      7.036052  
    1081A      7.046242  1082A      7.082521  1083A      7.086687  
    1084A      7.114842  1085A      7.147217  1086A      7.193453  
    1087A      7.222312  1088A      7.238062  1089A      7.242289  
    1090A      7.249458  1091A      7.261561  1092A      7.351099  
    1093A      7.398727  1094A      7.421913  1095A      7.429390  
    1096A      7.436837  1097A      7.440090  1098A      7.451397  
    1099A      7.462459  1100A      7.478304  1101A      7.489383  
    1102A      7.498560  1103A      7.536588  1104A      7.550993  
    1105A      7.568621  1106A      7.592150  1107A      7.596395  
    1108A      7.645889  1109A      7.664213  1110A      7.671444  
    1111A      7.699396  1112A      7.703794  1113A      7.717254  
    1114A      7.746340  1115A      7.761820  1116A      7.785958  
    1117A      7.801323  1118A      7.816959  1119A      7.838031  
    1120A      7.846783  1121A      7.867695  1122A      7.885566  
    1123A      7.887347  1124A      7.922948  1125A      7.949450  
    1126A      7.980020  1127A      7.990370  1128A      7.999774  
    1129A      8.015072  1130A      8.056411  1131A      8.087101  
    1132A      8.128826  1133A      8.150916  1134A      8.254635  
    1135A      8.316488  1136A      8.335887  1137A      8.408261  
    1138A      8.450423  1139A      8.489166  1140A      8.553117  
    1141A      8.700760  1142A      8.801335  1143A      8.843026  
    1144A      8.948401  1145A      9.010560  1146A      9.070189  
    1147A      9.235828  1148A      9.301252  1149A      9.483124  
    1150A      9.511695  1151A      9.569165  1152A      9.602851  
    1153A      9.701193  1154A      9.746046  1155A      9.773558  
    1156A     10.170121  1157A     10.264323  1158A     10.387817  
    1159A     10.734784  1160A     11.028598  1161A     11.038512  
    1162A     11.179587  1163A     11.248425  1164A     11.515337  
    1165A     11.631229  1166A     11.766716  1167A     11.914001  
    1168A     12.020108  1169A     12.100748  1170A     12.206175  
    1171A     12.312900  1172A     12.450803  1173A     12.530270  
    1174A     12.878379  1175A     13.058010  1176A     16.087157  
    1177A     16.337660  1178A     16.586517  1179A     16.837067  
    1180A     17.675646  1181A     18.211839  1182A     19.127515  
    1183A     19.359319  1184A     20.311380  1185A     20.724298  
    1186A     21.183437  1187A     51.626014  1188A     51.738379  
    1189A     52.463248  1190A     54.115675  1191A     56.306233  
    1192A     60.278563  1193A     61.386974  1194A     62.223327  
    1195A     62.561682  1196A     64.515632  

    Final Occupation by Irrep:
              A 
    DOCC [    39 ]

  @DF-RHF Final Energy:  -539.58428710843702

   => Energetics <=

    Nuclear Repulsion Energy =            593.8720978071755781
    One-Electron Energy =               -1913.3959232055224220
    Two-Electron Energy =                 779.9395382899098195
    Total Energy =                       -539.5842871084370245

Computation Completed


Properties will be evaluated at   0.000000,   0.000000,   0.000000 [a0]

Properties computed using the SCF density matrix

  Nuclear Dipole Moment: [e a0]
     X:    76.6658      Y:  -372.5600      Z:   225.9884

  Electronic Dipole Moment: [e a0]
     X:   -79.3770      Y:   371.1218      Z:  -225.9114

  Dipole Moment: [e a0]
     X:    -2.7113      Y:    -1.4382      Z:     0.0770     Total:     3.0701

  Dipole Moment: [D]
     X:    -6.8913      Y:    -3.6555      Z:     0.1958     Total:     7.8033


*** tstop() called on node165.bme.utexas.edu at Mon Jan 22 15:31:04 2024
Module time:
	user time   =     533.40 seconds =       8.89 minutes
	system time =       7.77 seconds =       0.13 minutes
	total time  =         75 seconds =       1.25 minutes
Total time:
	user time   =    2484.16 seconds =      41.40 minutes
	system time =      95.24 seconds =       1.59 minutes
	total time  =        385 seconds =       6.42 minutes

*** tstart() called on node165.bme.utexas.edu
*** at Mon Jan 22 15:31:04 2024


  //>>>>>>>>>>>>>>>>>>>>>>>>>>>>>>>>>>>//
  //               DFMP2               //
  //<<<<<<<<<<<<<<<<<<<<<<<<<<<<<<<<<<<//

   => Loading Basis Set <=

    Name: (AUG-CC-PVTZ AUX)
    Role: RIFIT
    Keyword: DF_BASIS_MP2
    atoms 1, 3, 7, 9, 11, 16, 18, 22, 24, 26 entry N          line   206 file /opt/anaconda/envs/psi4v1.5/share/psi4/basis/aug-cc-pvtz-ri.gbs 
    atoms 2, 4-6, 8, 17, 19-21, 23           entry C          line   148 file /opt/anaconda/envs/psi4v1.5/share/psi4/basis/aug-cc-pvtz-ri.gbs 
    atoms 10, 12-15, 25, 27-28, 30-31        entry H          line    30 file /opt/anaconda/envs/psi4v1.5/share/psi4/basis/aug-cc-pvtz-ri.gbs 
    atoms 29                                 entry O          line   264 file /opt/anaconda/envs/psi4v1.5/share/psi4/basis/aug-cc-pvtz-ri.gbs 

	 --------------------------------------------------------
	                          DF-MP2                         
	      2nd-Order Density-Fitted Moller-Plesset Theory     
	              RMP2 Wavefunction,   8 Threads             
	                                                         
	        Rob Parrish, Justin Turney, Andy Simmonett,      
	           Ed Hohenstein, and C. David Sherrill          
	 --------------------------------------------------------

   => Auxiliary Basis Set <=

  Basis Set: (AUG-CC-PVTZ AUX)
    Blend: AUG-CC-PVTZ-RI
    Number of shells: 728
    Number of basis functions: 2686
    Number of Cartesian functions: 3406
    Spherical Harmonics?: true
    Max angular momentum: 4

	 --------------------------------------------------------
	                 NBF =  1196, NAUX =  2686
	 --------------------------------------------------------
	   CLASS    FOCC     OCC    AOCC    AVIR     VIR    FVIR
	   PAIRS      11      39      28    1157    1157       0
	 --------------------------------------------------------

	 Will attempt to load fitting metric from file 97.

	-----------------------------------------------------------
	 ==================> DF-MP2 Energies <==================== 
	-----------------------------------------------------------
	 Reference Energy          =    -539.5842871084370245 [Eh]
	 Singles Energy            =      -0.0000000000000000 [Eh]
	 Same-Spin Energy          =      -0.5419814556405003 [Eh]
	 Opposite-Spin Energy      =      -1.4968316285808938 [Eh]
	 Correlation Energy        =      -2.0388130842213941 [Eh]
	 Total Energy              =    -541.6231001926583986 [Eh]
	-----------------------------------------------------------
	 ================> DF-SCS-MP2 Energies <================== 
	-----------------------------------------------------------
	 SCS Same-Spin Scale       =       0.3333333333333333 [-]
	 SCS Opposite-Spin Scale   =       1.2000000000000000 [-]
	 SCS Same-Spin Energy      =      -0.1806604852135001 [Eh]
	 SCS Opposite-Spin Energy  =      -1.7961979542970725 [Eh]
	 SCS Correlation Energy    =      -1.9768584395105726 [Eh]
	 SCS Total Energy          =    -541.5611455479476035 [Eh]
	-----------------------------------------------------------


*** tstop() called on node165.bme.utexas.edu at Mon Jan 22 15:31:41 2024
Module time:
	user time   =     173.32 seconds =       2.89 minutes
	system time =       9.35 seconds =       0.16 minutes
	total time  =         37 seconds =       0.62 minutes
Total time:
	user time   =    2657.49 seconds =      44.29 minutes
	system time =     104.59 seconds =       1.74 minutes
	total time  =        422 seconds =       7.03 minutes
  Constructing Basis Sets for SAPT...

   => Loading Basis Set <=

    Name: (AUG-CC-PVTZ AUX)
    Role: RIFIT
    Keyword: DF_BASIS_SAPT
    atoms 1, 3, 7, 9, 11, 16, 18, 22, 24, 26 entry N          line   206 file /opt/anaconda/envs/psi4v1.5/share/psi4/basis/aug-cc-pvtz-ri.gbs 
    atoms 2, 4-6, 8, 17, 19-21, 23           entry C          line   148 file /opt/anaconda/envs/psi4v1.5/share/psi4/basis/aug-cc-pvtz-ri.gbs 
    atoms 10, 12-15, 25, 27-28, 30-31        entry H          line    30 file /opt/anaconda/envs/psi4v1.5/share/psi4/basis/aug-cc-pvtz-ri.gbs 
    atoms 29                                 entry O          line   264 file /opt/anaconda/envs/psi4v1.5/share/psi4/basis/aug-cc-pvtz-ri.gbs 


  //>>>>>>>>>>>>>>>>>>>>>>>>>>>>>>>>>>>//
  //           SAPT2+(3)DMP2           //
  //<<<<<<<<<<<<<<<<<<<<<<<<<<<<<<<<<<<//


*** tstart() called on node165.bme.utexas.edu
*** at Mon Jan 22 15:31:42 2024

      SAPT2+(3)  
    Ed Hohenstein
     6 June 2009

      Orbital Information
  --------------------------
    NSO        =      1196
    NMO        =      1196
    NRI        =      2686
    NOCC A     =        35
    NOCC B     =        39
    FOCC A     =        10
    FOCC B     =        11
    NVIR A     =      1161
    NVIR B     =      1157

    Estimated memory usage: 78168.6 MB

    Natural Orbital Cutoff:   1.000E-06
    Disp(T3) Truncation:            Yes
    CCD (vv|vv) Truncation:         Yes
    MBPT T2 Truncation:             Yes

    Monomer A: 675 virtual orbitals dropped
    Monomer B: 628 virtual orbitals dropped

    Elst10,r            =    -0.003020638242 [Eh]
    Exch10 (S^2)        =     0.001726638641 [Eh]
    Exch10              =     0.001727541939 [Eh]
    Ind20,r (A<-B)      =    -0.001297700769 [Eh]
    Ind20,r (B<-A)      =    -0.000350866868 [Eh]
    Ind20,r             =    -0.001648567637 [Eh]
    Exch-Ind20,r (A<-B) =     0.000340810980 [Eh]
    Exch-Ind20,r (B<-A) =     0.000207972582 [Eh]
    Exch-Ind20,r        =     0.000548783562 [Eh]
    Disp20              =    -0.004896228371 [Eh]
    Disp20 (NO)         =    -0.004575230552 [Eh]
    Exch-Disp20         =     0.000284391837 [Eh]
    Elst12,r            =    -0.000095041198 [Eh]
    Exch11              =    -0.000031513769 [Eh]
    Exch12              =     0.000365335556 [Eh]
    Ind22               =    -0.000089626584 [Eh]
    Disp21              =     0.001203316178 [Eh]
    Disp22 (SDQ)        =    -0.000178881523 [Eh]

    (i =   1 of  28)       1363 seconds
    (i =   2 of  28)       2719 seconds
    (i =   3 of  28)       4077 seconds
    (i =   4 of  28)       5447 seconds
    (i =   5 of  28)       6841 seconds
    (i =   6 of  28)       8233 seconds
    (i =   7 of  28)       9888 seconds
    (i =   8 of  28)      11269 seconds
    (i =   9 of  28)      12616 seconds
    (i =  10 of  28)      13961 seconds
    (i =  11 of  28)      15313 seconds
    (i =  12 of  28)      16685 seconds
    (i =  13 of  28)      18038 seconds
    (i =  14 of  28)      19393 seconds
    (i =  15 of  28)      20858 seconds
    (i =  16 of  28)      22427 seconds
    (i =  17 of  28)      23776 seconds
    (i =  18 of  28)      25129 seconds
    (i =  19 of  28)      26484 seconds
    (i =  20 of  28)      27876 seconds
    (i =  21 of  28)      29291 seconds
    (i =  22 of  28)      30609 seconds
    (i =  23 of  28)      31865 seconds
    (i =  24 of  28)      33420 seconds
    (i =  25 of  28)      34747 seconds
    (i =  26 of  28)      36003 seconds
    (i =  27 of  28)      37255 seconds
    (i =  28 of  28)      38507 seconds

    Disp220 (T)         =    -0.000580421066 [Eh]

    (i =   1 of  25)       1702 seconds
    (i =   2 of  25)       3412 seconds
    (i =   3 of  25)       5164 seconds
    (i =   4 of  25)       7340 seconds
    (i =   5 of  25)       9119 seconds
    (i =   6 of  25)      10892 seconds
    (i =   7 of  25)      12669 seconds
    (i =   8 of  25)      14503 seconds
    (i =   9 of  25)      16300 seconds
    (i =  10 of  25)      18514 seconds
    (i =  11 of  25)      20444 seconds
    (i =  12 of  25)      22332 seconds
    (i =  13 of  25)      24214 seconds
    (i =  14 of  25)      25943 seconds
    (i =  15 of  25)      27622 seconds
    (i =  16 of  25)      29298 seconds
    (i =  17 of  25)      31066 seconds
    (i =  18 of  25)      32828 seconds
    (i =  19 of  25)      34556 seconds
    (i =  20 of  25)      36245 seconds
    (i =  21 of  25)      37928 seconds
    (i =  22 of  25)      39605 seconds
    (i =  23 of  25)      41281 seconds
    (i =  24 of  25)      43121 seconds
    (i =  25 of  25)      44854 seconds

    Disp202 (T)         =    -0.000618348329 [Eh]

    Disp22 (T)          =    -0.001198769395 [Eh]

    Est. Disp220 (T)    =    -0.000621143363 [Eh]
    Est. Disp202 (T)    =    -0.000661731600 [Eh]

    Est. Disp22 (T)     =    -0.001282874963 [Eh]
    Elst13,r            =     0.000043533856 [Eh]
    Disp30              =     0.000069897299 [Eh]

    SAPT Results 
  --------------------------------------------------------------------------------------------------------
    Electrostatics                 -3.07214558 [mEh]      -1.92780046 [kcal/mol]      -8.06591712 [kJ/mol]
      Elst10,r                     -3.02063824 [mEh]      -1.89547911 [kcal/mol]      -7.93068461 [kJ/mol]
      Elst12,r                     -0.09504120 [mEh]      -0.05963925 [kcal/mol]      -0.24953063 [kJ/mol]
      Elst13,r                      0.04353386 [mEh]       0.02731791 [kcal/mol]       0.11429812 [kJ/mol]

    Exchange                        2.06136373 [mEh]       1.29352527 [kcal/mol]       5.41210972 [kJ/mol]
      Exch10                        1.72754194 [mEh]       1.08404893 [kcal/mol]       4.53566074 [kJ/mol]
      Exch10(S^2)                   1.72663864 [mEh]       1.08348210 [kcal/mol]       4.53328913 [kJ/mol]
      Exch11(S^2)                  -0.03151377 [mEh]      -0.01977519 [kcal/mol]      -0.08273939 [kJ/mol]
      Exch12(S^2)                   0.36533556 [mEh]       0.22925152 [kcal/mol]       0.95918837 [kJ/mol]

    Induction                      -1.11010122 [mEh]      -0.69659903 [kcal/mol]      -2.91457034 [kJ/mol]
      Ind20,r                      -1.64856764 [mEh]      -1.03449181 [kcal/mol]      -4.32831373 [kJ/mol]
      Ind22                        -0.08962658 [mEh]      -0.05624153 [kcal/mol]      -0.23531456 [kJ/mol]
      Exch-Ind20,r                  0.54878356 [mEh]       0.34436688 [kcal/mol]       1.44083104 [kJ/mol]
      Exch-Ind22                    0.02983535 [mEh]       0.01872197 [kcal/mol]       0.07833271 [kJ/mol]
      delta HF,r (2)               -0.15548048 [mEh]      -0.09756547 [kcal/mol]      -0.40821394 [kJ/mol]
      delta MP2,r (2)               0.20495457 [mEh]       0.12861093 [kcal/mol]       0.53810814 [kJ/mol]

    Dispersion                     -4.80037954 [mEh]      -3.01228364 [kcal/mol]     -12.60339475 [kJ/mol]
      Disp20                       -4.89622837 [mEh]      -3.07242969 [kcal/mol]     -12.85504582 [kJ/mol]
      Disp30                        0.06989730 [mEh]       0.04386122 [kcal/mol]       0.18351533 [kJ/mol]
      Disp21                        1.20331618 [mEh]       0.75509230 [kcal/mol]       3.15930619 [kJ/mol]
      Disp22 (SDQ)                 -0.17888152 [mEh]      -0.11224985 [kcal/mol]      -0.46965337 [kJ/mol]
      Disp22 (T)                   -1.19876940 [mEh]      -0.75223915 [kcal/mol]      -3.14736861 [kJ/mol]
      Est. Disp22 (T)              -1.28287496 [mEh]      -0.80501619 [kcal/mol]      -3.36818775 [kJ/mol]
      Exch-Disp20                   0.28439184 [mEh]       0.17845857 [kcal/mol]       0.74667067 [kJ/mol]

  Total HF                         -2.54836086 [mEh]      -1.59912058 [kcal/mol]      -6.69072050 [kJ/mol]
  Total SAPT0                      -7.16019739 [mEh]      -4.49309170 [kcal/mol]     -18.79909565 [kJ/mol]
  Total SAPT2                      -6.98120803 [mEh]      -4.38077418 [kcal/mol]     -18.32915916 [kJ/mol]
  Total SAPT2+                     -7.23964834 [mEh]      -4.54294792 [kcal/mol]     -19.00769410 [kJ/mol]
  Total SAPT2+(3)                  -7.12621718 [mEh]      -4.47176880 [kcal/mol]     -18.70988064 [kJ/mol]
  Total SAPT2+dMP2                 -7.03469377 [mEh]      -4.41433699 [kcal/mol]     -18.46958595 [kJ/mol]
  Total SAPT2+(3)dMP2              -6.92126262 [mEh]      -4.34315786 [kcal/mol]     -18.17177250 [kJ/mol]

  Special recipe for scaled SAPT0 (see Manual):
    Electrostatics sSAPT0          -3.02063824 [mEh]      -1.89547911 [kcal/mol]      -7.93068461 [kJ/mol]
    Exchange sSAPT0                 1.72754194 [mEh]       1.08404893 [kcal/mol]       4.53566074 [kJ/mol]
    Induction sSAPT0               -1.25440281 [mEh]      -0.78714964 [kcal/mol]      -3.29343411 [kJ/mol]
    Dispersion sSAPT0              -4.61138996 [mEh]      -2.89369089 [kcal/mol]     -12.10720267 [kJ/mol]
  Total sSAPT0                     -7.15888907 [mEh]      -4.49227071 [kcal/mol]     -18.79566066 [kJ/mol]
  --------------------------------------------------------------------------------------------------------

*** tstop() called on node165.bme.utexas.edu at Tue Jan 23 19:36:46 2024
Module time:
	user time   =  593337.23 seconds =    9888.95 minutes
	system time =    4992.81 seconds =      83.21 minutes
	total time  =     101104 seconds =    1685.07 minutes
Total time:
	user time   =  595994.86 seconds =    9933.25 minutes
	system time =    5097.40 seconds =      84.96 minutes
	total time  =     101527 seconds =    1692.12 minutes

    Psi4 stopped on: Tuesday, 23 January 2024 07:36PM
    Psi4 wall time for execution: 1 day, 4:12:08.26

*** Psi4 exiting successfully. Buy a developer a beer!
