
    -----------------------------------------------------------------------
          Psi4: An Open-Source Ab Initio Electronic Structure Package
                               Psi4 1.5 release

                         Git: Rev {HEAD} e9f4d6d 


    D. G. A. Smith, L. A. Burns, A. C. Simmonett, R. M. Parrish,
    M. C. Schieber, R. Galvelis, P. Kraus, H. Kruse, R. Di Remigio,
    A. Alenaizan, A. M. James, S. Lehtola, J. P. Misiewicz, M. Scheurer,
    R. A. Shaw, J. B. Schriber, Y. Xie, Z. L. Glick, D. A. Sirianni,
    J. S. O'Brien, J. M. Waldrop, A. Kumar, E. G. Hohenstein,
    B. P. Pritchard, B. R. Brooks, H. F. Schaefer III, A. Yu. Sokolov,
    K. Patkowski, A. E. DePrince III, U. Bozkaya, R. A. King,
    F. A. Evangelista, J. M. Turney, T. D. Crawford, C. D. Sherrill,
    J. Chem. Phys. 152(18) 184108 (2020). https://doi.org/10.1063/5.0006002

                            Additional Code Authors
    E. T. Seidl, C. L. Janssen, E. F. Valeev, M. L. Leininger,
    J. F. Gonthier, R. M. Richard, H. R. McAlexander, M. Saitow, X. Wang,
    P. Verma, M. H. Lechner, and A. Jiang

             Previous Authors, Complete List of Code Contributors,
                       and Citations for Specific Modules
    https://github.com/psi4/psi4/blob/master/codemeta.json
    https://github.com/psi4/psi4/graphs/contributors
    http://psicode.org/psi4manual/master/introduction.html#citing-psifour

    -----------------------------------------------------------------------


    Psi4 started on: Monday, 22 January 2024 03:24PM

    Process ID: 1953312
    Host:       node155.bme.utexas.edu
    PSIDATADIR: /opt/anaconda/envs/psi4v1.5/share/psi4
    Memory:     500.0 MiB
    Threads:    8
    
  ==> Input File <==

--------------------------------------------------------------------------
memory 80GB

molecule {
0 1
N -1.249408 -4.334618 0.000108
C -1.453779 -2.957386 0.000369
N -0.287164 -2.222242 0.000471
C 1.008028 -2.72249 0.000365
C 1.139737 -4.181361 6.4e-05
C 0.0 -4.915748 0.0
H -2.087419 -4.899193 0.000228
O -2.573085 -2.462566 0.000505
H -0.408805 -1.172186 0.000678
O 1.977244 -1.953535 0.000498
C 2.515972 -4.780254 -0.000534
H 2.46354 -5.877599 0.006109
H 3.080111 -4.452913 -0.886592
H 3.085127 -4.442101 0.87814
H 0.011158 -6.004875 -3.7e-05
--
0 1
N 1.100388 -4.128634 3.264027
C 0.248562 -3.007824 3.321979
N 0.820055 -1.77867 3.243597
C 2.148994 -1.642223 3.115595
C 3.028609 -2.788064 3.05552
C 2.452166 -4.015575 3.134336
H 0.647834 -5.031253 3.324692
O -0.96862 -3.201588 3.440578
N 2.639756 -0.400692 3.044576
H 2.005293 0.425439 3.087894
H 3.633293 -0.260078 2.948105
H 4.104543 -2.67605 2.95186
H 3.021463 -4.94353 3.099173
 units angstrom
 no_reorient
 symmetry c1}
set  {scf_type DF
 basis aug-cc-pvtz
 freeze_core True
 guess SAD}
energy('sapt2+(3)dmp2')
--------------------------------------------------------------------------

  Memory set to  74.506 GiB by Python driver.

Scratch directory: /tmp/
   => Loading Basis Set <=

    Name: AUG-CC-PVTZ
    Role: ORBITAL
    Keyword: BASIS
    atoms 1, 3, 16, 18, 24       entry N          line   285 file /opt/anaconda/envs/psi4v1.5/share/psi4/basis/aug-cc-pvtz.gbs 
    atoms 2, 4-6, 11, 17, 19-21  entry C          line   239 file /opt/anaconda/envs/psi4v1.5/share/psi4/basis/aug-cc-pvtz.gbs 
    atoms 7, 9, 12-15, 22, 25-28 entry H          line    40 file /opt/anaconda/envs/psi4v1.5/share/psi4/basis/aug-cc-pvtz.gbs 
    atoms 8, 10, 23              entry O          line   331 file /opt/anaconda/envs/psi4v1.5/share/psi4/basis/aug-cc-pvtz.gbs 

   => Loading Basis Set <=

    Name: AUG-CC-PVTZ
    Role: ORBITAL
    Keyword: BASIS
    atoms 1, 3, 16, 18, 24       entry N          line   285 file /opt/anaconda/envs/psi4v1.5/share/psi4/basis/aug-cc-pvtz.gbs 
    atoms 2, 4-6, 11, 17, 19-21  entry C          line   239 file /opt/anaconda/envs/psi4v1.5/share/psi4/basis/aug-cc-pvtz.gbs 
    atoms 7, 9, 12-15, 22, 25-28 entry H          line    40 file /opt/anaconda/envs/psi4v1.5/share/psi4/basis/aug-cc-pvtz.gbs 
    atoms 8, 10, 23              entry O          line   331 file /opt/anaconda/envs/psi4v1.5/share/psi4/basis/aug-cc-pvtz.gbs 


  //>>>>>>>>>>>>>>>>>>>>>>>>>>>>>>>>>>>//
  //              Dimer HF             //
  //<<<<<<<<<<<<<<<<<<<<<<<<<<<<<<<<<<<//


*** tstart() called on node155.bme.utexas.edu
*** at Mon Jan 22 15:24:39 2024

   => Loading Basis Set <=

    Name: AUG-CC-PVTZ
    Role: ORBITAL
    Keyword: BASIS
    atoms 1, 3, 16, 18, 24       entry N          line   285 file /opt/anaconda/envs/psi4v1.5/share/psi4/basis/aug-cc-pvtz.gbs 
    atoms 2, 4-6, 11, 17, 19-21  entry C          line   239 file /opt/anaconda/envs/psi4v1.5/share/psi4/basis/aug-cc-pvtz.gbs 
    atoms 7, 9, 12-15, 22, 25-28 entry H          line    40 file /opt/anaconda/envs/psi4v1.5/share/psi4/basis/aug-cc-pvtz.gbs 
    atoms 8, 10, 23              entry O          line   331 file /opt/anaconda/envs/psi4v1.5/share/psi4/basis/aug-cc-pvtz.gbs 


         ---------------------------------------------------------
                                   SCF
               by Justin Turney, Rob Parrish, Andy Simmonett
                          and Daniel G. A. Smith
                              RHF Reference
                        8 Threads,  76293 MiB Core
         ---------------------------------------------------------

  ==> Geometry <==

    Molecular point group: c1
    Full point group: C1

    Geometry (in Angstrom), charge = 0, multiplicity = 1:

       Center              X                  Y                   Z               Mass       
    ------------   -----------------  -----------------  -----------------  -----------------
         N           -1.966806539665    -1.324045981655    -1.500946238490    14.003074004430
         C           -2.171177539665     0.053186018345    -1.500685238490    12.000000000000
         N           -1.004562539665     0.788330018345    -1.500583238490    14.003074004430
         C            0.290629460335     0.288082018345    -1.500689238490    12.000000000000
         C            0.422338460335    -1.170788981655    -1.500990238490    12.000000000000
         C           -0.717398539665    -1.905175981655    -1.501054238490    12.000000000000
         H           -2.804817539665    -1.888620981655    -1.500826238490     1.007825032230
         O           -3.290483539665     0.548006018345    -1.500549238490    15.994914619570
         H           -1.126203539665     1.838386018345    -1.500376238490     1.007825032230
         O            1.259845460335     1.057037018345    -1.500556238490    15.994914619570
         C            1.798573460335    -1.769681981655    -1.501588238490    12.000000000000
         H            1.746141460335    -2.867026981655    -1.494945238490     1.007825032230
         H            2.362712460335    -1.442340981655    -2.387646238490     1.007825032230
         H            2.367728460335    -1.431528981655    -0.622914238490     1.007825032230
         H           -0.706240539665    -2.994302981655    -1.501091238490     1.007825032230
         N            0.382989460335    -1.118061981655     1.762972761510    14.003074004430
         C           -0.468836539665     0.002748018345     1.820924761510    12.000000000000
         N            0.102656460335     1.231902018345     1.742542761510    14.003074004430
         C            1.431595460335     1.368349018345     1.614540761510    12.000000000000
         C            2.311210460335     0.222508018345     1.554465761510    12.000000000000
         C            1.734767460335    -1.005002981655     1.633281761510    12.000000000000
         H           -0.069564539665    -2.020680981655     1.823637761510     1.007825032230
         O           -1.686018539665    -0.191015981655     1.939523761510    15.994914619570
         N            1.922357460335     2.609880018345     1.543521761510    14.003074004430
         H            1.287894460335     3.436011018345     1.586839761510     1.007825032230
         H            2.915894460335     2.750494018345     1.447050761510     1.007825032230
         H            3.387144460335     0.334522018345     1.450805761510     1.007825032230
         H            2.304064460335    -1.932957981655     1.598118761510     1.007825032230

  Running in c1 symmetry.

  Rotational constants: A =      0.02269  B =      0.01392  C =      0.01271 [cm^-1]
  Rotational constants: A =    680.30945  B =    417.31563  C =    381.13183 [MHz]
  Nuclear repulsion = 1268.321283145417738

  Charge       = 0
  Multiplicity = 1
  Electrons    = 124
  Nalpha       = 62
  Nbeta        = 62

  ==> Algorithm <==

  SCF Algorithm Type is DF.
  DIIS enabled.
  MOM disabled.
  Fractional occupation disabled.
  Guess Type is SAD.
  Energy threshold   = 1.00e-08
  Density threshold  = 1.00e-08
  Integral threshold = 1.00e-12

  ==> Primary Basis <==

  Basis Set: AUG-CC-PVTZ
    Blend: AUG-CC-PVTZ
    Number of shells: 337
    Number of basis functions: 1035
    Number of Cartesian functions: 1210
    Spherical Harmonics?: true
    Max angular momentum: 3

   => Loading Basis Set <=

    Name: (AUG-CC-PVTZ AUX)
    Role: JKFIT
    Keyword: DF_BASIS_SCF
    atoms 1, 3, 16, 18, 24       entry N          line   224 file /opt/anaconda/envs/psi4v1.5/share/psi4/basis/aug-cc-pvtz-jkfit.gbs 
    atoms 2, 4-6, 11, 17, 19-21  entry C          line   162 file /opt/anaconda/envs/psi4v1.5/share/psi4/basis/aug-cc-pvtz-jkfit.gbs 
    atoms 7, 9, 12-15, 22, 25-28 entry H          line    70 file /opt/anaconda/envs/psi4v1.5/share/psi4/basis/aug-cc-pvtz-jkfit.gbs 
    atoms 8, 10, 23              entry O          line   286 file /opt/anaconda/envs/psi4v1.5/share/psi4/basis/aug-cc-pvtz-jkfit.gbs 

  ==> Integral Setup <==

  ==> DiskDFJK: Density-Fitted J/K Matrices <==

    J tasked:                  Yes
    K tasked:                  Yes
    wK tasked:                  No
    OpenMP threads:              8
    Integrals threads:           8
    Memory [MiB]:            57220
    Algorithm:                Core
    Integral Cache:           SAVE
    Schwarz Cutoff:          1E-12
    Fitting Condition:       1E-10

   => Auxiliary Basis Set <=

  Basis Set: (AUG-CC-PVTZ AUX)
    Blend: AUG-CC-PVTZ-JKFIT
    Number of shells: 664
    Number of basis functions: 2274
    Number of Cartesian functions: 2832
    Spherical Harmonics?: true
    Max angular momentum: 4

  Minimum eigenvalue in the overlap matrix is 1.1534259522E-06.
  Reciprocal condition number of the overlap matrix is 4.9732494326E-08.
    Using symmetric orthogonalization.

  ==> Pre-Iterations <==

  SCF Guess: Superposition of Atomic Densities via on-the-fly atomic UHF (no occupation information).

   -------------------------
    Irrep   Nso     Nmo    
   -------------------------
     A       1035    1035 
   -------------------------
    Total    1035    1035
   -------------------------

  ==> Iterations <==

                           Total Energy        Delta E     RMS |[F,P]|

   @DF-RHF iter SAD:  -843.29778284498684   -8.43298e+02   0.00000e+00 
   @DF-RHF iter   1:  -843.87344324849164   -5.75660e-01   1.03537e-03 DIIS
   @DF-RHF iter   2:  -844.25987985316078   -3.86437e-01   6.36297e-04 DIIS
   @DF-RHF iter   3:  -844.40726819125359   -1.47388e-01   1.27474e-04 DIIS
   @DF-RHF iter   4:  -844.41626042532812   -8.99223e-03   5.57412e-05 DIIS
   @DF-RHF iter   5:  -844.41822678004485   -1.96635e-03   1.15218e-05 DIIS
   @DF-RHF iter   6:  -844.41841420341461   -1.87423e-04   5.97753e-06 DIIS
   @DF-RHF iter   7:  -844.41846430231283   -5.00989e-05   2.32282e-06 DIIS
   @DF-RHF iter   8:  -844.41847244920564   -8.14689e-06   8.59358e-07 DIIS
   @DF-RHF iter   9:  -844.41847339490073   -9.45695e-07   3.19242e-07 DIIS
   @DF-RHF iter  10:  -844.41847353701655   -1.42116e-07   1.29649e-07 DIIS
   @DF-RHF iter  11:  -844.41847355982179   -2.28052e-08   5.27774e-08 DIIS
   @DF-RHF iter  12:  -844.41847356333665   -3.51486e-09   1.76591e-08 DIIS
   @DF-RHF iter  13:  -844.41847356373694   -4.00291e-10   5.86020e-09 DIIS
  Energy and wave function converged.


  ==> Post-Iterations <==

    Orbital Energies [Eh]
    ---------------------

    Doubly Occupied:                                                      

       1A    -20.532123     2A    -20.526739     3A    -20.493812  
       4A    -15.628239     5A    -15.622091     6A    -15.620933  
       7A    -15.601583     8A    -15.534749     9A    -11.402764  
      10A    -11.373218    11A    -11.365051    12A    -11.355512  
      13A    -11.330066    14A    -11.326442    15A    -11.256426  
      16A    -11.246598    17A    -11.243865    18A     -1.413584  
      19A     -1.379905    20A     -1.374226    21A     -1.291481  
      22A     -1.290861    23A     -1.261628    24A     -1.230247  
      25A     -1.166591    26A     -1.100536    27A     -1.062916  
      28A     -0.964443    29A     -0.905737    30A     -0.900217  
      31A     -0.882857    32A     -0.874883    33A     -0.762834  
      34A     -0.760386    35A     -0.757600    36A     -0.756553  
      37A     -0.724334    38A     -0.697129    39A     -0.674445  
      40A     -0.664313    41A     -0.659972    42A     -0.625129  
      43A     -0.621988    44A     -0.620350    45A     -0.610483  
      46A     -0.606834    47A     -0.585861    48A     -0.582729  
      49A     -0.565542    50A     -0.555007    51A     -0.551659  
      52A     -0.533086    53A     -0.500613    54A     -0.482298  
      55A     -0.464070    56A     -0.439093    57A     -0.432566  
      58A     -0.422029    59A     -0.416039    60A     -0.379658  
      61A     -0.352811    62A     -0.333243  

    Virtual:                                                              

      63A      0.012627    64A      0.021201    65A      0.027523  
      66A      0.032013    67A      0.039389    68A      0.045484  
      69A      0.050034    70A      0.053752    71A      0.058954  
      72A      0.061662    73A      0.066500    74A      0.079039  
      75A      0.082222    76A      0.084990    77A      0.090068  
      78A      0.091184    79A      0.096005    80A      0.097181  
      81A      0.098632    82A      0.101861    83A      0.105122  
      84A      0.106336    85A      0.111297    86A      0.120797  
      87A      0.124580    88A      0.125354    89A      0.128265  
      90A      0.133416    91A      0.135035    92A      0.136694  
      93A      0.140703    94A      0.141563    95A      0.147065  
      96A      0.148435    97A      0.151202    98A      0.153250  
      99A      0.154074   100A      0.159915   101A      0.165133  
     102A      0.169371   103A      0.172064   104A      0.178391  
     105A      0.182044   106A      0.185022   107A      0.190061  
     108A      0.191648   109A      0.195347   110A      0.201698  
     111A      0.206152   112A      0.214762   113A      0.216396  
     114A      0.222129   115A      0.225800   116A      0.229604  
     117A      0.231580   118A      0.234421   119A      0.236313  
     120A      0.239841   121A      0.245738   122A      0.246249  
     123A      0.253828   124A      0.255953   125A      0.257720  
     126A      0.264308   127A      0.266025   128A      0.273421  
     129A      0.276591   130A      0.283536   131A      0.284455  
     132A      0.288330   133A      0.292925   134A      0.295177  
     135A      0.300466   136A      0.304957   137A      0.306923  
     138A      0.307516   139A      0.311861   140A      0.314034  
     141A      0.317518   142A      0.320472   143A      0.322927  
     144A      0.327829   145A      0.331554   146A      0.332735  
     147A      0.335318   148A      0.337026   149A      0.341669  
     150A      0.344706   151A      0.349238   152A      0.351942  
     153A      0.354842   154A      0.358031   155A      0.361661  
     156A      0.368240   157A      0.373946   158A      0.375949  
     159A      0.380063   160A      0.381103   161A      0.384945  
     162A      0.389217   163A      0.392521   164A      0.395070  
     165A      0.396864   166A      0.405958   167A      0.410694  
     168A      0.412239   169A      0.417847   170A      0.421926  
     171A      0.426159   172A      0.427813   173A      0.428333  
     174A      0.430395   175A      0.436099   176A      0.441002  
     177A      0.443953   178A      0.450662   179A      0.451966  
     180A      0.454351   181A      0.459107   182A      0.464413  
     183A      0.467168   184A      0.467587   185A      0.469707  
     186A      0.470584   187A      0.477641   188A      0.480164  
     189A      0.481521   190A      0.490696   191A      0.492183  
     192A      0.495460   193A      0.497612   194A      0.502893  
     195A      0.506275   196A      0.509255   197A      0.514180  
     198A      0.515205   199A      0.519658   200A      0.523395  
     201A      0.527689   202A      0.533378   203A      0.536896  
     204A      0.537451   205A      0.543888   206A      0.544068  
     207A      0.550165   208A      0.553923   209A      0.555258  
     210A      0.557729   211A      0.560573   212A      0.563034  
     213A      0.567125   214A      0.570082   215A      0.575398  
     216A      0.576781   217A      0.579776   218A      0.585766  
     219A      0.595046   220A      0.599021   221A      0.601774  
     222A      0.602427   223A      0.610971   224A      0.616269  
     225A      0.618754   226A      0.621798   227A      0.626274  
     228A      0.633870   229A      0.636325   230A      0.644649  
     231A      0.650905   232A      0.655201   233A      0.659774  
     234A      0.660442   235A      0.661889   236A      0.669626  
     237A      0.679391   238A      0.680956   239A      0.683710  
     240A      0.687554   241A      0.693790   242A      0.694782  
     243A      0.703329   244A      0.707079   245A      0.709124  
     246A      0.714396   247A      0.723636   248A      0.730975  
     249A      0.732206   250A      0.734017   251A      0.737525  
     252A      0.743178   253A      0.750718   254A      0.755293  
     255A      0.756856   256A      0.763471   257A      0.764307  
     258A      0.768664   259A      0.771558   260A      0.782168  
     261A      0.787155   262A      0.794182   263A      0.798300  
     264A      0.800905   265A      0.802757   266A      0.814131  
     267A      0.815522   268A      0.821134   269A      0.825137  
     270A      0.827239   271A      0.832397   272A      0.833481  
     273A      0.839594   274A      0.845015   275A      0.850982  
     276A      0.855373   277A      0.859196   278A      0.865550  
     279A      0.870081   280A      0.874409   281A      0.878488  
     282A      0.881983   283A      0.889035   284A      0.896790  
     285A      0.899654   286A      0.903188   287A      0.909407  
     288A      0.912410   289A      0.918740   290A      0.924044  
     291A      0.925102   292A      0.928805   293A      0.933226  
     294A      0.938753   295A      0.946113   296A      0.949604  
     297A      0.954594   298A      0.957008   299A      0.958808  
     300A      0.962691   301A      0.971171   302A      0.973468  
     303A      0.975602   304A      0.979935   305A      0.985763  
     306A      0.989413   307A      0.992364   308A      0.997204  
     309A      0.999694   310A      1.006805   311A      1.011917  
     312A      1.015811   313A      1.018434   314A      1.024543  
     315A      1.029209   316A      1.034223   317A      1.039438  
     318A      1.043343   319A      1.046335   320A      1.052780  
     321A      1.060037   322A      1.062987   323A      1.065796  
     324A      1.067199   325A      1.072653   326A      1.077861  
     327A      1.079370   328A      1.088251   329A      1.091982  
     330A      1.099494   331A      1.101416   332A      1.103652  
     333A      1.108693   334A      1.111622   335A      1.118220  
     336A      1.120695   337A      1.125983   338A      1.135105  
     339A      1.136631   340A      1.140827   341A      1.143089  
     342A      1.146102   343A      1.151162   344A      1.155571  
     345A      1.157886   346A      1.165983   347A      1.166220  
     348A      1.175653   349A      1.179903   350A      1.185296  
     351A      1.187541   352A      1.191588   353A      1.193302  
     354A      1.196770   355A      1.205362   356A      1.207760  
     357A      1.213066   358A      1.219188   359A      1.224366  
     360A      1.227136   361A      1.230008   362A      1.234026  
     363A      1.235270   364A      1.241173   365A      1.248313  
     366A      1.251911   367A      1.259124   368A      1.264197  
     369A      1.268931   370A      1.271847   371A      1.277805  
     372A      1.283809   373A      1.293096   374A      1.297264  
     375A      1.298751   376A      1.303099   377A      1.308264  
     378A      1.317015   379A      1.319872   380A      1.322946  
     381A      1.328731   382A      1.336515   383A      1.338963  
     384A      1.346249   385A      1.352028   386A      1.356610  
     387A      1.358177   388A      1.364551   389A      1.365079  
     390A      1.372087   391A      1.375628   392A      1.383586  
     393A      1.387296   394A      1.391206   395A      1.394918  
     396A      1.398987   397A      1.404585   398A      1.411339  
     399A      1.414185   400A      1.418815   401A      1.422252  
     402A      1.428844   403A      1.430244   404A      1.437214  
     405A      1.439736   406A      1.447291   407A      1.451043  
     408A      1.461157   409A      1.466975   410A      1.470131  
     411A      1.476649   412A      1.478536   413A      1.486695  
     414A      1.489591   415A      1.496715   416A      1.498873  
     417A      1.507141   418A      1.510646   419A      1.515614  
     420A      1.518729   421A      1.525825   422A      1.538295  
     423A      1.540295   424A      1.544554   425A      1.549039  
     426A      1.551537   427A      1.557637   428A      1.561499  
     429A      1.565816   430A      1.572123   431A      1.577040  
     432A      1.580871   433A      1.587411   434A      1.590305  
     435A      1.599913   436A      1.606094   437A      1.606187  
     438A      1.614089   439A      1.622590   440A      1.625624  
     441A      1.638139   442A      1.647575   443A      1.648283  
     444A      1.653161   445A      1.657805   446A      1.662628  
     447A      1.669492   448A      1.673824   449A      1.677867  
     450A      1.685355   451A      1.689655   452A      1.697324  
     453A      1.705422   454A      1.709313   455A      1.717411  
     456A      1.722390   457A      1.729058   458A      1.737836  
     459A      1.738813   460A      1.741883   461A      1.747011  
     462A      1.761389   463A      1.767169   464A      1.769294  
     465A      1.773260   466A      1.784913   467A      1.785685  
     468A      1.788612   469A      1.798963   470A      1.804426  
     471A      1.811466   472A      1.815730   473A      1.821390  
     474A      1.824279   475A      1.829218   476A      1.835329  
     477A      1.847849   478A      1.854258   479A      1.863128  
     480A      1.865890   481A      1.871942   482A      1.884018  
     483A      1.886906   484A      1.896568   485A      1.899078  
     486A      1.902301   487A      1.907745   488A      1.910950  
     489A      1.922118   490A      1.925971   491A      1.931849  
     492A      1.938676   493A      1.942036   494A      1.947543  
     495A      1.954394   496A      1.963393   497A      1.976056  
     498A      1.981012   499A      1.996423   500A      1.998485  
     501A      2.003951   502A      2.011825   503A      2.015851  
     504A      2.029087   505A      2.034317   506A      2.048424  
     507A      2.057041   508A      2.058102   509A      2.074075  
     510A      2.079457   511A      2.090236   512A      2.090850  
     513A      2.097871   514A      2.099641   515A      2.107947  
     516A      2.117359   517A      2.124956   518A      2.136899  
     519A      2.137174   520A      2.147011   521A      2.161757  
     522A      2.166400   523A      2.167694   524A      2.172325  
     525A      2.179747   526A      2.193767   527A      2.197660  
     528A      2.201546   529A      2.206072   530A      2.212136  
     531A      2.217497   532A      2.230276   533A      2.232405  
     534A      2.240085   535A      2.243501   536A      2.247586  
     537A      2.252781   538A      2.261781   539A      2.263819  
     540A      2.272426   541A      2.282058   542A      2.285666  
     543A      2.293608   544A      2.303809   545A      2.306187  
     546A      2.314754   547A      2.320949   548A      2.336698  
     549A      2.342051   550A      2.346548   551A      2.350689  
     552A      2.351492   553A      2.367519   554A      2.378974  
     555A      2.381010   556A      2.392731   557A      2.400637  
     558A      2.408947   559A      2.410435   560A      2.412874  
     561A      2.422364   562A      2.436299   563A      2.439573  
     564A      2.455234   565A      2.462767   566A      2.464611  
     567A      2.479039   568A      2.490264   569A      2.493183  
     570A      2.495105   571A      2.505645   572A      2.506549  
     573A      2.514649   574A      2.523483   575A      2.534595  
     576A      2.540418   577A      2.547141   578A      2.558836  
     579A      2.566792   580A      2.570929   581A      2.576943  
     582A      2.590321   583A      2.596129   584A      2.600330  
     585A      2.611189   586A      2.616061   587A      2.621217  
     588A      2.630866   589A      2.640133   590A      2.641283  
     591A      2.651961   592A      2.660710   593A      2.667723  
     594A      2.671773   595A      2.679125   596A      2.696733  
     597A      2.701444   598A      2.705933   599A      2.716520  
     600A      2.721343   601A      2.727957   602A      2.730845  
     603A      2.738385   604A      2.746055   605A      2.757236  
     606A      2.759252   607A      2.772090   608A      2.775932  
     609A      2.783038   610A      2.791422   611A      2.796744  
     612A      2.801067   613A      2.817862   614A      2.829306  
     615A      2.836734   616A      2.842387   617A      2.851346  
     618A      2.857103   619A      2.871137   620A      2.882846  
     621A      2.888145   622A      2.902071   623A      2.913434  
     624A      2.917190   625A      2.925095   626A      2.943862  
     627A      2.955788   628A      2.958205   629A      2.969061  
     630A      2.989836   631A      2.997234   632A      3.016810  
     633A      3.028273   634A      3.038191   635A      3.049575  
     636A      3.065387   637A      3.090707   638A      3.096281  
     639A      3.108353   640A      3.125513   641A      3.132268  
     642A      3.139943   643A      3.142947   644A      3.159293  
     645A      3.181617   646A      3.201069   647A      3.208968  
     648A      3.231941   649A      3.244533   650A      3.252286  
     651A      3.271945   652A      3.289320   653A      3.316504  
     654A      3.328264   655A      3.342000   656A      3.353155  
     657A      3.358556   658A      3.372723   659A      3.378764  
     660A      3.391058   661A      3.399903   662A      3.413745  
     663A      3.421364   664A      3.429913   665A      3.439923  
     666A      3.451478   667A      3.462604   668A      3.469408  
     669A      3.483604   670A      3.496882   671A      3.499373  
     672A      3.512421   673A      3.527175   674A      3.533473  
     675A      3.542757   676A      3.553496   677A      3.573694  
     678A      3.590582   679A      3.598857   680A      3.621387  
     681A      3.622010   682A      3.624527   683A      3.641745  
     684A      3.653525   685A      3.658942   686A      3.673405  
     687A      3.683028   688A      3.688387   689A      3.693043  
     690A      3.706498   691A      3.715555   692A      3.727628  
     693A      3.729242   694A      3.741409   695A      3.750712  
     696A      3.757511   697A      3.764977   698A      3.771807  
     699A      3.785357   700A      3.789018   701A      3.792662  
     702A      3.805802   703A      3.811303   704A      3.824724  
     705A      3.828095   706A      3.832388   707A      3.846704  
     708A      3.856270   709A      3.864475   710A      3.867567  
     711A      3.873517   712A      3.886997   713A      3.895484  
     714A      3.896521   715A      3.910896   716A      3.913415  
     717A      3.929709   718A      3.931068   719A      3.937423  
     720A      3.951573   721A      3.960433   722A      3.969179  
     723A      3.984272   724A      3.986236   725A      3.997393  
     726A      4.004923   727A      4.008313   728A      4.028230  
     729A      4.032585   730A      4.036359   731A      4.041289  
     732A      4.050431   733A      4.056269   734A      4.058383  
     735A      4.076955   736A      4.078104   737A      4.086757  
     738A      4.105657   739A      4.114412   740A      4.119656  
     741A      4.125737   742A      4.129181   743A      4.147768  
     744A      4.151855   745A      4.158230   746A      4.160050  
     747A      4.173009   748A      4.177566   749A      4.184707  
     750A      4.190463   751A      4.196369   752A      4.209147  
     753A      4.214031   754A      4.226562   755A      4.236668  
     756A      4.240415   757A      4.247607   758A      4.252431  
     759A      4.262102   760A      4.273650   761A      4.276257  
     762A      4.283622   763A      4.291315   764A      4.306278  
     765A      4.309052   766A      4.319932   767A      4.320978  
     768A      4.324208   769A      4.335969   770A      4.342148  
     771A      4.345514   772A      4.361508   773A      4.364447  
     774A      4.368692   775A      4.389712   776A      4.397632  
     777A      4.402128   778A      4.410557   779A      4.417617  
     780A      4.426081   781A      4.436676   782A      4.447679  
     783A      4.462728   784A      4.464334   785A      4.468896  
     786A      4.479757   787A      4.491447   788A      4.492292  
     789A      4.498063   790A      4.505050   791A      4.517122  
     792A      4.526313   793A      4.527440   794A      4.543053  
     795A      4.549042   796A      4.560145   797A      4.563861  
     798A      4.573879   799A      4.581656   800A      4.584412  
     801A      4.620323   802A      4.621937   803A      4.641843  
     804A      4.649037   805A      4.668591   806A      4.675728  
     807A      4.679852   808A      4.690298   809A      4.699300  
     810A      4.709592   811A      4.716825   812A      4.723653  
     813A      4.730988   814A      4.747814   815A      4.752980  
     816A      4.759230   817A      4.766553   818A      4.774341  
     819A      4.784505   820A      4.797040   821A      4.806128  
     822A      4.813082   823A      4.819006   824A      4.829317  
     825A      4.840195   826A      4.847838   827A      4.853199  
     828A      4.866856   829A      4.876575   830A      4.882481  
     831A      4.897685   832A      4.909168   833A      4.921325  
     834A      4.938057   835A      4.944321   836A      4.955521  
     837A      4.968651   838A      4.976702   839A      4.977263  
     840A      4.995054   841A      5.001423   842A      5.014080  
     843A      5.034684   844A      5.038273   845A      5.052307  
     846A      5.059744   847A      5.066574   848A      5.073436  
     849A      5.086795   850A      5.108858   851A      5.125574  
     852A      5.134667   853A      5.143316   854A      5.145532  
     855A      5.165757   856A      5.180409   857A      5.190945  
     858A      5.197943   859A      5.201158   860A      5.218599  
     861A      5.222635   862A      5.232639   863A      5.251570  
     864A      5.256372   865A      5.277909   866A      5.290097  
     867A      5.303319   868A      5.322909   869A      5.337859  
     870A      5.351117   871A      5.363859   872A      5.368161  
     873A      5.381755   874A      5.409547   875A      5.415650  
     876A      5.426391   877A      5.451703   878A      5.457369  
     879A      5.459775   880A      5.472807   881A      5.481878  
     882A      5.496066   883A      5.500537   884A      5.517705  
     885A      5.528712   886A      5.534149   887A      5.542873  
     888A      5.564463   889A      5.569485   890A      5.580012  
     891A      5.587244   892A      5.598873   893A      5.610611  
     894A      5.612402   895A      5.620889   896A      5.624490  
     897A      5.635659   898A      5.643711   899A      5.655145  
     900A      5.678199   901A      5.684487   902A      5.695141  
     903A      5.718336   904A      5.739860   905A      5.749997  
     906A      5.766445   907A      5.778600   908A      5.781484  
     909A      5.801456   910A      5.812167   911A      5.835647  
     912A      5.839481   913A      5.851483   914A      5.854027  
     915A      5.879714   916A      5.902270   917A      5.908237  
     918A      5.916557   919A      5.919143   920A      5.936209  
     921A      5.958063   922A      5.960719   923A      5.975960  
     924A      6.000577   925A      6.010600   926A      6.020882  
     927A      6.043314   928A      6.056876   929A      6.075979  
     930A      6.089661   931A      6.095277   932A      6.123039  
     933A      6.139491   934A      6.152941   935A      6.165516  
     936A      6.171732   937A      6.181403   938A      6.190766  
     939A      6.205535   940A      6.226532   941A      6.254787  
     942A      6.260517   943A      6.277507   944A      6.280994  
     945A      6.317527   946A      6.327296   947A      6.360571  
     948A      6.416840   949A      6.440319   950A      6.458541  
     951A      6.527791   952A      6.549247   953A      6.607638  
     954A      6.612082   955A      6.669893   956A      6.692362  
     957A      6.699281   958A      6.729260   959A      6.739425  
     960A      6.750235   961A      6.763388   962A      6.787674  
     963A      6.793235   964A      6.807465   965A      6.820778  
     966A      6.834081   967A      6.842919   968A      6.852325  
     969A      6.875782   970A      6.889621   971A      6.901653  
     972A      6.912093   973A      6.915722   974A      6.920034  
     975A      6.959289   976A      6.975787   977A      7.010800  
     978A      7.022847   979A      7.029304   980A      7.052666  
     981A      7.090281   982A      7.093980   983A      7.108530  
     984A      7.113488   985A      7.172089   986A      7.211567  
     987A      7.247099   988A      7.289012   989A      7.314948  
     990A      7.363938   991A      7.377975   992A      7.421753  
     993A      7.434397   994A      7.456222   995A      7.499242  
     996A      7.519414   997A      7.524609   998A      7.537697  
     999A      7.563324  1000A      7.601509  1001A      7.658279  
    1002A      7.696838  1003A      7.738619  1004A      7.758381  
    1005A      7.767578  1006A      7.852827  1007A      7.864537  
    1008A      7.889511  1009A      7.918032  1010A      7.928742  
    1011A      7.974768  1012A      7.982326  1013A      8.026754  
    1014A      8.037405  1015A      8.048880  1016A      8.081379  
    1017A      8.092786  1018A      8.121735  1019A     15.877477  
    1020A     15.958698  1021A     16.276325  1022A     16.306830  
    1023A     16.491227  1024A     16.697257  1025A     17.052157  
    1026A     17.944287  1027A     18.268380  1028A     18.438315  
    1029A     19.402753  1030A     20.021532  1031A     20.364458  
    1032A     20.668521  1033A     20.725323  1034A     21.060685  
    1035A     21.541194  

    Final Occupation by Irrep:
              A 
    DOCC [    62 ]

  @DF-RHF Final Energy:  -844.41847356373694

   => Energetics <=

    Nuclear Repulsion Energy =           1268.3212831454177376
    One-Electron Energy =               -3674.0815402501630160
    Two-Electron Energy =                1561.3417835410086809
    Total Energy =                       -844.4184735637368249

Computation Completed


Properties will be evaluated at   0.000000,   0.000000,   0.000000 [a0]

Properties computed using the SCF density matrix

  Nuclear Dipole Moment: [e a0]
     X:    10.9191      Y:    -5.8288      Z:    -1.0435

  Electronic Dipole Moment: [e a0]
     X:    -8.1380      Y:     3.9584      Z:     0.7709

  Dipole Moment: [e a0]
     X:     2.7812      Y:    -1.8704      Z:    -0.2726     Total:     3.3627

  Dipole Moment: [D]
     X:     7.0690      Y:    -4.7541      Z:    -0.6928     Total:     8.5471


*** tstop() called on node155.bme.utexas.edu at Mon Jan 22 15:26:55 2024
Module time:
	user time   =     875.59 seconds =      14.59 minutes
	system time =      10.19 seconds =       0.17 minutes
	total time  =        136 seconds =       2.27 minutes
Total time:
	user time   =     875.59 seconds =      14.59 minutes
	system time =      10.19 seconds =       0.17 minutes
	total time  =        136 seconds =       2.27 minutes

*** tstart() called on node155.bme.utexas.edu
*** at Mon Jan 22 15:26:55 2024


  //>>>>>>>>>>>>>>>>>>>>>>>>>>>>>>>>>>>//
  //               DFMP2               //
  //<<<<<<<<<<<<<<<<<<<<<<<<<<<<<<<<<<<//

   => Loading Basis Set <=

    Name: (AUG-CC-PVTZ AUX)
    Role: RIFIT
    Keyword: DF_BASIS_MP2
    atoms 1, 3, 16, 18, 24       entry N          line   206 file /opt/anaconda/envs/psi4v1.5/share/psi4/basis/aug-cc-pvtz-ri.gbs 
    atoms 2, 4-6, 11, 17, 19-21  entry C          line   148 file /opt/anaconda/envs/psi4v1.5/share/psi4/basis/aug-cc-pvtz-ri.gbs 
    atoms 7, 9, 12-15, 22, 25-28 entry H          line    30 file /opt/anaconda/envs/psi4v1.5/share/psi4/basis/aug-cc-pvtz-ri.gbs 
    atoms 8, 10, 23              entry O          line   264 file /opt/anaconda/envs/psi4v1.5/share/psi4/basis/aug-cc-pvtz-ri.gbs 

	 --------------------------------------------------------
	                          DF-MP2                         
	      2nd-Order Density-Fitted Moller-Plesset Theory     
	              RMP2 Wavefunction,   8 Threads             
	                                                         
	        Rob Parrish, Justin Turney, Andy Simmonett,      
	           Ed Hohenstein, and C. David Sherrill          
	 --------------------------------------------------------

   => Auxiliary Basis Set <=

  Basis Set: (AUG-CC-PVTZ AUX)
    Blend: AUG-CC-PVTZ-RI
    Number of shells: 630
    Number of basis functions: 2308
    Number of Cartesian functions: 2917
    Spherical Harmonics?: true
    Max angular momentum: 4

	 --------------------------------------------------------
	                 NBF =  1035, NAUX =  2308
	 --------------------------------------------------------
	   CLASS    FOCC     OCC    AOCC    AVIR     VIR    FVIR
	   PAIRS      17      62      45     973     973       0
	 --------------------------------------------------------

	 Will save fitting metric to file 97.

	-----------------------------------------------------------
	 ==================> DF-MP2 Energies <==================== 
	-----------------------------------------------------------
	 Reference Energy          =    -844.4184735637369386 [Eh]
	 Singles Energy            =      -0.0000000000000000 [Eh]
	 Same-Spin Energy          =      -0.8285872414938538 [Eh]
	 Opposite-Spin Energy      =      -2.3598956950850747 [Eh]
	 Correlation Energy        =      -3.1884829365789287 [Eh]
	 Total Energy              =    -847.6069565003158459 [Eh]
	-----------------------------------------------------------
	 ================> DF-SCS-MP2 Energies <================== 
	-----------------------------------------------------------
	 SCS Same-Spin Scale       =       0.3333333333333333 [-]
	 SCS Opposite-Spin Scale   =       1.2000000000000000 [-]
	 SCS Same-Spin Energy      =      -0.2761957471646179 [Eh]
	 SCS Opposite-Spin Energy  =      -2.8318748341020896 [Eh]
	 SCS Correlation Energy    =      -3.1080705812667073 [Eh]
	 SCS Total Energy          =    -847.5265441450036406 [Eh]
	-----------------------------------------------------------


*** tstop() called on node155.bme.utexas.edu at Mon Jan 22 15:27:49 2024
Module time:
	user time   =     294.32 seconds =       4.91 minutes
	system time =       8.79 seconds =       0.15 minutes
	total time  =         54 seconds =       0.90 minutes
Total time:
	user time   =    1169.92 seconds =      19.50 minutes
	system time =      18.98 seconds =       0.32 minutes
	total time  =        190 seconds =       3.17 minutes

  //>>>>>>>>>>>>>>>>>>>>>>>>>>>>>>>>>>>//
  //            Monomer A HF           //
  //<<<<<<<<<<<<<<<<<<<<<<<<<<<<<<<<<<<//


*** tstart() called on node155.bme.utexas.edu
*** at Mon Jan 22 15:27:49 2024

   => Loading Basis Set <=

    Name: AUG-CC-PVTZ
    Role: ORBITAL
    Keyword: BASIS
    atoms 1, 3, 16, 18, 24       entry N          line   285 file /opt/anaconda/envs/psi4v1.5/share/psi4/basis/aug-cc-pvtz.gbs 
    atoms 2, 4-6, 11, 17, 19-21  entry C          line   239 file /opt/anaconda/envs/psi4v1.5/share/psi4/basis/aug-cc-pvtz.gbs 
    atoms 7, 9, 12-15, 22, 25-28 entry H          line    40 file /opt/anaconda/envs/psi4v1.5/share/psi4/basis/aug-cc-pvtz.gbs 
    atoms 8, 10, 23              entry O          line   331 file /opt/anaconda/envs/psi4v1.5/share/psi4/basis/aug-cc-pvtz.gbs 


         ---------------------------------------------------------
                                   SCF
               by Justin Turney, Rob Parrish, Andy Simmonett
                          and Daniel G. A. Smith
                              RHF Reference
                        8 Threads,  76293 MiB Core
         ---------------------------------------------------------

  ==> Geometry <==

    Molecular point group: c1
    Full point group: C1

    Geometry (in Angstrom), charge = 0, multiplicity = 1:

       Center              X                  Y                   Z               Mass       
    ------------   -----------------  -----------------  -----------------  -----------------
         N           -1.966806539665    -1.324045981655    -1.500946238490    14.003074004430
         C           -2.171177539665     0.053186018345    -1.500685238490    12.000000000000
         N           -1.004562539665     0.788330018345    -1.500583238490    14.003074004430
         C            0.290629460335     0.288082018345    -1.500689238490    12.000000000000
         C            0.422338460335    -1.170788981655    -1.500990238490    12.000000000000
         C           -0.717398539665    -1.905175981655    -1.501054238490    12.000000000000
         H           -2.804817539665    -1.888620981655    -1.500826238490     1.007825032230
         O           -3.290483539665     0.548006018345    -1.500549238490    15.994914619570
         H           -1.126203539665     1.838386018345    -1.500376238490     1.007825032230
         O            1.259845460335     1.057037018345    -1.500556238490    15.994914619570
         C            1.798573460335    -1.769681981655    -1.501588238490    12.000000000000
         H            1.746141460335    -2.867026981655    -1.494945238490     1.007825032230
         H            2.362712460335    -1.442340981655    -2.387646238490     1.007825032230
         H            2.367728460335    -1.431528981655    -0.622914238490     1.007825032230
         H           -0.706240539665    -2.994302981655    -1.501091238490     1.007825032230
      Gh(N)           0.382989460335    -1.118061981655     1.762972761510    14.003074004430
      Gh(C)          -0.468836539665     0.002748018345     1.820924761510    12.000000000000
      Gh(N)           0.102656460335     1.231902018345     1.742542761510    14.003074004430
      Gh(C)           1.431595460335     1.368349018345     1.614540761510    12.000000000000
      Gh(C)           2.311210460335     0.222508018345     1.554465761510    12.000000000000
      Gh(C)           1.734767460335    -1.005002981655     1.633281761510    12.000000000000
      Gh(H)          -0.069564539665    -2.020680981655     1.823637761510     1.007825032230
      Gh(O)          -1.686018539665    -0.191015981655     1.939523761510    15.994914619570
      Gh(N)           1.922357460335     2.609880018345     1.543521761510    14.003074004430
      Gh(H)           1.287894460335     3.436011018345     1.586839761510     1.007825032230
      Gh(H)           2.915894460335     2.750494018345     1.447050761510     1.007825032230
      Gh(H)           3.387144460335     0.334522018345     1.450805761510     1.007825032230
      Gh(H)           2.304064460335    -1.932957981655     1.598118761510     1.007825032230

  Running in c1 symmetry.

  Rotational constants: A =      0.02269  B =      0.01392  C =      0.01271 [cm^-1]
  Rotational constants: A =    680.30945  B =    417.31563  C =    381.13183 [MHz]
  Nuclear repulsion =  438.216117793050785

  Charge       = 0
  Multiplicity = 1
  Electrons    = 66
  Nalpha       = 33
  Nbeta        = 33

  ==> Algorithm <==

  SCF Algorithm Type is DF.
  DIIS enabled.
  MOM disabled.
  Fractional occupation disabled.
  Guess Type is SAD.
  Energy threshold   = 1.00e-08
  Density threshold  = 1.00e-08
  Integral threshold = 1.00e-12

  ==> Primary Basis <==

  Basis Set: AUG-CC-PVTZ
    Blend: AUG-CC-PVTZ
    Number of shells: 337
    Number of basis functions: 1035
    Number of Cartesian functions: 1210
    Spherical Harmonics?: true
    Max angular momentum: 3

   => Loading Basis Set <=

    Name: (AUG-CC-PVTZ AUX)
    Role: JKFIT
    Keyword: DF_BASIS_SCF
    atoms 1, 3, 16, 18, 24       entry N          line   224 file /opt/anaconda/envs/psi4v1.5/share/psi4/basis/aug-cc-pvtz-jkfit.gbs 
    atoms 2, 4-6, 11, 17, 19-21  entry C          line   162 file /opt/anaconda/envs/psi4v1.5/share/psi4/basis/aug-cc-pvtz-jkfit.gbs 
    atoms 7, 9, 12-15, 22, 25-28 entry H          line    70 file /opt/anaconda/envs/psi4v1.5/share/psi4/basis/aug-cc-pvtz-jkfit.gbs 
    atoms 8, 10, 23              entry O          line   286 file /opt/anaconda/envs/psi4v1.5/share/psi4/basis/aug-cc-pvtz-jkfit.gbs 

  ==> Integral Setup <==

  ==> DiskDFJK: Density-Fitted J/K Matrices <==

    J tasked:                  Yes
    K tasked:                  Yes
    wK tasked:                  No
    OpenMP threads:              8
    Integrals threads:           8
    Memory [MiB]:            57220
    Algorithm:                Core
    Integral Cache:           LOAD
    Schwarz Cutoff:          1E-12
    Fitting Condition:       1E-10

   => Auxiliary Basis Set <=

  Basis Set: (AUG-CC-PVTZ AUX)
    Blend: AUG-CC-PVTZ-JKFIT
    Number of shells: 664
    Number of basis functions: 2274
    Number of Cartesian functions: 2832
    Spherical Harmonics?: true
    Max angular momentum: 4

  Minimum eigenvalue in the overlap matrix is 1.1534259522E-06.
  Reciprocal condition number of the overlap matrix is 4.9732494326E-08.
    Using symmetric orthogonalization.

  ==> Pre-Iterations <==

  SCF Guess: Superposition of Atomic Densities via on-the-fly atomic UHF (no occupation information).

   -------------------------
    Irrep   Nso     Nmo    
   -------------------------
     A       1035    1035 
   -------------------------
    Total    1035    1035
   -------------------------

  ==> Iterations <==

                           Total Energy        Delta E     RMS |[F,P]|

   @DF-RHF iter SAD:  -450.91023389449555   -4.50910e+02   0.00000e+00 
   @DF-RHF iter   1:  -451.37279734150388   -4.62563e-01   7.66928e-04 DIIS
   @DF-RHF iter   2:  -451.57029400161895   -1.97497e-01   5.06100e-04 DIIS
   @DF-RHF iter   3:  -451.66309154640339   -9.27975e-02   9.69367e-05 DIIS
   @DF-RHF iter   4:  -451.66853862346437   -5.44708e-03   3.89006e-05 DIIS
   @DF-RHF iter   5:  -451.66963454303482   -1.09592e-03   7.85626e-06 DIIS
   @DF-RHF iter   6:  -451.66974689780801   -1.12355e-04   4.05039e-06 DIIS
   @DF-RHF iter   7:  -451.66977008550759   -2.31877e-05   1.73253e-06 DIIS
   @DF-RHF iter   8:  -451.66977428522625   -4.19972e-06   6.58347e-07 DIIS
   @DF-RHF iter   9:  -451.66977475706494   -4.71839e-07   2.18964e-07 DIIS
   @DF-RHF iter  10:  -451.66977483604376   -7.89788e-08   8.62858e-08 DIIS
   @DF-RHF iter  11:  -451.66977484511597   -9.07221e-09   3.30560e-08 DIIS
   @DF-RHF iter  12:  -451.66977484654166   -1.42569e-09   1.04753e-08 DIIS
   @DF-RHF iter  13:  -451.66977484667797   -1.36311e-10   3.44281e-09 DIIS
  Energy and wave function converged.


  ==> Post-Iterations <==

    Orbital Energies [Eh]
    ---------------------

    Doubly Occupied:                                                      

       1A    -20.543479     2A    -20.538765     3A    -15.640234  
       4A    -15.635319     5A    -11.417910     6A    -11.379381  
       7A    -11.331001     8A    -11.262653     9A    -11.241727  
      10A     -1.428331    11A     -1.387103    12A     -1.303468  
      13A     -1.242276    14A     -1.104652    15A     -0.966463  
      16A     -0.913004    17A     -0.893805    18A     -0.769668  
      19A     -0.765951    20A     -0.706284    21A     -0.673009  
      22A     -0.666231    23A     -0.637542    24A     -0.611904  
      25A     -0.588078    26A     -0.567314    27A     -0.556734  
      28A     -0.550004    29A     -0.511370    30A     -0.477909  
      31A     -0.446599    32A     -0.433708    33A     -0.352555  

    Virtual:                                                              

      34A      0.014084    35A      0.025192    36A      0.030446  
      37A      0.033950    38A      0.042945    39A      0.044393  
      40A      0.050150    41A      0.054924    42A      0.056320  
      43A      0.062437    44A      0.068293    45A      0.073028  
      46A      0.078039    47A      0.081456    48A      0.083769  
      49A      0.084173    50A      0.091055    51A      0.092991  
      52A      0.095156    53A      0.100798    54A      0.103918  
      55A      0.107552    56A      0.110153    57A      0.117573  
      58A      0.122739    59A      0.126002    60A      0.127164  
      61A      0.132544    62A      0.134469    63A      0.136542  
      64A      0.138296    65A      0.141760    66A      0.144727  
      67A      0.146554    68A      0.147749    69A      0.157133  
      70A      0.161299    71A      0.162720    72A      0.163391  
      73A      0.168276    74A      0.173477    75A      0.176686  
      76A      0.180706    77A      0.185969    78A      0.188911  
      79A      0.192084    80A      0.193130    81A      0.201640  
      82A      0.202797    83A      0.206669    84A      0.209633  
      85A      0.214723    86A      0.217826    87A      0.218984  
      88A      0.221575    89A      0.227264    90A      0.232491  
      91A      0.239100    92A      0.240336    93A      0.245305  
      94A      0.247955    95A      0.250804    96A      0.254204  
      97A      0.260511    98A      0.264753    99A      0.268201  
     100A      0.270376   101A      0.273490   102A      0.277246  
     103A      0.280459   104A      0.286865   105A      0.290266  
     106A      0.295824   107A      0.299162   108A      0.300386  
     109A      0.303754   110A      0.307383   111A      0.310982  
     112A      0.315035   113A      0.319115   114A      0.322195  
     115A      0.325959   116A      0.328883   117A      0.334595  
     118A      0.337185   119A      0.340990   120A      0.342630  
     121A      0.345788   122A      0.353675   123A      0.357920  
     124A      0.359933   125A      0.364314   126A      0.365651  
     127A      0.369670   128A      0.375183   129A      0.376706  
     130A      0.380185   131A      0.386119   132A      0.387880  
     133A      0.393445   134A      0.394584   135A      0.401340  
     136A      0.407469   137A      0.409060   138A      0.412255  
     139A      0.416457   140A      0.420479   141A      0.424492  
     142A      0.429177   143A      0.433594   144A      0.435866  
     145A      0.438902   146A      0.440157   147A      0.445317  
     148A      0.448512   149A      0.449379   150A      0.452526  
     151A      0.458749   152A      0.460844   153A      0.462561  
     154A      0.465480   155A      0.466355   156A      0.472503  
     157A      0.477744   158A      0.481477   159A      0.482666  
     160A      0.485825   161A      0.487274   162A      0.489974  
     163A      0.492143   164A      0.499799   165A      0.501778  
     166A      0.509988   167A      0.511326   168A      0.517661  
     169A      0.522386   170A      0.526292   171A      0.531674  
     172A      0.536347   173A      0.537897   174A      0.540749  
     175A      0.544633   176A      0.547926   177A      0.553131  
     178A      0.554571   179A      0.559113   180A      0.561293  
     181A      0.565813   182A      0.574732   183A      0.576801  
     184A      0.577984   185A      0.589045   186A      0.591559  
     187A      0.593855   188A      0.595876   189A      0.606948  
     190A      0.610385   191A      0.611023   192A      0.616311  
     193A      0.622540   194A      0.625465   195A      0.626617  
     196A      0.630612   197A      0.634923   198A      0.644907  
     199A      0.646039   200A      0.652315   201A      0.658875  
     202A      0.664447   203A      0.666621   204A      0.672614  
     205A      0.678246   206A      0.680970   207A      0.683665  
     208A      0.687300   209A      0.693400   210A      0.700140  
     211A      0.706195   212A      0.708149   213A      0.715176  
     214A      0.717564   215A      0.723057   216A      0.724916  
     217A      0.731444   218A      0.734439   219A      0.737239  
     220A      0.747967   221A      0.753324   222A      0.762928  
     223A      0.765252   224A      0.768813   225A      0.773745  
     226A      0.778858   227A      0.786132   228A      0.792246  
     229A      0.797818   230A      0.799921   231A      0.803957  
     232A      0.808058   233A      0.810296   234A      0.817105  
     235A      0.819657   236A      0.823225   237A      0.825467  
     238A      0.832479   239A      0.835171   240A      0.842095  
     241A      0.843324   242A      0.844200   243A      0.850649  
     244A      0.853120   245A      0.863522   246A      0.865647  
     247A      0.874956   248A      0.877994   249A      0.880269  
     250A      0.880530   251A      0.888733   252A      0.896711  
     253A      0.899773   254A      0.906251   255A      0.909507  
     256A      0.912190   257A      0.919892   258A      0.924472  
     259A      0.930530   260A      0.933507   261A      0.939448  
     262A      0.942602   263A      0.950956   264A      0.955760  
     265A      0.956544   266A      0.957397   267A      0.964833  
     268A      0.966668   269A      0.969383   270A      0.974490  
     271A      0.981454   272A      0.983969   273A      0.989777  
     274A      0.992690   275A      0.995211   276A      1.001514  
     277A      1.007791   278A      1.012996   279A      1.018456  
     280A      1.021116   281A      1.029071   282A      1.030128  
     283A      1.038827   284A      1.039958   285A      1.042558  
     286A      1.049686   287A      1.055149   288A      1.058303  
     289A      1.062307   290A      1.065429   291A      1.071352  
     292A      1.079394   293A      1.079925   294A      1.086331  
     295A      1.087219   296A      1.098641   297A      1.100858  
     298A      1.106704   299A      1.113610   300A      1.123769  
     301A      1.123846   302A      1.127840   303A      1.128860  
     304A      1.137096   305A      1.139351   306A      1.144905  
     307A      1.146637   308A      1.148606   309A      1.160532  
     310A      1.163539   311A      1.165942   312A      1.169839  
     313A      1.174067   314A      1.180327   315A      1.188664  
     316A      1.192822   317A      1.194834   318A      1.196185  
     319A      1.200843   320A      1.203725   321A      1.207023  
     322A      1.216277   323A      1.219355   324A      1.222011  
     325A      1.228058   326A      1.235318   327A      1.236653  
     328A      1.238735   329A      1.246859   330A      1.253117  
     331A      1.257786   332A      1.260757   333A      1.264562  
     334A      1.272957   335A      1.281003   336A      1.287698  
     337A      1.293999   338A      1.297881   339A      1.301795  
     340A      1.305841   341A      1.312121   342A      1.314454  
     343A      1.318862   344A      1.322646   345A      1.325965  
     346A      1.331470   347A      1.337096   348A      1.342265  
     349A      1.347537   350A      1.356830   351A      1.360391  
     352A      1.365092   353A      1.369752   354A      1.373149  
     355A      1.380171   356A      1.386694   357A      1.393360  
     358A      1.400075   359A      1.402550   360A      1.403194  
     361A      1.415137   362A      1.421724   363A      1.423265  
     364A      1.426328   365A      1.429612   366A      1.436071  
     367A      1.442359   368A      1.446135   369A      1.452878  
     370A      1.457158   371A      1.458305   372A      1.464289  
     373A      1.470171   374A      1.477680   375A      1.479255  
     376A      1.483893   377A      1.489251   378A      1.491884  
     379A      1.502769   380A      1.504247   381A      1.511111  
     382A      1.520080   383A      1.525445   384A      1.528669  
     385A      1.531783   386A      1.542689   387A      1.549070  
     388A      1.555253   389A      1.561282   390A      1.569948  
     391A      1.572350   392A      1.575927   393A      1.578427  
     394A      1.588069   395A      1.590936   396A      1.598920  
     397A      1.601754   398A      1.603983   399A      1.613289  
     400A      1.620335   401A      1.624051   402A      1.632199  
     403A      1.636921   404A      1.643959   405A      1.647195  
     406A      1.649421   407A      1.659905   408A      1.665638  
     409A      1.669183   410A      1.676051   411A      1.681102  
     412A      1.689295   413A      1.695715   414A      1.697187  
     415A      1.702135   416A      1.707170   417A      1.712673  
     418A      1.714733   419A      1.722622   420A      1.728267  
     421A      1.733304   422A      1.738180   423A      1.744628  
     424A      1.750870   425A      1.757048   426A      1.759557  
     427A      1.763929   428A      1.768559   429A      1.770361  
     430A      1.784458   431A      1.790464   432A      1.796147  
     433A      1.799241   434A      1.804717   435A      1.815647  
     436A      1.819201   437A      1.829493   438A      1.835809  
     439A      1.837585   440A      1.844210   441A      1.848056  
     442A      1.853514   443A      1.860009   444A      1.867345  
     445A      1.869240   446A      1.878719   447A      1.880813  
     448A      1.892699   449A      1.899540   450A      1.903238  
     451A      1.920950   452A      1.925456   453A      1.927825  
     454A      1.930203   455A      1.935559   456A      1.944747  
     457A      1.956380   458A      1.963717   459A      1.965089  
     460A      1.975576   461A      1.977829   462A      1.987630  
     463A      1.989931   464A      1.993700   465A      2.004967  
     466A      2.011377   467A      2.027529   468A      2.033309  
     469A      2.038200   470A      2.044978   471A      2.060001  
     472A      2.064694   473A      2.076241   474A      2.081342  
     475A      2.084925   476A      2.089731   477A      2.095723  
     478A      2.099185   479A      2.108857   480A      2.112732  
     481A      2.126123   482A      2.129816   483A      2.138616  
     484A      2.146607   485A      2.149476   486A      2.156545  
     487A      2.157933   488A      2.166597   489A      2.175061  
     490A      2.177715   491A      2.182855   492A      2.196319  
     493A      2.205258   494A      2.207170   495A      2.211933  
     496A      2.223439   497A      2.230000   498A      2.234282  
     499A      2.243812   500A      2.250862   501A      2.252753  
     502A      2.263148   503A      2.267874   504A      2.274760  
     505A      2.286633   506A      2.288970   507A      2.296089  
     508A      2.309067   509A      2.311344   510A      2.318640  
     511A      2.321324   512A      2.326911   513A      2.334797  
     514A      2.339651   515A      2.347388   516A      2.359047  
     517A      2.360978   518A      2.371497   519A      2.374277  
     520A      2.380386   521A      2.400038   522A      2.408964  
     523A      2.412346   524A      2.418659   525A      2.428399  
     526A      2.431579   527A      2.435755   528A      2.441535  
     529A      2.453483   530A      2.462953   531A      2.475628  
     532A      2.481776   533A      2.482684   534A      2.496462  
     535A      2.502549   536A      2.511107   537A      2.516929  
     538A      2.531475   539A      2.536335   540A      2.549722  
     541A      2.554397   542A      2.563527   543A      2.576601  
     544A      2.591034   545A      2.595873   546A      2.601207  
     547A      2.612798   548A      2.617660   549A      2.627446  
     550A      2.632057   551A      2.642820   552A      2.647895  
     553A      2.650203   554A      2.661436   555A      2.675872  
     556A      2.680391   557A      2.686295   558A      2.690213  
     559A      2.696302   560A      2.706044   561A      2.709323  
     562A      2.717819   563A      2.726207   564A      2.728775  
     565A      2.738789   566A      2.741576   567A      2.753212  
     568A      2.759346   569A      2.763302   570A      2.769009  
     571A      2.774128   572A      2.789502   573A      2.792711  
     574A      2.803335   575A      2.804806   576A      2.809814  
     577A      2.824782   578A      2.828214   579A      2.832478  
     580A      2.843053   581A      2.851154   582A      2.863814  
     583A      2.868336   584A      2.876867   585A      2.886364  
     586A      2.893721   587A      2.903404   588A      2.912198  
     589A      2.922349   590A      2.929272   591A      2.937719  
     592A      2.952213   593A      2.958276   594A      2.962976  
     595A      2.975024   596A      2.982992   597A      2.989616  
     598A      3.009501   599A      3.019854   600A      3.026375  
     601A      3.034420   602A      3.042184   603A      3.048487  
     604A      3.054325   605A      3.076110   606A      3.087214  
     607A      3.101348   608A      3.104097   609A      3.110830  
     610A      3.122430   611A      3.126154   612A      3.140621  
     613A      3.144104   614A      3.161019   615A      3.180783  
     616A      3.202805   617A      3.210534   618A      3.218019  
     619A      3.227189   620A      3.254204   621A      3.255388  
     622A      3.271753   623A      3.297439   624A      3.305757  
     625A      3.335928   626A      3.340308   627A      3.353368  
     628A      3.365844   629A      3.374796   630A      3.379609  
     631A      3.388415   632A      3.397350   633A      3.410442  
     634A      3.420007   635A      3.423816   636A      3.428636  
     637A      3.441662   638A      3.458344   639A      3.470853  
     640A      3.480658   641A      3.498901   642A      3.527521  
     643A      3.529255   644A      3.537921   645A      3.552240  
     646A      3.563506   647A      3.579321   648A      3.595175  
     649A      3.610503   650A      3.620786   651A      3.637915  
     652A      3.648353   653A      3.664510   654A      3.673804  
     655A      3.678595   656A      3.685925   657A      3.704604  
     658A      3.720887   659A      3.722358   660A      3.728594  
     661A      3.753753   662A      3.760535   663A      3.774222  
     664A      3.780451   665A      3.781753   666A      3.795354  
     667A      3.803277   668A      3.814890   669A      3.826784  
     670A      3.837528   671A      3.844743   672A      3.849715  
     673A      3.869053   674A      3.875437   675A      3.897419  
     676A      3.904597   677A      3.908195   678A      3.923222  
     679A      3.939386   680A      3.955224   681A      3.955524  
     682A      3.966825   683A      3.980820   684A      3.987612  
     685A      3.995428   686A      4.007265   687A      4.017681  
     688A      4.027181   689A      4.031507   690A      4.042996  
     691A      4.060840   692A      4.062834   693A      4.095996  
     694A      4.108714   695A      4.121617   696A      4.128930  
     697A      4.139384   698A      4.157162   699A      4.169662  
     700A      4.176025   701A      4.181302   702A      4.194514  
     703A      4.209307   704A      4.224759   705A      4.233575  
     706A      4.237428   707A      4.242874   708A      4.245649  
     709A      4.251882   710A      4.273096   711A      4.280434  
     712A      4.285143   713A      4.291117   714A      4.302876  
     715A      4.313931   716A      4.318721   717A      4.338412  
     718A      4.342826   719A      4.353407   720A      4.368869  
     721A      4.385952   722A      4.388433   723A      4.394129  
     724A      4.408880   725A      4.420203   726A      4.426174  
     727A      4.431271   728A      4.449685   729A      4.458696  
     730A      4.465492   731A      4.476014   732A      4.480808  
     733A      4.502472   734A      4.511760   735A      4.524048  
     736A      4.539491   737A      4.543390   738A      4.548998  
     739A      4.559052   740A      4.564525   741A      4.574519  
     742A      4.592825   743A      4.609149   744A      4.613849  
     745A      4.627629   746A      4.640823   747A      4.645000  
     748A      4.663782   749A      4.666929   750A      4.678735  
     751A      4.687144   752A      4.692488   753A      4.698916  
     754A      4.712317   755A      4.714653   756A      4.725341  
     757A      4.733501   758A      4.737168   759A      4.746686  
     760A      4.757467   761A      4.763031   762A      4.780517  
     763A      4.793043   764A      4.794116   765A      4.796586  
     766A      4.804116   767A      4.818964   768A      4.829867  
     769A      4.835245   770A      4.859195   771A      4.866068  
     772A      4.874579   773A      4.875917   774A      4.895141  
     775A      4.913190   776A      4.920637   777A      4.926926  
     778A      4.940849   779A      4.952648   780A      4.963496  
     781A      4.976590   782A      4.980727   783A      4.983839  
     784A      4.997340   785A      5.013237   786A      5.016798  
     787A      5.035004   788A      5.040084   789A      5.047713  
     790A      5.050162   791A      5.068040   792A      5.069558  
     793A      5.082256   794A      5.082943   795A      5.103105  
     796A      5.113801   797A      5.118559   798A      5.129803  
     799A      5.136919   800A      5.145045   801A      5.151217  
     802A      5.172736   803A      5.179817   804A      5.185438  
     805A      5.189519   806A      5.203576   807A      5.214473  
     808A      5.231740   809A      5.240558   810A      5.262502  
     811A      5.269862   812A      5.278465   813A      5.289563  
     814A      5.313376   815A      5.326061   816A      5.330622  
     817A      5.342946   818A      5.348628   819A      5.362027  
     820A      5.374255   821A      5.390582   822A      5.394369  
     823A      5.406650   824A      5.420794   825A      5.435881  
     826A      5.443562   827A      5.448820   828A      5.455542  
     829A      5.470426   830A      5.479368   831A      5.494814  
     832A      5.506829   833A      5.523910   834A      5.530770  
     835A      5.543084   836A      5.554649   837A      5.558981  
     838A      5.576197   839A      5.583614   840A      5.595993  
     841A      5.604203   842A      5.625280   843A      5.633419  
     844A      5.642777   845A      5.646976   846A      5.659781  
     847A      5.672141   848A      5.681108   849A      5.687467  
     850A      5.729939   851A      5.747969   852A      5.756285  
     853A      5.761347   854A      5.766540   855A      5.780824  
     856A      5.783359   857A      5.826862   858A      5.844899  
     859A      5.857015   860A      5.876032   861A      5.882914  
     862A      5.896957   863A      5.905172   864A      5.915401  
     865A      5.940115   866A      5.945450   867A      5.957477  
     868A      5.991343   869A      5.995448   870A      6.006950  
     871A      6.042059   872A      6.047683   873A      6.063679  
     874A      6.077658   875A      6.081708   876A      6.115477  
     877A      6.130642   878A      6.134422   879A      6.148519  
     880A      6.156832   881A      6.171483   882A      6.177120  
     883A      6.231687   884A      6.238931   885A      6.247590  
     886A      6.258053   887A      6.287749   888A      6.304691  
     889A      6.346291   890A      6.359007   891A      6.386275  
     892A      6.416621   893A      6.429238   894A      6.432857  
     895A      6.478065   896A      6.500329   897A      6.519844  
     898A      6.573143   899A      6.586265   900A      6.604145  
     901A      6.627452   902A      6.662093   903A      6.677793  
     904A      6.697084   905A      6.711264   906A      6.730468  
     907A      6.742410   908A      6.752665   909A      6.763891  
     910A      6.770099   911A      6.782809   912A      6.800570  
     913A      6.812292   914A      6.823377   915A      6.858626  
     916A      6.865518   917A      6.881646   918A      6.890527  
     919A      6.895812   920A      6.912931   921A      6.928439  
     922A      6.938568   923A      6.951361   924A      6.962072  
     925A      6.996942   926A      7.005682   927A      7.036084  
     928A      7.040862   929A      7.078542   930A      7.094685  
     931A      7.099680   932A      7.150605   933A      7.198574  
     934A      7.233728   935A      7.288360   936A      7.304756  
     937A      7.318617   938A      7.352626   939A      7.403493  
     940A      7.410304   941A      7.431712   942A      7.450223  
     943A      7.470126   944A      7.498818   945A      7.513530  
     946A      7.525681   947A      7.547959   948A      7.574160  
     949A      7.593371   950A      7.614353   951A      7.642788  
     952A      7.657755   953A      7.661651   954A      7.683439  
     955A      7.706020   956A      7.725349   957A      7.737352  
     958A      7.752943   959A      7.763830   960A      7.779777  
     961A      7.829306   962A      7.850851   963A      7.889316  
     964A      7.894603   965A      7.902943   966A      7.916276  
     967A      7.934361   968A      7.954026   969A      7.977469  
     970A      7.982268   971A      8.021290   972A      8.027758  
     973A      8.040179   974A      8.044017   975A      8.078072  
     976A      8.104076   977A      8.114089   978A      8.125195  
     979A      8.256823   980A      8.281525   981A      8.314443  
     982A      8.388290   983A      8.459758   984A      8.628949  
     985A      8.681967   986A      8.730313   987A      8.846282  
     988A      8.924878   989A      9.047022   990A      9.163266  
     991A      9.218663   992A      9.432631   993A      9.625893  
     994A      9.665021   995A      9.687128   996A      9.720517  
     997A      9.941440   998A     10.022402   999A     10.114370  
    1000A     10.207580  1001A     10.334953  1002A     10.397036  
    1003A     10.471531  1004A     10.827981  1005A     11.053514  
    1006A     11.185401  1007A     11.364456  1008A     11.488569  
    1009A     11.802551  1010A     11.857886  1011A     12.052559  
    1012A     12.058523  1013A     12.256413  1014A     12.640906  
    1015A     12.765995  1016A     13.077462  1017A     13.553064  
    1018A     14.119157  1019A     15.957022  1020A     16.310952  
    1021A     16.505801  1022A     17.055023  1023A     18.263332  
    1024A     19.398829  1025A     20.361775  1026A     20.709267  
    1027A     21.520415  1028A     51.865085  1029A     51.922864  
    1030A     54.547066  1031A     56.517737  1032A     60.456206  
    1033A     62.004058  1034A     64.363270  1035A     69.554766  

    Final Occupation by Irrep:
              A 
    DOCC [    33 ]

  @DF-RHF Final Energy:  -451.66977484667797

   => Energetics <=

    Nuclear Repulsion Energy =            438.2161177930507847
    One-Electron Energy =               -1484.6829301557324925
    Two-Electron Energy =                 594.7970375160036838
    Total Energy =                       -451.6697748466779103

Computation Completed


Properties will be evaluated at   0.000000,   0.000000,   0.000000 [a0]

Properties computed using the SCF density matrix

  Nuclear Dipole Moment: [e a0]
     X:   -70.8035      Y:   -50.4961      Z:  -187.1913

  Electronic Dipole Moment: [e a0]
     X:    70.7000      Y:    48.6095      Z:   187.1904

  Dipole Moment: [e a0]
     X:    -0.1035      Y:    -1.8866      Z:    -0.0010     Total:     1.8894

  Dipole Moment: [D]
     X:    -0.2630      Y:    -4.7953      Z:    -0.0025     Total:     4.8025


*** tstop() called on node155.bme.utexas.edu at Mon Jan 22 15:30:00 2024
Module time:
	user time   =     774.38 seconds =      12.91 minutes
	system time =       8.33 seconds =       0.14 minutes
	total time  =        131 seconds =       2.18 minutes
Total time:
	user time   =    1944.30 seconds =      32.41 minutes
	system time =      27.31 seconds =       0.46 minutes
	total time  =        321 seconds =       5.35 minutes

*** tstart() called on node155.bme.utexas.edu
*** at Mon Jan 22 15:30:00 2024


  //>>>>>>>>>>>>>>>>>>>>>>>>>>>>>>>>>>>//
  //               DFMP2               //
  //<<<<<<<<<<<<<<<<<<<<<<<<<<<<<<<<<<<//

   => Loading Basis Set <=

    Name: (AUG-CC-PVTZ AUX)
    Role: RIFIT
    Keyword: DF_BASIS_MP2
    atoms 1, 3, 16, 18, 24       entry N          line   206 file /opt/anaconda/envs/psi4v1.5/share/psi4/basis/aug-cc-pvtz-ri.gbs 
    atoms 2, 4-6, 11, 17, 19-21  entry C          line   148 file /opt/anaconda/envs/psi4v1.5/share/psi4/basis/aug-cc-pvtz-ri.gbs 
    atoms 7, 9, 12-15, 22, 25-28 entry H          line    30 file /opt/anaconda/envs/psi4v1.5/share/psi4/basis/aug-cc-pvtz-ri.gbs 
    atoms 8, 10, 23              entry O          line   264 file /opt/anaconda/envs/psi4v1.5/share/psi4/basis/aug-cc-pvtz-ri.gbs 

	 --------------------------------------------------------
	                          DF-MP2                         
	      2nd-Order Density-Fitted Moller-Plesset Theory     
	              RMP2 Wavefunction,   8 Threads             
	                                                         
	        Rob Parrish, Justin Turney, Andy Simmonett,      
	           Ed Hohenstein, and C. David Sherrill          
	 --------------------------------------------------------

   => Auxiliary Basis Set <=

  Basis Set: (AUG-CC-PVTZ AUX)
    Blend: AUG-CC-PVTZ-RI
    Number of shells: 630
    Number of basis functions: 2308
    Number of Cartesian functions: 2917
    Spherical Harmonics?: true
    Max angular momentum: 4

	 --------------------------------------------------------
	                 NBF =  1035, NAUX =  2308
	 --------------------------------------------------------
	   CLASS    FOCC     OCC    AOCC    AVIR     VIR    FVIR
	   PAIRS       9      33      24    1002    1002       0
	 --------------------------------------------------------

	 Will attempt to load fitting metric from file 97.

	-----------------------------------------------------------
	 ==================> DF-MP2 Energies <==================== 
	-----------------------------------------------------------
	 Reference Energy          =    -451.6697748466779672 [Eh]
	 Singles Energy            =      -0.0000000000000000 [Eh]
	 Same-Spin Energy          =      -0.4340696543225932 [Eh]
	 Opposite-Spin Energy      =      -1.2521854962398802 [Eh]
	 Correlation Energy        =      -1.6862551505624734 [Eh]
	 Total Energy              =    -453.3560299972404550 [Eh]
	-----------------------------------------------------------
	 ================> DF-SCS-MP2 Energies <================== 
	-----------------------------------------------------------
	 SCS Same-Spin Scale       =       0.3333333333333333 [-]
	 SCS Opposite-Spin Scale   =       1.2000000000000000 [-]
	 SCS Same-Spin Energy      =      -0.1446898847741977 [Eh]
	 SCS Opposite-Spin Energy  =      -1.5026225954878563 [Eh]
	 SCS Correlation Energy    =      -1.6473124802620540 [Eh]
	 SCS Total Energy          =    -453.3170873269399976 [Eh]
	-----------------------------------------------------------


*** tstop() called on node155.bme.utexas.edu at Mon Jan 22 15:30:36 2024
Module time:
	user time   =     177.42 seconds =       2.96 minutes
	system time =       5.35 seconds =       0.09 minutes
	total time  =         36 seconds =       0.60 minutes
Total time:
	user time   =    2121.73 seconds =      35.36 minutes
	system time =      32.66 seconds =       0.54 minutes
	total time  =        357 seconds =       5.95 minutes

  //>>>>>>>>>>>>>>>>>>>>>>>>>>>>>>>>>>>//
  //            Monomer B HF           //
  //<<<<<<<<<<<<<<<<<<<<<<<<<<<<<<<<<<<//


*** tstart() called on node155.bme.utexas.edu
*** at Mon Jan 22 15:30:36 2024

   => Loading Basis Set <=

    Name: AUG-CC-PVTZ
    Role: ORBITAL
    Keyword: BASIS
    atoms 1, 3, 16, 18, 24       entry N          line   285 file /opt/anaconda/envs/psi4v1.5/share/psi4/basis/aug-cc-pvtz.gbs 
    atoms 2, 4-6, 11, 17, 19-21  entry C          line   239 file /opt/anaconda/envs/psi4v1.5/share/psi4/basis/aug-cc-pvtz.gbs 
    atoms 7, 9, 12-15, 22, 25-28 entry H          line    40 file /opt/anaconda/envs/psi4v1.5/share/psi4/basis/aug-cc-pvtz.gbs 
    atoms 8, 10, 23              entry O          line   331 file /opt/anaconda/envs/psi4v1.5/share/psi4/basis/aug-cc-pvtz.gbs 


         ---------------------------------------------------------
                                   SCF
               by Justin Turney, Rob Parrish, Andy Simmonett
                          and Daniel G. A. Smith
                              RHF Reference
                        8 Threads,  76293 MiB Core
         ---------------------------------------------------------

  ==> Geometry <==

    Molecular point group: c1
    Full point group: C1

    Geometry (in Angstrom), charge = 0, multiplicity = 1:

       Center              X                  Y                   Z               Mass       
    ------------   -----------------  -----------------  -----------------  -----------------
      Gh(N)          -1.966806539665    -1.324045981655    -1.500946238490    14.003074004430
      Gh(C)          -2.171177539665     0.053186018345    -1.500685238490    12.000000000000
      Gh(N)          -1.004562539665     0.788330018345    -1.500583238490    14.003074004430
      Gh(C)           0.290629460335     0.288082018345    -1.500689238490    12.000000000000
      Gh(C)           0.422338460335    -1.170788981655    -1.500990238490    12.000000000000
      Gh(C)          -0.717398539665    -1.905175981655    -1.501054238490    12.000000000000
      Gh(H)          -2.804817539665    -1.888620981655    -1.500826238490     1.007825032230
      Gh(O)          -3.290483539665     0.548006018345    -1.500549238490    15.994914619570
      Gh(H)          -1.126203539665     1.838386018345    -1.500376238490     1.007825032230
      Gh(O)           1.259845460335     1.057037018345    -1.500556238490    15.994914619570
      Gh(C)           1.798573460335    -1.769681981655    -1.501588238490    12.000000000000
      Gh(H)           1.746141460335    -2.867026981655    -1.494945238490     1.007825032230
      Gh(H)           2.362712460335    -1.442340981655    -2.387646238490     1.007825032230
      Gh(H)           2.367728460335    -1.431528981655    -0.622914238490     1.007825032230
      Gh(H)          -0.706240539665    -2.994302981655    -1.501091238490     1.007825032230
         N            0.382989460335    -1.118061981655     1.762972761510    14.003074004430
         C           -0.468836539665     0.002748018345     1.820924761510    12.000000000000
         N            0.102656460335     1.231902018345     1.742542761510    14.003074004430
         C            1.431595460335     1.368349018345     1.614540761510    12.000000000000
         C            2.311210460335     0.222508018345     1.554465761510    12.000000000000
         C            1.734767460335    -1.005002981655     1.633281761510    12.000000000000
         H           -0.069564539665    -2.020680981655     1.823637761510     1.007825032230
         O           -1.686018539665    -0.191015981655     1.939523761510    15.994914619570
         N            1.922357460335     2.609880018345     1.543521761510    14.003074004430
         H            1.287894460335     3.436011018345     1.586839761510     1.007825032230
         H            2.915894460335     2.750494018345     1.447050761510     1.007825032230
         H            3.387144460335     0.334522018345     1.450805761510     1.007825032230
         H            2.304064460335    -1.932957981655     1.598118761510     1.007825032230

  Running in c1 symmetry.

  Rotational constants: A =      0.02269  B =      0.01392  C =      0.01271 [cm^-1]
  Rotational constants: A =    680.30945  B =    417.31563  C =    381.13183 [MHz]
  Nuclear repulsion =  355.312364892891253

  Charge       = 0
  Multiplicity = 1
  Electrons    = 58
  Nalpha       = 29
  Nbeta        = 29

  ==> Algorithm <==

  SCF Algorithm Type is DF.
  DIIS enabled.
  MOM disabled.
  Fractional occupation disabled.
  Guess Type is SAD.
  Energy threshold   = 1.00e-08
  Density threshold  = 1.00e-08
  Integral threshold = 1.00e-12

  ==> Primary Basis <==

  Basis Set: AUG-CC-PVTZ
    Blend: AUG-CC-PVTZ
    Number of shells: 337
    Number of basis functions: 1035
    Number of Cartesian functions: 1210
    Spherical Harmonics?: true
    Max angular momentum: 3

   => Loading Basis Set <=

    Name: (AUG-CC-PVTZ AUX)
    Role: JKFIT
    Keyword: DF_BASIS_SCF
    atoms 1, 3, 16, 18, 24       entry N          line   224 file /opt/anaconda/envs/psi4v1.5/share/psi4/basis/aug-cc-pvtz-jkfit.gbs 
    atoms 2, 4-6, 11, 17, 19-21  entry C          line   162 file /opt/anaconda/envs/psi4v1.5/share/psi4/basis/aug-cc-pvtz-jkfit.gbs 
    atoms 7, 9, 12-15, 22, 25-28 entry H          line    70 file /opt/anaconda/envs/psi4v1.5/share/psi4/basis/aug-cc-pvtz-jkfit.gbs 
    atoms 8, 10, 23              entry O          line   286 file /opt/anaconda/envs/psi4v1.5/share/psi4/basis/aug-cc-pvtz-jkfit.gbs 

  ==> Integral Setup <==

  ==> DiskDFJK: Density-Fitted J/K Matrices <==

    J tasked:                  Yes
    K tasked:                  Yes
    wK tasked:                  No
    OpenMP threads:              8
    Integrals threads:           8
    Memory [MiB]:            57220
    Algorithm:                Core
    Integral Cache:           LOAD
    Schwarz Cutoff:          1E-12
    Fitting Condition:       1E-10

   => Auxiliary Basis Set <=

  Basis Set: (AUG-CC-PVTZ AUX)
    Blend: AUG-CC-PVTZ-JKFIT
    Number of shells: 664
    Number of basis functions: 2274
    Number of Cartesian functions: 2832
    Spherical Harmonics?: true
    Max angular momentum: 4

  Minimum eigenvalue in the overlap matrix is 1.1534259522E-06.
  Reciprocal condition number of the overlap matrix is 4.9732494326E-08.
    Using symmetric orthogonalization.

  ==> Pre-Iterations <==

  SCF Guess: Superposition of Atomic Densities via on-the-fly atomic UHF (no occupation information).

   -------------------------
    Irrep   Nso     Nmo    
   -------------------------
     A       1035    1035 
   -------------------------
    Total    1035    1035
   -------------------------

  ==> Iterations <==

                           Total Energy        Delta E     RMS |[F,P]|

   @DF-RHF iter SAD:  -392.07842366745325   -3.92078e+02   0.00000e+00 
   @DF-RHF iter   1:  -392.50587785872472   -4.27454e-01   7.05668e-04 DIIS
   @DF-RHF iter   2:  -392.69650180827722   -1.90624e-01   4.02018e-04 DIIS
   @DF-RHF iter   3:  -392.75549342215356   -5.89916e-02   7.52982e-05 DIIS
   @DF-RHF iter   4:  -392.75879794525645   -3.30452e-03   3.36418e-05 DIIS
   @DF-RHF iter   5:  -392.75949215551964   -6.94210e-04   6.84641e-06 DIIS
   @DF-RHF iter   6:  -392.75956144533541   -6.92898e-05   3.60792e-06 DIIS
   @DF-RHF iter   7:  -392.75957885627793   -1.74109e-05   1.34935e-06 DIIS
   @DF-RHF iter   8:  -392.75958219276907   -3.33649e-06   4.63252e-07 DIIS
   @DF-RHF iter   9:  -392.75958251473406   -3.21965e-07   1.88821e-07 DIIS
   @DF-RHF iter  10:  -392.75958256708469   -5.23506e-08   6.71526e-08 DIIS
   @DF-RHF iter  11:  -392.75958257544204   -8.35735e-09   1.81716e-08 DIIS
   @DF-RHF iter  12:  -392.75958257601104   -5.69003e-10   5.76478e-09 DIIS
  Energy and wave function converged.


  ==> Post-Iterations <==

    Orbital Energies [Eh]
    ---------------------

    Doubly Occupied:                                                      

       1A    -20.491842     2A    -15.622048     3A    -15.608809  
       4A    -15.538187     5A    -11.364548     6A    -11.359711  
       7A    -11.334037     8A    -11.251127     9A     -1.372988  
      10A     -1.294630    11A     -1.263365    12A     -1.169871  
      13A     -1.065443    14A     -0.903017    15A     -0.877377  
      16A     -0.763349    17A     -0.760468    18A     -0.728032  
      19A     -0.678026    20A     -0.622934    21A     -0.622900  
      22A     -0.612953    23A     -0.582771    24A     -0.542224  
      25A     -0.483482    26A     -0.432640    27A     -0.416252  
      28A     -0.383526    29A     -0.342691  

    Virtual:                                                              

      30A      0.011760    31A      0.020370    32A      0.028034  
      33A      0.031629    34A      0.040916    35A      0.042329  
      36A      0.051235    37A      0.054630    38A      0.057761  
      39A      0.061373    40A      0.065483    41A      0.070289  
      42A      0.079968    43A      0.082697    44A      0.087787  
      45A      0.088933    46A      0.092378    47A      0.094158  
      48A      0.095830    49A      0.100850    50A      0.102669  
      51A      0.104527    52A      0.108546    53A      0.116435  
      54A      0.121521    55A      0.124856    56A      0.127148  
      57A      0.130643    58A      0.133965    59A      0.135515  
      60A      0.139694    61A      0.143267    62A      0.146302  
      63A      0.146951    64A      0.149968    65A      0.152642  
      66A      0.155840    67A      0.160783    68A      0.164273  
      69A      0.168843    70A      0.173949    71A      0.176876  
      72A      0.181798    73A      0.187895    74A      0.189607  
      75A      0.192374    76A      0.198285    77A      0.200095  
      78A      0.202253    79A      0.208344    80A      0.209620  
      81A      0.216325    82A      0.220839    83A      0.225286  
      84A      0.231010    85A      0.232339    86A      0.233974  
      87A      0.237644    88A      0.240693    89A      0.245784  
      90A      0.249798    91A      0.257315    92A      0.258484  
      93A      0.259991    94A      0.266576    95A      0.270249  
      96A      0.274373    97A      0.277591    98A      0.281093  
      99A      0.284551   100A      0.285342   101A      0.290897  
     102A      0.299618   103A      0.300578   104A      0.303917  
     105A      0.306414   106A      0.311830   107A      0.314574  
     108A      0.315867   109A      0.317814   110A      0.320522  
     111A      0.325094   112A      0.328368   113A      0.335921  
     114A      0.337433   115A      0.341327   116A      0.344610  
     117A      0.350613   118A      0.352483   119A      0.357934  
     120A      0.358816   121A      0.362680   122A      0.364048  
     123A      0.368555   124A      0.373112   125A      0.377839  
     126A      0.382635   127A      0.387381   128A      0.395776  
     129A      0.400294   130A      0.404866   131A      0.408253  
     132A      0.410033   133A      0.410568   134A      0.417541  
     135A      0.421439   136A      0.421829   137A      0.424398  
     138A      0.429450   139A      0.434554   140A      0.437939  
     141A      0.442120   142A      0.443353   143A      0.448405  
     144A      0.453210   145A      0.456031   146A      0.461319  
     147A      0.464459   148A      0.466245   149A      0.469831  
     150A      0.474330   151A      0.477281   152A      0.479048  
     153A      0.481322   154A      0.483653   155A      0.487625  
     156A      0.496385   157A      0.497747   158A      0.504400  
     159A      0.507717   160A      0.509295   161A      0.514138  
     162A      0.517001   163A      0.518994   164A      0.521122  
     165A      0.526301   166A      0.529492   167A      0.537496  
     168A      0.538616   169A      0.541880   170A      0.547058  
     171A      0.552166   172A      0.554670   173A      0.558463  
     174A      0.562229   175A      0.565674   176A      0.567742  
     177A      0.571092   178A      0.576592   179A      0.584003  
     180A      0.586045   181A      0.587130   182A      0.591282  
     183A      0.596701   184A      0.600500   185A      0.602855  
     186A      0.606891   187A      0.613172   188A      0.617660  
     189A      0.619821   190A      0.630307   191A      0.631524  
     192A      0.639068   193A      0.647440   194A      0.648413  
     195A      0.656324   196A      0.656461   197A      0.663969  
     198A      0.667692   199A      0.672451   200A      0.675492  
     201A      0.677206   202A      0.686022   203A      0.686364  
     204A      0.689947   205A      0.695971   206A      0.698340  
     207A      0.703430   208A      0.712803   209A      0.720264  
     210A      0.724513   211A      0.726353   212A      0.735623  
     213A      0.736324   214A      0.744163   215A      0.747438  
     216A      0.749822   217A      0.755070   218A      0.761868  
     219A      0.765556   220A      0.770454   221A      0.772181  
     222A      0.776990   223A      0.785652   224A      0.786751  
     225A      0.792059   226A      0.804133   227A      0.807005  
     228A      0.810845   229A      0.811628   230A      0.817075  
     231A      0.822442   232A      0.825003   233A      0.828879  
     234A      0.839151   235A      0.841735   236A      0.851100  
     237A      0.852880   238A      0.859293   239A      0.861956  
     240A      0.864245   241A      0.866868   242A      0.877413  
     243A      0.880429   244A      0.887368   245A      0.896025  
     246A      0.898076   247A      0.902244   248A      0.908150  
     249A      0.912898   250A      0.921522   251A      0.923546  
     252A      0.926219   253A      0.929156   254A      0.933834  
     255A      0.938962   256A      0.947941   257A      0.951798  
     258A      0.954433   259A      0.961223   260A      0.965257  
     261A      0.968003   262A      0.968901   263A      0.973748  
     264A      0.976271   265A      0.980515   266A      0.985691  
     267A      0.989743   268A      0.994964   269A      0.998642  
     270A      1.003219   271A      1.010127   272A      1.013184  
     273A      1.018280   274A      1.024143   275A      1.030123  
     276A      1.036587   277A      1.038433   278A      1.042399  
     279A      1.047866   280A      1.049930   281A      1.058852  
     282A      1.061278   283A      1.063550   284A      1.067823  
     285A      1.073732   286A      1.080613   287A      1.083215  
     288A      1.088218   289A      1.091207   290A      1.097274  
     291A      1.101248   292A      1.110061   293A      1.114411  
     294A      1.116841   295A      1.124321   296A      1.128183  
     297A      1.131729   298A      1.136377   299A      1.139487  
     300A      1.143075   301A      1.144612   302A      1.149434  
     303A      1.156802   304A      1.160793   305A      1.161622  
     306A      1.169979   307A      1.175844   308A      1.177658  
     309A      1.181822   310A      1.187267   311A      1.192531  
     312A      1.196240   313A      1.204760   314A      1.207813  
     315A      1.210386   316A      1.211994   317A      1.215801  
     318A      1.224301   319A      1.228080   320A      1.231040  
     321A      1.235680   322A      1.241424   323A      1.248371  
     324A      1.253696   325A      1.260123   326A      1.263593  
     327A      1.264496   328A      1.269413   329A      1.273489  
     330A      1.277512   331A      1.290586   332A      1.293718  
     333A      1.295540   334A      1.298374   335A      1.306537  
     336A      1.308029   337A      1.308357   338A      1.317812  
     339A      1.320930   340A      1.324705   341A      1.327489  
     342A      1.335694   343A      1.340911   344A      1.345612  
     345A      1.351851   346A      1.354982   347A      1.358566  
     348A      1.365728   349A      1.366227   350A      1.371860  
     351A      1.376484   352A      1.384740   353A      1.390494  
     354A      1.396600   355A      1.401464   356A      1.403740  
     357A      1.411909   358A      1.416469   359A      1.420980  
     360A      1.424020   361A      1.424708   362A      1.430305  
     363A      1.435865   364A      1.441355   365A      1.456373  
     366A      1.459371   367A      1.465433   368A      1.469147  
     369A      1.474447   370A      1.479917   371A      1.481999  
     372A      1.490008   373A      1.493692   374A      1.496480  
     375A      1.503750   376A      1.505246   377A      1.512154  
     378A      1.518914   379A      1.523422   380A      1.532294  
     381A      1.537800   382A      1.541740   383A      1.544655  
     384A      1.557401   385A      1.566440   386A      1.568461  
     387A      1.576558   388A      1.578454   389A      1.580673  
     390A      1.589638   391A      1.590972   392A      1.601053  
     393A      1.607864   394A      1.616126   395A      1.618179  
     396A      1.625341   397A      1.630143   398A      1.637659  
     399A      1.646627   400A      1.650317   401A      1.651936  
     402A      1.656705   403A      1.665324   404A      1.666995  
     405A      1.679278   406A      1.681907   407A      1.687398  
     408A      1.697764   409A      1.704057   410A      1.707960  
     411A      1.709357   412A      1.716687   413A      1.721043  
     414A      1.731082   415A      1.736720   416A      1.745743  
     417A      1.750384   418A      1.755538   419A      1.764582  
     420A      1.768683   421A      1.772164   422A      1.781618  
     423A      1.784897   424A      1.794993   425A      1.800926  
     426A      1.806301   427A      1.810851   428A      1.815293  
     429A      1.824773   430A      1.827965   431A      1.830561  
     432A      1.835644   433A      1.842718   434A      1.847769  
     435A      1.850651   436A      1.861072   437A      1.864346  
     438A      1.877150   439A      1.881493   440A      1.894054  
     441A      1.899252   442A      1.901317   443A      1.908074  
     444A      1.913005   445A      1.916703   446A      1.918879  
     447A      1.924205   448A      1.937157   449A      1.943711  
     450A      1.946891   451A      1.950371   452A      1.961413  
     453A      1.966214   454A      1.974085   455A      1.986598  
     456A      1.994061   457A      1.996942   458A      2.001565  
     459A      2.006557   460A      2.013119   461A      2.023349  
     462A      2.029326   463A      2.039929   464A      2.042844  
     465A      2.048339   466A      2.054652   467A      2.059812  
     468A      2.069417   469A      2.075879   470A      2.081911  
     471A      2.087168   472A      2.099234   473A      2.104714  
     474A      2.114920   475A      2.120404   476A      2.128587  
     477A      2.131826   478A      2.139777   479A      2.147625  
     480A      2.151402   481A      2.153892   482A      2.168866  
     483A      2.175517   484A      2.184419   485A      2.192547  
     486A      2.197172   487A      2.199341   488A      2.210010  
     489A      2.218019   490A      2.229671   491A      2.232736  
     492A      2.243637   493A      2.246756   494A      2.252576  
     495A      2.255834   496A      2.259233   497A      2.264422  
     498A      2.281917   499A      2.290961   500A      2.294358  
     501A      2.297062   502A      2.309344   503A      2.312201  
     504A      2.323304   505A      2.326467   506A      2.332600  
     507A      2.346884   508A      2.353615   509A      2.357853  
     510A      2.369127   511A      2.376127   512A      2.386375  
     513A      2.394624   514A      2.403132   515A      2.409277  
     516A      2.416101   517A      2.426773   518A      2.430376  
     519A      2.442023   520A      2.443383   521A      2.456951  
     522A      2.458705   523A      2.464895   524A      2.474581  
     525A      2.480120   526A      2.484274   527A      2.496917  
     528A      2.503674   529A      2.506316   530A      2.510255  
     531A      2.526627   532A      2.532185   533A      2.540274  
     534A      2.544056   535A      2.551973   536A      2.565237  
     537A      2.567176   538A      2.572260   539A      2.577456  
     540A      2.580905   541A      2.601908   542A      2.605144  
     543A      2.608474   544A      2.626447   545A      2.630815  
     546A      2.638985   547A      2.640657   548A      2.645618  
     549A      2.655213   550A      2.665120   551A      2.667193  
     552A      2.675997   553A      2.679194   554A      2.686365  
     555A      2.702172   556A      2.703690   557A      2.715456  
     558A      2.724824   559A      2.730038   560A      2.741775  
     561A      2.750124   562A      2.756360   563A      2.763027  
     564A      2.767213   565A      2.774116   566A      2.780578  
     567A      2.786875   568A      2.803423   569A      2.808241  
     570A      2.816268   571A      2.818410   572A      2.833221  
     573A      2.838429   574A      2.847026   575A      2.852561  
     576A      2.856594   577A      2.859947   578A      2.868243  
     579A      2.882740   580A      2.884332   581A      2.898470  
     582A      2.900915   583A      2.917334   584A      2.919234  
     585A      2.920942   586A      2.941617   587A      2.948812  
     588A      2.960618   589A      2.961000   590A      2.979571  
     591A      2.981609   592A      2.989072   593A      3.003777  
     594A      3.009166   595A      3.024766   596A      3.033576  
     597A      3.042920   598A      3.054712   599A      3.059045  
     600A      3.074620   601A      3.084806   602A      3.092815  
     603A      3.099649   604A      3.119467   605A      3.133900  
     606A      3.138302   607A      3.151734   608A      3.153393  
     609A      3.158011   610A      3.166155   611A      3.185587  
     612A      3.200400   613A      3.209724   614A      3.227392  
     615A      3.240991   616A      3.251898   617A      3.267786  
     618A      3.277034   619A      3.289910   620A      3.305687  
     621A      3.322732   622A      3.326593   623A      3.340429  
     624A      3.347780   625A      3.370379   626A      3.377183  
     627A      3.392264   628A      3.397062   629A      3.423320  
     630A      3.430035   631A      3.437500   632A      3.452459  
     633A      3.461304   634A      3.477494   635A      3.491774  
     636A      3.510379   637A      3.520871   638A      3.543765  
     639A      3.553900   640A      3.563743   641A      3.590313  
     642A      3.597423   643A      3.619142   644A      3.623675  
     645A      3.644803   646A      3.661105   647A      3.680507  
     648A      3.694861   649A      3.696206   650A      3.714526  
     651A      3.723060   652A      3.729086   653A      3.741616  
     654A      3.753803   655A      3.767742   656A      3.772618  
     657A      3.796351   658A      3.803379   659A      3.810264  
     660A      3.824836   661A      3.834046   662A      3.838796  
     663A      3.855273   664A      3.866408   665A      3.887182  
     666A      3.888556   667A      3.890115   668A      3.902107  
     669A      3.917682   670A      3.929507   671A      3.935879  
     672A      3.939222   673A      3.959690   674A      3.987228  
     675A      3.995219   676A      4.004543   677A      4.013137  
     678A      4.018601   679A      4.032908   680A      4.056042  
     681A      4.058844   682A      4.073699   683A      4.087959  
     684A      4.097261   685A      4.121742   686A      4.130719  
     687A      4.137287   688A      4.152140   689A      4.156952  
     690A      4.163629   691A      4.166296   692A      4.174274  
     693A      4.182869   694A      4.197612   695A      4.206450  
     696A      4.207302   697A      4.223921   698A      4.229422  
     699A      4.241315   700A      4.256307   701A      4.266155  
     702A      4.268234   703A      4.281301   704A      4.296083  
     705A      4.302750   706A      4.309800   707A      4.317700  
     708A      4.331359   709A      4.332303   710A      4.339528  
     711A      4.346093   712A      4.365607   713A      4.372968  
     714A      4.389089   715A      4.394725   716A      4.399166  
     717A      4.409615   718A      4.416053   719A      4.426654  
     720A      4.432282   721A      4.438718   722A      4.466072  
     723A      4.473639   724A      4.485829   725A      4.490175  
     726A      4.498150   727A      4.504852   728A      4.506520  
     729A      4.516695   730A      4.531059   731A      4.543186  
     732A      4.564733   733A      4.570880   734A      4.576345  
     735A      4.586191   736A      4.592628   737A      4.599518  
     738A      4.611631   739A      4.625802   740A      4.634865  
     741A      4.646124   742A      4.657920   743A      4.673783  
     744A      4.679410   745A      4.686697   746A      4.709299  
     747A      4.712059   748A      4.725028   749A      4.732972  
     750A      4.736873   751A      4.743599   752A      4.752709  
     753A      4.764827   754A      4.773224   755A      4.776212  
     756A      4.782834   757A      4.801778   758A      4.815188  
     759A      4.824022   760A      4.837512   761A      4.847268  
     762A      4.860049   763A      4.870690   764A      4.872083  
     765A      4.877735   766A      4.887619   767A      4.892275  
     768A      4.902085   769A      4.908637   770A      4.919298  
     771A      4.927384   772A      4.936807   773A      4.943995  
     774A      4.953407   775A      4.975253   776A      4.976290  
     777A      4.996377   778A      4.998308   779A      5.010452  
     780A      5.016602   781A      5.025242   782A      5.027475  
     783A      5.045726   784A      5.056590   785A      5.070096  
     786A      5.081119   787A      5.084692   788A      5.099433  
     789A      5.113937   790A      5.122454   791A      5.127380  
     792A      5.141501   793A      5.155820   794A      5.163157  
     795A      5.171746   796A      5.188514   797A      5.196871  
     798A      5.198690   799A      5.208124   800A      5.218266  
     801A      5.232878   802A      5.243545   803A      5.254899  
     804A      5.267524   805A      5.278591   806A      5.281855  
     807A      5.300217   808A      5.314136   809A      5.318437  
     810A      5.328069   811A      5.345035   812A      5.351834  
     813A      5.358374   814A      5.367623   815A      5.378716  
     816A      5.395244   817A      5.408358   818A      5.411672  
     819A      5.420004   820A      5.447987   821A      5.448581  
     822A      5.453832   823A      5.462704   824A      5.476835  
     825A      5.489635   826A      5.492922   827A      5.509302  
     828A      5.511033   829A      5.534431   830A      5.547195  
     831A      5.548831   832A      5.554150   833A      5.569865  
     834A      5.582980   835A      5.594568   836A      5.600313  
     837A      5.609164   838A      5.617971   839A      5.629472  
     840A      5.634659   841A      5.638233   842A      5.649838  
     843A      5.657115   844A      5.678464   845A      5.679164  
     846A      5.697199   847A      5.700723   848A      5.710568  
     849A      5.718189   850A      5.754389   851A      5.777356  
     852A      5.806725   853A      5.818190   854A      5.827801  
     855A      5.833347   856A      5.847577   857A      5.857243  
     858A      5.879590   859A      5.884288   860A      5.903756  
     861A      5.909321   862A      5.914841   863A      5.942911  
     864A      5.958902   865A      5.978912   866A      5.997973  
     867A      6.010607   868A      6.027285   869A      6.053045  
     870A      6.061305   871A      6.082665   872A      6.088030  
     873A      6.102702   874A      6.122198   875A      6.158727  
     876A      6.166696   877A      6.177943   878A      6.186677  
     879A      6.204356   880A      6.220593   881A      6.227508  
     882A      6.239098   883A      6.263791   884A      6.276666  
     885A      6.311039   886A      6.323174   887A      6.333812  
     888A      6.372939   889A      6.378962   890A      6.411822  
     891A      6.441937   892A      6.453651   893A      6.483131  
     894A      6.510499   895A      6.535021   896A      6.545581  
     897A      6.601276   898A      6.618423   899A      6.630971  
     900A      6.656351   901A      6.672184   902A      6.677950  
     903A      6.721705   904A      6.732305   905A      6.742359  
     906A      6.783365   907A      6.799955   908A      6.805798  
     909A      6.823026   910A      6.836129   911A      6.846723  
     912A      6.856900   913A      6.872903   914A      6.884710  
     915A      6.899442   916A      6.926827   917A      6.935687  
     918A      6.941089   919A      7.021397   920A      7.027800  
     921A      7.050987   922A      7.079281   923A      7.085777  
     924A      7.118314   925A      7.151650   926A      7.170301  
     927A      7.200565   928A      7.212171   929A      7.297019  
     930A      7.309020   931A      7.334620   932A      7.371363  
     933A      7.394138   934A      7.429545   935A      7.435787  
     936A      7.504107   937A      7.517730   938A      7.564040  
     939A      7.589674   940A      7.604368   941A      7.625430  
     942A      7.636710   943A      7.646204   944A      7.656451  
     945A      7.690343   946A      7.710998   947A      7.734050  
     948A      7.748026   949A      7.759564   950A      7.784024  
     951A      7.792485   952A      7.810221   953A      7.834179  
     954A      7.852424   955A      7.863532   956A      7.876348  
     957A      7.885139   958A      7.899391   959A      7.930216  
     960A      7.941002   961A      7.965031   962A      7.973511  
     963A      7.993452   964A      8.003921   965A      8.033460  
     966A      8.062744   967A      8.082551   968A      8.109309  
     969A      8.181523   970A      8.210341   971A      8.249581  
     972A      8.304660   973A      8.333429   974A      8.387426  
     975A      8.440868   976A      8.445724   977A      8.589912  
     978A      8.686212   979A      8.739942   980A      8.833239  
     981A      8.919521   982A      8.957243   983A      9.034213  
     984A      9.108764   985A      9.222898   986A      9.591839  
     987A      9.633230   988A      9.649903   989A      9.724673  
     990A      9.895091   991A      9.999861   992A     10.015549  
     993A     10.074376   994A     10.093344   995A     10.249391  
     996A     10.337084   997A     10.370764   998A     10.419533  
     999A     10.488017  1000A     10.552068  1001A     10.585272  
    1002A     10.765794  1003A     11.001565  1004A     11.308498  
    1005A     11.496720  1006A     11.668878  1007A     12.081499  
    1008A     12.104632  1009A     12.119658  1010A     12.143601  
    1011A     12.226802  1012A     12.536173  1013A     12.748842  
    1014A     12.905667  1015A     13.466206  1016A     13.652592  
    1017A     14.211303  1018A     14.248360  1019A     15.895335  
    1020A     16.288693  1021A     16.670013  1022A     17.942012  
    1023A     18.437708  1024A     20.014742  1025A     20.666327  
    1026A     21.049527  1027A     52.098329  1028A     52.855698  
    1029A     54.336037  1030A     55.402582  1031A     58.930679  
    1032A     60.693595  1033A     61.499236  1034A     69.773716  
    1035A     70.417592  

    Final Occupation by Irrep:
              A 
    DOCC [    29 ]

  @DF-RHF Final Energy:  -392.75958257601104

   => Energetics <=

    Nuclear Repulsion Energy =            355.3123648928912530
    One-Electron Energy =               -1239.1653939636416908
    Two-Electron Energy =                 491.0934464947393394
    Total Energy =                       -392.7595825760110415

Computation Completed


Properties will be evaluated at   0.000000,   0.000000,   0.000000 [a0]

Properties computed using the SCF density matrix

  Nuclear Dipole Moment: [e a0]
     X:    81.7226      Y:    44.6673      Z:   186.1478

  Electronic Dipole Moment: [e a0]
     X:   -78.6992      Y:   -44.9053      Z:  -186.4275

  Dipole Moment: [e a0]
     X:     3.0234      Y:    -0.2380      Z:    -0.2797     Total:     3.0456

  Dipole Moment: [D]
     X:     7.6848      Y:    -0.6050      Z:    -0.7108     Total:     7.7412


*** tstop() called on node155.bme.utexas.edu at Mon Jan 22 15:32:47 2024
Module time:
	user time   =     778.73 seconds =      12.98 minutes
	system time =       7.55 seconds =       0.13 minutes
	total time  =        131 seconds =       2.18 minutes
Total time:
	user time   =    2900.48 seconds =      48.34 minutes
	system time =      40.21 seconds =       0.67 minutes
	total time  =        488 seconds =       8.13 minutes

*** tstart() called on node155.bme.utexas.edu
*** at Mon Jan 22 15:32:47 2024


  //>>>>>>>>>>>>>>>>>>>>>>>>>>>>>>>>>>>//
  //               DFMP2               //
  //<<<<<<<<<<<<<<<<<<<<<<<<<<<<<<<<<<<//

   => Loading Basis Set <=

    Name: (AUG-CC-PVTZ AUX)
    Role: RIFIT
    Keyword: DF_BASIS_MP2
    atoms 1, 3, 16, 18, 24       entry N          line   206 file /opt/anaconda/envs/psi4v1.5/share/psi4/basis/aug-cc-pvtz-ri.gbs 
    atoms 2, 4-6, 11, 17, 19-21  entry C          line   148 file /opt/anaconda/envs/psi4v1.5/share/psi4/basis/aug-cc-pvtz-ri.gbs 
    atoms 7, 9, 12-15, 22, 25-28 entry H          line    30 file /opt/anaconda/envs/psi4v1.5/share/psi4/basis/aug-cc-pvtz-ri.gbs 
    atoms 8, 10, 23              entry O          line   264 file /opt/anaconda/envs/psi4v1.5/share/psi4/basis/aug-cc-pvtz-ri.gbs 

	 --------------------------------------------------------
	                          DF-MP2                         
	      2nd-Order Density-Fitted Moller-Plesset Theory     
	              RMP2 Wavefunction,   8 Threads             
	                                                         
	        Rob Parrish, Justin Turney, Andy Simmonett,      
	           Ed Hohenstein, and C. David Sherrill          
	 --------------------------------------------------------

   => Auxiliary Basis Set <=

  Basis Set: (AUG-CC-PVTZ AUX)
    Blend: AUG-CC-PVTZ-RI
    Number of shells: 630
    Number of basis functions: 2308
    Number of Cartesian functions: 2917
    Spherical Harmonics?: true
    Max angular momentum: 4

	 --------------------------------------------------------
	                 NBF =  1035, NAUX =  2308
	 --------------------------------------------------------
	   CLASS    FOCC     OCC    AOCC    AVIR     VIR    FVIR
	   PAIRS       8      29      21    1006    1006       0
	 --------------------------------------------------------

	 Will attempt to load fitting metric from file 97.

	-----------------------------------------------------------
	 ==================> DF-MP2 Energies <==================== 
	-----------------------------------------------------------
	 Reference Energy          =    -392.7595825760110415 [Eh]
	 Singles Energy            =      -0.0000000000000000 [Eh]
	 Same-Spin Energy          =      -0.3849699225975314 [Eh]
	 Opposite-Spin Energy      =      -1.0977879861602138 [Eh]
	 Correlation Energy        =      -1.4827579087577452 [Eh]
	 Total Energy              =    -394.2423404847687607 [Eh]
	-----------------------------------------------------------
	 ================> DF-SCS-MP2 Energies <================== 
	-----------------------------------------------------------
	 SCS Same-Spin Scale       =       0.3333333333333333 [-]
	 SCS Opposite-Spin Scale   =       1.2000000000000000 [-]
	 SCS Same-Spin Energy      =      -0.1283233075325104 [Eh]
	 SCS Opposite-Spin Energy  =      -1.3173455833922565 [Eh]
	 SCS Correlation Energy    =      -1.4456688909247670 [Eh]
	 SCS Total Energy          =    -394.2052514669358061 [Eh]
	-----------------------------------------------------------


*** tstop() called on node155.bme.utexas.edu at Mon Jan 22 15:33:18 2024
Module time:
	user time   =     156.66 seconds =       2.61 minutes
	system time =       5.10 seconds =       0.09 minutes
	total time  =         31 seconds =       0.52 minutes
Total time:
	user time   =    3057.15 seconds =      50.95 minutes
	system time =      45.31 seconds =       0.76 minutes
	total time  =        519 seconds =       8.65 minutes
  Constructing Basis Sets for SAPT...

   => Loading Basis Set <=

    Name: (AUG-CC-PVTZ AUX)
    Role: RIFIT
    Keyword: DF_BASIS_SAPT
    atoms 1, 3, 16, 18, 24       entry N          line   206 file /opt/anaconda/envs/psi4v1.5/share/psi4/basis/aug-cc-pvtz-ri.gbs 
    atoms 2, 4-6, 11, 17, 19-21  entry C          line   148 file /opt/anaconda/envs/psi4v1.5/share/psi4/basis/aug-cc-pvtz-ri.gbs 
    atoms 7, 9, 12-15, 22, 25-28 entry H          line    30 file /opt/anaconda/envs/psi4v1.5/share/psi4/basis/aug-cc-pvtz-ri.gbs 
    atoms 8, 10, 23              entry O          line   264 file /opt/anaconda/envs/psi4v1.5/share/psi4/basis/aug-cc-pvtz-ri.gbs 


  //>>>>>>>>>>>>>>>>>>>>>>>>>>>>>>>>>>>//
  //           SAPT2+(3)DMP2           //
  //<<<<<<<<<<<<<<<<<<<<<<<<<<<<<<<<<<<//


*** tstart() called on node155.bme.utexas.edu
*** at Mon Jan 22 15:33:18 2024

      SAPT2+(3)  
    Ed Hohenstein
     6 June 2009

      Orbital Information
  --------------------------
    NSO        =      1035
    NMO        =      1035
    NRI        =      2308
    NOCC A     =        33
    NOCC B     =        29
    FOCC A     =         9
    FOCC B     =         8
    NVIR A     =      1002
    NVIR B     =      1006

    Estimated memory usage: 45136.8 MB

    Natural Orbital Cutoff:   1.000E-06
    Disp(T3) Truncation:            Yes
    CCD (vv|vv) Truncation:         Yes
    MBPT T2 Truncation:             Yes

    Monomer A: 525 virtual orbitals dropped
    Monomer B: 584 virtual orbitals dropped

    Elst10,r            =    -0.007715823545 [Eh]
    Exch10 (S^2)        =     0.022201377919 [Eh]
    Exch10              =     0.022305434753 [Eh]
    Ind20,r (A<-B)      =    -0.005165041068 [Eh]
    Ind20,r (B<-A)      =    -0.004361522467 [Eh]
    Ind20,r             =    -0.009526563535 [Eh]
    Exch-Ind20,r (A<-B) =     0.003829907025 [Eh]
    Exch-Ind20,r (B<-A) =     0.003395556373 [Eh]
    Exch-Ind20,r        =     0.007225463398 [Eh]
    Disp20              =    -0.024211283555 [Eh]
    Disp20 (NO)         =    -0.022372674716 [Eh]
    Exch-Disp20         =     0.002761320760 [Eh]
    Elst12,r            =    -0.000471662140 [Eh]
    Exch11              =     0.000753032355 [Eh]
    Exch12              =     0.000399312815 [Eh]
    Ind22               =     0.000033110057 [Eh]
    Disp21              =     0.006235164046 [Eh]
    Disp22 (SDQ)        =    -0.000632107308 [Eh]

    (i =   1 of  21)       2070 seconds
    (i =   2 of  21)       4052 seconds
    (i =   3 of  21)       5922 seconds
    (i =   4 of  21)       7800 seconds
    (i =   5 of  21)       9728 seconds
    (i =   6 of  21)      12027 seconds
    (i =   7 of  21)      14309 seconds
    (i =   8 of  21)      16342 seconds
    (i =   9 of  21)      18348 seconds
    (i =  10 of  21)      20326 seconds
    (i =  11 of  21)      22413 seconds
    (i =  12 of  21)      25229 seconds
    (i =  13 of  21)      27543 seconds
    (i =  14 of  21)      29802 seconds
    (i =  15 of  21)      32050 seconds
    (i =  16 of  21)      34292 seconds
    (i =  17 of  21)      37010 seconds
    (i =  18 of  21)      39364 seconds
    (i =  19 of  21)      41660 seconds
    (i =  20 of  21)      43858 seconds
    (i =  21 of  21)      46143 seconds

    Disp220 (T)         =    -0.002447645197 [Eh]

    (i =   1 of  24)       2277 seconds
    (i =   2 of  24)       4196 seconds
    (i =   3 of  24)       6031 seconds
    (i =   4 of  24)       7878 seconds
    (i =   5 of  24)       9684 seconds
    (i =   6 of  24)      11441 seconds
    (i =   7 of  24)      13705 seconds
    (i =   8 of  24)      15781 seconds
    (i =   9 of  24)      17605 seconds
    (i =  10 of  24)      19225 seconds
    (i =  11 of  24)      21006 seconds
    (i =  12 of  24)      22765 seconds
    (i =  13 of  24)      23968 seconds
    (i =  14 of  24)      25207 seconds
    (i =  15 of  24)      26746 seconds
    (i =  16 of  24)      28035 seconds
    (i =  17 of  24)      29248 seconds
    (i =  18 of  24)      30432 seconds
    (i =  19 of  24)      31617 seconds
    (i =  20 of  24)      32800 seconds
    (i =  21 of  24)      33993 seconds
    (i =  22 of  24)      35200 seconds
    (i =  23 of  24)      36409 seconds
    (i =  24 of  24)      38027 seconds

    Disp202 (T)         =    -0.002582074049 [Eh]

    Disp22 (T)          =    -0.005029719247 [Eh]

    Est. Disp220 (T)    =    -0.002648795134 [Eh]
    Est. Disp202 (T)    =    -0.002794271483 [Eh]

    Est. Disp22 (T)     =    -0.005443066617 [Eh]
    Elst13,r            =     0.000452739060 [Eh]
    Disp30              =     0.000674282446 [Eh]

    SAPT Results 
  --------------------------------------------------------------------------------------------------------
    Electrostatics                 -7.73474663 [mEh]      -4.85362678 [kcal/mol]     -20.30757447 [kJ/mol]
      Elst10,r                     -7.71582355 [mEh]      -4.84175237 [kcal/mol]     -20.25789193 [kJ/mol]
      Elst12,r                     -0.47166214 [mEh]      -0.29597246 [kcal/mol]      -1.23834878 [kJ/mol]
      Elst13,r                      0.45273906 [mEh]       0.28409805 [kcal/mol]       1.18866624 [kJ/mol]

    Exchange                       23.45777992 [mEh]      14.71997914 [kcal/mol]      61.58839270 [kJ/mol]
      Exch10                       22.30543475 [mEh]      13.99687162 [kcal/mol]      58.56291088 [kJ/mol]
      Exch10(S^2)                  22.20137792 [mEh]      13.93157497 [kcal/mol]      58.28970969 [kJ/mol]
      Exch11(S^2)                   0.75303235 [mEh]       0.47253494 [kcal/mol]       1.97708618 [kJ/mol]
      Exch12(S^2)                   0.39931282 [mEh]       0.25057257 [kcal/mol]       1.04839565 [kJ/mol]

    Induction                      -2.40634975 [mEh]      -1.51000727 [kcal/mol]      -6.31787040 [kJ/mol]
      Ind20,r                      -9.52656354 [mEh]      -5.97800887 [kcal/mol]     -25.01198912 [kJ/mol]
      Ind22                         0.03311006 [mEh]       0.02077687 [kcal/mol]       0.08693044 [kJ/mol]
      Exch-Ind20,r                  7.22546340 [mEh]       4.53404673 [kcal/mol]      18.97045154 [kJ/mol]
      Exch-Ind22                   -0.02511247 [mEh]      -0.01575831 [kcal/mol]      -0.06593277 [kJ/mol]
      delta HF,r (2)               -1.40465212 [mEh]      -0.88143251 [kcal/mol]      -3.68791363 [kJ/mol]
      delta MP2,r (2)               1.29140492 [mEh]       0.81036882 [kcal/mol]       3.39058314 [kJ/mol]

    Dispersion                    -20.61569023 [mEh]     -12.93654093 [kcal/mol]     -54.12648724 [kJ/mol]
      Disp20                      -24.21128355 [mEh]     -15.19280980 [kcal/mol]     -63.56671621 [kJ/mol]
      Disp30                        0.67428245 [mEh]       0.42311862 [kcal/mol]       1.77032832 [kJ/mol]
      Disp21                        6.23516405 [mEh]       3.91262451 [kcal/mol]      16.37042095 [kJ/mol]
      Disp22 (SDQ)                 -0.63210731 [mEh]      -0.39665332 [kcal/mol]      -1.65959751 [kJ/mol]
      Disp22 (T)                   -5.02971925 [mEh]      -3.15619648 [kcal/mol]     -13.20552606 [kJ/mol]
      Est. Disp22 (T)              -5.44306662 [mEh]      -3.41557587 [kcal/mol]     -14.29076943 [kJ/mol]
      Exch-Disp20                   2.76132076 [mEh]       1.73275494 [kcal/mol]       7.24984666 [kJ/mol]

  Total HF                         10.88385895 [mEh]       6.82972460 [kcal/mol]      28.57556774 [kJ/mol]
  Total SAPT0                     -10.56610384 [mEh]      -6.63033026 [kcal/mol]     -27.74130182 [kJ/mol]
  Total SAPT2                      -9.87742322 [mEh]      -6.19817665 [kcal/mol]     -25.93317110 [kJ/mol]
  Total SAPT2+                     -9.71743310 [mEh]      -6.09778133 [kcal/mol]     -25.51311709 [kJ/mol]
  Total SAPT2+(3)                  -8.59041160 [mEh]      -5.39056466 [kcal/mol]     -22.55412254 [kJ/mol]
  Total SAPT2+dMP2                 -8.42602819 [mEh]      -5.28741251 [kcal/mol]     -22.12253395 [kJ/mol]
  Total SAPT2+(3)dMP2              -7.29900668 [mEh]      -4.58019584 [kcal/mol]     -19.16353940 [kJ/mol]

  Special recipe for scaled SAPT0 (see Manual):
    Electrostatics sSAPT0          -7.71582355 [mEh]      -4.84175237 [kcal/mol]     -20.25789193 [kJ/mol]
    Exchange sSAPT0                22.30543475 [mEh]      13.99687162 [kcal/mol]      58.56291088 [kJ/mol]
    Induction sSAPT0               -3.60367909 [mEh]      -2.26134277 [kcal/mol]      -9.46145816 [kJ/mol]
    Dispersion sSAPT0             -21.41095398 [mEh]     -13.43557647 [kcal/mol]     -56.21445194 [kJ/mol]
  Total sSAPT0                    -10.42502187 [mEh]      -6.54179999 [kcal/mol]     -27.37089114 [kJ/mol]
  --------------------------------------------------------------------------------------------------------

*** tstop() called on node155.bme.utexas.edu at Tue Jan 23 18:50:09 2024
Module time:
	user time   =  571522.94 seconds =    9525.38 minutes
	system time =    2086.79 seconds =      34.78 minutes
	total time  =      98211 seconds =    1636.85 minutes
Total time:
	user time   =  574580.74 seconds =    9576.35 minutes
	system time =    2132.11 seconds =      35.54 minutes
	total time  =      98730 seconds =    1645.50 minutes

    Psi4 stopped on: Tuesday, 23 January 2024 06:50PM
    Psi4 wall time for execution: 1 day, 3:25:30.15

*** Psi4 exiting successfully. Buy a developer a beer!
