
    -----------------------------------------------------------------------
          Psi4: An Open-Source Ab Initio Electronic Structure Package
                               Psi4 1.5 release

                         Git: Rev {HEAD} e9f4d6d 


    D. G. A. Smith, L. A. Burns, A. C. Simmonett, R. M. Parrish,
    M. C. Schieber, R. Galvelis, P. Kraus, H. Kruse, R. Di Remigio,
    A. Alenaizan, A. M. James, S. Lehtola, J. P. Misiewicz, M. Scheurer,
    R. A. Shaw, J. B. Schriber, Y. Xie, Z. L. Glick, D. A. Sirianni,
    J. S. O'Brien, J. M. Waldrop, A. Kumar, E. G. Hohenstein,
    B. P. Pritchard, B. R. Brooks, H. F. Schaefer III, A. Yu. Sokolov,
    K. Patkowski, A. E. DePrince III, U. Bozkaya, R. A. King,
    F. A. Evangelista, J. M. Turney, T. D. Crawford, C. D. Sherrill,
    J. Chem. Phys. 152(18) 184108 (2020). https://doi.org/10.1063/5.0006002

                            Additional Code Authors
    E. T. Seidl, C. L. Janssen, E. F. Valeev, M. L. Leininger,
    J. F. Gonthier, R. M. Richard, H. R. McAlexander, M. Saitow, X. Wang,
    P. Verma, M. H. Lechner, and A. Jiang

             Previous Authors, Complete List of Code Contributors,
                       and Citations for Specific Modules
    https://github.com/psi4/psi4/blob/master/codemeta.json
    https://github.com/psi4/psi4/graphs/contributors
    http://psicode.org/psi4manual/master/introduction.html#citing-psifour

    -----------------------------------------------------------------------


    Psi4 started on: Monday, 22 January 2024 03:22PM

    Process ID: 2039776
    Host:       node157.bme.utexas.edu
    PSIDATADIR: /opt/anaconda/envs/psi4v1.5/share/psi4
    Memory:     500.0 MiB
    Threads:    8
    
  ==> Input File <==

--------------------------------------------------------------------------
memory 80GB

molecule {
0 1
N -1.249408 -4.334618 0.000108
C -1.453779 -2.957386 0.000369
N -0.287164 -2.222242 0.000471
C 1.008028 -2.72249 0.000365
C 1.139737 -4.181361 6.4e-05
C 0.0 -4.915748 0.0
H -2.087419 -4.899193 0.000228
O -2.573085 -2.462566 0.000505
H -0.408805 -1.172186 0.000678
O 1.977244 -1.953535 0.000498
C 2.515972 -4.780254 -0.000534
H 2.46354 -5.877599 0.006109
H 3.080111 -4.452913 -0.886592
H 3.085127 -4.442101 0.87814
H 0.011158 -6.004875 -3.7e-05
--
0 1
N -3.068594 2.541611 3.270964
C -2.534408 1.255856 3.267052
N -1.156035 1.226431 3.29253
C -0.303748 2.322152 3.32031
C -0.94225 3.64047 3.322649
C -2.297199 3.683087 3.297713
H -4.077512 2.594038 3.252448
O -3.238763 0.255356 3.243035
H -0.71946 0.263721 3.290277
O 0.922876 2.1621 3.341518
C -0.071326 4.862472 3.352615
H -0.681302 5.776156 3.344238
H 0.564071 4.862944 4.250822
H 0.607083 4.875039 2.486615
H -2.848574 4.622399 3.29739
 units angstrom
 no_reorient
 symmetry c1}
set  {scf_type DF
 basis aug-cc-pvtz
 freeze_core True
 guess SAD}
energy('sapt2+(3)dmp2')
--------------------------------------------------------------------------

  Memory set to  74.506 GiB by Python driver.

Scratch directory: /tmp/
   => Loading Basis Set <=

    Name: AUG-CC-PVTZ
    Role: ORBITAL
    Keyword: BASIS
    atoms 1, 3, 16, 18               entry N          line   285 file /opt/anaconda/envs/psi4v1.5/share/psi4/basis/aug-cc-pvtz.gbs 
    atoms 2, 4-6, 11, 17, 19-21, 26  entry C          line   239 file /opt/anaconda/envs/psi4v1.5/share/psi4/basis/aug-cc-pvtz.gbs 
    atoms 7, 9, 12-15, 22, 24, 27-30 entry H          line    40 file /opt/anaconda/envs/psi4v1.5/share/psi4/basis/aug-cc-pvtz.gbs 
    atoms 8, 10, 23, 25              entry O          line   331 file /opt/anaconda/envs/psi4v1.5/share/psi4/basis/aug-cc-pvtz.gbs 

   => Loading Basis Set <=

    Name: AUG-CC-PVTZ
    Role: ORBITAL
    Keyword: BASIS
    atoms 1, 3, 16, 18               entry N          line   285 file /opt/anaconda/envs/psi4v1.5/share/psi4/basis/aug-cc-pvtz.gbs 
    atoms 2, 4-6, 11, 17, 19-21, 26  entry C          line   239 file /opt/anaconda/envs/psi4v1.5/share/psi4/basis/aug-cc-pvtz.gbs 
    atoms 7, 9, 12-15, 22, 24, 27-30 entry H          line    40 file /opt/anaconda/envs/psi4v1.5/share/psi4/basis/aug-cc-pvtz.gbs 
    atoms 8, 10, 23, 25              entry O          line   331 file /opt/anaconda/envs/psi4v1.5/share/psi4/basis/aug-cc-pvtz.gbs 


  //>>>>>>>>>>>>>>>>>>>>>>>>>>>>>>>>>>>//
  //              Dimer HF             //
  //<<<<<<<<<<<<<<<<<<<<<<<<<<<<<<<<<<<//


*** tstart() called on node157.bme.utexas.edu
*** at Mon Jan 22 15:22:55 2024

   => Loading Basis Set <=

    Name: AUG-CC-PVTZ
    Role: ORBITAL
    Keyword: BASIS
    atoms 1, 3, 16, 18               entry N          line   285 file /opt/anaconda/envs/psi4v1.5/share/psi4/basis/aug-cc-pvtz.gbs 
    atoms 2, 4-6, 11, 17, 19-21, 26  entry C          line   239 file /opt/anaconda/envs/psi4v1.5/share/psi4/basis/aug-cc-pvtz.gbs 
    atoms 7, 9, 12-15, 22, 24, 27-30 entry H          line    40 file /opt/anaconda/envs/psi4v1.5/share/psi4/basis/aug-cc-pvtz.gbs 
    atoms 8, 10, 23, 25              entry O          line   331 file /opt/anaconda/envs/psi4v1.5/share/psi4/basis/aug-cc-pvtz.gbs 


         ---------------------------------------------------------
                                   SCF
               by Justin Turney, Rob Parrish, Andy Simmonett
                          and Daniel G. A. Smith
                              RHF Reference
                        8 Threads,  76293 MiB Core
         ---------------------------------------------------------

  ==> Geometry <==

    Molecular point group: c1
    Full point group: C1

    Geometry (in Angstrom), charge = 0, multiplicity = 1:

       Center              X                  Y                   Z               Mass       
    ------------   -----------------  -----------------  -----------------  -----------------
         N           -0.600680836865    -3.856910366784    -1.650345712447    14.003074004430
         C           -0.805051836865    -2.479678366784    -1.650084712447    12.000000000000
         N            0.361563163135    -1.744534366784    -1.649982712447    14.003074004430
         C            1.656755163135    -2.244782366784    -1.650088712447    12.000000000000
         C            1.788464163135    -3.703653366784    -1.650389712447    12.000000000000
         C            0.648727163135    -4.438040366784    -1.650453712447    12.000000000000
         H           -1.438691836865    -4.421485366784    -1.650225712447     1.007825032230
         O           -1.924357836865    -1.984858366784    -1.649948712447    15.994914619570
         H            0.239922163135    -0.694478366784    -1.649775712447     1.007825032230
         O            2.625971163135    -1.475827366784    -1.649955712447    15.994914619570
         C            3.164699163135    -4.302546366784    -1.650987712447    12.000000000000
         H            3.112267163135    -5.399891366784    -1.644344712447     1.007825032230
         H            3.728838163135    -3.975205366784    -2.537045712447     1.007825032230
         H            3.733854163135    -3.964393366784    -0.772313712447     1.007825032230
         H            0.659885163135    -5.527167366784    -1.650490712447     1.007825032230
         N           -2.419866836865     3.019318633216     1.620510287553    14.003074004430
         C           -1.885680836865     1.733563633216     1.616598287553    12.000000000000
         N           -0.507307836865     1.704138633216     1.642076287553    14.003074004430
         C            0.344979163135     2.799859633216     1.669856287553    12.000000000000
         C           -0.293522836865     4.118177633216     1.672195287553    12.000000000000
         C           -1.648471836865     4.160794633216     1.647259287553    12.000000000000
         H           -3.428784836865     3.071745633216     1.601994287553     1.007825032230
         O           -2.590035836865     0.733063633216     1.592581287553    15.994914619570
         H           -0.070732836865     0.741428633216     1.639823287553     1.007825032230
         O            1.571603163135     2.639807633216     1.691064287553    15.994914619570
         C            0.577401163135     5.340179633216     1.702161287553    12.000000000000
         H           -0.032574836865     6.253863633216     1.693784287553     1.007825032230
         H            1.212798163135     5.340651633216     2.600368287553     1.007825032230
         H            1.255810163135     5.352746633216     0.836161287553     1.007825032230
         H           -2.199846836865     5.100106633216     1.646936287553     1.007825032230

  Running in c1 symmetry.

  Rotational constants: A =      0.02367  B =      0.00504  C =      0.00434 [cm^-1]
  Rotational constants: A =    709.62332  B =    151.21359  C =    130.16434 [MHz]
  Nuclear repulsion = 1205.460642327036339

  Charge       = 0
  Multiplicity = 1
  Electrons    = 132
  Nalpha       = 66
  Nbeta        = 66

  ==> Algorithm <==

  SCF Algorithm Type is DF.
  DIIS enabled.
  MOM disabled.
  Fractional occupation disabled.
  Guess Type is SAD.
  Energy threshold   = 1.00e-08
  Density threshold  = 1.00e-08
  Integral threshold = 1.00e-12

  ==> Primary Basis <==

  Basis Set: AUG-CC-PVTZ
    Blend: AUG-CC-PVTZ
    Number of shells: 360
    Number of basis functions: 1104
    Number of Cartesian functions: 1290
    Spherical Harmonics?: true
    Max angular momentum: 3

   => Loading Basis Set <=

    Name: (AUG-CC-PVTZ AUX)
    Role: JKFIT
    Keyword: DF_BASIS_SCF
    atoms 1, 3, 16, 18               entry N          line   224 file /opt/anaconda/envs/psi4v1.5/share/psi4/basis/aug-cc-pvtz-jkfit.gbs 
    atoms 2, 4-6, 11, 17, 19-21, 26  entry C          line   162 file /opt/anaconda/envs/psi4v1.5/share/psi4/basis/aug-cc-pvtz-jkfit.gbs 
    atoms 7, 9, 12-15, 22, 24, 27-30 entry H          line    70 file /opt/anaconda/envs/psi4v1.5/share/psi4/basis/aug-cc-pvtz-jkfit.gbs 
    atoms 8, 10, 23, 25              entry O          line   286 file /opt/anaconda/envs/psi4v1.5/share/psi4/basis/aug-cc-pvtz-jkfit.gbs 

  ==> Integral Setup <==

  ==> DiskDFJK: Density-Fitted J/K Matrices <==

    J tasked:                  Yes
    K tasked:                  Yes
    wK tasked:                  No
    OpenMP threads:              8
    Integrals threads:           8
    Memory [MiB]:            57220
    Algorithm:                Core
    Integral Cache:           SAVE
    Schwarz Cutoff:          1E-12
    Fitting Condition:       1E-10

   => Auxiliary Basis Set <=

  Basis Set: (AUG-CC-PVTZ AUX)
    Blend: AUG-CC-PVTZ-JKFIT
    Number of shells: 708
    Number of basis functions: 2424
    Number of Cartesian functions: 3018
    Spherical Harmonics?: true
    Max angular momentum: 4

  Minimum eigenvalue in the overlap matrix is 1.9062786522E-06.
  Reciprocal condition number of the overlap matrix is 1.0961729991E-07.
    Using symmetric orthogonalization.

  ==> Pre-Iterations <==

  SCF Guess: Superposition of Atomic Densities via on-the-fly atomic UHF (no occupation information).

   -------------------------
    Irrep   Nso     Nmo    
   -------------------------
     A       1104    1104 
   -------------------------
    Total    1104    1104
   -------------------------

  ==> Iterations <==

                           Total Energy        Delta E     RMS |[F,P]|

   @DF-RHF iter SAD:  -901.82529594340929   -9.01825e+02   0.00000e+00 
   @DF-RHF iter   1:  -902.74016110742127   -9.14865e-01   1.01841e-03 DIIS
   @DF-RHF iter   2:  -903.13437780008724   -3.94217e-01   6.76166e-04 DIIS
   @DF-RHF iter   3:  -903.32293852306088   -1.88561e-01   1.29579e-04 DIIS
   @DF-RHF iter   4:  -903.33398907540095   -1.10506e-02   5.17328e-05 DIIS
   @DF-RHF iter   5:  -903.33620266040543   -2.21359e-03   1.04847e-05 DIIS
   @DF-RHF iter   6:  -903.33642925752929   -2.26597e-04   5.41770e-06 DIIS
   @DF-RHF iter   7:  -903.33647618583655   -4.69283e-05   2.31747e-06 DIIS
   @DF-RHF iter   8:  -903.33648462875487   -8.44292e-06   8.75802e-07 DIIS
   @DF-RHF iter   9:  -903.33648557441461   -9.45660e-07   2.91251e-07 DIIS
   @DF-RHF iter  10:  -903.33648573056473   -1.56150e-07   1.15992e-07 DIIS
   @DF-RHF iter  11:  -903.33648574868835   -1.81236e-08   4.45423e-08 DIIS
   @DF-RHF iter  12:  -903.33648575158873   -2.90038e-09   1.39431e-08 DIIS
   @DF-RHF iter  13:  -903.33648575185725   -2.68528e-10   4.53487e-09 DIIS
  Energy and wave function converged.


  ==> Post-Iterations <==

    Orbital Energies [Eh]
    ---------------------

    Doubly Occupied:                                                      

       1A    -20.537835     2A    -20.537549     3A    -20.534255  
       4A    -20.534200     5A    -15.635471     6A    -15.635353  
       7A    -15.631128     8A    -15.631025     9A    -11.412553  
      10A    -11.412344    11A    -11.374839    12A    -11.374821  
      13A    -11.326831    14A    -11.326802    15A    -11.258399  
      16A    -11.258334    17A    -11.237842    18A    -11.237816  
      19A     -1.423074    20A     -1.422850    21A     -1.382304  
      22A     -1.382285    23A     -1.298570    24A     -1.298421  
      25A     -1.237932    26A     -1.237820    27A     -1.100386  
      28A     -1.100333    29A     -0.962247    30A     -0.962184  
      31A     -0.908755    32A     -0.908609    33A     -0.889312  
      34A     -0.889209    35A     -0.765309    36A     -0.765115  
      37A     -0.761431    38A     -0.761322    39A     -0.702353  
      40A     -0.701853    41A     -0.668020    42A     -0.667760  
      43A     -0.661708    44A     -0.661335    45A     -0.632119  
      46A     -0.631646    47A     -0.607420    48A     -0.607325  
      49A     -0.583819    50A     -0.583682    51A     -0.563190  
      52A     -0.563123    53A     -0.552435    54A     -0.552235  
      55A     -0.546046    56A     -0.546010    57A     -0.506636  
      58A     -0.505988    59A     -0.472712    60A     -0.471762  
      61A     -0.441891    62A     -0.441583    63A     -0.429066  
      64A     -0.428384    65A     -0.348100    66A     -0.347877  

    Virtual:                                                              

      67A      0.018895    68A      0.019523    69A      0.033552  
      70A      0.034431    71A      0.041127    72A      0.042201  
      73A      0.048162    74A      0.049795    75A      0.055472  
      76A      0.063757    77A      0.064077    78A      0.067404  
      79A      0.072527    80A      0.074182    81A      0.080522  
      82A      0.087404    83A      0.090682    84A      0.095150  
      85A      0.096983    86A      0.100177    87A      0.103643  
      88A      0.107319    89A      0.108138    90A      0.113060  
      91A      0.115744    92A      0.116083    93A      0.119324  
      94A      0.122997    95A      0.123538    96A      0.125474  
      97A      0.129469    98A      0.135912    99A      0.139258  
     100A      0.141485   101A      0.141843   102A      0.142816  
     103A      0.145678   104A      0.149053   105A      0.152055  
     106A      0.152567   107A      0.157247   108A      0.162184  
     109A      0.166720   110A      0.166858   111A      0.167245  
     112A      0.174974   113A      0.177792   114A      0.179208  
     115A      0.179855   116A      0.183954   117A      0.186092  
     118A      0.195522   119A      0.200394   120A      0.201902  
     121A      0.210090   122A      0.211043   123A      0.221912  
     124A      0.225512   125A      0.227965   126A      0.230771  
     127A      0.231862   128A      0.239457   129A      0.240771  
     130A      0.242954   131A      0.245041   132A      0.249475  
     133A      0.251845   134A      0.253963   135A      0.256201  
     136A      0.259150   137A      0.262648   138A      0.264190  
     139A      0.266283   140A      0.272261   141A      0.274673  
     142A      0.277247   143A      0.279754   144A      0.284203  
     145A      0.286182   146A      0.292500   147A      0.294014  
     148A      0.298713   149A      0.300359   150A      0.301209  
     151A      0.301813   152A      0.308036   153A      0.314420  
     154A      0.316321   155A      0.320512   156A      0.321964  
     157A      0.323098   158A      0.326526   159A      0.330759  
     160A      0.334218   161A      0.342397   162A      0.343492  
     163A      0.347599   164A      0.347636   165A      0.348942  
     166A      0.350436   167A      0.353034   168A      0.354647  
     169A      0.360355   170A      0.361331   171A      0.363532  
     172A      0.368983   173A      0.370541   174A      0.375965  
     175A      0.377748   176A      0.382416   177A      0.385805  
     178A      0.389602   179A      0.391600   180A      0.392108  
     181A      0.396333   182A      0.399881   183A      0.403016  
     184A      0.404959   185A      0.406341   186A      0.409290  
     187A      0.413529   188A      0.417469   189A      0.422866  
     190A      0.426991   191A      0.428062   192A      0.431112  
     193A      0.432656   194A      0.433422   195A      0.434463  
     196A      0.444052   197A      0.444569   198A      0.446154  
     199A      0.446839   200A      0.448000   201A      0.451775  
     202A      0.454008   203A      0.463714   204A      0.465286  
     205A      0.468467   206A      0.472555   207A      0.472768  
     208A      0.475576   209A      0.476070   210A      0.483320  
     211A      0.487076   212A      0.489519   213A      0.490535  
     214A      0.491642   215A      0.494764   216A      0.499884  
     217A      0.501287   218A      0.503414   219A      0.510538  
     220A      0.511585   221A      0.519895   222A      0.521503  
     223A      0.522682   224A      0.524208   225A      0.527536  
     226A      0.530361   227A      0.533002   228A      0.540499  
     229A      0.543754   230A      0.546641   231A      0.551758  
     232A      0.552831   233A      0.558268   234A      0.559700  
     235A      0.564743   236A      0.573339   237A      0.574284  
     238A      0.579937   239A      0.580641   240A      0.581040  
     241A      0.587994   242A      0.592168   243A      0.595099  
     244A      0.600895   245A      0.604875   246A      0.607981  
     247A      0.612056   248A      0.615339   249A      0.617994  
     250A      0.627965   251A      0.630110   252A      0.641299  
     253A      0.643941   254A      0.645974   255A      0.651175  
     256A      0.653027   257A      0.653588   258A      0.654938  
     259A      0.661917   260A      0.663826   261A      0.665603  
     262A      0.670909   263A      0.676388   264A      0.681495  
     265A      0.695254   266A      0.700277   267A      0.700810  
     268A      0.702241   269A      0.711452   270A      0.716283  
     271A      0.720496   272A      0.724680   273A      0.726131  
     274A      0.729763   275A      0.731981   276A      0.737852  
     277A      0.742153   278A      0.752522   279A      0.755165  
     280A      0.756825   281A      0.765316   282A      0.774446  
     283A      0.776341   284A      0.780102   285A      0.785547  
     286A      0.786528   287A      0.790100   288A      0.794326  
     289A      0.795125   290A      0.797656   291A      0.802426  
     292A      0.806936   293A      0.817509   294A      0.820153  
     295A      0.831439   296A      0.832361   297A      0.833359  
     298A      0.838796   299A      0.841044   300A      0.842700  
     301A      0.846665   302A      0.853769   303A      0.866760  
     304A      0.870120   305A      0.870758   306A      0.874106  
     307A      0.875103   308A      0.882217   309A      0.884441  
     310A      0.886444   311A      0.889565   312A      0.891870  
     313A      0.895840   314A      0.899758   315A      0.901489  
     316A      0.907257   317A      0.912765   318A      0.916262  
     319A      0.918566   320A      0.921853   321A      0.923095  
     322A      0.924035   323A      0.927766   324A      0.934109  
     325A      0.934954   326A      0.939823   327A      0.940125  
     328A      0.941275   329A      0.941947   330A      0.948735  
     331A      0.950166   332A      0.952365   333A      0.956113  
     334A      0.960066   335A      0.963599   336A      0.965967  
     337A      0.973153   338A      0.974149   339A      0.976851  
     340A      0.979867   341A      0.985846   342A      0.989245  
     343A      0.992656   344A      0.995548   345A      0.998618  
     346A      1.002970   347A      1.008240   348A      1.008638  
     349A      1.013518   350A      1.018837   351A      1.022995  
     352A      1.024515   353A      1.029369   354A      1.031408  
     355A      1.033321   356A      1.043954   357A      1.046995  
     358A      1.049361   359A      1.058076   360A      1.062593  
     361A      1.065417   362A      1.071158   363A      1.072259  
     364A      1.081116   365A      1.082444   366A      1.085531  
     367A      1.090989   368A      1.094720   369A      1.104623  
     370A      1.107167   371A      1.109991   372A      1.114771  
     373A      1.120225   374A      1.128711   375A      1.131835  
     376A      1.136837   377A      1.138138   378A      1.141578  
     379A      1.142151   380A      1.146379   381A      1.149257  
     382A      1.154324   383A      1.156215   384A      1.157682  
     385A      1.162286   386A      1.165439   387A      1.169223  
     388A      1.169668   389A      1.170742   390A      1.179306  
     391A      1.182163   392A      1.186539   393A      1.188273  
     394A      1.196823   395A      1.198476   396A      1.203871  
     397A      1.204538   398A      1.206183   399A      1.208878  
     400A      1.218502   401A      1.221114   402A      1.223317  
     403A      1.230479   404A      1.233076   405A      1.244837  
     406A      1.250143   407A      1.251440   408A      1.257874  
     409A      1.261613   410A      1.262365   411A      1.273746  
     412A      1.275403   413A      1.286432   414A      1.289479  
     415A      1.290693   416A      1.290871   417A      1.292713  
     418A      1.298365   419A      1.306942   420A      1.307785  
     421A      1.318694   422A      1.319894   423A      1.325234  
     424A      1.332208   425A      1.337508   426A      1.342364  
     427A      1.349538   428A      1.359027   429A      1.363368  
     430A      1.365448   431A      1.373146   432A      1.374717  
     433A      1.381706   434A      1.383721   435A      1.386174  
     436A      1.390928   437A      1.392797   438A      1.395789  
     439A      1.396633   440A      1.402143   441A      1.413407  
     442A      1.416025   443A      1.420301   444A      1.428488  
     445A      1.429429   446A      1.433738   447A      1.439166  
     448A      1.444532   449A      1.444558   450A      1.453192  
     451A      1.456724   452A      1.459512   453A      1.466272  
     454A      1.467011   455A      1.472026   456A      1.479973  
     457A      1.480849   458A      1.486318   459A      1.500615  
     460A      1.510261   461A      1.512583   462A      1.517553  
     463A      1.524862   464A      1.533632   465A      1.535165  
     466A      1.536028   467A      1.539298   468A      1.543744  
     469A      1.548257   470A      1.550010   471A      1.556355  
     472A      1.569437   473A      1.571501   474A      1.583981  
     475A      1.588998   476A      1.600971   477A      1.602146  
     478A      1.607145   479A      1.610736   480A      1.613135  
     481A      1.614147   482A      1.615134   483A      1.615598  
     484A      1.623997   485A      1.630340   486A      1.633868  
     487A      1.638494   488A      1.642436   489A      1.649822  
     490A      1.652301   491A      1.653095   492A      1.658675  
     493A      1.662190   494A      1.666880   495A      1.669249  
     496A      1.674111   497A      1.678027   498A      1.681517  
     499A      1.694984   500A      1.699114   501A      1.700538  
     502A      1.703120   503A      1.717136   504A      1.718991  
     505A      1.720620   506A      1.734590   507A      1.737862  
     508A      1.741654   509A      1.742845   510A      1.748929  
     511A      1.752091   512A      1.755482   513A      1.760080  
     514A      1.765648   515A      1.777710   516A      1.793830  
     517A      1.805706   518A      1.814571   519A      1.816795  
     520A      1.823877   521A      1.828021   522A      1.835209  
     523A      1.836914   524A      1.840149   525A      1.843616  
     526A      1.853106   527A      1.854005   528A      1.860019  
     529A      1.867236   530A      1.871276   531A      1.872525  
     532A      1.875679   533A      1.913207   534A      1.914105  
     535A      1.916085   536A      1.917858   537A      1.921792  
     538A      1.927364   539A      1.934521   540A      1.950227  
     541A      1.952051   542A      1.955779   543A      1.983130  
     544A      1.989669   545A      2.000357   546A      2.003395  
     547A      2.003922   548A      2.012308   549A      2.037157  
     550A      2.040998   551A      2.050061   552A      2.050625  
     553A      2.053517   554A      2.055018   555A      2.070989  
     556A      2.079925   557A      2.100403   558A      2.100636  
     559A      2.115484   560A      2.116621   561A      2.124568  
     562A      2.128545   563A      2.131275   564A      2.134206  
     565A      2.152731   566A      2.159907   567A      2.175053  
     568A      2.178098   569A      2.184116   570A      2.185267  
     571A      2.193796   572A      2.195719   573A      2.200097  
     574A      2.206074   575A      2.214184   576A      2.217329  
     577A      2.218846   578A      2.220688   579A      2.230941  
     580A      2.232241   581A      2.244859   582A      2.245682  
     583A      2.251403   584A      2.255095   585A      2.259209  
     586A      2.270200   587A      2.275736   588A      2.277675  
     589A      2.278544   590A      2.287819   591A      2.292786  
     592A      2.297983   593A      2.300411   594A      2.302869  
     595A      2.318858   596A      2.319518   597A      2.332246  
     598A      2.336412   599A      2.337269   600A      2.346174  
     601A      2.376839   602A      2.378078   603A      2.392938  
     604A      2.395977   605A      2.413566   606A      2.414291  
     607A      2.416928   608A      2.419200   609A      2.422776  
     610A      2.439707   611A      2.441799   612A      2.444164  
     613A      2.452301   614A      2.458534   615A      2.495927  
     616A      2.502209   617A      2.515394   618A      2.521497  
     619A      2.522573   620A      2.539007   621A      2.546466  
     622A      2.548912   623A      2.555011   624A      2.559602  
     625A      2.560396   626A      2.564059   627A      2.568168  
     628A      2.573233   629A      2.575383   630A      2.578289  
     631A      2.583454   632A      2.587935   633A      2.599709  
     634A      2.600935   635A      2.603241   636A      2.607862  
     637A      2.630172   638A      2.632373   639A      2.639687  
     640A      2.642636   641A      2.645531   642A      2.675980  
     643A      2.683569   644A      2.687033   645A      2.695692  
     646A      2.702789   647A      2.710367   648A      2.716439  
     649A      2.720489   650A      2.725605   651A      2.730098  
     652A      2.732655   653A      2.736474   654A      2.749835  
     655A      2.763639   656A      2.766567   657A      2.771311  
     658A      2.775075   659A      2.782756   660A      2.784578  
     661A      2.808522   662A      2.820839   663A      2.825294  
     664A      2.826692   665A      2.863205   666A      2.876553  
     667A      2.885080   668A      2.886074   669A      2.910272  
     670A      2.918248   671A      2.929729   672A      2.938900  
     673A      2.944176   674A      2.963542   675A      2.965217  
     676A      2.992171   677A      2.996938   678A      3.001041  
     679A      3.017099   680A      3.021827   681A      3.033655  
     682A      3.038603   683A      3.050479   684A      3.058590  
     685A      3.087011   686A      3.092140   687A      3.096476  
     688A      3.102790   689A      3.169125   690A      3.171568  
     691A      3.209529   692A      3.210258   693A      3.218523  
     694A      3.220913   695A      3.226646   696A      3.231461  
     697A      3.267841   698A      3.269335   699A      3.275974  
     700A      3.279542   701A      3.289324   702A      3.295236  
     703A      3.314454   704A      3.316996   705A      3.323660  
     706A      3.332186   707A      3.359504   708A      3.364941  
     709A      3.373161   710A      3.374094   711A      3.395214  
     712A      3.396401   713A      3.410812   714A      3.415551  
     715A      3.419578   716A      3.423469   717A      3.424251  
     718A      3.428254   719A      3.439741   720A      3.440439  
     721A      3.456089   722A      3.458634   723A      3.480966  
     724A      3.494144   725A      3.522547   726A      3.527309  
     727A      3.557818   728A      3.559620   729A      3.583278  
     730A      3.586344   731A      3.598987   732A      3.603576  
     733A      3.609583   734A      3.612234   735A      3.628450  
     736A      3.632808   737A      3.635569   738A      3.637619  
     739A      3.652788   740A      3.653305   741A      3.654497  
     742A      3.656807   743A      3.659560   744A      3.660769  
     745A      3.671769   746A      3.673651   747A      3.691821  
     748A      3.693418   749A      3.713068   750A      3.715499  
     751A      3.723404   752A      3.724639   753A      3.750064  
     754A      3.752981   755A      3.758512   756A      3.759104  
     757A      3.781131   758A      3.786880   759A      3.787308  
     760A      3.787485   761A      3.799067   762A      3.799444  
     763A      3.822906   764A      3.825791   765A      3.827943  
     766A      3.834417   767A      3.848454   768A      3.853170  
     769A      3.864509   770A      3.865929   771A      3.871716  
     772A      3.874177   773A      3.877692   774A      3.891585  
     775A      3.911404   776A      3.915113   777A      3.930747  
     778A      3.932137   779A      3.934637   780A      3.935110  
     781A      3.961608   782A      3.963675   783A      3.963766  
     784A      3.965580   785A      3.985009   786A      3.986118  
     787A      4.012170   788A      4.014714   789A      4.022054  
     790A      4.025418   791A      4.039096   792A      4.039810  
     793A      4.058795   794A      4.064099   795A      4.093066  
     796A      4.095253   797A      4.101559   798A      4.103581  
     799A      4.116271   800A      4.118997   801A      4.130486  
     802A      4.131306   803A      4.133976   804A      4.136408  
     805A      4.150866   806A      4.155511   807A      4.168778  
     808A      4.174843   809A      4.197784   810A      4.199600  
     811A      4.201337   812A      4.205312   813A      4.213914  
     814A      4.218748   815A      4.221066   816A      4.222767  
     817A      4.226029   818A      4.231761   819A      4.256079  
     820A      4.259350   821A      4.262634   822A      4.264851  
     823A      4.284916   824A      4.287073   825A      4.305835  
     826A      4.307051   827A      4.311100   828A      4.312331  
     829A      4.313327   830A      4.314350   831A      4.327076  
     832A      4.328456   833A      4.368123   834A      4.375386  
     835A      4.377292   836A      4.383734   837A      4.396788  
     838A      4.401836   839A      4.423107   840A      4.423532  
     841A      4.434084   842A      4.436909   843A      4.439379  
     844A      4.439743   845A      4.449542   846A      4.450041  
     847A      4.456729   848A      4.459849   849A      4.479848  
     850A      4.482603   851A      4.500428   852A      4.501145  
     853A      4.510661   854A      4.511544   855A      4.544340  
     856A      4.551043   857A      4.574909   858A      4.579299  
     859A      4.620552   860A      4.633761   861A      4.637179  
     862A      4.639522   863A      4.646983   864A      4.648961  
     865A      4.656509   866A      4.672063   867A      4.676323  
     868A      4.679917   869A      4.698277   870A      4.701966  
     871A      4.703360   872A      4.709474   873A      4.735986  
     874A      4.737007   875A      4.742821   876A      4.744705  
     877A      4.754439   878A      4.759088   879A      4.761118  
     880A      4.764625   881A      4.776689   882A      4.778798  
     883A      4.783533   884A      4.785957   885A      4.791649  
     886A      4.794272   887A      4.820980   888A      4.823847  
     889A      4.882223   890A      4.889915   891A      4.897950  
     892A      4.898972   893A      4.902768   894A      4.903963  
     895A      4.911826   896A      4.912326   897A      4.929802  
     898A      4.930221   899A      4.972869   900A      4.975570  
     901A      4.993495   902A      4.998266   903A      5.019472  
     904A      5.025046   905A      5.035474   906A      5.036659  
     907A      5.060958   908A      5.061814   909A      5.068809  
     910A      5.070989   911A      5.097993   912A      5.100665  
     913A      5.132137   914A      5.140087   915A      5.145249  
     916A      5.146496   917A      5.152493   918A      5.154028  
     919A      5.168351   920A      5.169118   921A      5.190970  
     922A      5.194255   923A      5.209426   924A      5.211696  
     925A      5.272841   926A      5.273737   927A      5.292589  
     928A      5.303651   929A      5.319999   930A      5.321895  
     931A      5.328979   932A      5.336185   933A      5.381900  
     934A      5.384247   935A      5.423748   936A      5.427760  
     937A      5.442228   938A      5.447481   939A      5.458462  
     940A      5.462731   941A      5.467419   942A      5.467653  
     943A      5.497241   944A      5.498399   945A      5.520557  
     946A      5.529058   947A      5.530804   948A      5.533595  
     949A      5.538158   950A      5.545174   951A      5.551438  
     952A      5.560077   953A      5.581513   954A      5.584516  
     955A      5.596464   956A      5.597510   957A      5.627747  
     958A      5.628768   959A      5.634287   960A      5.636086  
     961A      5.667779   962A      5.668311   963A      5.720925  
     964A      5.723967   965A      5.744932   966A      5.748393  
     967A      5.757180   968A      5.757592   969A      5.787123  
     970A      5.790587   971A      5.828742   972A      5.832131  
     973A      5.849088   974A      5.857656   975A      5.881278  
     976A      5.883777   977A      5.901426   978A      5.909728  
     979A      5.924996   980A      5.932649   981A      5.945938  
     982A      5.946952   983A      5.986870   984A      5.990060  
     985A      5.995311   986A      6.000928   987A      6.062960  
     988A      6.064701   989A      6.077098   990A      6.081284  
     991A      6.105236   992A      6.105790   993A      6.116229  
     994A      6.116867   995A      6.131936   996A      6.134564  
     997A      6.159668   998A      6.159943   999A      6.161439  
    1000A      6.166355  1001A      6.191609  1002A      6.196443  
    1003A      6.268518  1004A      6.271173  1005A      6.295264  
    1006A      6.297700  1007A      6.381337  1008A      6.385591  
    1009A      6.491518  1010A      6.493594  1011A      6.569948  
    1012A      6.579859  1013A      6.638280  1014A      6.640053  
    1015A      6.667740  1016A      6.675438  1017A      6.714308  
    1018A      6.714427  1019A      6.722759  1020A      6.724765  
    1021A      6.725064  1022A      6.731872  1023A      6.739001  
    1024A      6.747153  1025A      6.774067  1026A      6.775253  
    1027A      6.796207  1028A      6.798932  1029A      6.800555  
    1030A      6.807193  1031A      6.822196  1032A      6.826987  
    1033A      6.864151  1034A      6.872594  1035A      6.874348  
    1036A      6.875060  1037A      6.927320  1038A      6.932091  
    1039A      6.967981  1040A      6.985655  1041A      6.986711  
    1042A      6.990176  1043A      7.023528  1044A      7.033392  
    1045A      7.088691  1046A      7.090328  1047A      7.148490  
    1048A      7.154036  1049A      7.201858  1050A      7.215978  
    1051A      7.244677  1052A      7.254528  1053A      7.340005  
    1054A      7.340347  1055A      7.384416  1056A      7.389623  
    1057A      7.389988  1058A      7.395453  1059A      7.428315  
    1060A      7.432589  1061A      7.439439  1062A      7.440965  
    1063A      7.468594  1064A      7.479391  1065A      7.630333  
    1066A      7.635651  1067A      7.672394  1068A      7.675773  
    1069A      7.709220  1070A      7.714238  1071A      7.716746  
    1072A      7.721948  1073A      7.821216  1074A      7.821863  
    1075A      7.862437  1076A      7.862974  1077A      7.930619  
    1078A      7.931795  1079A      7.983619  1080A      7.985394  
    1081A      8.020443  1082A      8.026535  1083A      8.037520  
    1084A      8.041786  1085A      8.069957  1086A      8.072790  
    1087A     15.722053  1088A     15.723369  1089A     15.928152  
    1090A     15.938233  1091A     16.133713  1092A     16.158541  
    1093A     16.607549  1094A     16.621227  1095A     17.957105  
    1096A     17.991353  1097A     18.978521  1098A     19.002060  
    1099A     19.951825  1100A     20.033914  1101A     20.280005  
    1102A     20.302571  1103A     20.548720  1104A     20.582689  

    Final Occupation by Irrep:
              A 
    DOCC [    66 ]

  @DF-RHF Final Energy:  -903.33648575185725

   => Energetics <=

    Nuclear Repulsion Energy =           1205.4606423270363393
    One-Electron Energy =               -3628.0323692434049008
    Two-Electron Energy =                1519.2352411645115353
    Total Energy =                       -903.3364857518572535

Computation Completed


Properties will be evaluated at   0.000000,   0.000000,   0.000000 [a0]

Properties computed using the SCF density matrix

  Nuclear Dipole Moment: [e a0]
     X:     6.3569      Y:     1.7626      Z:     0.1077

  Electronic Dipole Moment: [e a0]
     X:    -7.5562      Y:    -2.0941      Z:    -0.1102

  Dipole Moment: [e a0]
     X:    -1.1993      Y:    -0.3315      Z:    -0.0025     Total:     1.2442

  Dipole Moment: [D]
     X:    -3.0483      Y:    -0.8425      Z:    -0.0062     Total:     3.1625


*** tstop() called on node157.bme.utexas.edu at Mon Jan 22 15:25:24 2024
Module time:
	user time   =    1014.97 seconds =      16.92 minutes
	system time =      11.66 seconds =       0.19 minutes
	total time  =        149 seconds =       2.48 minutes
Total time:
	user time   =    1014.97 seconds =      16.92 minutes
	system time =      11.66 seconds =       0.19 minutes
	total time  =        149 seconds =       2.48 minutes

*** tstart() called on node157.bme.utexas.edu
*** at Mon Jan 22 15:25:24 2024


  //>>>>>>>>>>>>>>>>>>>>>>>>>>>>>>>>>>>//
  //               DFMP2               //
  //<<<<<<<<<<<<<<<<<<<<<<<<<<<<<<<<<<<//

   => Loading Basis Set <=

    Name: (AUG-CC-PVTZ AUX)
    Role: RIFIT
    Keyword: DF_BASIS_MP2
    atoms 1, 3, 16, 18               entry N          line   206 file /opt/anaconda/envs/psi4v1.5/share/psi4/basis/aug-cc-pvtz-ri.gbs 
    atoms 2, 4-6, 11, 17, 19-21, 26  entry C          line   148 file /opt/anaconda/envs/psi4v1.5/share/psi4/basis/aug-cc-pvtz-ri.gbs 
    atoms 7, 9, 12-15, 22, 24, 27-30 entry H          line    30 file /opt/anaconda/envs/psi4v1.5/share/psi4/basis/aug-cc-pvtz-ri.gbs 
    atoms 8, 10, 23, 25              entry O          line   264 file /opt/anaconda/envs/psi4v1.5/share/psi4/basis/aug-cc-pvtz-ri.gbs 

	 --------------------------------------------------------
	                          DF-MP2                         
	      2nd-Order Density-Fitted Moller-Plesset Theory     
	              RMP2 Wavefunction,   8 Threads             
	                                                         
	        Rob Parrish, Justin Turney, Andy Simmonett,      
	           Ed Hohenstein, and C. David Sherrill          
	 --------------------------------------------------------

   => Auxiliary Basis Set <=

  Basis Set: (AUG-CC-PVTZ AUX)
    Blend: AUG-CC-PVTZ-RI
    Number of shells: 672
    Number of basis functions: 2460
    Number of Cartesian functions: 3108
    Spherical Harmonics?: true
    Max angular momentum: 4

	 --------------------------------------------------------
	                 NBF =  1104, NAUX =  2460
	 --------------------------------------------------------
	   CLASS    FOCC     OCC    AOCC    AVIR     VIR    FVIR
	   PAIRS      18      66      48    1038    1038       0
	 --------------------------------------------------------

	 Will save fitting metric to file 97.

	-----------------------------------------------------------
	 ==================> DF-MP2 Energies <==================== 
	-----------------------------------------------------------
	 Reference Energy          =    -903.3364857518572535 [Eh]
	 Singles Energy            =      -0.0000000000000000 [Eh]
	 Same-Spin Energy          =      -0.8684575156332941 [Eh]
	 Opposite-Spin Energy      =      -2.5028574945821154 [Eh]
	 Correlation Energy        =      -3.3713150102154095 [Eh]
	 Total Energy              =    -906.7078007620726794 [Eh]
	-----------------------------------------------------------
	 ================> DF-SCS-MP2 Energies <================== 
	-----------------------------------------------------------
	 SCS Same-Spin Scale       =       0.3333333333333333 [-]
	 SCS Opposite-Spin Scale   =       1.2000000000000000 [-]
	 SCS Same-Spin Energy      =      -0.2894858385444313 [Eh]
	 SCS Opposite-Spin Energy  =      -3.0034289934985385 [Eh]
	 SCS Correlation Energy    =      -3.2929148320429698 [Eh]
	 SCS Total Energy          =    -906.6294005839001784 [Eh]
	-----------------------------------------------------------


*** tstop() called on node157.bme.utexas.edu at Mon Jan 22 15:26:12 2024
Module time:
	user time   =     273.26 seconds =       4.55 minutes
	system time =       7.01 seconds =       0.12 minutes
	total time  =         48 seconds =       0.80 minutes
Total time:
	user time   =    1288.24 seconds =      21.47 minutes
	system time =      18.67 seconds =       0.31 minutes
	total time  =        197 seconds =       3.28 minutes

  //>>>>>>>>>>>>>>>>>>>>>>>>>>>>>>>>>>>//
  //            Monomer A HF           //
  //<<<<<<<<<<<<<<<<<<<<<<<<<<<<<<<<<<<//


*** tstart() called on node157.bme.utexas.edu
*** at Mon Jan 22 15:26:12 2024

   => Loading Basis Set <=

    Name: AUG-CC-PVTZ
    Role: ORBITAL
    Keyword: BASIS
    atoms 1, 3, 16, 18               entry N          line   285 file /opt/anaconda/envs/psi4v1.5/share/psi4/basis/aug-cc-pvtz.gbs 
    atoms 2, 4-6, 11, 17, 19-21, 26  entry C          line   239 file /opt/anaconda/envs/psi4v1.5/share/psi4/basis/aug-cc-pvtz.gbs 
    atoms 7, 9, 12-15, 22, 24, 27-30 entry H          line    40 file /opt/anaconda/envs/psi4v1.5/share/psi4/basis/aug-cc-pvtz.gbs 
    atoms 8, 10, 23, 25              entry O          line   331 file /opt/anaconda/envs/psi4v1.5/share/psi4/basis/aug-cc-pvtz.gbs 


         ---------------------------------------------------------
                                   SCF
               by Justin Turney, Rob Parrish, Andy Simmonett
                          and Daniel G. A. Smith
                              RHF Reference
                        8 Threads,  76293 MiB Core
         ---------------------------------------------------------

  ==> Geometry <==

    Molecular point group: c1
    Full point group: C1

    Geometry (in Angstrom), charge = 0, multiplicity = 1:

       Center              X                  Y                   Z               Mass       
    ------------   -----------------  -----------------  -----------------  -----------------
         N           -0.600680836865    -3.856910366784    -1.650345712447    14.003074004430
         C           -0.805051836865    -2.479678366784    -1.650084712447    12.000000000000
         N            0.361563163135    -1.744534366784    -1.649982712447    14.003074004430
         C            1.656755163135    -2.244782366784    -1.650088712447    12.000000000000
         C            1.788464163135    -3.703653366784    -1.650389712447    12.000000000000
         C            0.648727163135    -4.438040366784    -1.650453712447    12.000000000000
         H           -1.438691836865    -4.421485366784    -1.650225712447     1.007825032230
         O           -1.924357836865    -1.984858366784    -1.649948712447    15.994914619570
         H            0.239922163135    -0.694478366784    -1.649775712447     1.007825032230
         O            2.625971163135    -1.475827366784    -1.649955712447    15.994914619570
         C            3.164699163135    -4.302546366784    -1.650987712447    12.000000000000
         H            3.112267163135    -5.399891366784    -1.644344712447     1.007825032230
         H            3.728838163135    -3.975205366784    -2.537045712447     1.007825032230
         H            3.733854163135    -3.964393366784    -0.772313712447     1.007825032230
         H            0.659885163135    -5.527167366784    -1.650490712447     1.007825032230
      Gh(N)          -2.419866836865     3.019318633216     1.620510287553    14.003074004430
      Gh(C)          -1.885680836865     1.733563633216     1.616598287553    12.000000000000
      Gh(N)          -0.507307836865     1.704138633216     1.642076287553    14.003074004430
      Gh(C)           0.344979163135     2.799859633216     1.669856287553    12.000000000000
      Gh(C)          -0.293522836865     4.118177633216     1.672195287553    12.000000000000
      Gh(C)          -1.648471836865     4.160794633216     1.647259287553    12.000000000000
      Gh(H)          -3.428784836865     3.071745633216     1.601994287553     1.007825032230
      Gh(O)          -2.590035836865     0.733063633216     1.592581287553    15.994914619570
      Gh(H)          -0.070732836865     0.741428633216     1.639823287553     1.007825032230
      Gh(O)           1.571603163135     2.639807633216     1.691064287553    15.994914619570
      Gh(C)           0.577401163135     5.340179633216     1.702161287553    12.000000000000
      Gh(H)          -0.032574836865     6.253863633216     1.693784287553     1.007825032230
      Gh(H)           1.212798163135     5.340651633216     2.600368287553     1.007825032230
      Gh(H)           1.255810163135     5.352746633216     0.836161287553     1.007825032230
      Gh(H)          -2.199846836865     5.100106633216     1.646936287553     1.007825032230

  Running in c1 symmetry.

  Rotational constants: A =      0.02367  B =      0.00504  C =      0.00434 [cm^-1]
  Rotational constants: A =    709.62332  B =    151.21359  C =    130.16434 [MHz]
  Nuclear repulsion =  438.216117793050842

  Charge       = 0
  Multiplicity = 1
  Electrons    = 66
  Nalpha       = 33
  Nbeta        = 33

  ==> Algorithm <==

  SCF Algorithm Type is DF.
  DIIS enabled.
  MOM disabled.
  Fractional occupation disabled.
  Guess Type is SAD.
  Energy threshold   = 1.00e-08
  Density threshold  = 1.00e-08
  Integral threshold = 1.00e-12

  ==> Primary Basis <==

  Basis Set: AUG-CC-PVTZ
    Blend: AUG-CC-PVTZ
    Number of shells: 360
    Number of basis functions: 1104
    Number of Cartesian functions: 1290
    Spherical Harmonics?: true
    Max angular momentum: 3

   => Loading Basis Set <=

    Name: (AUG-CC-PVTZ AUX)
    Role: JKFIT
    Keyword: DF_BASIS_SCF
    atoms 1, 3, 16, 18               entry N          line   224 file /opt/anaconda/envs/psi4v1.5/share/psi4/basis/aug-cc-pvtz-jkfit.gbs 
    atoms 2, 4-6, 11, 17, 19-21, 26  entry C          line   162 file /opt/anaconda/envs/psi4v1.5/share/psi4/basis/aug-cc-pvtz-jkfit.gbs 
    atoms 7, 9, 12-15, 22, 24, 27-30 entry H          line    70 file /opt/anaconda/envs/psi4v1.5/share/psi4/basis/aug-cc-pvtz-jkfit.gbs 
    atoms 8, 10, 23, 25              entry O          line   286 file /opt/anaconda/envs/psi4v1.5/share/psi4/basis/aug-cc-pvtz-jkfit.gbs 

  ==> Integral Setup <==

  ==> DiskDFJK: Density-Fitted J/K Matrices <==

    J tasked:                  Yes
    K tasked:                  Yes
    wK tasked:                  No
    OpenMP threads:              8
    Integrals threads:           8
    Memory [MiB]:            57220
    Algorithm:                Core
    Integral Cache:           LOAD
    Schwarz Cutoff:          1E-12
    Fitting Condition:       1E-10

   => Auxiliary Basis Set <=

  Basis Set: (AUG-CC-PVTZ AUX)
    Blend: AUG-CC-PVTZ-JKFIT
    Number of shells: 708
    Number of basis functions: 2424
    Number of Cartesian functions: 3018
    Spherical Harmonics?: true
    Max angular momentum: 4

  Minimum eigenvalue in the overlap matrix is 1.9062786522E-06.
  Reciprocal condition number of the overlap matrix is 1.0961729991E-07.
    Using symmetric orthogonalization.

  ==> Pre-Iterations <==

  SCF Guess: Superposition of Atomic Densities via on-the-fly atomic UHF (no occupation information).

   -------------------------
    Irrep   Nso     Nmo    
   -------------------------
     A       1104    1104 
   -------------------------
    Total    1104    1104
   -------------------------

  ==> Iterations <==

                           Total Energy        Delta E     RMS |[F,P]|

   @DF-RHF iter SAD:  -450.91023152986941   -4.50910e+02   0.00000e+00 
   @DF-RHF iter   1:  -451.37255647593582   -4.62325e-01   7.18977e-04 DIIS
   @DF-RHF iter   2:  -451.57001580036280   -1.97459e-01   4.74472e-04 DIIS
   @DF-RHF iter   3:  -451.66281670240141   -9.28009e-02   9.08754e-05 DIIS
   @DF-RHF iter   4:  -451.66826304434278   -5.44634e-03   3.64610e-05 DIIS
   @DF-RHF iter   5:  -451.66935855646716   -1.09551e-03   7.36332e-06 DIIS
   @DF-RHF iter   6:  -451.66947085434100   -1.12298e-04   3.79685e-06 DIIS
   @DF-RHF iter   7:  -451.66949403208588   -2.31777e-05   1.62374e-06 DIIS
   @DF-RHF iter   8:  -451.66949822791463   -4.19583e-06   6.17062e-07 DIIS
   @DF-RHF iter   9:  -451.66949869936485   -4.71450e-07   2.05108e-07 DIIS
   @DF-RHF iter  10:  -451.66949877822083   -7.88560e-08   8.08637e-08 DIIS
   @DF-RHF iter  11:  -451.66949878728303   -9.06221e-09   3.09628e-08 DIIS
   @DF-RHF iter  12:  -451.66949878870855   -1.42552e-09   9.81386e-09 DIIS
  Energy and wave function converged.


  ==> Post-Iterations <==

    Orbital Energies [Eh]
    ---------------------

    Doubly Occupied:                                                      

       1A    -20.543527     2A    -20.538864     3A    -15.640274  
       4A    -15.635368     5A    -11.417951     6A    -11.379427  
       7A    -11.331029     8A    -11.262681     9A    -11.241731  
      10A     -1.428366    11A     -1.387159    12A     -1.303504  
      13A     -1.242317    14A     -1.104673    15A     -0.966487  
      16A     -0.913040    17A     -0.893839    18A     -0.769699  
      19A     -0.765987    20A     -0.706320    21A     -0.673045  
      22A     -0.666252    23A     -0.637575    24A     -0.611942  
      25A     -0.588091    26A     -0.567340    27A     -0.556753  
      28A     -0.550026    29A     -0.511385    30A     -0.477949  
      31A     -0.446652    32A     -0.433722    33A     -0.352563  

    Virtual:                                                              

      34A      0.015884    35A      0.021490    36A      0.030632  
      37A      0.035580    38A      0.036145    39A      0.039878  
      40A      0.046428    41A      0.048215    42A      0.054832  
      43A      0.059330    44A      0.062414    45A      0.064019  
      46A      0.069382    47A      0.075394    48A      0.078106  
      49A      0.081082    50A      0.084372    51A      0.090188  
      52A      0.093882    53A      0.095127    54A      0.099742  
      55A      0.102298    56A      0.105646    57A      0.107201  
      58A      0.109181    59A      0.113192    60A      0.114966  
      61A      0.120238    62A      0.123708    63A      0.127419  
      64A      0.128731    65A      0.132225    66A      0.136367  
      67A      0.138299    68A      0.139039    69A      0.141453  
      70A      0.145546    71A      0.146912    72A      0.147803  
      73A      0.154642    74A      0.155833    75A      0.158114  
      76A      0.159397    77A      0.165236    78A      0.170853  
      79A      0.174076    80A      0.176439    81A      0.179040  
      82A      0.181614    83A      0.186150    84A      0.192437  
      85A      0.194280    86A      0.197262    87A      0.203298  
      88A      0.209663    89A      0.210183    90A      0.213228  
      91A      0.213473    92A      0.221171    93A      0.226668  
      94A      0.229849    95A      0.230447    96A      0.237700  
      97A      0.240544    98A      0.242666    99A      0.246100  
     100A      0.246619   101A      0.248911   102A      0.252660  
     103A      0.257981   104A      0.258722   105A      0.262257  
     106A      0.264345   107A      0.267500   108A      0.268465  
     109A      0.275128   110A      0.279809   111A      0.279865  
     112A      0.284469   113A      0.285743   114A      0.292067  
     115A      0.292838   116A      0.297222   117A      0.297300  
     118A      0.305057   119A      0.307201   120A      0.311032  
     121A      0.313573   122A      0.316510   123A      0.321870  
     124A      0.324932   125A      0.329891   126A      0.330871  
     127A      0.335900   128A      0.338887   129A      0.342140  
     130A      0.343504   131A      0.347444   132A      0.348949  
     133A      0.353510   134A      0.358778   135A      0.359913  
     136A      0.363630   137A      0.366212   138A      0.370536  
     139A      0.373054   140A      0.378210   141A      0.380000  
     142A      0.382747   143A      0.384105   144A      0.387600  
     145A      0.389184   146A      0.394150   147A      0.398519  
     148A      0.399113   149A      0.403286   150A      0.404438  
     151A      0.407508   152A      0.410769   153A      0.414790  
     154A      0.422416   155A      0.423802   156A      0.425945  
     157A      0.426533   158A      0.429674   159A      0.430639  
     160A      0.432699   161A      0.437815   162A      0.441651  
     163A      0.443126   164A      0.444054   165A      0.448705  
     166A      0.451764   167A      0.454122   168A      0.456123  
     169A      0.461836   170A      0.465704   171A      0.468298  
     172A      0.468602   173A      0.476194   174A      0.481387  
     175A      0.484677   176A      0.486036   177A      0.488723  
     178A      0.493010   179A      0.496014   180A      0.498102  
     181A      0.502665   182A      0.503287   183A      0.507889  
     184A      0.511575   185A      0.519314   186A      0.520533  
     187A      0.522752   188A      0.525282   189A      0.527806  
     190A      0.532942   191A      0.533899   192A      0.541707  
     193A      0.545676   194A      0.547242   195A      0.551494  
     196A      0.553146   197A      0.556150   198A      0.562802  
     199A      0.567186   200A      0.570569   201A      0.572523  
     202A      0.577663   203A      0.582976   204A      0.587996  
     205A      0.593996   206A      0.597347   207A      0.600851  
     208A      0.604935   209A      0.609336   210A      0.614763  
     211A      0.619917   212A      0.625628   213A      0.626530  
     214A      0.633117   215A      0.634784   216A      0.637773  
     217A      0.645956   218A      0.648194   219A      0.651362  
     220A      0.652560   221A      0.656451   222A      0.660989  
     223A      0.662141   224A      0.667410   225A      0.673700  
     226A      0.677879   227A      0.684172   228A      0.687494  
     229A      0.690806   230A      0.693919   231A      0.700741  
     232A      0.709311   233A      0.711001   234A      0.714909  
     235A      0.717291   236A      0.721249   237A      0.724329  
     238A      0.729092   239A      0.737787   240A      0.740687  
     241A      0.750173   242A      0.755853   243A      0.762660  
     244A      0.764872   245A      0.767599   246A      0.773040  
     247A      0.776537   248A      0.783504   249A      0.787636  
     250A      0.790621   251A      0.791479   252A      0.799847  
     253A      0.809312   254A      0.814007   255A      0.816308  
     256A      0.820590   257A      0.825487   258A      0.826069  
     259A      0.831110   260A      0.838148   261A      0.840922  
     262A      0.843174   263A      0.846472   264A      0.849519  
     265A      0.854170   266A      0.862087   267A      0.863141  
     268A      0.867243   269A      0.871761   270A      0.874079  
     271A      0.883138   272A      0.888154   273A      0.890698  
     274A      0.893776   275A      0.895464   276A      0.901132  
     277A      0.904430   278A      0.909999   279A      0.912159  
     280A      0.916771   281A      0.918554   282A      0.919901  
     283A      0.928190   284A      0.930781   285A      0.934296  
     286A      0.935740   287A      0.939920   288A      0.941808  
     289A      0.945303   290A      0.949096   291A      0.951270  
     292A      0.955361   293A      0.961284   294A      0.965976  
     295A      0.968491   296A      0.970906   297A      0.974343  
     298A      0.980364   299A      0.983334   300A      0.985696  
     301A      0.987438   302A      0.988535   303A      0.991709  
     304A      0.993441   305A      0.999560   306A      1.003489  
     307A      1.007202   308A      1.013614   309A      1.014642  
     310A      1.016387   311A      1.021094   312A      1.022104  
     313A      1.026283   314A      1.028541   315A      1.036409  
     316A      1.040816   317A      1.051096   318A      1.055910  
     319A      1.058164   320A      1.061510   321A      1.063477  
     322A      1.070332   323A      1.075941   324A      1.076818  
     325A      1.082006   326A      1.086431   327A      1.087993  
     328A      1.095368   329A      1.098666   330A      1.103320  
     331A      1.106535   332A      1.116098   333A      1.117662  
     334A      1.123711   335A      1.128914   336A      1.131723  
     337A      1.140711   338A      1.142213   339A      1.145515  
     340A      1.147626   341A      1.149870   342A      1.152954  
     343A      1.158296   344A      1.163107   345A      1.165884  
     346A      1.166372   347A      1.169767   348A      1.173975  
     349A      1.175005   350A      1.181130   351A      1.185398  
     352A      1.195539   353A      1.199617   354A      1.202560  
     355A      1.205459   356A      1.207004   357A      1.209035  
     358A      1.216272   359A      1.223107   360A      1.227145  
     361A      1.233737   362A      1.236887   363A      1.242739  
     364A      1.248223   365A      1.250520   366A      1.253085  
     367A      1.259122   368A      1.263887   369A      1.267264  
     370A      1.275570   371A      1.278647   372A      1.280857  
     373A      1.289126   374A      1.291911   375A      1.296371  
     376A      1.302471   377A      1.303506   378A      1.310270  
     379A      1.314636   380A      1.318122   381A      1.323326  
     382A      1.326785   383A      1.334276   384A      1.341828  
     385A      1.343311   386A      1.344331   387A      1.350548  
     388A      1.354418   389A      1.360510   390A      1.364914  
     391A      1.369746   392A      1.373683   393A      1.378659  
     394A      1.386731   395A      1.390936   396A      1.394153  
     397A      1.396900   398A      1.397290   399A      1.400766  
     400A      1.403197   401A      1.411880   402A      1.413579  
     403A      1.423274   404A      1.429459   405A      1.431495  
     406A      1.434626   407A      1.438447   408A      1.441416  
     409A      1.445400   410A      1.449409   411A      1.452365  
     412A      1.455228   413A      1.459086   414A      1.467457  
     415A      1.468596   416A      1.476344   417A      1.486262  
     418A      1.505831   419A      1.506064   420A      1.511354  
     421A      1.514958   422A      1.523351   423A      1.529871  
     424A      1.530037   425A      1.534052   426A      1.540463  
     427A      1.545158   428A      1.552846   429A      1.559579  
     430A      1.561078   431A      1.572063   432A      1.575838  
     433A      1.584592   434A      1.590620   435A      1.598927  
     436A      1.605235   437A      1.606591   438A      1.609753  
     439A      1.614180   440A      1.621551   441A      1.621967  
     442A      1.630673   443A      1.640129   444A      1.643523  
     445A      1.646754   446A      1.653231   447A      1.656036  
     448A      1.661906   449A      1.663557   450A      1.673040  
     451A      1.675716   452A      1.682858   453A      1.692881  
     454A      1.694774   455A      1.699056   456A      1.709140  
     457A      1.716261   458A      1.717339   459A      1.721606  
     460A      1.728240   461A      1.729941   462A      1.737096  
     463A      1.741360   464A      1.744034   465A      1.747859  
     466A      1.765402   467A      1.772459   468A      1.779292  
     469A      1.782749   470A      1.786108   471A      1.790494  
     472A      1.801727   473A      1.802919   474A      1.809786  
     475A      1.818322   476A      1.821723   477A      1.824669  
     478A      1.829201   479A      1.833315   480A      1.837299  
     481A      1.845124   482A      1.850330   483A      1.853211  
     484A      1.861307   485A      1.865845   486A      1.867561  
     487A      1.877090   488A      1.885596   489A      1.896869  
     490A      1.908138   491A      1.910048   492A      1.912765  
     493A      1.919710   494A      1.924984   495A      1.926876  
     496A      1.941168   497A      1.943745   498A      1.946017  
     499A      1.947366   500A      1.956809   501A      1.975781  
     502A      1.977966   503A      1.985805   504A      1.994199  
     505A      1.999822   506A      2.004476   507A      2.008913  
     508A      2.020284   509A      2.024343   510A      2.029960  
     511A      2.040999   512A      2.043961   513A      2.049066  
     514A      2.053496   515A      2.058287   516A      2.067348  
     517A      2.072335   518A      2.089028   519A      2.094983  
     520A      2.100060   521A      2.108660   522A      2.114256  
     523A      2.123550   524A      2.133044   525A      2.144677  
     526A      2.154394   527A      2.167714   528A      2.173302  
     529A      2.180935   530A      2.185115   531A      2.192787  
     532A      2.198295   533A      2.211279   534A      2.214664  
     535A      2.218223   536A      2.226409   537A      2.229860  
     538A      2.237512   539A      2.240331   540A      2.252861  
     541A      2.254345   542A      2.262224   543A      2.265025  
     544A      2.270798   545A      2.279461   546A      2.284344  
     547A      2.289606   548A      2.294934   549A      2.299388  
     550A      2.312402   551A      2.315319   552A      2.324277  
     553A      2.330522   554A      2.334122   555A      2.344915  
     556A      2.350005   557A      2.356371   558A      2.369868  
     559A      2.372079   560A      2.384474   561A      2.390171  
     562A      2.405463   563A      2.408312   564A      2.412761  
     565A      2.415613   566A      2.420263   567A      2.426656  
     568A      2.435533   569A      2.439413   570A      2.444265  
     571A      2.448636   572A      2.464915   573A      2.491903  
     574A      2.495001   575A      2.508978   576A      2.513368  
     577A      2.525642   578A      2.538341   579A      2.539789  
     580A      2.544136   581A      2.548785   582A      2.552178  
     583A      2.558449   584A      2.563711   585A      2.565005  
     586A      2.572783   587A      2.574676   588A      2.580158  
     589A      2.592484   590A      2.601422   591A      2.605421  
     592A      2.610902   593A      2.621783   594A      2.624246  
     595A      2.628068   596A      2.636354   597A      2.638827  
     598A      2.641218   599A      2.652865   600A      2.661826  
     601A      2.671268   602A      2.680346   603A      2.686990  
     604A      2.697786   605A      2.704310   606A      2.708286  
     607A      2.717617   608A      2.724423   609A      2.729546  
     610A      2.731372   611A      2.739029   612A      2.743000  
     613A      2.746010   614A      2.747213   615A      2.754679  
     616A      2.762683   617A      2.768188   618A      2.776956  
     619A      2.782725   620A      2.787909   621A      2.808111  
     622A      2.819446   623A      2.826579   624A      2.838051  
     625A      2.850027   626A      2.856785   627A      2.858684  
     628A      2.869886   629A      2.880216   630A      2.882791  
     631A      2.891063   632A      2.910497   633A      2.921156  
     634A      2.925340   635A      2.934833   636A      2.940977  
     637A      2.948384   638A      2.963439   639A      2.969303  
     640A      2.974335   641A      2.987133   642A      2.993740  
     643A      3.015312   644A      3.016652   645A      3.032792  
     646A      3.037313   647A      3.043840   648A      3.050318  
     649A      3.061508   650A      3.083855   651A      3.087970  
     652A      3.093568   653A      3.111013   654A      3.128283  
     655A      3.163019   656A      3.169942   657A      3.185144  
     658A      3.206133   659A      3.209071   660A      3.213200  
     661A      3.215794   662A      3.224639   663A      3.233358  
     664A      3.262121   665A      3.270182   666A      3.274009  
     667A      3.283879   668A      3.289230   669A      3.299698  
     670A      3.312425   671A      3.320037   672A      3.325213  
     673A      3.352165   674A      3.356618   675A      3.365915  
     676A      3.370337   677A      3.392145   678A      3.399730  
     679A      3.410333   680A      3.418983   681A      3.420655  
     682A      3.433939   683A      3.435376   684A      3.452160  
     685A      3.462370   686A      3.483848   687A      3.508597  
     688A      3.522032   689A      3.554773   690A      3.556384  
     691A      3.581504   692A      3.598782   693A      3.604314  
     694A      3.608953   695A      3.625618   696A      3.633519  
     697A      3.649175   698A      3.650820   699A      3.656309  
     700A      3.663743   701A      3.673326   702A      3.689094  
     703A      3.701571   704A      3.706102   705A      3.708885  
     706A      3.712972   707A      3.722453   708A      3.737845  
     709A      3.746692   710A      3.751238   711A      3.754361  
     712A      3.779940   713A      3.781393   714A      3.794195  
     715A      3.796132   716A      3.820290   717A      3.821748  
     718A      3.827234   719A      3.846120   720A      3.862616  
     721A      3.870424   722A      3.873969   723A      3.879380  
     724A      3.909537   725A      3.927717   726A      3.930011  
     727A      3.954493   728A      3.959145   729A      3.960103  
     730A      3.980976   731A      4.002778   732A      4.009409  
     733A      4.018836   734A      4.032416   735A      4.034903  
     736A      4.057267   737A      4.067774   738A      4.080427  
     739A      4.088565   740A      4.090696   741A      4.097502  
     742A      4.113026   743A      4.121860   744A      4.126112  
     745A      4.128599   746A      4.130326   747A      4.148897  
     748A      4.157017   749A      4.168173   750A      4.187779  
     751A      4.194767   752A      4.195837   753A      4.207770  
     754A      4.210674   755A      4.215667   756A      4.217206  
     757A      4.221983   758A      4.225134   759A      4.253303  
     760A      4.254517   761A      4.258591   762A      4.266583  
     763A      4.281981   764A      4.286019   765A      4.294407  
     766A      4.304127   767A      4.305768   768A      4.308796  
     769A      4.319544   770A      4.322458   771A      4.340082  
     772A      4.355726   773A      4.369040   774A      4.373663  
     775A      4.378477   776A      4.382934   777A      4.396681  
     778A      4.419259   779A      4.420454   780A      4.433468  
     781A      4.435815   782A      4.441021   783A      4.444571  
     784A      4.451386   785A      4.457858   786A      4.467394  
     787A      4.477421   788A      4.495388   789A      4.505511  
     790A      4.508946   791A      4.526778   792A      4.537185  
     793A      4.547220   794A      4.552194   795A      4.571271  
     796A      4.578755   797A      4.592185   798A      4.621769  
     799A      4.627916   800A      4.633772   801A      4.634624  
     802A      4.644360   803A      4.645583   804A      4.661288  
     805A      4.670980   806A      4.671834   807A      4.692751  
     808A      4.697337   809A      4.699627   810A      4.705965  
     811A      4.711600   812A      4.724921   813A      4.732297  
     814A      4.740167   815A      4.752195   816A      4.757339  
     817A      4.768660   818A      4.773553   819A      4.780228  
     820A      4.788782   821A      4.793787   822A      4.810014  
     823A      4.818435   824A      4.826983   825A      4.850405  
     826A      4.861323   827A      4.869111   828A      4.880884  
     829A      4.890796   830A      4.891711   831A      4.897814  
     832A      4.899843   833A      4.907566   834A      4.914531  
     835A      4.925723   836A      4.934432   837A      4.966293  
     838A      4.970198   839A      4.977407   840A      4.978718  
     841A      4.991129   842A      5.017230   843A      5.027573  
     844A      5.030851   845A      5.034038   846A      5.046236  
     847A      5.056654   848A      5.061263   849A      5.066688  
     850A      5.067091   851A      5.093214   852A      5.095442  
     853A      5.100628   854A      5.128918   855A      5.135835  
     856A      5.141803   857A      5.143151   858A      5.149351  
     859A      5.164685   860A      5.187963   861A      5.193604  
     862A      5.204940   863A      5.205500   864A      5.212764  
     865A      5.249256   866A      5.254707   867A      5.267437  
     868A      5.269053   869A      5.288846   870A      5.294822  
     871A      5.311030   872A      5.316824   873A      5.327881  
     874A      5.333159   875A      5.334789   876A      5.363264  
     877A      5.379003   878A      5.388064   879A      5.419520  
     880A      5.422123   881A      5.428917   882A      5.441490  
     883A      5.443081   884A      5.457337   885A      5.463112  
     886A      5.469491   887A      5.490135   888A      5.494449  
     889A      5.519881   890A      5.521840   891A      5.526079  
     892A      5.531045   893A      5.533699   894A      5.536738  
     895A      5.550256   896A      5.556535   897A      5.574704  
     898A      5.580656   899A      5.591968   900A      5.597226  
     901A      5.612527   902A      5.625245   903A      5.628705  
     904A      5.631817   905A      5.634251   906A      5.661165  
     907A      5.664702   908A      5.703763   909A      5.718347  
     910A      5.742152   911A      5.753005   912A      5.783599  
     913A      5.792593   914A      5.821305   915A      5.826128  
     916A      5.830458   917A      5.849619   918A      5.861410  
     919A      5.878071   920A      5.901317   921A      5.923399  
     922A      5.928048   923A      5.940841   924A      5.963300  
     925A      5.977053   926A      5.985800   927A      5.992851  
     928A      6.010874   929A      6.056340   930A      6.059730  
     931A      6.074788   932A      6.090453   933A      6.100241  
     934A      6.112458   935A      6.128815   936A      6.145298  
     937A      6.155084   938A      6.158570   939A      6.170543  
     940A      6.176784   941A      6.189647   942A      6.240744  
     943A      6.245200   944A      6.264659   945A      6.277554  
     946A      6.283503   947A      6.292409   948A      6.339185  
     949A      6.379162   950A      6.412073   951A      6.439249  
     952A      6.442213   953A      6.473967   954A      6.487480  
     955A      6.535455   956A      6.570591   957A      6.586398  
     958A      6.603557   959A      6.633549   960A      6.645822  
     961A      6.665324   962A      6.688668   963A      6.710491  
     964A      6.719282   965A      6.722119   966A      6.737961  
     967A      6.738760   968A      6.758948   969A      6.770416  
     970A      6.772338   971A      6.793874   972A      6.797086  
     973A      6.807104   974A      6.819733   975A      6.842597  
     976A      6.857349   977A      6.863380   978A      6.869758  
     979A      6.882870   980A      6.923841   981A      6.927278  
     982A      6.967936   983A      6.971586   984A      6.982901  
     985A      7.021476   986A      7.036261   987A      7.084438  
     988A      7.107040   989A      7.143749   990A      7.146372  
     991A      7.202838   992A      7.204095   993A      7.243727  
     994A      7.256557   995A      7.314122   996A      7.334291  
     997A      7.364970   998A      7.384082   999A      7.384174  
    1000A      7.427115  1001A      7.432763  1002A      7.468579  
    1003A      7.471449  1004A      7.537866  1005A      7.569137  
    1006A      7.574143  1007A      7.583089  1008A      7.615479  
    1009A      7.625876  1010A      7.627836  1011A      7.654566  
    1012A      7.663260  1013A      7.670588  1014A      7.685409  
    1015A      7.707642  1016A      7.713519  1017A      7.740758  
    1018A      7.751908  1019A      7.782742  1020A      7.804384  
    1021A      7.816577  1022A      7.832196  1023A      7.837544  
    1024A      7.841884  1025A      7.857432  1026A      7.884564  
    1027A      7.900430  1028A      7.924926  1029A      7.937069  
    1030A      7.965762  1031A      7.979112  1032A      8.004204  
    1033A      8.008660  1034A      8.020635  1035A      8.033935  
    1036A      8.066294  1037A      8.131083  1038A      8.147886  
    1039A      8.172630  1040A      8.230045  1041A      8.256687  
    1042A      8.258064  1043A      8.362923  1044A      8.395988  
    1045A      8.555989  1046A      8.584632  1047A      8.704260  
    1048A      8.803230  1049A      8.880192  1050A      8.923549  
    1051A      9.003491  1052A      9.084884  1053A      9.199559  
    1054A      9.535469  1055A      9.544671  1056A      9.549265  
    1057A      9.572566  1058A      9.780659  1059A      9.862256  
    1060A      9.966832  1061A      9.999443  1062A     10.027793  
    1063A     10.147613  1064A     10.179176  1065A     10.241220  
    1066A     10.320349  1067A     10.449491  1068A     10.512113  
    1069A     10.527107  1070A     10.695426  1071A     10.920123  
    1072A     11.257751  1073A     11.364316  1074A     11.528215  
    1075A     12.008750  1076A     12.010326  1077A     12.026057  
    1078A     12.081788  1079A     12.164557  1080A     12.478388  
    1081A     12.708942  1082A     12.885765  1083A     13.313326  
    1084A     13.535177  1085A     14.156703  1086A     14.184685  
    1087A     15.719259  1088A     15.927895  1089A     16.141659  
    1090A     16.609836  1091A     17.970011  1092A     18.986476  
    1093A     19.985606  1094A     20.286823  1095A     20.560490  
    1096A     51.469657  1097A     51.917783  1098A     53.238778  
    1099A     54.110177  1100A     57.325059  1101A     60.027212  
    1102A     61.133559  1103A     69.089270  1104A     69.504869  

    Final Occupation by Irrep:
              A 
    DOCC [    33 ]

  @DF-RHF Final Energy:  -451.66949878870855

   => Energetics <=

    Nuclear Repulsion Energy =            438.2161177930508416
    One-Electron Energy =               -1484.6801433736463878
    Two-Electron Energy =                 594.7945267918869376
    Total Energy =                       -451.6694987887085517

Computation Completed


Properties will be evaluated at   0.000000,   0.000000,   0.000000 [a0]

Properties computed using the SCF density matrix

  Nuclear Dipole Moment: [e a0]
     X:    99.5824      Y:  -366.3998      Z:  -205.8247

  Electronic Dipole Moment: [e a0]
     X:   -99.6862      Y:   364.5128      Z:   205.8243

  Dipole Moment: [e a0]
     X:    -0.1038      Y:    -1.8870      Z:    -0.0005     Total:     1.8898

  Dipole Moment: [D]
     X:    -0.2638      Y:    -4.7962      Z:    -0.0012     Total:     4.8034


*** tstop() called on node157.bme.utexas.edu at Mon Jan 22 15:27:52 2024
Module time:
	user time   =     675.64 seconds =      11.26 minutes
	system time =       4.77 seconds =       0.08 minutes
	total time  =        100 seconds =       1.67 minutes
Total time:
	user time   =    1963.89 seconds =      32.73 minutes
	system time =      23.44 seconds =       0.39 minutes
	total time  =        297 seconds =       4.95 minutes

*** tstart() called on node157.bme.utexas.edu
*** at Mon Jan 22 15:27:52 2024


  //>>>>>>>>>>>>>>>>>>>>>>>>>>>>>>>>>>>//
  //               DFMP2               //
  //<<<<<<<<<<<<<<<<<<<<<<<<<<<<<<<<<<<//

   => Loading Basis Set <=

    Name: (AUG-CC-PVTZ AUX)
    Role: RIFIT
    Keyword: DF_BASIS_MP2
    atoms 1, 3, 16, 18               entry N          line   206 file /opt/anaconda/envs/psi4v1.5/share/psi4/basis/aug-cc-pvtz-ri.gbs 
    atoms 2, 4-6, 11, 17, 19-21, 26  entry C          line   148 file /opt/anaconda/envs/psi4v1.5/share/psi4/basis/aug-cc-pvtz-ri.gbs 
    atoms 7, 9, 12-15, 22, 24, 27-30 entry H          line    30 file /opt/anaconda/envs/psi4v1.5/share/psi4/basis/aug-cc-pvtz-ri.gbs 
    atoms 8, 10, 23, 25              entry O          line   264 file /opt/anaconda/envs/psi4v1.5/share/psi4/basis/aug-cc-pvtz-ri.gbs 

	 --------------------------------------------------------
	                          DF-MP2                         
	      2nd-Order Density-Fitted Moller-Plesset Theory     
	              RMP2 Wavefunction,   8 Threads             
	                                                         
	        Rob Parrish, Justin Turney, Andy Simmonett,      
	           Ed Hohenstein, and C. David Sherrill          
	 --------------------------------------------------------

   => Auxiliary Basis Set <=

  Basis Set: (AUG-CC-PVTZ AUX)
    Blend: AUG-CC-PVTZ-RI
    Number of shells: 672
    Number of basis functions: 2460
    Number of Cartesian functions: 3108
    Spherical Harmonics?: true
    Max angular momentum: 4

	 --------------------------------------------------------
	                 NBF =  1104, NAUX =  2460
	 --------------------------------------------------------
	   CLASS    FOCC     OCC    AOCC    AVIR     VIR    FVIR
	   PAIRS       9      33      24    1071    1071       0
	 --------------------------------------------------------

	 Will attempt to load fitting metric from file 97.

	-----------------------------------------------------------
	 ==================> DF-MP2 Energies <==================== 
	-----------------------------------------------------------
	 Reference Energy          =    -451.6694987887085517 [Eh]
	 Singles Energy            =      -0.0000000000000000 [Eh]
	 Same-Spin Energy          =      -0.4338916886917781 [Eh]
	 Opposite-Spin Energy      =      -1.2509491098217174 [Eh]
	 Correlation Energy        =      -1.6848407985134954 [Eh]
	 Total Energy              =    -453.3543395872220572 [Eh]
	-----------------------------------------------------------
	 ================> DF-SCS-MP2 Energies <================== 
	-----------------------------------------------------------
	 SCS Same-Spin Scale       =       0.3333333333333333 [-]
	 SCS Opposite-Spin Scale   =       1.2000000000000000 [-]
	 SCS Same-Spin Energy      =      -0.1446305628972593 [Eh]
	 SCS Opposite-Spin Energy  =      -1.5011389317860608 [Eh]
	 SCS Correlation Energy    =      -1.6457694946833201 [Eh]
	 SCS Total Energy          =    -453.3152682833918448 [Eh]
	-----------------------------------------------------------


*** tstop() called on node157.bme.utexas.edu at Mon Jan 22 15:28:27 2024
Module time:
	user time   =     177.05 seconds =       2.95 minutes
	system time =       5.63 seconds =       0.09 minutes
	total time  =         35 seconds =       0.58 minutes
Total time:
	user time   =    2140.95 seconds =      35.68 minutes
	system time =      29.07 seconds =       0.48 minutes
	total time  =        332 seconds =       5.53 minutes

  //>>>>>>>>>>>>>>>>>>>>>>>>>>>>>>>>>>>//
  //            Monomer B HF           //
  //<<<<<<<<<<<<<<<<<<<<<<<<<<<<<<<<<<<//


*** tstart() called on node157.bme.utexas.edu
*** at Mon Jan 22 15:28:27 2024

   => Loading Basis Set <=

    Name: AUG-CC-PVTZ
    Role: ORBITAL
    Keyword: BASIS
    atoms 1, 3, 16, 18               entry N          line   285 file /opt/anaconda/envs/psi4v1.5/share/psi4/basis/aug-cc-pvtz.gbs 
    atoms 2, 4-6, 11, 17, 19-21, 26  entry C          line   239 file /opt/anaconda/envs/psi4v1.5/share/psi4/basis/aug-cc-pvtz.gbs 
    atoms 7, 9, 12-15, 22, 24, 27-30 entry H          line    40 file /opt/anaconda/envs/psi4v1.5/share/psi4/basis/aug-cc-pvtz.gbs 
    atoms 8, 10, 23, 25              entry O          line   331 file /opt/anaconda/envs/psi4v1.5/share/psi4/basis/aug-cc-pvtz.gbs 


         ---------------------------------------------------------
                                   SCF
               by Justin Turney, Rob Parrish, Andy Simmonett
                          and Daniel G. A. Smith
                              RHF Reference
                        8 Threads,  76293 MiB Core
         ---------------------------------------------------------

  ==> Geometry <==

    Molecular point group: c1
    Full point group: C1

    Geometry (in Angstrom), charge = 0, multiplicity = 1:

       Center              X                  Y                   Z               Mass       
    ------------   -----------------  -----------------  -----------------  -----------------
      Gh(N)          -0.600680836865    -3.856910366784    -1.650345712447    14.003074004430
      Gh(C)          -0.805051836865    -2.479678366784    -1.650084712447    12.000000000000
      Gh(N)           0.361563163135    -1.744534366784    -1.649982712447    14.003074004430
      Gh(C)           1.656755163135    -2.244782366784    -1.650088712447    12.000000000000
      Gh(C)           1.788464163135    -3.703653366784    -1.650389712447    12.000000000000
      Gh(C)           0.648727163135    -4.438040366784    -1.650453712447    12.000000000000
      Gh(H)          -1.438691836865    -4.421485366784    -1.650225712447     1.007825032230
      Gh(O)          -1.924357836865    -1.984858366784    -1.649948712447    15.994914619570
      Gh(H)           0.239922163135    -0.694478366784    -1.649775712447     1.007825032230
      Gh(O)           2.625971163135    -1.475827366784    -1.649955712447    15.994914619570
      Gh(C)           3.164699163135    -4.302546366784    -1.650987712447    12.000000000000
      Gh(H)           3.112267163135    -5.399891366784    -1.644344712447     1.007825032230
      Gh(H)           3.728838163135    -3.975205366784    -2.537045712447     1.007825032230
      Gh(H)           3.733854163135    -3.964393366784    -0.772313712447     1.007825032230
      Gh(H)           0.659885163135    -5.527167366784    -1.650490712447     1.007825032230
         N           -2.419866836865     3.019318633216     1.620510287553    14.003074004430
         C           -1.885680836865     1.733563633216     1.616598287553    12.000000000000
         N           -0.507307836865     1.704138633216     1.642076287553    14.003074004430
         C            0.344979163135     2.799859633216     1.669856287553    12.000000000000
         C           -0.293522836865     4.118177633216     1.672195287553    12.000000000000
         C           -1.648471836865     4.160794633216     1.647259287553    12.000000000000
         H           -3.428784836865     3.071745633216     1.601994287553     1.007825032230
         O           -2.590035836865     0.733063633216     1.592581287553    15.994914619570
         H           -0.070732836865     0.741428633216     1.639823287553     1.007825032230
         O            1.571603163135     2.639807633216     1.691064287553    15.994914619570
         C            0.577401163135     5.340179633216     1.702161287553    12.000000000000
         H           -0.032574836865     6.253863633216     1.693784287553     1.007825032230
         H            1.212798163135     5.340651633216     2.600368287553     1.007825032230
         H            1.255810163135     5.352746633216     0.836161287553     1.007825032230
         H           -2.199846836865     5.100106633216     1.646936287553     1.007825032230

  Running in c1 symmetry.

  Rotational constants: A =      0.02367  B =      0.00504  C =      0.00434 [cm^-1]
  Rotational constants: A =    709.62332  B =    151.21359  C =    130.16434 [MHz]
  Nuclear repulsion =  438.216095695745707

  Charge       = 0
  Multiplicity = 1
  Electrons    = 66
  Nalpha       = 33
  Nbeta        = 33

  ==> Algorithm <==

  SCF Algorithm Type is DF.
  DIIS enabled.
  MOM disabled.
  Fractional occupation disabled.
  Guess Type is SAD.
  Energy threshold   = 1.00e-08
  Density threshold  = 1.00e-08
  Integral threshold = 1.00e-12

  ==> Primary Basis <==

  Basis Set: AUG-CC-PVTZ
    Blend: AUG-CC-PVTZ
    Number of shells: 360
    Number of basis functions: 1104
    Number of Cartesian functions: 1290
    Spherical Harmonics?: true
    Max angular momentum: 3

   => Loading Basis Set <=

    Name: (AUG-CC-PVTZ AUX)
    Role: JKFIT
    Keyword: DF_BASIS_SCF
    atoms 1, 3, 16, 18               entry N          line   224 file /opt/anaconda/envs/psi4v1.5/share/psi4/basis/aug-cc-pvtz-jkfit.gbs 
    atoms 2, 4-6, 11, 17, 19-21, 26  entry C          line   162 file /opt/anaconda/envs/psi4v1.5/share/psi4/basis/aug-cc-pvtz-jkfit.gbs 
    atoms 7, 9, 12-15, 22, 24, 27-30 entry H          line    70 file /opt/anaconda/envs/psi4v1.5/share/psi4/basis/aug-cc-pvtz-jkfit.gbs 
    atoms 8, 10, 23, 25              entry O          line   286 file /opt/anaconda/envs/psi4v1.5/share/psi4/basis/aug-cc-pvtz-jkfit.gbs 

  ==> Integral Setup <==

  ==> DiskDFJK: Density-Fitted J/K Matrices <==

    J tasked:                  Yes
    K tasked:                  Yes
    wK tasked:                  No
    OpenMP threads:              8
    Integrals threads:           8
    Memory [MiB]:            57220
    Algorithm:                Core
    Integral Cache:           LOAD
    Schwarz Cutoff:          1E-12
    Fitting Condition:       1E-10

   => Auxiliary Basis Set <=

  Basis Set: (AUG-CC-PVTZ AUX)
    Blend: AUG-CC-PVTZ-JKFIT
    Number of shells: 708
    Number of basis functions: 2424
    Number of Cartesian functions: 3018
    Spherical Harmonics?: true
    Max angular momentum: 4

  Minimum eigenvalue in the overlap matrix is 1.9062786522E-06.
  Reciprocal condition number of the overlap matrix is 1.0961729991E-07.
    Using symmetric orthogonalization.

  ==> Pre-Iterations <==

  SCF Guess: Superposition of Atomic Densities via on-the-fly atomic UHF (no occupation information).

   -------------------------
    Irrep   Nso     Nmo    
   -------------------------
     A       1104    1104 
   -------------------------
    Total    1104    1104
   -------------------------

  ==> Iterations <==

                           Total Energy        Delta E     RMS |[F,P]|

   @DF-RHF iter SAD:  -450.91022998556076   -4.50910e+02   0.00000e+00 
   @DF-RHF iter   1:  -451.37255575739522   -4.62326e-01   7.18977e-04 DIIS
   @DF-RHF iter   2:  -451.57001501020414   -1.97459e-01   4.74473e-04 DIIS
   @DF-RHF iter   3:  -451.66281615139405   -9.28011e-02   9.08755e-05 DIIS
   @DF-RHF iter   4:  -451.66826250262318   -5.44635e-03   3.64610e-05 DIIS
   @DF-RHF iter   5:  -451.66935801635543   -1.09551e-03   7.36332e-06 DIIS
   @DF-RHF iter   6:  -451.66947031403475   -1.12298e-04   3.79684e-06 DIIS
   @DF-RHF iter   7:  -451.66949349168686   -2.31777e-05   1.62373e-06 DIIS
   @DF-RHF iter   8:  -451.66949768749208   -4.19581e-06   6.17061e-07 DIIS
   @DF-RHF iter   9:  -451.66949815893889   -4.71447e-07   2.05108e-07 DIIS
   @DF-RHF iter  10:  -451.66949823779413   -7.88552e-08   8.08638e-08 DIIS
   @DF-RHF iter  11:  -451.66949824685514   -9.06101e-09   3.09629e-08 DIIS
   @DF-RHF iter  12:  -451.66949824828555   -1.43041e-09   9.81384e-09 DIIS
  Energy and wave function converged.


  ==> Post-Iterations <==

    Orbital Energies [Eh]
    ---------------------

    Doubly Occupied:                                                      

       1A    -20.543527     2A    -20.538864     3A    -15.640274  
       4A    -15.635368     5A    -11.417951     6A    -11.379427  
       7A    -11.331029     8A    -11.262681     9A    -11.241730  
      10A     -1.428367    11A     -1.387158    12A     -1.303504  
      13A     -1.242317    14A     -1.104673    15A     -0.966487  
      16A     -0.913041    17A     -0.893840    18A     -0.769699  
      19A     -0.765987    20A     -0.706320    21A     -0.673045  
      22A     -0.666252    23A     -0.637576    24A     -0.611942  
      25A     -0.588090    26A     -0.567340    27A     -0.556753  
      28A     -0.550026    29A     -0.511385    30A     -0.477949  
      31A     -0.446652    32A     -0.433722    33A     -0.352563  

    Virtual:                                                              

      34A      0.015868    35A      0.021519    36A      0.030633  
      37A      0.035651    38A      0.036062    39A      0.039848  
      40A      0.046445    41A      0.048199    42A      0.054725  
      43A      0.059208    44A      0.062592    45A      0.064121  
      46A      0.069558    47A      0.075426    48A      0.077799  
      49A      0.081083    50A      0.084518    51A      0.089997  
      52A      0.094043    53A      0.094982    54A      0.099756  
      55A      0.102418    56A      0.105381    57A      0.107414  
      58A      0.109114    59A      0.113226    60A      0.115302  
      61A      0.120277    62A      0.123827    63A      0.127370  
      64A      0.128271    65A      0.132138    66A      0.136278  
      67A      0.138387    68A      0.138510    69A      0.141256  
      70A      0.145892    71A      0.146858    72A      0.148323  
      73A      0.154333    74A      0.155810    75A      0.158658  
      76A      0.159433    77A      0.165319    78A      0.171294  
      79A      0.174113    80A      0.175752    81A      0.179392  
      82A      0.181657    83A      0.186132    84A      0.192543  
      85A      0.194714    86A      0.196953    87A      0.203486  
      88A      0.209427    89A      0.209919    90A      0.212947  
      91A      0.213530    92A      0.221517    93A      0.226389  
      94A      0.229701    95A      0.230381    96A      0.237921  
      97A      0.239998    98A      0.242022    99A      0.246147  
     100A      0.247125   101A      0.248804   102A      0.253072  
     103A      0.257795   104A      0.259183   105A      0.262924  
     106A      0.264468   107A      0.267174   108A      0.268340  
     109A      0.274482   110A      0.278931   111A      0.279500  
     112A      0.284207   113A      0.285770   114A      0.292079  
     115A      0.293822   116A      0.297080   117A      0.297868  
     118A      0.305585   119A      0.307678   120A      0.311053  
     121A      0.312609   122A      0.317778   123A      0.321602  
     124A      0.325828   125A      0.328330   126A      0.331237  
     127A      0.335931   128A      0.338505   129A      0.342793  
     130A      0.344376   131A      0.347567   132A      0.349141  
     133A      0.353293   134A      0.358712   135A      0.359512  
     136A      0.362725   137A      0.366745   138A      0.370575  
     139A      0.373443   140A      0.378405   141A      0.379905  
     142A      0.382121   143A      0.383241   144A      0.386638  
     145A      0.389352   146A      0.393274   147A      0.398647  
     148A      0.399731   149A      0.403296   150A      0.404670  
     151A      0.407360   152A      0.410956   153A      0.414778  
     154A      0.422789   155A      0.423218   156A      0.425887  
     157A      0.426803   158A      0.428995   159A      0.430590  
     160A      0.433216   161A      0.437631   162A      0.441760  
     163A      0.443309   164A      0.443452   165A      0.449015  
     166A      0.452895   167A      0.455089   168A      0.455727  
     169A      0.461186   170A      0.465129   171A      0.468457  
     172A      0.468747   173A      0.475269   174A      0.482103  
     175A      0.484428   176A      0.485890   177A      0.488626  
     178A      0.494523   179A      0.496531   180A      0.499438  
     181A      0.502415   182A      0.503480   183A      0.507500  
     184A      0.512647   185A      0.519833   186A      0.520135  
     187A      0.522150   188A      0.524954   189A      0.527844  
     190A      0.532570   191A      0.533112   192A      0.541928  
     193A      0.545387   194A      0.545932   195A      0.551836  
     196A      0.552281   197A      0.557501   198A      0.561902  
     199A      0.568742   200A      0.572134   201A      0.573096  
     202A      0.579313   203A      0.582236   204A      0.589154  
     205A      0.592492   206A      0.597380   207A      0.602357  
     208A      0.605593   209A      0.609372   210A      0.614536  
     211A      0.616737   212A      0.625983   213A      0.627605  
     214A      0.632726   215A      0.634627   216A      0.637508  
     217A      0.645082   218A      0.647656   219A      0.649294  
     220A      0.653088   221A      0.656187   222A      0.660709  
     223A      0.662735   224A      0.666982   225A      0.675089  
     226A      0.678495   227A      0.684881   228A      0.688532  
     229A      0.689835   230A      0.694906   231A      0.700369  
     232A      0.706079   233A      0.710136   234A      0.713614  
     235A      0.719720   236A      0.721927   237A      0.724575  
     238A      0.730248   239A      0.738853   240A      0.741534  
     241A      0.749914   242A      0.756194   243A      0.761922  
     244A      0.765474   245A      0.767896   246A      0.774174  
     247A      0.775978   248A      0.781768   249A      0.786796  
     250A      0.790645   251A      0.791905   252A      0.801025  
     253A      0.810619   254A      0.815038   255A      0.816017  
     256A      0.821092   257A      0.824968   258A      0.826084  
     259A      0.828945   260A      0.837123   261A      0.841383  
     262A      0.843433   263A      0.846251   264A      0.849531  
     265A      0.853960   266A      0.861131   267A      0.862853  
     268A      0.867212   269A      0.870791   270A      0.874164  
     271A      0.882948   272A      0.889222   273A      0.889805  
     274A      0.893311   275A      0.895416   276A      0.901374  
     277A      0.904748   278A      0.910522   279A      0.912934  
     280A      0.916522   281A      0.917889   282A      0.918987  
     283A      0.927410   284A      0.930919   285A      0.934809  
     286A      0.937428   287A      0.939576   288A      0.941217  
     289A      0.944733   290A      0.950452   291A      0.950799  
     292A      0.956556   293A      0.960189   294A      0.965436  
     295A      0.968435   296A      0.969428   297A      0.974779  
     298A      0.979386   299A      0.982410   300A      0.985864  
     301A      0.988454   302A      0.989378   303A      0.992278  
     304A      0.994555   305A      1.000183   306A      1.003079  
     307A      1.006578   308A      1.012828   309A      1.014505  
     310A      1.016906   311A      1.022150   312A      1.022777  
     313A      1.025562   314A      1.029499   315A      1.035566  
     316A      1.041416   317A      1.050077   318A      1.056028  
     319A      1.057748   320A      1.063173   321A      1.063688  
     322A      1.070784   323A      1.076469   324A      1.076981  
     325A      1.080781   326A      1.085802   327A      1.089110  
     328A      1.095320   329A      1.098640   330A      1.103811  
     331A      1.107049   332A      1.116174   333A      1.117873  
     334A      1.123388   335A      1.128353   336A      1.132746  
     337A      1.140516   338A      1.142068   339A      1.145220  
     340A      1.147230   341A      1.149946   342A      1.151737  
     343A      1.159512   344A      1.162355   345A      1.165626  
     346A      1.166481   347A      1.169770   348A      1.173231  
     349A      1.175832   350A      1.181461   351A      1.184803  
     352A      1.196289   353A      1.197878   354A      1.203618  
     355A      1.205028   356A      1.206166   357A      1.210677  
     358A      1.217008   359A      1.221551   360A      1.227639  
     361A      1.232968   362A      1.238835   363A      1.243376  
     364A      1.248265   365A      1.250328   366A      1.252964  
     367A      1.258958   368A      1.264984   369A      1.266392  
     370A      1.275709   371A      1.277988   372A      1.281201  
     373A      1.286987   374A      1.291848   375A      1.296325  
     376A      1.301316   377A      1.303453   378A      1.310807  
     379A      1.312645   380A      1.317944   381A      1.323407  
     382A      1.326912   383A      1.333841   384A      1.341846  
     385A      1.343246   386A      1.345378   387A      1.350746  
     388A      1.355246   389A      1.361623   390A      1.364967  
     391A      1.369921   392A      1.373919   393A      1.377817  
     394A      1.386417   395A      1.390709   396A      1.395057  
     397A      1.397308   398A      1.399110   399A      1.402116  
     400A      1.404246   401A      1.411223   402A      1.413331  
     403A      1.423013   404A      1.429144   405A      1.432163  
     406A      1.435244   407A      1.439117   408A      1.441412  
     409A      1.445751   410A      1.449181   411A      1.452777  
     412A      1.456969   413A      1.459405   414A      1.466961  
     415A      1.469038   416A      1.476702   417A      1.485330  
     418A      1.505112   419A      1.506544   420A      1.512482  
     421A      1.514063   422A      1.524766   423A      1.529475  
     424A      1.530636   425A      1.534840   426A      1.540570  
     427A      1.544881   428A      1.552573   429A      1.560464  
     430A      1.563206   431A      1.572001   432A      1.576221  
     433A      1.583013   434A      1.591141   435A      1.599015  
     436A      1.604343   437A      1.606119   438A      1.610279  
     439A      1.613968   440A      1.621983   441A      1.624258  
     442A      1.630608   443A      1.639827   444A      1.642763  
     445A      1.646592   446A      1.654079   447A      1.655235  
     448A      1.662121   449A      1.663424   450A      1.671704  
     451A      1.676292   452A      1.681206   453A      1.692962  
     454A      1.694901   455A      1.699405   456A      1.709878  
     457A      1.716128   458A      1.717891   459A      1.721990  
     460A      1.727599   461A      1.728746   462A      1.735130  
     463A      1.741093   464A      1.743338   465A      1.747649  
     466A      1.766598   467A      1.772286   468A      1.779593  
     469A      1.783817   470A      1.785508   471A      1.790949  
     472A      1.800612   473A      1.804905   474A      1.808342  
     475A      1.819079   476A      1.822372   477A      1.824154  
     478A      1.830521   479A      1.834018   480A      1.837132  
     481A      1.846149   482A      1.850237   483A      1.852657  
     484A      1.861246   485A      1.864735   486A      1.867710  
     487A      1.875605   488A      1.883698   489A      1.895819  
     490A      1.907809   491A      1.909849   492A      1.912945  
     493A      1.919463   494A      1.924122   495A      1.925445  
     496A      1.940989   497A      1.943841   498A      1.945100  
     499A      1.949919   500A      1.955940   501A      1.975966  
     502A      1.977964   503A      1.985759   504A      1.993102  
     505A      1.999906   506A      2.004619   507A      2.008744  
     508A      2.020831   509A      2.024004   510A      2.029814  
     511A      2.041293   512A      2.045467   513A      2.048565  
     514A      2.053124   515A      2.058442   516A      2.067112  
     517A      2.071756   518A      2.089317   519A      2.096410  
     520A      2.098689   521A      2.108918   522A      2.113824  
     523A      2.123970   524A      2.132940   525A      2.144807  
     526A      2.153842   527A      2.166806   528A      2.173862  
     529A      2.180643   530A      2.185004   531A      2.193603  
     532A      2.198247   533A      2.211207   534A      2.215090  
     535A      2.218689   536A      2.225937   537A      2.229201  
     538A      2.237672   539A      2.239405   540A      2.252699  
     541A      2.255677   542A      2.261898   543A      2.265759  
     544A      2.270690   545A      2.279830   546A      2.283694  
     547A      2.290265   548A      2.295430   549A      2.299162  
     550A      2.312226   551A      2.314993   552A      2.324166  
     553A      2.331122   554A      2.333899   555A      2.344719  
     556A      2.350531   557A      2.357239   558A      2.370230  
     559A      2.372722   560A      2.384326   561A      2.390005  
     562A      2.405758   563A      2.408672   564A      2.412638  
     565A      2.415730   566A      2.420556   567A      2.426466  
     568A      2.436565   569A      2.440803   570A      2.444013  
     571A      2.448710   572A      2.465035   573A      2.491615  
     574A      2.495283   575A      2.508302   576A      2.514343  
     577A      2.526149   578A      2.538607   579A      2.539401  
     580A      2.544861   581A      2.547124   582A      2.553350  
     583A      2.559070   584A      2.563579   585A      2.566108  
     586A      2.573081   587A      2.576185   588A      2.579074  
     589A      2.591629   590A      2.602983   591A      2.607563  
     592A      2.611394   593A      2.620787   594A      2.623279  
     595A      2.627464   596A      2.635628   597A      2.638778  
     598A      2.642243   599A      2.652318   600A      2.662014  
     601A      2.670924   602A      2.680049   603A      2.685604  
     604A      2.701364   605A      2.704176   606A      2.707937  
     607A      2.718775   608A      2.723430   609A      2.729192  
     610A      2.731257   611A      2.739386   612A      2.743214  
     613A      2.746596   614A      2.747056   615A      2.754871  
     616A      2.761592   617A      2.765588   618A      2.777433  
     619A      2.784368   620A      2.789980   621A      2.809335  
     622A      2.818516   623A      2.825164   624A      2.838549  
     625A      2.848730   626A      2.856797   627A      2.859995  
     628A      2.867052   629A      2.880204   630A      2.883118  
     631A      2.892530   632A      2.910277   633A      2.920405  
     634A      2.924531   635A      2.934124   636A      2.941160  
     637A      2.948555   638A      2.963627   639A      2.970439  
     640A      2.977977   641A      2.986718   642A      2.993723  
     643A      3.016306   644A      3.016572   645A      3.034164  
     646A      3.036794   647A      3.044976   648A      3.050115  
     649A      3.061027   650A      3.082905   651A      3.088059  
     652A      3.094287   653A      3.111325   654A      3.126836  
     655A      3.163175   656A      3.170079   657A      3.184862  
     658A      3.207173   659A      3.208752   660A      3.214218  
     661A      3.215315   662A      3.224908   663A      3.232097  
     664A      3.261996   665A      3.271107   666A      3.272411  
     667A      3.283183   668A      3.289712   669A      3.300157  
     670A      3.312540   671A      3.320581   672A      3.324975  
     673A      3.352175   674A      3.356845   675A      3.366107  
     676A      3.370625   677A      3.391598   678A      3.399110  
     679A      3.410565   680A      3.418784   681A      3.421357  
     682A      3.433863   683A      3.435596   684A      3.452475  
     685A      3.462462   686A      3.482952   687A      3.508469  
     688A      3.520793   689A      3.554912   690A      3.556045  
     691A      3.581577   692A      3.598588   693A      3.604137  
     694A      3.608403   695A      3.625691   696A      3.633162  
     697A      3.649452   698A      3.650766   699A      3.656353  
     700A      3.663851   701A      3.673067   702A      3.688823  
     703A      3.701561   704A      3.706060   705A      3.709367  
     706A      3.713727   707A      3.721376   708A      3.737346  
     709A      3.747652   710A      3.750155   711A      3.754403  
     712A      3.779927   713A      3.782197   714A      3.794480  
     715A      3.796266   716A      3.820424   717A      3.822034  
     718A      3.827298   719A      3.846393   720A      3.862513  
     721A      3.869859   722A      3.874090   723A      3.880446  
     724A      3.909397   725A      3.927575   726A      3.930149  
     727A      3.954776   728A      3.959104   729A      3.960208  
     730A      3.980844   731A      4.003016   732A      4.009390  
     733A      4.017597   734A      4.032444   735A      4.034818  
     736A      4.057047   737A      4.067606   738A      4.080543  
     739A      4.088423   740A      4.090808   741A      4.097288  
     742A      4.113037   743A      4.121544   744A      4.126510  
     745A      4.128430   746A      4.130204   747A      4.148743  
     748A      4.157066   749A      4.168307   750A      4.187575  
     751A      4.194616   752A      4.196217   753A      4.207858  
     754A      4.211168   755A      4.215143   756A      4.217217  
     757A      4.222628   758A      4.225060   759A      4.253350  
     760A      4.254145   761A      4.258294   762A      4.266480  
     763A      4.281853   764A      4.286231   765A      4.294525  
     766A      4.303863   767A      4.305944   768A      4.308463  
     769A      4.320085   770A      4.322622   771A      4.339893  
     772A      4.355264   773A      4.368405   774A      4.373636  
     775A      4.379394   776A      4.383043   777A      4.397104  
     778A      4.419067   779A      4.420819   780A      4.433325  
     781A      4.435485   782A      4.440850   783A      4.444531  
     784A      4.451746   785A      4.458202   786A      4.467563  
     787A      4.477604   788A      4.495269   789A      4.505350  
     790A      4.509358   791A      4.526649   792A      4.538449  
     793A      4.546211   794A      4.552406   795A      4.571196  
     796A      4.579017   797A      4.591923   798A      4.622270  
     799A      4.627054   800A      4.633811   801A      4.634462  
     802A      4.644388   803A      4.645514   804A      4.661653  
     805A      4.670871   806A      4.672051   807A      4.693684  
     808A      4.697210   809A      4.698276   810A      4.706267  
     811A      4.711694   812A      4.725443   813A      4.732329  
     814A      4.739900   815A      4.751920   816A      4.757315  
     817A      4.768352   818A      4.774248   819A      4.780445  
     820A      4.788691   821A      4.793781   822A      4.809800  
     823A      4.818708   824A      4.827133   825A      4.850378  
     826A      4.860922   827A      4.869354   828A      4.880961  
     829A      4.890604   830A      4.892076   831A      4.897151  
     832A      4.899226   833A      4.907652   834A      4.914573  
     835A      4.925587   836A      4.934629   837A      4.966144  
     838A      4.970188   839A      4.977466   840A      4.978389  
     841A      4.991244   842A      5.016840   843A      5.028078  
     844A      5.031065   845A      5.034971   846A      5.046121  
     847A      5.057050   848A      5.061877   849A      5.066219  
     850A      5.067204   851A      5.093281   852A      5.095179  
     853A      5.100963   854A      5.128883   855A      5.135497  
     856A      5.142054   857A      5.143467   858A      5.149227  
     859A      5.164533   860A      5.187499   861A      5.194241  
     862A      5.203826   863A      5.206187   864A      5.212528  
     865A      5.249229   866A      5.255627   867A      5.267369  
     868A      5.269247   869A      5.289064   870A      5.294781  
     871A      5.310755   872A      5.316845   873A      5.327844  
     874A      5.333184   875A      5.335554   876A      5.363097  
     877A      5.379274   878A      5.388106   879A      5.419587  
     880A      5.422383   881A      5.429505   882A      5.441879  
     883A      5.442548   884A      5.457350   885A      5.463260  
     886A      5.469345   887A      5.489970   888A      5.494016  
     889A      5.519616   890A      5.522611   891A      5.526368  
     892A      5.531155   893A      5.533745   894A      5.536303  
     895A      5.549868   896A      5.556552   897A      5.575306  
     898A      5.580522   899A      5.591975   900A      5.597209  
     901A      5.612635   902A      5.625037   903A      5.629390  
     904A      5.631717   905A      5.634204   906A      5.660946  
     907A      5.665112   908A      5.703705   909A      5.718117  
     910A      5.742251   911A      5.753043   912A      5.783824  
     913A      5.792467   914A      5.821768   915A      5.825866  
     916A      5.830531   917A      5.849438   918A      5.861327  
     919A      5.878057   920A      5.901169   921A      5.923606  
     922A      5.928038   923A      5.941029   924A      5.963396  
     925A      5.976921   926A      5.986083   927A      5.993052  
     928A      6.010663   929A      6.056622   930A      6.059514  
     931A      6.074742   932A      6.090383   933A      6.100528  
     934A      6.112444   935A      6.128989   936A      6.145227  
     937A      6.155376   938A      6.158731   939A      6.170550  
     940A      6.176751   941A      6.189547   942A      6.240843  
     943A      6.245084   944A      6.264584   945A      6.277884  
     946A      6.283568   947A      6.292248   948A      6.339776  
     949A      6.378877   950A      6.412083   951A      6.439334  
     952A      6.442858   953A      6.474067   954A      6.487281  
     955A      6.535557   956A      6.570469   957A      6.586507  
     958A      6.603131   959A      6.633365   960A      6.646242  
     961A      6.665703   962A      6.688611   963A      6.710506  
     964A      6.719152   965A      6.722284   966A      6.737888  
     967A      6.738393   968A      6.759029   969A      6.770385  
     970A      6.772092   971A      6.793962   972A      6.797065  
     973A      6.806922   974A      6.820051   975A      6.842650  
     976A      6.857567   977A      6.863621   978A      6.869635  
     979A      6.882644   980A      6.924511   981A      6.927431  
     982A      6.967993   983A      6.972096   984A      6.982833  
     985A      7.022461   986A      7.036067   987A      7.084583  
     988A      7.107435   989A      7.143847   990A      7.146370  
     991A      7.202115   992A      7.204445   993A      7.243448  
     994A      7.256639   995A      7.313971   996A      7.334838  
     997A      7.365682   998A      7.384055   999A      7.384285  
    1000A      7.426500  1001A      7.432665  1002A      7.468258  
    1003A      7.471612  1004A      7.538612  1005A      7.568778  
    1006A      7.575305  1007A      7.583031  1008A      7.615337  
    1009A      7.625705  1010A      7.628018  1011A      7.654422  
    1012A      7.664844  1013A      7.671610  1014A      7.685801  
    1015A      7.707383  1016A      7.713346  1017A      7.740710  
    1018A      7.752873  1019A      7.782697  1020A      7.804396  
    1021A      7.816687  1022A      7.832123  1023A      7.837592  
    1024A      7.842054  1025A      7.857237  1026A      7.884814  
    1027A      7.900405  1028A      7.925851  1029A      7.937153  
    1030A      7.966048  1031A      7.979125  1032A      8.004666  
    1033A      8.007926  1034A      8.019945  1035A      8.033087  
    1036A      8.066102  1037A      8.131211  1038A      8.148028  
    1039A      8.173167  1040A      8.229919  1041A      8.256705  
    1042A      8.258136  1043A      8.363064  1044A      8.396021  
    1045A      8.556320  1046A      8.584762  1047A      8.704006  
    1048A      8.803346  1049A      8.879990  1050A      8.923723  
    1051A      9.003838  1052A      9.085395  1053A      9.199724  
    1054A      9.535504  1055A      9.544838  1056A      9.549232  
    1057A      9.572536  1058A      9.780196  1059A      9.861980  
    1060A      9.966664  1061A     10.000164  1062A     10.027644  
    1063A     10.146061  1064A     10.179391  1065A     10.241389  
    1066A     10.320791  1067A     10.449530  1068A     10.512155  
    1069A     10.528035  1070A     10.695446  1071A     10.920363  
    1072A     11.258071  1073A     11.364622  1074A     11.528350  
    1075A     12.009180  1076A     12.010911  1077A     12.026527  
    1078A     12.081280  1079A     12.164972  1080A     12.478565  
    1081A     12.709131  1082A     12.885626  1083A     13.312381  
    1084A     13.534948  1085A     14.156925  1086A     14.184147  
    1087A     15.718709  1088A     15.928310  1089A     16.142034  
    1090A     16.609746  1091A     17.969774  1092A     18.986182  
    1093A     19.991243  1094A     20.285238  1095A     20.560984  
    1096A     51.469237  1097A     51.915949  1098A     53.238655  
    1099A     54.109176  1100A     57.324812  1101A     60.030832  
    1102A     61.128295  1103A     69.087561  1104A     69.504115  

    Final Occupation by Irrep:
              A 
    DOCC [    33 ]

  @DF-RHF Final Energy:  -451.66949824828555

   => Energetics <=

    Nuclear Repulsion Energy =            438.2160956957457074
    One-Electron Energy =               -1484.6800941461988259
    Two-Electron Energy =                 594.7945002021675691
    Total Energy =                       -451.6694982482855494

Computation Completed


Properties will be evaluated at   0.000000,   0.000000,   0.000000 [a0]

Properties computed using the SCF density matrix

  Nuclear Dipole Moment: [e a0]
     X:   -93.2255      Y:   368.1624      Z:   205.9325

  Electronic Dipole Moment: [e a0]
     X:    92.1646      Y:  -366.5984      Z:  -205.9353

  Dipole Moment: [e a0]
     X:    -1.0608      Y:     1.5640      Z:    -0.0028     Total:     1.8898

  Dipole Moment: [D]
     X:    -2.6964      Y:     3.9752      Z:    -0.0072     Total:     4.8034


*** tstop() called on node157.bme.utexas.edu at Mon Jan 22 15:30:39 2024
Module time:
	user time   =     874.31 seconds =      14.57 minutes
	system time =       6.29 seconds =       0.10 minutes
	total time  =        132 seconds =       2.20 minutes
Total time:
	user time   =    3015.28 seconds =      50.25 minutes
	system time =      35.36 seconds =       0.59 minutes
	total time  =        464 seconds =       7.73 minutes

*** tstart() called on node157.bme.utexas.edu
*** at Mon Jan 22 15:30:39 2024


  //>>>>>>>>>>>>>>>>>>>>>>>>>>>>>>>>>>>//
  //               DFMP2               //
  //<<<<<<<<<<<<<<<<<<<<<<<<<<<<<<<<<<<//

   => Loading Basis Set <=

    Name: (AUG-CC-PVTZ AUX)
    Role: RIFIT
    Keyword: DF_BASIS_MP2
    atoms 1, 3, 16, 18               entry N          line   206 file /opt/anaconda/envs/psi4v1.5/share/psi4/basis/aug-cc-pvtz-ri.gbs 
    atoms 2, 4-6, 11, 17, 19-21, 26  entry C          line   148 file /opt/anaconda/envs/psi4v1.5/share/psi4/basis/aug-cc-pvtz-ri.gbs 
    atoms 7, 9, 12-15, 22, 24, 27-30 entry H          line    30 file /opt/anaconda/envs/psi4v1.5/share/psi4/basis/aug-cc-pvtz-ri.gbs 
    atoms 8, 10, 23, 25              entry O          line   264 file /opt/anaconda/envs/psi4v1.5/share/psi4/basis/aug-cc-pvtz-ri.gbs 

	 --------------------------------------------------------
	                          DF-MP2                         
	      2nd-Order Density-Fitted Moller-Plesset Theory     
	              RMP2 Wavefunction,   8 Threads             
	                                                         
	        Rob Parrish, Justin Turney, Andy Simmonett,      
	           Ed Hohenstein, and C. David Sherrill          
	 --------------------------------------------------------

   => Auxiliary Basis Set <=

  Basis Set: (AUG-CC-PVTZ AUX)
    Blend: AUG-CC-PVTZ-RI
    Number of shells: 672
    Number of basis functions: 2460
    Number of Cartesian functions: 3108
    Spherical Harmonics?: true
    Max angular momentum: 4

	 --------------------------------------------------------
	                 NBF =  1104, NAUX =  2460
	 --------------------------------------------------------
	   CLASS    FOCC     OCC    AOCC    AVIR     VIR    FVIR
	   PAIRS       9      33      24    1071    1071       0
	 --------------------------------------------------------

	 Will attempt to load fitting metric from file 97.

	-----------------------------------------------------------
	 ==================> DF-MP2 Energies <==================== 
	-----------------------------------------------------------
	 Reference Energy          =    -451.6694982482855494 [Eh]
	 Singles Energy            =      -0.0000000000000000 [Eh]
	 Same-Spin Energy          =      -0.4338916449210151 [Eh]
	 Opposite-Spin Energy      =      -1.2509489534485598 [Eh]
	 Correlation Energy        =      -1.6848405983695749 [Eh]
	 Total Energy              =    -453.3543388466551392 [Eh]
	-----------------------------------------------------------
	 ================> DF-SCS-MP2 Energies <================== 
	-----------------------------------------------------------
	 SCS Same-Spin Scale       =       0.3333333333333333 [-]
	 SCS Opposite-Spin Scale   =       1.2000000000000000 [-]
	 SCS Same-Spin Energy      =      -0.1446305483070050 [Eh]
	 SCS Opposite-Spin Energy  =      -1.5011387441382718 [Eh]
	 SCS Correlation Energy    =      -1.6457692924452767 [Eh]
	 SCS Total Energy          =    -453.3152675407308152 [Eh]
	-----------------------------------------------------------


*** tstop() called on node157.bme.utexas.edu at Mon Jan 22 15:31:15 2024
Module time:
	user time   =     160.77 seconds =       2.68 minutes
	system time =       7.55 seconds =       0.13 minutes
	total time  =         36 seconds =       0.60 minutes
Total time:
	user time   =    3176.06 seconds =      52.93 minutes
	system time =      42.91 seconds =       0.72 minutes
	total time  =        500 seconds =       8.33 minutes
  Constructing Basis Sets for SAPT...

   => Loading Basis Set <=

    Name: (AUG-CC-PVTZ AUX)
    Role: RIFIT
    Keyword: DF_BASIS_SAPT
    atoms 1, 3, 16, 18               entry N          line   206 file /opt/anaconda/envs/psi4v1.5/share/psi4/basis/aug-cc-pvtz-ri.gbs 
    atoms 2, 4-6, 11, 17, 19-21, 26  entry C          line   148 file /opt/anaconda/envs/psi4v1.5/share/psi4/basis/aug-cc-pvtz-ri.gbs 
    atoms 7, 9, 12-15, 22, 24, 27-30 entry H          line    30 file /opt/anaconda/envs/psi4v1.5/share/psi4/basis/aug-cc-pvtz-ri.gbs 
    atoms 8, 10, 23, 25              entry O          line   264 file /opt/anaconda/envs/psi4v1.5/share/psi4/basis/aug-cc-pvtz-ri.gbs 


  //>>>>>>>>>>>>>>>>>>>>>>>>>>>>>>>>>>>//
  //           SAPT2+(3)DMP2           //
  //<<<<<<<<<<<<<<<<<<<<<<<<<<<<<<<<<<<//


*** tstart() called on node157.bme.utexas.edu
*** at Mon Jan 22 15:31:15 2024

      SAPT2+(3)  
    Ed Hohenstein
     6 June 2009

      Orbital Information
  --------------------------
    NSO        =      1104
    NMO        =      1104
    NRI        =      2460
    NOCC A     =        33
    NOCC B     =        33
    FOCC A     =         9
    FOCC B     =         9
    NVIR A     =      1071
    NVIR B     =      1071

    Estimated memory usage: 52552.8 MB

    Natural Orbital Cutoff:   1.000E-06
    Disp(T3) Truncation:            Yes
    CCD (vv|vv) Truncation:         Yes
    MBPT T2 Truncation:             Yes

    Monomer A: 605 virtual orbitals dropped
    Monomer B: 605 virtual orbitals dropped

    Elst10,r            =     0.002547514352 [Eh]
    Exch10 (S^2)        =     0.000042137347 [Eh]
    Exch10              =     0.000042138077 [Eh]
    Ind20,r (A<-B)      =    -0.000044834371 [Eh]
    Ind20,r (B<-A)      =    -0.000041980466 [Eh]
    Ind20,r             =    -0.000086814836 [Eh]
    Exch-Ind20,r (A<-B) =     0.000003772038 [Eh]
    Exch-Ind20,r (B<-A) =     0.000003896202 [Eh]
    Exch-Ind20,r        =     0.000007668240 [Eh]
    Disp20              =    -0.001038830532 [Eh]
    Disp20 (NO)         =    -0.001009358670 [Eh]
    Exch-Disp20         =     0.000007635463 [Eh]
    Elst12,r            =    -0.000628857599 [Eh]
    Exch11              =    -0.000002986411 [Eh]
    Exch12              =     0.000019948238 [Eh]
    Ind22               =     0.000002696438 [Eh]
    Disp21              =     0.000209177890 [Eh]
    Disp22 (SDQ)        =    -0.000022609950 [Eh]

    (i =   1 of  24)       2563 seconds
    (i =   2 of  24)       5124 seconds
    (i =   3 of  24)       7686 seconds
    (i =   4 of  24)      10242 seconds
    (i =   5 of  24)      12786 seconds
    (i =   6 of  24)      15326 seconds
    (i =   7 of  24)      17896 seconds
    (i =   8 of  24)      20480 seconds
    (i =   9 of  24)      22964 seconds
    (i =  10 of  24)      25406 seconds
    (i =  11 of  24)      27925 seconds
    (i =  12 of  24)      30547 seconds
    (i =  13 of  24)      33329 seconds
    (i =  14 of  24)      36039 seconds
    (i =  15 of  24)      38680 seconds
    (i =  16 of  24)      40839 seconds
    (i =  17 of  24)      42813 seconds
    (i =  18 of  24)      44808 seconds
    (i =  19 of  24)      46798 seconds
    (i =  20 of  24)      48897 seconds
    (i =  21 of  24)      51018 seconds
    (i =  22 of  24)      53433 seconds
    (i =  23 of  24)      56150 seconds
    (i =  24 of  24)      58685 seconds

    Disp220 (T)         =    -0.000131890642 [Eh]

    (i =   1 of  24)       2686 seconds
    (i =   2 of  24)       5477 seconds
    (i =   3 of  24)       8288 seconds
    (i =   4 of  24)      11143 seconds
    (i =   5 of  24)      13963 seconds
    (i =   6 of  24)      16780 seconds
    (i =   7 of  24)      19590 seconds
    (i =   8 of  24)      22392 seconds
    (i =   9 of  24)      25202 seconds
    (i =  10 of  24)      28015 seconds
    (i =  11 of  24)      30832 seconds
    (i =  12 of  24)      33649 seconds
    (i =  13 of  24)      36504 seconds
    (i =  14 of  24)      39321 seconds
    (i =  15 of  24)      42142 seconds
    (i =  16 of  24)      44949 seconds
    (i =  17 of  24)      47783 seconds
    (i =  18 of  24)      50704 seconds
    (i =  19 of  24)      53488 seconds
    (i =  20 of  24)      56261 seconds
    (i =  21 of  24)      59047 seconds
    (i =  22 of  24)      61397 seconds
    (i =  23 of  24)      63703 seconds
    (i =  24 of  24)      66011 seconds

    Disp202 (T)         =    -0.000132090575 [Eh]

    Disp22 (T)          =    -0.000263981218 [Eh]

    Est. Disp220 (T)    =    -0.000135741665 [Eh]
    Est. Disp202 (T)    =    -0.000135947435 [Eh]

    Est. Disp22 (T)     =    -0.000271689100 [Eh]
    Elst13,r            =     0.000229375050 [Eh]
    Disp30              =     0.000003985019 [Eh]

    SAPT Results 
  --------------------------------------------------------------------------------------------------------
    Electrostatics                  2.14803180 [mEh]       1.34791031 [kcal/mol]       5.63965672 [kJ/mol]
      Elst10,r                      2.54751435 [mEh]       1.59858939 [kcal/mol]       6.68849801 [kJ/mol]
      Elst12,r                     -0.62885760 [mEh]      -0.39461410 [kcal/mol]      -1.65106540 [kJ/mol]
      Elst13,r                      0.22937505 [mEh]       0.14393502 [kcal/mol]       0.60222411 [kJ/mol]

    Exchange                        0.05909990 [mEh]       0.03708575 [kcal/mol]       0.15516678 [kJ/mol]
      Exch10                        0.04213808 [mEh]       0.02644204 [kcal/mol]       0.11063351 [kJ/mol]
      Exch10(S^2)                   0.04213735 [mEh]       0.02644158 [kcal/mol]       0.11063159 [kJ/mol]
      Exch11(S^2)                  -0.00298641 [mEh]      -0.00187400 [kcal/mol]      -0.00784082 [kJ/mol]
      Exch12(S^2)                   0.01994824 [mEh]       0.01251771 [kcal/mol]       0.05237409 [kJ/mol]

    Induction                      -0.06888978 [mEh]      -0.04322899 [kcal/mol]      -0.18087010 [kJ/mol]
      Ind20,r                      -0.08681484 [mEh]      -0.05447713 [kcal/mol]      -0.22793232 [kJ/mol]
      Ind22                         0.00269644 [mEh]       0.00169204 [kcal/mol]       0.00707950 [kJ/mol]
      Exch-Ind20,r                  0.00766824 [mEh]       0.00481189 [kcal/mol]       0.02013296 [kJ/mol]
      Exch-Ind22                   -0.00023817 [mEh]      -0.00014946 [kcal/mol]      -0.00062532 [kJ/mol]
      delta HF,r (2)                0.00077930 [mEh]       0.00048902 [kcal/mol]       0.00204606 [kJ/mol]
      delta MP2,r (2)               0.00701924 [mEh]       0.00440464 [kcal/mol]       0.01842902 [kJ/mol]

    Dispersion                     -1.11233121 [mEh]      -0.69799837 [kcal/mol]      -2.92042519 [kJ/mol]
      Disp20                       -1.03883053 [mEh]      -0.65187600 [kcal/mol]      -2.72744919 [kJ/mol]
      Disp30                        0.00398502 [mEh]       0.00250064 [kcal/mol]       0.01046267 [kJ/mol]
      Disp21                        0.20917789 [mEh]       0.13126111 [kcal/mol]       0.54919648 [kJ/mol]
      Disp22 (SDQ)                 -0.02260995 [mEh]      -0.01418796 [kcal/mol]      -0.05936242 [kJ/mol]
      Disp22 (T)                   -0.26398122 [mEh]      -0.16565072 [kcal/mol]      -0.69308259 [kJ/mol]
      Est. Disp22 (T)              -0.27168910 [mEh]      -0.17048748 [kcal/mol]      -0.71331963 [kJ/mol]
      Exch-Disp20                   0.00763546 [mEh]       0.00479133 [kcal/mol]       0.02004691 [kJ/mol]

  Total HF                          2.51128514 [mEh]       1.57585521 [kcal/mol]       6.59337822 [kJ/mol]
  Total SAPT0                       1.48009007 [mEh]       0.92877054 [kcal/mol]       3.88597594 [kJ/mol]
  Total SAPT2                       0.87065256 [mEh]       0.54634273 [kcal/mol]       2.28589798 [kJ/mol]
  Total SAPT2+                      0.78553140 [mEh]       0.49292840 [kcal/mol]       2.06241241 [kJ/mol]
  Total SAPT2+(3)                   1.01889147 [mEh]       0.63936405 [kcal/mol]       2.67509919 [kJ/mol]
  Total SAPT2+dMP2                  0.79255064 [mEh]       0.49733304 [kcal/mol]       2.08084143 [kJ/mol]
  Total SAPT2+(3)dMP2               1.02591071 [mEh]       0.64376869 [kcal/mol]       2.69352821 [kJ/mol]

  Special recipe for scaled SAPT0 (see Manual):
    Electrostatics sSAPT0           2.54751435 [mEh]       1.59858939 [kcal/mol]       6.68849801 [kJ/mol]
    Exchange sSAPT0                 0.04213808 [mEh]       0.02644204 [kcal/mol]       0.11063351 [kJ/mol]
    Induction sSAPT0               -0.07836689 [mEh]      -0.04917597 [kcal/mol]      -0.20575225 [kJ/mol]
    Dispersion sSAPT0              -1.03119467 [mEh]      -0.64708443 [kcal/mol]      -2.70740124 [kJ/mol]
  Total sSAPT0                      1.48009086 [mEh]       0.92877104 [kcal/mol]       3.88597803 [kJ/mol]
  --------------------------------------------------------------------------------------------------------

*** tstop() called on node157.bme.utexas.edu at Wed Jan 24 08:16:22 2024
Module time:
	user time   =  777269.65 seconds =   12954.49 minutes
	system time =    3135.02 seconds =      52.25 minutes
	total time  =     146707 seconds =    2445.12 minutes
Total time:
	user time   =  780446.54 seconds =   13007.44 minutes
	system time =    3177.93 seconds =      52.97 minutes
	total time  =     147207 seconds =    2453.45 minutes

    Psi4 stopped on: Wednesday, 24 January 2024 08:16AM
    Psi4 wall time for execution: 1 day, 16:53:27.89

*** Psi4 exiting successfully. Buy a developer a beer!
