
    -----------------------------------------------------------------------
          Psi4: An Open-Source Ab Initio Electronic Structure Package
                               Psi4 1.5 release

                         Git: Rev {HEAD} e9f4d6d 


    D. G. A. Smith, L. A. Burns, A. C. Simmonett, R. M. Parrish,
    M. C. Schieber, R. Galvelis, P. Kraus, H. Kruse, R. Di Remigio,
    A. Alenaizan, A. M. James, S. Lehtola, J. P. Misiewicz, M. Scheurer,
    R. A. Shaw, J. B. Schriber, Y. Xie, Z. L. Glick, D. A. Sirianni,
    J. S. O'Brien, J. M. Waldrop, A. Kumar, E. G. Hohenstein,
    B. P. Pritchard, B. R. Brooks, H. F. Schaefer III, A. Yu. Sokolov,
    K. Patkowski, A. E. DePrince III, U. Bozkaya, R. A. King,
    F. A. Evangelista, J. M. Turney, T. D. Crawford, C. D. Sherrill,
    J. Chem. Phys. 152(18) 184108 (2020). https://doi.org/10.1063/5.0006002

                            Additional Code Authors
    E. T. Seidl, C. L. Janssen, E. F. Valeev, M. L. Leininger,
    J. F. Gonthier, R. M. Richard, H. R. McAlexander, M. Saitow, X. Wang,
    P. Verma, M. H. Lechner, and A. Jiang

             Previous Authors, Complete List of Code Contributors,
                       and Citations for Specific Modules
    https://github.com/psi4/psi4/blob/master/codemeta.json
    https://github.com/psi4/psi4/graphs/contributors
    http://psicode.org/psi4manual/master/introduction.html#citing-psifour

    -----------------------------------------------------------------------


    Psi4 started on: Monday, 22 January 2024 03:28PM

    Process ID: 1257307
    Host:       node156.bme.utexas.edu
    PSIDATADIR: /opt/anaconda/envs/psi4v1.5/share/psi4
    Memory:     500.0 MiB
    Threads:    8
    
  ==> Input File <==

--------------------------------------------------------------------------
memory 80GB

molecule {
0 1
N -0.892798 -0.641213 0.000177
C -2.178983 -1.129399 0.000138
N -2.468274 -2.425461 7.7e-05
C -1.363696 -3.200471 5.8e-05
C -0.014974 -2.816806 9.2e-05
C 0.279491 -1.416691 0.000154
N 0.8152 -3.928228 5.6e-05
C -0.0 -4.951862 0.0
N -1.336777 -4.573395 0.0
H -0.745051 0.38547 0.000222
N -3.173589 -0.213779 0.000162
H -2.999709 0.796316 0.000206
H -4.117404 -0.565463 0.000136
O 1.38905 -0.85623 0.000185
H 0.294954 -5.996323 -3.7e-05
H -2.147795 -5.175782 -3.4e-05
--
0 1
N 1.337211 -2.272343 3.325316
C 0.24861 -1.404426 3.311024
N 0.600283 -0.071213 3.328215
C 1.888413 0.446137 3.357186
C 2.979558 -0.531039 3.370649
C 2.647021 -1.84537 3.354014
H 1.109482 -3.256724 3.313441
O -0.907218 -1.805805 3.285552
H -0.204719 0.613829 3.317993
O 2.072698 1.669468 3.370302
C 4.394223 -0.030567 3.401465
H 5.104062 -0.868952 3.415506
H 4.600744 0.600344 2.52408
H 4.562652 0.598128 4.28844
H 3.397881 -2.63433 3.362554
 units angstrom
 no_reorient
 symmetry c1}
set  {scf_type DF
 basis aug-cc-pvtz
 freeze_core True
 guess SAD}
energy('sapt2+(3)dmp2')
--------------------------------------------------------------------------

  Memory set to  74.506 GiB by Python driver.

Scratch directory: /tmp/
   => Loading Basis Set <=

    Name: AUG-CC-PVTZ
    Role: ORBITAL
    Keyword: BASIS
    atoms 1, 3, 7, 9, 11, 17, 19          entry N          line   285 file /opt/anaconda/envs/psi4v1.5/share/psi4/basis/aug-cc-pvtz.gbs 
    atoms 2, 4-6, 8, 18, 20-22, 27        entry C          line   239 file /opt/anaconda/envs/psi4v1.5/share/psi4/basis/aug-cc-pvtz.gbs 
    atoms 10, 12-13, 15-16, 23, 25, 28-31 entry H          line    40 file /opt/anaconda/envs/psi4v1.5/share/psi4/basis/aug-cc-pvtz.gbs 
    atoms 14, 24, 26                      entry O          line   331 file /opt/anaconda/envs/psi4v1.5/share/psi4/basis/aug-cc-pvtz.gbs 

   => Loading Basis Set <=

    Name: AUG-CC-PVTZ
    Role: ORBITAL
    Keyword: BASIS
    atoms 1, 3, 7, 9, 11, 17, 19          entry N          line   285 file /opt/anaconda/envs/psi4v1.5/share/psi4/basis/aug-cc-pvtz.gbs 
    atoms 2, 4-6, 8, 18, 20-22, 27        entry C          line   239 file /opt/anaconda/envs/psi4v1.5/share/psi4/basis/aug-cc-pvtz.gbs 
    atoms 10, 12-13, 15-16, 23, 25, 28-31 entry H          line    40 file /opt/anaconda/envs/psi4v1.5/share/psi4/basis/aug-cc-pvtz.gbs 
    atoms 14, 24, 26                      entry O          line   331 file /opt/anaconda/envs/psi4v1.5/share/psi4/basis/aug-cc-pvtz.gbs 


  //>>>>>>>>>>>>>>>>>>>>>>>>>>>>>>>>>>>//
  //              Dimer HF             //
  //<<<<<<<<<<<<<<<<<<<<<<<<<<<<<<<<<<<//


*** tstart() called on node156.bme.utexas.edu
*** at Mon Jan 22 15:28:00 2024

   => Loading Basis Set <=

    Name: AUG-CC-PVTZ
    Role: ORBITAL
    Keyword: BASIS
    atoms 1, 3, 7, 9, 11, 17, 19          entry N          line   285 file /opt/anaconda/envs/psi4v1.5/share/psi4/basis/aug-cc-pvtz.gbs 
    atoms 2, 4-6, 8, 18, 20-22, 27        entry C          line   239 file /opt/anaconda/envs/psi4v1.5/share/psi4/basis/aug-cc-pvtz.gbs 
    atoms 10, 12-13, 15-16, 23, 25, 28-31 entry H          line    40 file /opt/anaconda/envs/psi4v1.5/share/psi4/basis/aug-cc-pvtz.gbs 
    atoms 14, 24, 26                      entry O          line   331 file /opt/anaconda/envs/psi4v1.5/share/psi4/basis/aug-cc-pvtz.gbs 


         ---------------------------------------------------------
                                   SCF
               by Justin Turney, Rob Parrish, Andy Simmonett
                          and Daniel G. A. Smith
                              RHF Reference
                        8 Threads,  76293 MiB Core
         ---------------------------------------------------------

  ==> Geometry <==

    Molecular point group: c1
    Full point group: C1

    Geometry (in Angstrom), charge = 0, multiplicity = 1:

       Center              X                  Y                   Z               Mass       
    ------------   -----------------  -----------------  -----------------  -----------------
         N           -1.198333993751     0.917361406117    -1.521183658710    14.003074004430
         C           -2.484518993751     0.429175406117    -1.521222658710    12.000000000000
         N           -2.773809993751    -0.866886593883    -1.521283658710    14.003074004430
         C           -1.669231993751    -1.641896593883    -1.521302658710    12.000000000000
         C           -0.320509993751    -1.258231593883    -1.521268658710    12.000000000000
         C           -0.026044993751     0.141883406117    -1.521206658710    12.000000000000
         N            0.509664006249    -2.369653593883    -1.521304658710    14.003074004430
         C           -0.305535993751    -3.393287593883    -1.521360658710    12.000000000000
         N           -1.642312993751    -3.014820593883    -1.521360658710    14.003074004430
         H           -1.050586993751     1.944044406117    -1.521138658710     1.007825032230
         N           -3.479124993751     1.344795406117    -1.521198658710    14.003074004430
         H           -3.305244993751     2.354890406117    -1.521154658710     1.007825032230
         H           -4.422939993751     0.993111406117    -1.521224658710     1.007825032230
         O            1.083514006249     0.702344406117    -1.521175658710    15.994914619570
         H           -0.010581993751    -4.437748593883    -1.521397658710     1.007825032230
         H           -2.453330993751    -3.617207593883    -1.521394658710     1.007825032230
         N            1.031675006249    -0.713768593883     1.803955341290    14.003074004430
         C           -0.056925993751     0.154148406117     1.789663341290    12.000000000000
         N            0.294747006249     1.487361406117     1.806854341290    14.003074004430
         C            1.582877006249     2.004711406117     1.835825341290    12.000000000000
         C            2.674022006249     1.027535406117     1.849288341290    12.000000000000
         C            2.341485006249    -0.286795593883     1.832653341290    12.000000000000
         H            0.803946006249    -1.698149593883     1.792080341290     1.007825032230
         O           -1.212753993751    -0.247230593883     1.764191341290    15.994914619570
         H           -0.510254993751     2.172403406117     1.796632341290     1.007825032230
         O            1.767162006249     3.228042406117     1.848941341290    15.994914619570
         C            4.088687006249     1.528007406117     1.880104341290    12.000000000000
         H            4.798526006249     0.689622406117     1.894145341290     1.007825032230
         H            4.295208006249     2.158918406117     1.002719341290     1.007825032230
         H            4.257116006249     2.156702406117     2.767079341290     1.007825032230
         H            3.092345006249    -1.075755593883     1.841193341290     1.007825032230

  Running in c1 symmetry.

  Rotational constants: A =      0.01915  B =      0.00835  C =      0.00714 [cm^-1]
  Rotational constants: A =    574.19762  B =    250.46310  C =    214.04764 [MHz]
  Nuclear repulsion = 1580.485365927328075

  Charge       = 0
  Multiplicity = 1
  Electrons    = 144
  Nalpha       = 72
  Nbeta        = 72

  ==> Algorithm <==

  SCF Algorithm Type is DF.
  DIIS enabled.
  MOM disabled.
  Fractional occupation disabled.
  Guess Type is SAD.
  Energy threshold   = 1.00e-08
  Density threshold  = 1.00e-08
  Integral threshold = 1.00e-12

  ==> Primary Basis <==

  Basis Set: AUG-CC-PVTZ
    Blend: AUG-CC-PVTZ
    Number of shells: 379
    Number of basis functions: 1173
    Number of Cartesian functions: 1375
    Spherical Harmonics?: true
    Max angular momentum: 3

   => Loading Basis Set <=

    Name: (AUG-CC-PVTZ AUX)
    Role: JKFIT
    Keyword: DF_BASIS_SCF
    atoms 1, 3, 7, 9, 11, 17, 19          entry N          line   224 file /opt/anaconda/envs/psi4v1.5/share/psi4/basis/aug-cc-pvtz-jkfit.gbs 
    atoms 2, 4-6, 8, 18, 20-22, 27        entry C          line   162 file /opt/anaconda/envs/psi4v1.5/share/psi4/basis/aug-cc-pvtz-jkfit.gbs 
    atoms 10, 12-13, 15-16, 23, 25, 28-31 entry H          line    70 file /opt/anaconda/envs/psi4v1.5/share/psi4/basis/aug-cc-pvtz-jkfit.gbs 
    atoms 14, 24, 26                      entry O          line   286 file /opt/anaconda/envs/psi4v1.5/share/psi4/basis/aug-cc-pvtz-jkfit.gbs 

  ==> Integral Setup <==

  ==> DiskDFJK: Density-Fitted J/K Matrices <==

    J tasked:                  Yes
    K tasked:                  Yes
    wK tasked:                  No
    OpenMP threads:              8
    Integrals threads:           8
    Memory [MiB]:            57220
    Algorithm:                Core
    Integral Cache:           SAVE
    Schwarz Cutoff:          1E-12
    Fitting Condition:       1E-10

   => Auxiliary Basis Set <=

  Basis Set: (AUG-CC-PVTZ AUX)
    Blend: AUG-CC-PVTZ-JKFIT
    Number of shells: 754
    Number of basis functions: 2586
    Number of Cartesian functions: 3225
    Spherical Harmonics?: true
    Max angular momentum: 4

  Minimum eigenvalue in the overlap matrix is 9.0207911116E-07.
  Reciprocal condition number of the overlap matrix is 4.3284854548E-08.
    Using symmetric orthogonalization.

  ==> Pre-Iterations <==

  SCF Guess: Superposition of Atomic Densities via on-the-fly atomic UHF (no occupation information).

   -------------------------
    Irrep   Nso     Nmo    
   -------------------------
     A       1173    1173 
   -------------------------
    Total    1173    1173
   -------------------------

  ==> Iterations <==

                           Total Energy        Delta E     RMS |[F,P]|

   @DF-RHF iter SAD:  -990.32617682948785   -9.90326e+02   0.00000e+00 
   @DF-RHF iter   1:  -990.65458207715665   -3.28405e-01   9.53789e-04 DIIS
   @DF-RHF iter   2:  -991.07981266786135   -4.25231e-01   5.87351e-04 DIIS
   @DF-RHF iter   3:  -991.24458027604919   -1.64768e-01   1.17697e-04 DIIS
   @DF-RHF iter   4:  -991.25468301480964   -1.01027e-02   4.82015e-05 DIIS
   @DF-RHF iter   5:  -991.25666130955744   -1.97829e-03   1.03886e-05 DIIS
   @DF-RHF iter   6:  -991.25686976803240   -2.08458e-04   5.62654e-06 DIIS
   @DF-RHF iter   7:  -991.25692505014422   -5.52821e-05   2.39946e-06 DIIS
   @DF-RHF iter   8:  -991.25693580152688   -1.07514e-05   8.76163e-07 DIIS
   @DF-RHF iter   9:  -991.25693709652865   -1.29500e-06   3.37183e-07 DIIS
   @DF-RHF iter  10:  -991.25693731751949   -2.20991e-07   1.42260e-07 DIIS
   @DF-RHF iter  11:  -991.25693735601442   -3.84949e-08   5.91478e-08 DIIS
   @DF-RHF iter  12:  -991.25693736234530   -6.33088e-09   1.81409e-08 DIIS
   @DF-RHF iter  13:  -991.25693736302526   -6.79961e-10   7.91544e-09 DIIS
  Energy and wave function converged.


  ==> Post-Iterations <==

    Orbital Energies [Eh]
    ---------------------

    Doubly Occupied:                                                      

       1A    -20.533479     2A    -20.523729     3A    -20.514807  
       4A    -15.635012     5A    -15.630268     6A    -15.623268  
       7A    -15.622640     8A    -15.618234     9A    -15.566594  
      10A    -15.563735    11A    -11.406126    12A    -11.402968  
      13A    -11.364155    14A    -11.363061    15A    -11.327103  
      16A    -11.314179    17A    -11.311078    18A    -11.244638  
      19A    -11.242628    20A    -11.223734    21A     -1.417213  
      22A     -1.387644    23A     -1.373175    24A     -1.351616  
      25A     -1.332256    26A     -1.287996    27A     -1.228132  
      28A     -1.224276    29A     -1.216112    30A     -1.174759  
      31A     -1.085513    32A     -1.028718    33A     -0.948532  
      34A     -0.904837    35A     -0.896646    36A     -0.892138  
      37A     -0.878817    38A     -0.838626    39A     -0.802985  
      40A     -0.753672    41A     -0.749360    42A     -0.742923  
      43A     -0.740495    44A     -0.708247    45A     -0.690749  
      46A     -0.670944    47A     -0.664423    48A     -0.659349  
      49A     -0.645804    50A     -0.635099    51A     -0.625495  
      52A     -0.607765    53A     -0.599446    54A     -0.598794  
      55A     -0.595747    56A     -0.571228    57A     -0.549419  
      58A     -0.544706    59A     -0.540617    60A     -0.532439  
      61A     -0.496884    62A     -0.494008    63A     -0.467695  
      64A     -0.453209    65A     -0.438189    66A     -0.432662  
      67A     -0.430158    68A     -0.427423    69A     -0.423192  
      70A     -0.408375    71A     -0.333363    72A     -0.296022  

    Virtual:                                                              

      73A      0.016038    74A      0.020576    75A      0.030927  
      76A      0.036830    77A      0.041048    78A      0.043207  
      79A      0.047298    80A      0.055466    81A      0.057718  
      82A      0.060593    83A      0.070514    84A      0.074448  
      85A      0.079131    86A      0.085732    87A      0.087047  
      88A      0.091638    89A      0.094315    90A      0.096174  
      91A      0.102078    92A      0.104479    93A      0.107131  
      94A      0.107856    95A      0.116323    96A      0.119554  
      97A      0.122286    98A      0.123381    99A      0.124294  
     100A      0.124714   101A      0.127488   102A      0.131208  
     103A      0.132343   104A      0.136033   105A      0.141497  
     106A      0.143396   107A      0.143734   108A      0.146070  
     109A      0.151877   110A      0.152835   111A      0.155633  
     112A      0.161232   113A      0.162664   114A      0.166964  
     115A      0.168403   116A      0.171156   117A      0.177642  
     118A      0.179475   119A      0.182875   120A      0.186538  
     121A      0.190145   122A      0.191658   123A      0.191998  
     124A      0.196319   125A      0.201892   126A      0.203909  
     127A      0.210856   128A      0.212138   129A      0.215654  
     130A      0.218994   131A      0.222453   132A      0.225805  
     133A      0.230175   134A      0.233051   135A      0.237631  
     136A      0.239620   137A      0.243571   138A      0.245553  
     139A      0.249391   140A      0.255913   141A      0.256999  
     142A      0.259399   143A      0.262393   144A      0.266213  
     145A      0.268371   146A      0.272378   147A      0.277231  
     148A      0.277681   149A      0.285476   150A      0.285695  
     151A      0.290004   152A      0.291865   153A      0.293701  
     154A      0.297211   155A      0.302793   156A      0.304096  
     157A      0.309694   158A      0.310722   159A      0.316663  
     160A      0.319670   161A      0.324278   162A      0.326371  
     163A      0.329227   164A      0.331277   165A      0.336353  
     166A      0.338273   167A      0.340432   168A      0.345730  
     169A      0.347329   170A      0.352585   171A      0.353311  
     172A      0.355493   173A      0.356391   174A      0.362193  
     175A      0.365567   176A      0.367512   177A      0.371367  
     178A      0.372814   179A      0.374160   180A      0.378356  
     181A      0.382199   182A      0.385683   183A      0.387658  
     184A      0.389872   185A      0.391165   186A      0.393476  
     187A      0.398821   188A      0.401417   189A      0.402579  
     190A      0.409048   191A      0.412066   192A      0.413244  
     193A      0.414380   194A      0.417796   195A      0.419435  
     196A      0.427394   197A      0.429751   198A      0.434652  
     199A      0.438157   200A      0.441340   201A      0.444018  
     202A      0.446531   203A      0.449762   204A      0.452479  
     205A      0.455537   206A      0.459431   207A      0.461584  
     208A      0.463580   209A      0.469009   210A      0.469822  
     211A      0.474862   212A      0.477748   213A      0.479423  
     214A      0.481030   215A      0.483862   216A      0.485725  
     217A      0.486069   218A      0.491501   219A      0.495387  
     220A      0.498504   221A      0.501760   222A      0.502867  
     223A      0.505402   224A      0.506683   225A      0.513685  
     226A      0.515145   227A      0.518479   228A      0.522170  
     229A      0.523789   230A      0.528673   231A      0.533104  
     232A      0.535382   233A      0.540932   234A      0.547955  
     235A      0.551006   236A      0.552415   237A      0.554275  
     238A      0.557713   239A      0.558697   240A      0.561845  
     241A      0.563945   242A      0.568952   243A      0.573710  
     244A      0.576694   245A      0.579862   246A      0.586307  
     247A      0.588790   248A      0.591060   249A      0.591853  
     250A      0.594746   251A      0.599832   252A      0.604301  
     253A      0.612003   254A      0.614334   255A      0.616902  
     256A      0.619411   257A      0.623025   258A      0.626244  
     259A      0.627468   260A      0.630247   261A      0.639288  
     262A      0.644557   263A      0.647922   264A      0.650135  
     265A      0.655899   266A      0.662041   267A      0.664876  
     268A      0.667674   269A      0.669265   270A      0.675423  
     271A      0.678268   272A      0.682388   273A      0.687414  
     274A      0.689021   275A      0.697052   276A      0.701877  
     277A      0.704941   278A      0.713195   279A      0.713829  
     280A      0.718309   281A      0.721879   282A      0.725825  
     283A      0.736235   284A      0.737218   285A      0.738683  
     286A      0.744764   287A      0.749850   288A      0.752385  
     289A      0.755433   290A      0.757437   291A      0.761594  
     292A      0.766133   293A      0.769277   294A      0.775748  
     295A      0.778848   296A      0.783143   297A      0.786296  
     298A      0.795396   299A      0.796649   300A      0.798914  
     301A      0.808302   302A      0.809170   303A      0.811157  
     304A      0.815910   305A      0.818529   306A      0.825599  
     307A      0.832035   308A      0.832527   309A      0.837176  
     310A      0.844387   311A      0.846880   312A      0.853414  
     313A      0.854547   314A      0.862454   315A      0.863116  
     316A      0.867437   317A      0.869556   318A      0.877676  
     319A      0.882620   320A      0.885165   321A      0.885967  
     322A      0.891262   323A      0.892604   324A      0.902798  
     325A      0.903681   326A      0.907629   327A      0.911829  
     328A      0.916837   329A      0.917337   330A      0.921555  
     331A      0.925746   332A      0.930235   333A      0.933178  
     334A      0.936130   335A      0.942367   336A      0.944297  
     337A      0.947345   338A      0.949123   339A      0.955804  
     340A      0.956039   341A      0.957242   342A      0.961749  
     343A      0.964631   344A      0.969555   345A      0.971477  
     346A      0.977061   347A      0.977521   348A      0.986944  
     349A      0.988468   350A      0.995658   351A      0.998458  
     352A      1.001093   353A      1.007613   354A      1.012204  
     355A      1.014000   356A      1.016575   357A      1.021941  
     358A      1.022826   359A      1.028810   360A      1.030731  
     361A      1.034192   362A      1.035957   363A      1.038895  
     364A      1.044672   365A      1.047299   366A      1.050378  
     367A      1.054309   368A      1.056771   369A      1.065948  
     370A      1.067312   371A      1.069168   372A      1.070314  
     373A      1.079559   374A      1.084269   375A      1.086715  
     376A      1.090862   377A      1.098061   378A      1.100516  
     379A      1.102087   380A      1.106504   381A      1.109907  
     382A      1.113025   383A      1.116252   384A      1.119263  
     385A      1.121593   386A      1.126159   387A      1.130017  
     388A      1.131995   389A      1.136163   390A      1.139651  
     391A      1.147487   392A      1.151090   393A      1.154605  
     394A      1.158564   395A      1.160582   396A      1.164638  
     397A      1.165403   398A      1.174132   399A      1.178261  
     400A      1.180577   401A      1.184220   402A      1.187686  
     403A      1.190184   404A      1.196284   405A      1.197531  
     406A      1.204693   407A      1.205834   408A      1.212237  
     409A      1.214219   410A      1.218169   411A      1.223802  
     412A      1.229448   413A      1.237738   414A      1.239233  
     415A      1.243245   416A      1.249340   417A      1.254574  
     418A      1.260059   419A      1.267337   420A      1.267504  
     421A      1.270601   422A      1.274201   423A      1.277416  
     424A      1.283875   425A      1.284827   426A      1.290419  
     427A      1.295866   428A      1.299612   429A      1.301607  
     430A      1.305525   431A      1.311528   432A      1.316650  
     433A      1.323642   434A      1.326982   435A      1.331090  
     436A      1.331905   437A      1.337468   438A      1.342033  
     439A      1.343918   440A      1.351340   441A      1.358094  
     442A      1.363806   443A      1.369781   444A      1.371086  
     445A      1.379627   446A      1.380988   447A      1.385779  
     448A      1.391154   449A      1.392954   450A      1.399039  
     451A      1.403405   452A      1.405454   453A      1.406369  
     454A      1.412702   455A      1.417300   456A      1.420780  
     457A      1.428067   458A      1.434640   459A      1.436870  
     460A      1.439343   461A      1.440772   462A      1.445538  
     463A      1.449204   464A      1.455852   465A      1.461232  
     466A      1.464044   467A      1.467262   468A      1.474249  
     469A      1.478157   470A      1.482563   471A      1.486598  
     472A      1.492914   473A      1.500360   474A      1.501582  
     475A      1.507672   476A      1.510850   477A      1.514316  
     478A      1.516070   479A      1.522635   480A      1.530370  
     481A      1.537636   482A      1.541484   483A      1.547484  
     484A      1.552420   485A      1.555943   486A      1.561940  
     487A      1.564718   488A      1.568136   489A      1.570499  
     490A      1.577767   491A      1.583016   492A      1.589539  
     493A      1.590035   494A      1.597136   495A      1.601050  
     496A      1.606770   497A      1.613633   498A      1.621853  
     499A      1.625139   500A      1.629261   501A      1.633611  
     502A      1.640284   503A      1.648599   504A      1.653002  
     505A      1.655292   506A      1.659521   507A      1.663618  
     508A      1.669334   509A      1.671865   510A      1.678762  
     511A      1.680969   512A      1.683962   513A      1.694907  
     514A      1.698637   515A      1.703250   516A      1.709834  
     517A      1.711676   518A      1.720879   519A      1.727605  
     520A      1.731080   521A      1.736157   522A      1.738964  
     523A      1.745957   524A      1.748152   525A      1.754176  
     526A      1.757993   527A      1.760827   528A      1.767751  
     529A      1.769474   530A      1.771585   531A      1.778842  
     532A      1.785246   533A      1.788968   534A      1.798425  
     535A      1.801965   536A      1.803912   537A      1.809888  
     538A      1.814140   539A      1.820790   540A      1.824692  
     541A      1.832549   542A      1.834152   543A      1.839003  
     544A      1.852337   545A      1.855455   546A      1.858196  
     547A      1.869669   548A      1.872868   549A      1.880658  
     550A      1.882845   551A      1.886334   552A      1.901128  
     553A      1.906498   554A      1.909143   555A      1.923770  
     556A      1.928588   557A      1.936403   558A      1.941338  
     559A      1.944882   560A      1.948481   561A      1.953678  
     562A      1.962420   563A      1.970433   564A      1.980310  
     565A      1.984402   566A      1.995043   567A      2.000869  
     568A      2.006398   569A      2.009619   570A      2.015492  
     571A      2.020004   572A      2.032076   573A      2.039078  
     574A      2.047201   575A      2.051391   576A      2.058378  
     577A      2.069834   578A      2.076067   579A      2.083120  
     580A      2.086992   581A      2.092228   582A      2.097767  
     583A      2.102622   584A      2.108072   585A      2.114636  
     586A      2.120574   587A      2.126305   588A      2.129788  
     589A      2.137152   590A      2.151108   591A      2.158450  
     592A      2.159152   593A      2.163325   594A      2.167250  
     595A      2.169726   596A      2.183126   597A      2.191977  
     598A      2.195004   599A      2.200275   600A      2.205501  
     601A      2.212663   602A      2.215576   603A      2.222981  
     604A      2.228916   605A      2.238882   606A      2.246405  
     607A      2.248414   608A      2.252328   609A      2.261290  
     610A      2.263467   611A      2.275167   612A      2.281699  
     613A      2.286297   614A      2.290650   615A      2.293057  
     616A      2.300287   617A      2.307095   618A      2.314067  
     619A      2.317103   620A      2.319170   621A      2.334733  
     622A      2.337215   623A      2.341454   624A      2.345142  
     625A      2.348157   626A      2.357669   627A      2.360607  
     628A      2.366937   629A      2.370065   630A      2.372588  
     631A      2.377243   632A      2.388777   633A      2.394279  
     634A      2.399425   635A      2.415854   636A      2.417606  
     637A      2.425074   638A      2.437637   639A      2.441292  
     640A      2.446665   641A      2.447752   642A      2.459736  
     643A      2.463297   644A      2.467047   645A      2.480503  
     646A      2.486770   647A      2.489427   648A      2.501090  
     649A      2.506143   650A      2.520436   651A      2.521454  
     652A      2.529301   653A      2.538971   654A      2.544988  
     655A      2.549921   656A      2.556818   657A      2.565994  
     658A      2.572175   659A      2.577426   660A      2.582963  
     661A      2.591124   662A      2.594857   663A      2.599002  
     664A      2.604485   665A      2.606339   666A      2.611731  
     667A      2.620464   668A      2.630175   669A      2.636006  
     670A      2.644885   671A      2.658627   672A      2.661528  
     673A      2.669495   674A      2.677984   675A      2.682733  
     676A      2.687870   677A      2.696558   678A      2.703554  
     679A      2.712447   680A      2.719527   681A      2.725513  
     682A      2.733577   683A      2.736626   684A      2.750258  
     685A      2.751654   686A      2.753700   687A      2.766918  
     688A      2.773152   689A      2.779216   690A      2.781980  
     691A      2.787303   692A      2.794132   693A      2.801247  
     694A      2.808790   695A      2.811676   696A      2.817651  
     697A      2.825328   698A      2.832211   699A      2.843141  
     700A      2.844788   701A      2.859607   702A      2.868686  
     703A      2.875862   704A      2.880614   705A      2.892413  
     706A      2.901608   707A      2.921484   708A      2.927410  
     709A      2.934843   710A      2.951199   711A      2.960496  
     712A      2.975914   713A      2.979996   714A      2.986518  
     715A      3.006544   716A      3.013710   717A      3.025490  
     718A      3.033250   719A      3.036964   720A      3.060606  
     721A      3.067383   722A      3.082589   723A      3.086275  
     724A      3.088032   725A      3.100802   726A      3.117423  
     727A      3.125329   728A      3.145418   729A      3.162887  
     730A      3.169713   731A      3.185211   732A      3.197235  
     733A      3.204132   734A      3.228606   735A      3.231388  
     736A      3.244122   737A      3.261624   738A      3.266771  
     739A      3.281572   740A      3.287818   741A      3.311997  
     742A      3.317236   743A      3.335536   744A      3.340233  
     745A      3.345634   746A      3.365695   747A      3.373491  
     748A      3.390006   749A      3.395458   750A      3.405884  
     751A      3.407787   752A      3.414648   753A      3.421923  
     754A      3.442951   755A      3.447924   756A      3.461528  
     757A      3.465346   758A      3.473722   759A      3.481264  
     760A      3.489608   761A      3.494582   762A      3.500272  
     763A      3.511870   764A      3.519347   765A      3.540843  
     766A      3.560827   767A      3.569953   768A      3.580038  
     769A      3.588120   770A      3.593847   771A      3.598469  
     772A      3.608474   773A      3.623973   774A      3.626865  
     775A      3.640420   776A      3.652429   777A      3.660609  
     778A      3.663273   779A      3.668198   780A      3.678840  
     781A      3.682736   782A      3.685629   783A      3.691503  
     784A      3.703000   785A      3.706348   786A      3.715740  
     787A      3.725980   788A      3.729349   789A      3.742903  
     790A      3.746582   791A      3.748691   792A      3.751819  
     793A      3.776548   794A      3.788242   795A      3.789221  
     796A      3.796740   797A      3.802863   798A      3.809574  
     799A      3.815381   800A      3.821513   801A      3.827695  
     802A      3.831095   803A      3.837245   804A      3.848223  
     805A      3.856357   806A      3.871332   807A      3.875489  
     808A      3.876007   809A      3.891037   810A      3.892251  
     811A      3.896100   812A      3.906840   813A      3.913783  
     814A      3.916096   815A      3.918992   816A      3.932169  
     817A      3.936917   818A      3.942304   819A      3.953342  
     820A      3.955090   821A      3.968539   822A      3.980819  
     823A      3.984470   824A      3.994521   825A      4.000458  
     826A      4.007791   827A      4.008562   828A      4.023430  
     829A      4.028787   830A      4.041495   831A      4.046927  
     832A      4.052224   833A      4.062798   834A      4.064291  
     835A      4.087135   836A      4.091006   837A      4.097153  
     838A      4.105251   839A      4.109864   840A      4.116365  
     841A      4.128828   842A      4.140252   843A      4.145095  
     844A      4.149927   845A      4.151379   846A      4.158023  
     847A      4.168676   848A      4.171386   849A      4.175249  
     850A      4.182800   851A      4.190214   852A      4.202326  
     853A      4.203195   854A      4.207873   855A      4.215638  
     856A      4.224772   857A      4.239702   858A      4.242132  
     859A      4.249168   860A      4.250566   861A      4.254472  
     862A      4.264700   863A      4.267181   864A      4.274609  
     865A      4.284459   866A      4.294431   867A      4.296887  
     868A      4.308415   869A      4.313956   870A      4.328607  
     871A      4.336015   872A      4.338729   873A      4.341267  
     874A      4.344328   875A      4.347899   876A      4.355368  
     877A      4.358392   878A      4.367346   879A      4.371851  
     880A      4.386979   881A      4.391330   882A      4.400214  
     883A      4.412183   884A      4.416783   885A      4.424017  
     886A      4.428677   887A      4.440305   888A      4.449303  
     889A      4.456235   890A      4.458647   891A      4.463906  
     892A      4.467308   893A      4.472066   894A      4.486966  
     895A      4.494137   896A      4.508048   897A      4.512091  
     898A      4.522562   899A      4.525741   900A      4.536143  
     901A      4.541958   902A      4.545110   903A      4.564889  
     904A      4.566745   905A      4.576490   906A      4.586409  
     907A      4.590903   908A      4.596265   909A      4.616669  
     910A      4.624515   911A      4.647234   912A      4.659770  
     913A      4.668227   914A      4.678810   915A      4.684495  
     916A      4.686576   917A      4.696205   918A      4.703142  
     919A      4.705970   920A      4.718573   921A      4.734023  
     922A      4.742586   923A      4.746045   924A      4.751872  
     925A      4.770165   926A      4.772439   927A      4.776788  
     928A      4.792764   929A      4.800636   930A      4.806184  
     931A      4.813570   932A      4.818598   933A      4.824938  
     934A      4.825757   935A      4.831715   936A      4.838710  
     937A      4.855078   938A      4.860635   939A      4.869340  
     940A      4.881917   941A      4.900723   942A      4.923313  
     943A      4.925499   944A      4.930859   945A      4.935183  
     946A      4.948278   947A      4.958153   948A      4.961399  
     949A      4.974563   950A      4.975216   951A      5.004024  
     952A      5.019220   953A      5.025486   954A      5.028738  
     955A      5.047352   956A      5.050436   957A      5.062904  
     958A      5.079154   959A      5.088265   960A      5.090927  
     961A      5.099464   962A      5.118378   963A      5.129933  
     964A      5.136524   965A      5.154032   966A      5.171365  
     967A      5.177777   968A      5.182285   969A      5.202649  
     970A      5.203697   971A      5.216716   972A      5.218084  
     973A      5.228949   974A      5.243044   975A      5.256942  
     976A      5.284815   977A      5.301111   978A      5.306963  
     979A      5.314143   980A      5.330054   981A      5.340482  
     982A      5.351158   983A      5.357611   984A      5.365764  
     985A      5.374875   986A      5.380442   987A      5.390386  
     988A      5.417275   989A      5.435670   990A      5.445150  
     991A      5.456156   992A      5.471006   993A      5.477210  
     994A      5.488395   995A      5.497123   996A      5.503930  
     997A      5.507325   998A      5.515893   999A      5.529137  
    1000A      5.536101  1001A      5.545658  1002A      5.548136  
    1003A      5.562213  1004A      5.569983  1005A      5.572503  
    1006A      5.586775  1007A      5.589104  1008A      5.592911  
    1009A      5.594752  1010A      5.613454  1011A      5.622465  
    1012A      5.627859  1013A      5.631269  1014A      5.651402  
    1015A      5.658363  1016A      5.663063  1017A      5.667995  
    1018A      5.673630  1019A      5.685075  1020A      5.708705  
    1021A      5.715911  1022A      5.728238  1023A      5.737996  
    1024A      5.755397  1025A      5.766014  1026A      5.768096  
    1027A      5.781231  1028A      5.790551  1029A      5.792003  
    1030A      5.815993  1031A      5.826115  1032A      5.830851  
    1033A      5.836236  1034A      5.855528  1035A      5.858038  
    1036A      5.883834  1037A      5.896136  1038A      5.901616  
    1039A      5.913043  1040A      5.919382  1041A      5.940496  
    1042A      5.947897  1043A      5.951231  1044A      5.964693  
    1045A      5.970811  1046A      5.989280  1047A      5.999608  
    1048A      6.026125  1049A      6.034040  1050A      6.051794  
    1051A      6.063690  1052A      6.078974  1053A      6.099195  
    1054A      6.108393  1055A      6.110615  1056A      6.121139  
    1057A      6.124181  1058A      6.139479  1059A      6.148094  
    1060A      6.159614  1061A      6.163669  1062A      6.179200  
    1063A      6.198677  1064A      6.200569  1065A      6.207092  
    1066A      6.225820  1067A      6.235870  1068A      6.250779  
    1069A      6.256905  1070A      6.287933  1071A      6.318851  
    1072A      6.323193  1073A      6.341997  1074A      6.351712  
    1075A      6.415057  1076A      6.441342  1077A      6.489698  
    1078A      6.514187  1079A      6.520277  1080A      6.560657  
    1081A      6.585344  1082A      6.609552  1083A      6.618953  
    1084A      6.653965  1085A      6.695920  1086A      6.697943  
    1087A      6.730546  1088A      6.736580  1089A      6.756003  
    1090A      6.763583  1091A      6.774174  1092A      6.784789  
    1093A      6.796774  1094A      6.807992  1095A      6.816514  
    1096A      6.821146  1097A      6.825417  1098A      6.834683  
    1099A      6.843582  1100A      6.859671  1101A      6.872241  
    1102A      6.888625  1103A      6.905205  1104A      6.919765  
    1105A      6.938041  1106A      6.965591  1107A      7.013552  
    1108A      7.017439  1109A      7.021129  1110A      7.030423  
    1111A      7.053019  1112A      7.080798  1113A      7.085043  
    1114A      7.104135  1115A      7.120167  1116A      7.131282  
    1117A      7.193266  1118A      7.208711  1119A      7.237103  
    1120A      7.249086  1121A      7.290812  1122A      7.324541  
    1123A      7.379559  1124A      7.426102  1125A      7.442956  
    1126A      7.456458  1127A      7.464336  1128A      7.477241  
    1129A      7.483415  1130A      7.490547  1131A      7.521383  
    1132A      7.531133  1133A      7.545614  1134A      7.561823  
    1135A      7.660642  1136A      7.673747  1137A      7.739242  
    1138A      7.763782  1139A      7.776858  1140A      7.846778  
    1141A      7.854502  1142A      7.867412  1143A      7.893587  
    1144A      7.898614  1145A      7.917721  1146A      7.981208  
    1147A      8.006182  1148A      8.014200  1149A      8.024423  
    1150A      8.050651  1151A      8.082331  1152A      8.097523  
    1153A      8.110317  1154A     15.852337  1155A     16.144008  
    1156A     16.154961  1157A     16.405086  1158A     16.447401  
    1159A     16.617250  1160A     16.888642  1161A     16.969788  
    1162A     17.739756  1163A     18.141693  1164A     18.390386  
    1165A     19.174927  1166A     19.298904  1167A     19.476207  
    1168A     20.346042  1169A     20.476891  1170A     20.738155  
    1171A     20.994122  1172A     21.150290  1173A     21.370699  

    Final Occupation by Irrep:
              A 
    DOCC [    72 ]

  @DF-RHF Final Energy:  -991.25693736302526

   => Energetics <=

    Nuclear Repulsion Energy =           1580.4853659273280755
    One-Electron Energy =               -4495.8259377550730278
    Two-Electron Energy =                1924.0836344647195801
    Total Energy =                       -991.2569373630253722

Computation Completed


Properties will be evaluated at   0.000000,   0.000000,   0.000000 [a0]

Properties computed using the SCF density matrix

  Nuclear Dipole Moment: [e a0]
     X:     5.1796      Y:     1.5653      Z:     3.2911

  Electronic Dipole Moment: [e a0]
     X:    -7.1045      Y:    -2.8685      Z:    -3.4313

  Dipole Moment: [e a0]
     X:    -1.9249      Y:    -1.3032      Z:    -0.1402     Total:     2.3288

  Dipole Moment: [D]
     X:    -4.8927      Y:    -3.3124      Z:    -0.3564     Total:     5.9193


*** tstop() called on node156.bme.utexas.edu at Mon Jan 22 15:32:48 2024
Module time:
	user time   =    1620.38 seconds =      27.01 minutes
	system time =      24.98 seconds =       0.42 minutes
	total time  =        288 seconds =       4.80 minutes
Total time:
	user time   =    1620.38 seconds =      27.01 minutes
	system time =      24.98 seconds =       0.42 minutes
	total time  =        288 seconds =       4.80 minutes

*** tstart() called on node156.bme.utexas.edu
*** at Mon Jan 22 15:32:48 2024


  //>>>>>>>>>>>>>>>>>>>>>>>>>>>>>>>>>>>//
  //               DFMP2               //
  //<<<<<<<<<<<<<<<<<<<<<<<<<<<<<<<<<<<//

   => Loading Basis Set <=

    Name: (AUG-CC-PVTZ AUX)
    Role: RIFIT
    Keyword: DF_BASIS_MP2
    atoms 1, 3, 7, 9, 11, 17, 19          entry N          line   206 file /opt/anaconda/envs/psi4v1.5/share/psi4/basis/aug-cc-pvtz-ri.gbs 
    atoms 2, 4-6, 8, 18, 20-22, 27        entry C          line   148 file /opt/anaconda/envs/psi4v1.5/share/psi4/basis/aug-cc-pvtz-ri.gbs 
    atoms 10, 12-13, 15-16, 23, 25, 28-31 entry H          line    30 file /opt/anaconda/envs/psi4v1.5/share/psi4/basis/aug-cc-pvtz-ri.gbs 
    atoms 14, 24, 26                      entry O          line   264 file /opt/anaconda/envs/psi4v1.5/share/psi4/basis/aug-cc-pvtz-ri.gbs 

	 --------------------------------------------------------
	                          DF-MP2                         
	      2nd-Order Density-Fitted Moller-Plesset Theory     
	              RMP2 Wavefunction,   8 Threads             
	                                                         
	        Rob Parrish, Justin Turney, Andy Simmonett,      
	           Ed Hohenstein, and C. David Sherrill          
	 --------------------------------------------------------

   => Auxiliary Basis Set <=

  Basis Set: (AUG-CC-PVTZ AUX)
    Blend: AUG-CC-PVTZ-RI
    Number of shells: 714
    Number of basis functions: 2626
    Number of Cartesian functions: 3325
    Spherical Harmonics?: true
    Max angular momentum: 4

	 --------------------------------------------------------
	                 NBF =  1173, NAUX =  2626
	 --------------------------------------------------------
	   CLASS    FOCC     OCC    AOCC    AVIR     VIR    FVIR
	   PAIRS      20      72      52    1101    1101       0
	 --------------------------------------------------------

	 Will save fitting metric to file 97.

	-----------------------------------------------------------
	 ==================> DF-MP2 Energies <==================== 
	-----------------------------------------------------------
	 Reference Energy          =    -991.2569373630252585 [Eh]
	 Singles Energy            =      -0.0000000000000000 [Eh]
	 Same-Spin Energy          =      -0.9813101343191208 [Eh]
	 Opposite-Spin Energy      =      -2.7538351352225270 [Eh]
	 Correlation Energy        =      -3.7351452695416478 [Eh]
	 Total Energy              =    -994.9920826325669623 [Eh]
	-----------------------------------------------------------
	 ================> DF-SCS-MP2 Energies <================== 
	-----------------------------------------------------------
	 SCS Same-Spin Scale       =       0.3333333333333333 [-]
	 SCS Opposite-Spin Scale   =       1.2000000000000000 [-]
	 SCS Same-Spin Energy      =      -0.3271033781063736 [Eh]
	 SCS Opposite-Spin Energy  =      -3.3046021622670323 [Eh]
	 SCS Correlation Energy    =      -3.6317055403734058 [Eh]
	 SCS Total Energy          =    -994.8886429033987042 [Eh]
	-----------------------------------------------------------


*** tstop() called on node156.bme.utexas.edu at Mon Jan 22 15:34:03 2024
Module time:
	user time   =     407.33 seconds =       6.79 minutes
	system time =      11.85 seconds =       0.20 minutes
	total time  =         75 seconds =       1.25 minutes
Total time:
	user time   =    2027.71 seconds =      33.80 minutes
	system time =      36.83 seconds =       0.61 minutes
	total time  =        363 seconds =       6.05 minutes

  //>>>>>>>>>>>>>>>>>>>>>>>>>>>>>>>>>>>//
  //            Monomer A HF           //
  //<<<<<<<<<<<<<<<<<<<<<<<<<<<<<<<<<<<//


*** tstart() called on node156.bme.utexas.edu
*** at Mon Jan 22 15:34:03 2024

   => Loading Basis Set <=

    Name: AUG-CC-PVTZ
    Role: ORBITAL
    Keyword: BASIS
    atoms 1, 3, 7, 9, 11, 17, 19          entry N          line   285 file /opt/anaconda/envs/psi4v1.5/share/psi4/basis/aug-cc-pvtz.gbs 
    atoms 2, 4-6, 8, 18, 20-22, 27        entry C          line   239 file /opt/anaconda/envs/psi4v1.5/share/psi4/basis/aug-cc-pvtz.gbs 
    atoms 10, 12-13, 15-16, 23, 25, 28-31 entry H          line    40 file /opt/anaconda/envs/psi4v1.5/share/psi4/basis/aug-cc-pvtz.gbs 
    atoms 14, 24, 26                      entry O          line   331 file /opt/anaconda/envs/psi4v1.5/share/psi4/basis/aug-cc-pvtz.gbs 


         ---------------------------------------------------------
                                   SCF
               by Justin Turney, Rob Parrish, Andy Simmonett
                          and Daniel G. A. Smith
                              RHF Reference
                        8 Threads,  76293 MiB Core
         ---------------------------------------------------------

  ==> Geometry <==

    Molecular point group: c1
    Full point group: C1

    Geometry (in Angstrom), charge = 0, multiplicity = 1:

       Center              X                  Y                   Z               Mass       
    ------------   -----------------  -----------------  -----------------  -----------------
         N           -1.198333993751     0.917361406117    -1.521183658710    14.003074004430
         C           -2.484518993751     0.429175406117    -1.521222658710    12.000000000000
         N           -2.773809993751    -0.866886593883    -1.521283658710    14.003074004430
         C           -1.669231993751    -1.641896593883    -1.521302658710    12.000000000000
         C           -0.320509993751    -1.258231593883    -1.521268658710    12.000000000000
         C           -0.026044993751     0.141883406117    -1.521206658710    12.000000000000
         N            0.509664006249    -2.369653593883    -1.521304658710    14.003074004430
         C           -0.305535993751    -3.393287593883    -1.521360658710    12.000000000000
         N           -1.642312993751    -3.014820593883    -1.521360658710    14.003074004430
         H           -1.050586993751     1.944044406117    -1.521138658710     1.007825032230
         N           -3.479124993751     1.344795406117    -1.521198658710    14.003074004430
         H           -3.305244993751     2.354890406117    -1.521154658710     1.007825032230
         H           -4.422939993751     0.993111406117    -1.521224658710     1.007825032230
         O            1.083514006249     0.702344406117    -1.521175658710    15.994914619570
         H           -0.010581993751    -4.437748593883    -1.521397658710     1.007825032230
         H           -2.453330993751    -3.617207593883    -1.521394658710     1.007825032230
      Gh(N)           1.031675006249    -0.713768593883     1.803955341290    14.003074004430
      Gh(C)          -0.056925993751     0.154148406117     1.789663341290    12.000000000000
      Gh(N)           0.294747006249     1.487361406117     1.806854341290    14.003074004430
      Gh(C)           1.582877006249     2.004711406117     1.835825341290    12.000000000000
      Gh(C)           2.674022006249     1.027535406117     1.849288341290    12.000000000000
      Gh(C)           2.341485006249    -0.286795593883     1.832653341290    12.000000000000
      Gh(H)           0.803946006249    -1.698149593883     1.792080341290     1.007825032230
      Gh(O)          -1.212753993751    -0.247230593883     1.764191341290    15.994914619570
      Gh(H)          -0.510254993751     2.172403406117     1.796632341290     1.007825032230
      Gh(O)           1.767162006249     3.228042406117     1.848941341290    15.994914619570
      Gh(C)           4.088687006249     1.528007406117     1.880104341290    12.000000000000
      Gh(H)           4.798526006249     0.689622406117     1.894145341290     1.007825032230
      Gh(H)           4.295208006249     2.158918406117     1.002719341290     1.007825032230
      Gh(H)           4.257116006249     2.156702406117     2.767079341290     1.007825032230
      Gh(H)           3.092345006249    -1.075755593883     1.841193341290     1.007825032230

  Running in c1 symmetry.

  Rotational constants: A =      0.01915  B =      0.00835  C =      0.00714 [cm^-1]
  Rotational constants: A =    574.19762  B =    250.46310  C =    214.04764 [MHz]
  Nuclear repulsion =  593.872086066747329

  Charge       = 0
  Multiplicity = 1
  Electrons    = 78
  Nalpha       = 39
  Nbeta        = 39

  ==> Algorithm <==

  SCF Algorithm Type is DF.
  DIIS enabled.
  MOM disabled.
  Fractional occupation disabled.
  Guess Type is SAD.
  Energy threshold   = 1.00e-08
  Density threshold  = 1.00e-08
  Integral threshold = 1.00e-12

  ==> Primary Basis <==

  Basis Set: AUG-CC-PVTZ
    Blend: AUG-CC-PVTZ
    Number of shells: 379
    Number of basis functions: 1173
    Number of Cartesian functions: 1375
    Spherical Harmonics?: true
    Max angular momentum: 3

   => Loading Basis Set <=

    Name: (AUG-CC-PVTZ AUX)
    Role: JKFIT
    Keyword: DF_BASIS_SCF
    atoms 1, 3, 7, 9, 11, 17, 19          entry N          line   224 file /opt/anaconda/envs/psi4v1.5/share/psi4/basis/aug-cc-pvtz-jkfit.gbs 
    atoms 2, 4-6, 8, 18, 20-22, 27        entry C          line   162 file /opt/anaconda/envs/psi4v1.5/share/psi4/basis/aug-cc-pvtz-jkfit.gbs 
    atoms 10, 12-13, 15-16, 23, 25, 28-31 entry H          line    70 file /opt/anaconda/envs/psi4v1.5/share/psi4/basis/aug-cc-pvtz-jkfit.gbs 
    atoms 14, 24, 26                      entry O          line   286 file /opt/anaconda/envs/psi4v1.5/share/psi4/basis/aug-cc-pvtz-jkfit.gbs 

  ==> Integral Setup <==

  ==> DiskDFJK: Density-Fitted J/K Matrices <==

    J tasked:                  Yes
    K tasked:                  Yes
    wK tasked:                  No
    OpenMP threads:              8
    Integrals threads:           8
    Memory [MiB]:            57220
    Algorithm:                Core
    Integral Cache:           LOAD
    Schwarz Cutoff:          1E-12
    Fitting Condition:       1E-10

   => Auxiliary Basis Set <=

  Basis Set: (AUG-CC-PVTZ AUX)
    Blend: AUG-CC-PVTZ-JKFIT
    Number of shells: 754
    Number of basis functions: 2586
    Number of Cartesian functions: 3225
    Spherical Harmonics?: true
    Max angular momentum: 4

  Minimum eigenvalue in the overlap matrix is 9.0207911116E-07.
  Reciprocal condition number of the overlap matrix is 4.3284854548E-08.
    Using symmetric orthogonalization.

  ==> Pre-Iterations <==

  SCF Guess: Superposition of Atomic Densities via on-the-fly atomic UHF (no occupation information).

   -------------------------
    Irrep   Nso     Nmo    
   -------------------------
     A       1173    1173 
   -------------------------
    Total    1173    1173
   -------------------------

  ==> Iterations <==

                           Total Energy        Delta E     RMS |[F,P]|

   @DF-RHF iter SAD:  -539.30121304002148   -5.39301e+02   0.00000e+00 
   @DF-RHF iter   1:  -539.27269808688050    2.85150e-02   6.79828e-04 DIIS
   @DF-RHF iter   2:  -539.49769336119630   -2.24995e-01   4.05574e-04 DIIS
   @DF-RHF iter   3:  -539.57823842161383   -8.05451e-02   8.47466e-05 DIIS
   @DF-RHF iter   4:  -539.58336109690595   -5.12268e-03   3.41685e-05 DIIS
   @DF-RHF iter   5:  -539.58431490004148   -9.53803e-04   7.28837e-06 DIIS
   @DF-RHF iter   6:  -539.58441366323723   -9.87632e-05   3.83889e-06 DIIS
   @DF-RHF iter   7:  -539.58444115381337   -2.74906e-05   1.62460e-06 DIIS
   @DF-RHF iter   8:  -539.58444658827318   -5.43446e-06   5.52361e-07 DIIS
   @DF-RHF iter   9:  -539.58444718563874   -5.97366e-07   2.25422e-07 DIIS
   @DF-RHF iter  10:  -539.58444729466100   -1.09022e-07   9.55964e-08 DIIS
   @DF-RHF iter  11:  -539.58444731266536   -1.80044e-08   4.06683e-08 DIIS
   @DF-RHF iter  12:  -539.58444731550776   -2.84240e-09   1.33622e-08 DIIS
   @DF-RHF iter  13:  -539.58444731587861   -3.70846e-10   5.50620e-09 DIIS
  Energy and wave function converged.


  ==> Post-Iterations <==

    Orbital Energies [Eh]
    ---------------------

    Doubly Occupied:                                                      

       1A    -20.511491     2A    -15.636318     3A    -15.628586  
       4A    -15.621748     5A    -15.567123     6A    -15.561298  
       7A    -11.405349     8A    -11.360787     9A    -11.325980  
      10A    -11.309591    11A    -11.244179    12A     -1.387065  
      13A     -1.348801    14A     -1.332101    15A     -1.226573  
      16A     -1.216773    17A     -1.172423    18A     -1.027608  
      19A     -0.904039    20A     -0.893234    21A     -0.836195  
      22A     -0.803815    23A     -0.744179    24A     -0.739664  
      25A     -0.709721    26A     -0.669771    27A     -0.657879  
      28A     -0.634701    29A     -0.604138    30A     -0.597969  
      31A     -0.595858    32A     -0.544364    33A     -0.493911  
      34A     -0.455054    35A     -0.435101    36A     -0.428770  
      37A     -0.423958    38A     -0.406595    39A     -0.295014  

    Virtual:                                                              

      40A      0.011685    41A      0.022576    42A      0.028549  
      43A      0.034686    44A      0.039594    45A      0.041502  
      46A      0.047439    47A      0.053877    48A      0.059212  
      49A      0.059971    50A      0.065699    51A      0.072368  
      52A      0.080100    53A      0.083023    54A      0.085192  
      55A      0.087918    56A      0.091605    57A      0.092654  
      58A      0.098414    59A      0.101475    60A      0.104018  
      61A      0.108955    62A      0.109406    63A      0.112097  
      64A      0.119684    65A      0.121179    66A      0.123324  
      67A      0.123375    68A      0.126874    69A      0.128813  
      70A      0.131256    71A      0.134708    72A      0.139933  
      73A      0.142901    74A      0.143472    75A      0.147825  
      76A      0.150741    77A      0.153378    78A      0.153831  
      79A      0.159932    80A      0.163338    81A      0.168613  
      82A      0.172013    83A      0.175393    84A      0.176044  
      85A      0.180453    86A      0.182261    87A      0.184981  
      88A      0.188971    89A      0.192087    90A      0.193523  
      91A      0.200225    92A      0.201268    93A      0.205614  
      94A      0.207834    95A      0.211059    96A      0.215249  
      97A      0.217796    98A      0.220243    99A      0.224248  
     100A      0.227310   101A      0.229193   102A      0.232666  
     103A      0.237279   104A      0.239258   105A      0.245444  
     106A      0.248323   107A      0.249861   108A      0.254352  
     109A      0.256430   110A      0.262636   111A      0.265741  
     112A      0.268790   113A      0.275283   114A      0.276903  
     115A      0.278141   116A      0.281165   117A      0.285908  
     118A      0.287277   119A      0.292463   120A      0.293916  
     121A      0.296719   122A      0.301720   123A      0.303372  
     124A      0.307577   125A      0.309786   126A      0.313402  
     127A      0.320600   128A      0.324073   129A      0.328300  
     130A      0.330129   131A      0.330915   132A      0.337063  
     133A      0.339933   134A      0.341719   135A      0.343594  
     136A      0.347562   137A      0.348277   138A      0.353449  
     139A      0.356164   140A      0.359467   141A      0.363734  
     142A      0.367196   143A      0.370929   144A      0.373872  
     145A      0.376365   146A      0.384153   147A      0.384640  
     148A      0.386681   149A      0.389012   150A      0.392676  
     151A      0.395203   152A      0.396631   153A      0.400345  
     154A      0.402279   155A      0.404315   156A      0.409984  
     157A      0.412585   158A      0.416273   159A      0.422792  
     160A      0.425253   161A      0.429572   162A      0.430289  
     163A      0.431517   164A      0.436250   165A      0.439522  
     166A      0.441909   167A      0.445411   168A      0.448135  
     169A      0.454423   170A      0.455846   171A      0.458454  
     172A      0.462027   173A      0.466040   174A      0.469671  
     175A      0.470852   176A      0.472374   177A      0.477408  
     178A      0.483098   179A      0.485451   180A      0.486770  
     181A      0.488547   182A      0.493848   183A      0.496835  
     184A      0.497834   185A      0.503460   186A      0.505231  
     187A      0.508687   188A      0.512013   189A      0.514176  
     190A      0.516254   191A      0.518306   192A      0.521849  
     193A      0.525300   194A      0.527172   195A      0.529011  
     196A      0.536409   197A      0.539446   198A      0.541657  
     199A      0.546376   200A      0.551627   201A      0.555894  
     202A      0.561076   203A      0.563578   204A      0.565991  
     205A      0.572685   206A      0.575350   207A      0.579644  
     208A      0.583550   209A      0.591394   210A      0.591918  
     211A      0.598305   212A      0.600284   213A      0.604388  
     214A      0.607622   215A      0.609706   216A      0.615605  
     217A      0.617813   218A      0.623754   219A      0.627753  
     220A      0.633138   221A      0.635469   222A      0.638595  
     223A      0.641111   224A      0.647062   225A      0.648785  
     226A      0.650399   227A      0.654268   228A      0.656950  
     229A      0.663554   230A      0.665059   231A      0.672162  
     232A      0.675111   233A      0.679274   234A      0.680118  
     235A      0.682598   236A      0.688830   237A      0.692450  
     238A      0.698819   239A      0.700488   240A      0.705656  
     241A      0.707325   242A      0.711462   243A      0.716360  
     244A      0.719013   245A      0.723058   246A      0.723969  
     247A      0.729547   248A      0.734032   249A      0.739235  
     250A      0.740002   251A      0.746816   252A      0.748767  
     253A      0.753078   254A      0.759935   255A      0.763541  
     256A      0.768906   257A      0.773734   258A      0.780382  
     259A      0.782080   260A      0.784015   261A      0.788282  
     262A      0.789517   263A      0.797507   264A      0.805622  
     265A      0.805955   266A      0.810654   267A      0.812205  
     268A      0.820957   269A      0.822646   270A      0.825054  
     271A      0.834142   272A      0.836444   273A      0.837769  
     274A      0.847572   275A      0.852983   276A      0.855270  
     277A      0.858034   278A      0.861958   279A      0.866807  
     280A      0.870550   281A      0.875387   282A      0.877010  
     283A      0.892244   284A      0.894435   285A      0.894791  
     286A      0.902980   287A      0.904739   288A      0.907443  
     289A      0.913423   290A      0.916515   291A      0.918875  
     292A      0.921474   293A      0.930649   294A      0.931823  
     295A      0.935291   296A      0.941014   297A      0.943823  
     298A      0.953084   299A      0.958222   300A      0.959588  
     301A      0.966352   302A      0.969409   303A      0.977494  
     304A      0.981352   305A      0.986757   306A      0.989179  
     307A      0.992309   308A      0.994224   309A      0.995460  
     310A      0.998660   311A      1.005985   312A      1.010427  
     313A      1.012140   314A      1.016742   315A      1.019246  
     316A      1.023690   317A      1.024348   318A      1.032802  
     319A      1.036344   320A      1.039153   321A      1.041901  
     322A      1.043615   323A      1.046158   324A      1.052748  
     325A      1.055653   326A      1.059508   327A      1.062426  
     328A      1.066228   329A      1.075424   330A      1.077403  
     331A      1.081922   332A      1.084410   333A      1.084785  
     334A      1.089117   335A      1.091526   336A      1.097104  
     337A      1.099627   338A      1.102759   339A      1.109125  
     340A      1.109886   341A      1.118428   342A      1.120378  
     343A      1.122634   344A      1.126642   345A      1.132412  
     346A      1.136736   347A      1.140064   348A      1.143088  
     349A      1.149419   350A      1.152824   351A      1.158053  
     352A      1.158886   353A      1.163639   354A      1.166909  
     355A      1.169052   356A      1.173187   357A      1.179195  
     358A      1.180651   359A      1.183181   360A      1.187819  
     361A      1.192926   362A      1.196588   363A      1.201054  
     364A      1.206910   365A      1.210597   366A      1.220517  
     367A      1.220834   368A      1.226006   369A      1.228820  
     370A      1.233441   371A      1.238743   372A      1.242632  
     373A      1.246296   374A      1.249013   375A      1.254111  
     376A      1.265558   377A      1.266335   378A      1.269818  
     379A      1.277454   380A      1.280927   381A      1.282921  
     382A      1.285700   383A      1.291781   384A      1.291865  
     385A      1.294393   386A      1.297734   387A      1.305106  
     388A      1.309044   389A      1.311024   390A      1.315482  
     391A      1.317547   392A      1.326335   393A      1.328845  
     394A      1.330608   395A      1.335334   396A      1.336155  
     397A      1.340818   398A      1.345119   399A      1.348706  
     400A      1.350648   401A      1.358279   402A      1.362398  
     403A      1.366237   404A      1.371441   405A      1.378157  
     406A      1.379876   407A      1.380633   408A      1.388381  
     409A      1.393904   410A      1.399460   411A      1.404285  
     412A      1.407353   413A      1.411344   414A      1.416254  
     415A      1.420927   416A      1.423026   417A      1.426434  
     418A      1.431786   419A      1.435729   420A      1.442023  
     421A      1.444342   422A      1.446042   423A      1.448753  
     424A      1.459081   425A      1.460192   426A      1.463522  
     427A      1.471176   428A      1.475662   429A      1.480378  
     430A      1.483223   431A      1.492211   432A      1.493093  
     433A      1.497312   434A      1.501866   435A      1.504672  
     436A      1.512994   437A      1.516796   438A      1.521428  
     439A      1.526266   440A      1.533927   441A      1.541209  
     442A      1.541471   443A      1.546209   444A      1.549748  
     445A      1.558582   446A      1.562034   447A      1.565681  
     448A      1.567181   449A      1.571115   450A      1.583872  
     451A      1.585247   452A      1.591314   453A      1.593681  
     454A      1.601130   455A      1.606033   456A      1.616433  
     457A      1.618246   458A      1.623116   459A      1.626435  
     460A      1.630566   461A      1.637125   462A      1.644630  
     463A      1.647042   464A      1.654458   465A      1.662539  
     466A      1.667317   467A      1.676498   468A      1.677817  
     469A      1.682023   470A      1.694495   471A      1.697154  
     472A      1.707193   473A      1.711573   474A      1.714324  
     475A      1.717427   476A      1.721247   477A      1.727184  
     478A      1.729857   479A      1.738818   480A      1.742857  
     481A      1.752302   482A      1.754036   483A      1.759919  
     484A      1.764539   485A      1.767020   486A      1.778093  
     487A      1.787227   488A      1.792725   489A      1.792818  
     490A      1.799067   491A      1.805770   492A      1.809214  
     493A      1.820076   494A      1.823770   495A      1.828253  
     496A      1.836149   497A      1.844275   498A      1.851266  
     499A      1.855893   500A      1.864005   501A      1.869878  
     502A      1.877454   503A      1.879032   504A      1.883465  
     505A      1.889286   506A      1.897277   507A      1.908338  
     508A      1.913043   509A      1.913429   510A      1.916167  
     511A      1.923320   512A      1.927971   513A      1.933275  
     514A      1.940830   515A      1.941708   516A      1.945595  
     517A      1.950944   518A      1.958339   519A      1.967122  
     520A      1.978797   521A      1.988668   522A      1.990567  
     523A      1.995481   524A      2.000928   525A      2.006474  
     526A      2.013909   527A      2.017952   528A      2.025756  
     529A      2.032658   530A      2.046287   531A      2.046687  
     532A      2.049600   533A      2.052036   534A      2.056917  
     535A      2.063503   536A      2.069277   537A      2.073683  
     538A      2.082531   539A      2.084861   540A      2.095458  
     541A      2.098596   542A      2.105525   543A      2.109590  
     544A      2.115694   545A      2.125869   546A      2.129731  
     547A      2.136350   548A      2.137049   549A      2.145709  
     550A      2.151242   551A      2.157465   552A      2.162873  
     553A      2.169749   554A      2.174330   555A      2.186601  
     556A      2.193238   557A      2.201793   558A      2.208007  
     559A      2.210071   560A      2.217096   561A      2.231684  
     562A      2.232640   563A      2.248568   564A      2.251639  
     565A      2.256812   566A      2.258567   567A      2.262337  
     568A      2.269568   569A      2.274637   570A      2.277853  
     571A      2.293854   572A      2.295554   573A      2.302035  
     574A      2.314519   575A      2.322707   576A      2.325725  
     577A      2.328576   578A      2.342557   579A      2.344831  
     580A      2.351966   581A      2.357557   582A      2.364312  
     583A      2.367579   584A      2.370742   585A      2.372729  
     586A      2.380254   587A      2.385264   588A      2.388925  
     589A      2.396944   590A      2.399520   591A      2.411733  
     592A      2.414583   593A      2.423189   594A      2.425222  
     595A      2.429549   596A      2.441074   597A      2.443625  
     598A      2.451309   599A      2.454191   600A      2.460970  
     601A      2.466834   602A      2.476947   603A      2.486729  
     604A      2.490200   605A      2.493401   606A      2.497402  
     607A      2.503245   608A      2.506071   609A      2.520994  
     610A      2.524077   611A      2.535763   612A      2.537600  
     613A      2.539790   614A      2.548035   615A      2.556718  
     616A      2.563568   617A      2.566153   618A      2.578534  
     619A      2.589392   620A      2.595964   621A      2.601782  
     622A      2.609449   623A      2.613912   624A      2.621941  
     625A      2.630370   626A      2.632916   627A      2.643402  
     628A      2.649432   629A      2.657163   630A      2.662672  
     631A      2.672281   632A      2.673264   633A      2.679362  
     634A      2.686345   635A      2.691909   636A      2.701986  
     637A      2.711614   638A      2.715443   639A      2.724692  
     640A      2.731562   641A      2.739428   642A      2.745613  
     643A      2.755765   644A      2.761992   645A      2.767626  
     646A      2.770533   647A      2.775823   648A      2.781777  
     649A      2.787574   650A      2.792388   651A      2.794500  
     652A      2.803358   653A      2.806360   654A      2.814502  
     655A      2.828288   656A      2.832934   657A      2.842649  
     658A      2.845483   659A      2.858402   660A      2.859016  
     661A      2.873549   662A      2.874500   663A      2.889989  
     664A      2.899906   665A      2.903432   666A      2.908352  
     667A      2.916049   668A      2.917303   669A      2.932565  
     670A      2.948105   671A      2.950714   672A      2.954896  
     673A      2.961010   674A      2.972538   675A      2.978245  
     676A      2.987264   677A      2.999956   678A      3.005782  
     679A      3.012349   680A      3.022564   681A      3.025222  
     682A      3.037967   683A      3.042292   684A      3.047869  
     685A      3.075834   686A      3.080258   687A      3.089192  
     688A      3.099407   689A      3.106911   690A      3.120639  
     691A      3.124090   692A      3.129990   693A      3.133264  
     694A      3.156695   695A      3.168039   696A      3.179054  
     697A      3.182366   698A      3.191340   699A      3.213060  
     700A      3.220952   701A      3.233745   702A      3.242875  
     703A      3.249557   704A      3.262993   705A      3.264996  
     706A      3.282543   707A      3.298350   708A      3.306756  
     709A      3.313111   710A      3.340557   711A      3.346554  
     712A      3.353520   713A      3.373100   714A      3.374790  
     715A      3.391478   716A      3.402034   717A      3.416542  
     718A      3.426790   719A      3.433521   720A      3.434843  
     721A      3.440504   722A      3.476227   723A      3.482287  
     724A      3.498479   725A      3.499330   726A      3.503107  
     727A      3.516050   728A      3.545710   729A      3.559721  
     730A      3.577113   731A      3.589267   732A      3.597312  
     733A      3.601533   734A      3.607544   735A      3.625271  
     736A      3.630878   737A      3.656822   738A      3.659975  
     739A      3.680327   740A      3.682371   741A      3.690891  
     742A      3.710815   743A      3.718214   744A      3.726075  
     745A      3.737364   746A      3.746986   747A      3.754912  
     748A      3.766636   749A      3.770471   750A      3.786399  
     751A      3.787624   752A      3.794635   753A      3.809154  
     754A      3.814089   755A      3.825285   756A      3.830682  
     757A      3.841197   758A      3.847555   759A      3.853521  
     760A      3.866976   761A      3.883482   762A      3.886347  
     763A      3.896548   764A      3.907186   765A      3.913028  
     766A      3.934754   767A      3.948233   768A      3.950707  
     769A      3.960727   770A      3.981913   771A      3.998074  
     772A      4.003904   773A      4.019549   774A      4.026145  
     775A      4.043439   776A      4.050087   777A      4.056967  
     778A      4.071923   779A      4.083529   780A      4.094835  
     781A      4.099477   782A      4.103553   783A      4.108645  
     784A      4.117078   785A      4.123778   786A      4.130492  
     787A      4.135472   788A      4.156037   789A      4.163450  
     790A      4.168955   791A      4.173947   792A      4.182032  
     793A      4.190019   794A      4.196159   795A      4.199717  
     796A      4.211578   797A      4.230655   798A      4.236869  
     799A      4.241551   800A      4.250224   801A      4.253031  
     802A      4.257605   803A      4.261636   804A      4.264031  
     805A      4.272304   806A      4.280787   807A      4.290773  
     808A      4.300617   809A      4.302903   810A      4.310471  
     811A      4.317504   812A      4.329916   813A      4.337952  
     814A      4.345547   815A      4.349369   816A      4.358176  
     817A      4.362552   818A      4.371784   819A      4.374324  
     820A      4.382902   821A      4.391255   822A      4.404555  
     823A      4.414274   824A      4.421611   825A      4.427409  
     826A      4.434985   827A      4.440226   828A      4.445113  
     829A      4.450403   830A      4.459266   831A      4.464870  
     832A      4.469002   833A      4.479086   834A      4.494160  
     835A      4.502036   836A      4.511709   837A      4.523302  
     838A      4.524989   839A      4.543976   840A      4.557230  
     841A      4.565964   842A      4.570659   843A      4.578126  
     844A      4.582573   845A      4.593835   846A      4.611530  
     847A      4.618355   848A      4.628822   849A      4.647000  
     850A      4.648106   851A      4.661972   852A      4.668944  
     853A      4.682305   854A      4.692007   855A      4.697474  
     856A      4.704002   857A      4.712094   858A      4.722547  
     859A      4.734708   860A      4.741900   861A      4.749811  
     862A      4.757261   863A      4.771082   864A      4.775725  
     865A      4.781631   866A      4.797561   867A      4.799822  
     868A      4.816145   869A      4.826164   870A      4.836615  
     871A      4.843738   872A      4.848485   873A      4.852138  
     874A      4.862818   875A      4.878411   876A      4.885430  
     877A      4.898518   878A      4.902184   879A      4.912404  
     880A      4.919201   881A      4.933767   882A      4.937161  
     883A      4.942846   884A      4.952318   885A      4.962570  
     886A      4.972580   887A      4.978821   888A      4.998298  
     889A      5.001478   890A      5.003731   891A      5.016261  
     892A      5.019739   893A      5.041669   894A      5.048588  
     895A      5.062998   896A      5.073356   897A      5.086177  
     898A      5.091369   899A      5.111984   900A      5.122179  
     901A      5.126674   902A      5.134472   903A      5.140254  
     904A      5.154043   905A      5.164568   906A      5.170216  
     907A      5.188603   908A      5.195927   909A      5.207299  
     910A      5.232677   911A      5.237099   912A      5.242017  
     913A      5.247881   914A      5.254262   915A      5.264539  
     916A      5.281185   917A      5.288998   918A      5.299165  
     919A      5.305419   920A      5.316015   921A      5.318366  
     922A      5.331975   923A      5.340470   924A      5.347067  
     925A      5.351800   926A      5.362789   927A      5.369726  
     928A      5.373790   929A      5.379996   930A      5.392906  
     931A      5.408721   932A      5.426994   933A      5.434789  
     934A      5.446538   935A      5.455106   936A      5.468874  
     937A      5.475537   938A      5.490050   939A      5.494136  
     940A      5.505453   941A      5.510726   942A      5.522383  
     943A      5.524385   944A      5.533991   945A      5.545633  
     946A      5.550735   947A      5.559019   948A      5.564073  
     949A      5.567345   950A      5.572602   951A      5.580996  
     952A      5.587460   953A      5.604345   954A      5.610412  
     955A      5.616307   956A      5.635110   957A      5.638955  
     958A      5.654328   959A      5.660211   960A      5.661286  
     961A      5.666043   962A      5.667456   963A      5.677448  
     964A      5.688147   965A      5.710448   966A      5.716713  
     967A      5.724555   968A      5.731309   969A      5.736970  
     970A      5.770931   971A      5.773043   972A      5.784471  
     973A      5.817567   974A      5.821271   975A      5.829443  
     976A      5.834135   977A      5.857469   978A      5.868259  
     979A      5.878881   980A      5.883490   981A      5.899594  
     982A      5.900688   983A      5.929116   984A      5.943474  
     985A      5.949052   986A      5.952961   987A      5.971049  
     988A      5.995900   989A      6.000163   990A      6.012018  
     991A      6.044734   992A      6.059569   993A      6.063991  
     994A      6.074933   995A      6.093580   996A      6.105445  
     997A      6.114178   998A      6.121410   999A      6.124074  
    1000A      6.156070  1001A      6.179052  1002A      6.182890  
    1003A      6.195332  1004A      6.199073  1005A      6.215883  
    1006A      6.226538  1007A      6.233633  1008A      6.256623  
    1009A      6.265933  1010A      6.286086  1011A      6.289719  
    1012A      6.315253  1013A      6.321323  1014A      6.340706  
    1015A      6.354223  1016A      6.360614  1017A      6.438643  
    1018A      6.451986  1019A      6.485449  1020A      6.489568  
    1021A      6.496778  1022A      6.513806  1023A      6.528577  
    1024A      6.562497  1025A      6.583772  1026A      6.597006  
    1027A      6.620656  1028A      6.636402  1029A      6.649521  
    1030A      6.665136  1031A      6.694982  1032A      6.699770  
    1033A      6.735316  1034A      6.747913  1035A      6.771141  
    1036A      6.783954  1037A      6.798801  1038A      6.814620  
    1039A      6.817832  1040A      6.818586  1041A      6.842347  
    1042A      6.846061  1043A      6.856769  1044A      6.876168  
    1045A      6.892213  1046A      6.897459  1047A      6.932201  
    1048A      6.946323  1049A      6.994743  1050A      7.017803  
    1051A      7.023331  1052A      7.047013  1053A      7.063250  
    1054A      7.084908  1055A      7.099604  1056A      7.132106  
    1057A      7.142935  1058A      7.169715  1059A      7.202262  
    1060A      7.222960  1061A      7.247795  1062A      7.263539  
    1063A      7.284594  1064A      7.321053  1065A      7.364199  
    1066A      7.411584  1067A      7.428901  1068A      7.445084  
    1069A      7.481409  1070A      7.504811  1071A      7.529514  
    1072A      7.537280  1073A      7.546338  1074A      7.613523  
    1075A      7.615994  1076A      7.641447  1077A      7.655910  
    1078A      7.665175  1079A      7.671816  1080A      7.687071  
    1081A      7.699176  1082A      7.741023  1083A      7.754046  
    1084A      7.763812  1085A      7.798465  1086A      7.806009  
    1087A      7.827435  1088A      7.834266  1089A      7.851125  
    1090A      7.880644  1091A      7.887444  1092A      7.899582  
    1093A      7.902363  1094A      7.920329  1095A      7.935629  
    1096A      7.948024  1097A      7.978101  1098A      7.996890  
    1099A      8.008802  1100A      8.022462  1101A      8.053113  
    1102A      8.074658  1103A      8.108522  1104A      8.167447  
    1105A      8.198955  1106A      8.214947  1107A      8.273000  
    1108A      8.288697  1109A      8.348202  1110A      8.415302  
    1111A      8.434549  1112A      8.587062  1113A      8.644372  
    1114A      8.737776  1115A      8.831113  1116A      8.906415  
    1117A      8.970129  1118A      9.036246  1119A      9.104853  
    1120A      9.229042  1121A      9.594807  1122A      9.613062  
    1123A      9.628671  1124A      9.664897  1125A      9.879687  
    1126A      9.956140  1127A     10.021308  1128A     10.056632  
    1129A     10.083299  1130A     10.242112  1131A     10.299324  
    1132A     10.368512  1133A     10.381035  1134A     10.488738  
    1135A     10.544065  1136A     10.554553  1137A     10.738432  
    1138A     10.980484  1139A     11.304257  1140A     11.434910  
    1141A     11.604621  1142A     12.048828  1143A     12.069291  
    1144A     12.114798  1145A     12.127642  1146A     12.215413  
    1147A     12.577953  1148A     12.746400  1149A     12.902974  
    1150A     13.416743  1151A     13.706289  1152A     14.190990  
    1153A     14.240092  1154A     16.156069  1155A     16.447971  
    1156A     16.620232  1157A     16.966859  1158A     17.734935  
    1159A     18.385491  1160A     19.300903  1161A     19.474382  
    1162A     20.500027  1163A     20.974098  1164A     21.342696  
    1165A     51.865575  1166A     52.190867  1167A     53.679994  
    1168A     55.174669  1169A     57.858277  1170A     60.795601  
    1171A     61.851913  1172A     69.529909  1173A     70.368700  

    Final Occupation by Irrep:
              A 
    DOCC [    39 ]

  @DF-RHF Final Energy:  -539.58444731587861

   => Energetics <=

    Nuclear Repulsion Energy =            593.8720860667473289
    One-Electron Energy =               -1913.3976106304387486
    Two-Electron Energy =                 779.9410772478127001
    Total Energy =                       -539.5844473158786059

Computation Completed


Properties will be evaluated at   0.000000,   0.000000,   0.000000 [a0]

Properties computed using the SCF density matrix

  Nuclear Dipole Moment: [e a0]
     X:  -172.9044      Y:  -112.2549      Z:  -224.2315

  Electronic Dipole Moment: [e a0]
     X:   169.8422      Y:   112.4717      Z:   224.2311

  Dipole Moment: [e a0]
     X:    -3.0622      Y:     0.2168      Z:    -0.0004     Total:     3.0698

  Dipole Moment: [D]
     X:    -7.7832      Y:     0.5510      Z:    -0.0011     Total:     7.8027


*** tstop() called on node156.bme.utexas.edu at Mon Jan 22 15:37:48 2024
Module time:
	user time   =    1318.63 seconds =      21.98 minutes
	system time =      11.01 seconds =       0.18 minutes
	total time  =        225 seconds =       3.75 minutes
Total time:
	user time   =    3346.34 seconds =      55.77 minutes
	system time =      47.84 seconds =       0.80 minutes
	total time  =        588 seconds =       9.80 minutes

*** tstart() called on node156.bme.utexas.edu
*** at Mon Jan 22 15:37:48 2024


  //>>>>>>>>>>>>>>>>>>>>>>>>>>>>>>>>>>>//
  //               DFMP2               //
  //<<<<<<<<<<<<<<<<<<<<<<<<<<<<<<<<<<<//

   => Loading Basis Set <=

    Name: (AUG-CC-PVTZ AUX)
    Role: RIFIT
    Keyword: DF_BASIS_MP2
    atoms 1, 3, 7, 9, 11, 17, 19          entry N          line   206 file /opt/anaconda/envs/psi4v1.5/share/psi4/basis/aug-cc-pvtz-ri.gbs 
    atoms 2, 4-6, 8, 18, 20-22, 27        entry C          line   148 file /opt/anaconda/envs/psi4v1.5/share/psi4/basis/aug-cc-pvtz-ri.gbs 
    atoms 10, 12-13, 15-16, 23, 25, 28-31 entry H          line    30 file /opt/anaconda/envs/psi4v1.5/share/psi4/basis/aug-cc-pvtz-ri.gbs 
    atoms 14, 24, 26                      entry O          line   264 file /opt/anaconda/envs/psi4v1.5/share/psi4/basis/aug-cc-pvtz-ri.gbs 

	 --------------------------------------------------------
	                          DF-MP2                         
	      2nd-Order Density-Fitted Moller-Plesset Theory     
	              RMP2 Wavefunction,   8 Threads             
	                                                         
	        Rob Parrish, Justin Turney, Andy Simmonett,      
	           Ed Hohenstein, and C. David Sherrill          
	 --------------------------------------------------------

   => Auxiliary Basis Set <=

  Basis Set: (AUG-CC-PVTZ AUX)
    Blend: AUG-CC-PVTZ-RI
    Number of shells: 714
    Number of basis functions: 2626
    Number of Cartesian functions: 3325
    Spherical Harmonics?: true
    Max angular momentum: 4

	 --------------------------------------------------------
	                 NBF =  1173, NAUX =  2626
	 --------------------------------------------------------
	   CLASS    FOCC     OCC    AOCC    AVIR     VIR    FVIR
	   PAIRS      11      39      28    1134    1134       0
	 --------------------------------------------------------

	 Will attempt to load fitting metric from file 97.

	-----------------------------------------------------------
	 ==================> DF-MP2 Energies <==================== 
	-----------------------------------------------------------
	 Reference Energy          =    -539.5844473158786059 [Eh]
	 Singles Energy            =      -0.0000000000000000 [Eh]
	 Same-Spin Energy          =      -0.5420766069483796 [Eh]
	 Opposite-Spin Energy      =      -1.4974607082119287 [Eh]
	 Correlation Energy        =      -2.0395373151603082 [Eh]
	 Total Energy              =    -541.6239846310388657 [Eh]
	-----------------------------------------------------------
	 ================> DF-SCS-MP2 Energies <================== 
	-----------------------------------------------------------
	 SCS Same-Spin Scale       =       0.3333333333333333 [-]
	 SCS Opposite-Spin Scale   =       1.2000000000000000 [-]
	 SCS Same-Spin Energy      =      -0.1806922023161265 [Eh]
	 SCS Opposite-Spin Energy  =      -1.7969528498543144 [Eh]
	 SCS Correlation Energy    =      -1.9776450521704410 [Eh]
	 SCS Total Energy          =    -541.5620923680490932 [Eh]
	-----------------------------------------------------------


*** tstop() called on node156.bme.utexas.edu at Mon Jan 22 15:38:32 2024
Module time:
	user time   =     209.64 seconds =       3.49 minutes
	system time =       9.43 seconds =       0.16 minutes
	total time  =         44 seconds =       0.73 minutes
Total time:
	user time   =    3555.99 seconds =      59.27 minutes
	system time =      57.27 seconds =       0.95 minutes
	total time  =        632 seconds =      10.53 minutes

  //>>>>>>>>>>>>>>>>>>>>>>>>>>>>>>>>>>>//
  //            Monomer B HF           //
  //<<<<<<<<<<<<<<<<<<<<<<<<<<<<<<<<<<<//


*** tstart() called on node156.bme.utexas.edu
*** at Mon Jan 22 15:38:32 2024

   => Loading Basis Set <=

    Name: AUG-CC-PVTZ
    Role: ORBITAL
    Keyword: BASIS
    atoms 1, 3, 7, 9, 11, 17, 19          entry N          line   285 file /opt/anaconda/envs/psi4v1.5/share/psi4/basis/aug-cc-pvtz.gbs 
    atoms 2, 4-6, 8, 18, 20-22, 27        entry C          line   239 file /opt/anaconda/envs/psi4v1.5/share/psi4/basis/aug-cc-pvtz.gbs 
    atoms 10, 12-13, 15-16, 23, 25, 28-31 entry H          line    40 file /opt/anaconda/envs/psi4v1.5/share/psi4/basis/aug-cc-pvtz.gbs 
    atoms 14, 24, 26                      entry O          line   331 file /opt/anaconda/envs/psi4v1.5/share/psi4/basis/aug-cc-pvtz.gbs 


         ---------------------------------------------------------
                                   SCF
               by Justin Turney, Rob Parrish, Andy Simmonett
                          and Daniel G. A. Smith
                              RHF Reference
                        8 Threads,  76293 MiB Core
         ---------------------------------------------------------

  ==> Geometry <==

    Molecular point group: c1
    Full point group: C1

    Geometry (in Angstrom), charge = 0, multiplicity = 1:

       Center              X                  Y                   Z               Mass       
    ------------   -----------------  -----------------  -----------------  -----------------
      Gh(N)          -1.198333993751     0.917361406117    -1.521183658710    14.003074004430
      Gh(C)          -2.484518993751     0.429175406117    -1.521222658710    12.000000000000
      Gh(N)          -2.773809993751    -0.866886593883    -1.521283658710    14.003074004430
      Gh(C)          -1.669231993751    -1.641896593883    -1.521302658710    12.000000000000
      Gh(C)          -0.320509993751    -1.258231593883    -1.521268658710    12.000000000000
      Gh(C)          -0.026044993751     0.141883406117    -1.521206658710    12.000000000000
      Gh(N)           0.509664006249    -2.369653593883    -1.521304658710    14.003074004430
      Gh(C)          -0.305535993751    -3.393287593883    -1.521360658710    12.000000000000
      Gh(N)          -1.642312993751    -3.014820593883    -1.521360658710    14.003074004430
      Gh(H)          -1.050586993751     1.944044406117    -1.521138658710     1.007825032230
      Gh(N)          -3.479124993751     1.344795406117    -1.521198658710    14.003074004430
      Gh(H)          -3.305244993751     2.354890406117    -1.521154658710     1.007825032230
      Gh(H)          -4.422939993751     0.993111406117    -1.521224658710     1.007825032230
      Gh(O)           1.083514006249     0.702344406117    -1.521175658710    15.994914619570
      Gh(H)          -0.010581993751    -4.437748593883    -1.521397658710     1.007825032230
      Gh(H)          -2.453330993751    -3.617207593883    -1.521394658710     1.007825032230
         N            1.031675006249    -0.713768593883     1.803955341290    14.003074004430
         C           -0.056925993751     0.154148406117     1.789663341290    12.000000000000
         N            0.294747006249     1.487361406117     1.806854341290    14.003074004430
         C            1.582877006249     2.004711406117     1.835825341290    12.000000000000
         C            2.674022006249     1.027535406117     1.849288341290    12.000000000000
         C            2.341485006249    -0.286795593883     1.832653341290    12.000000000000
         H            0.803946006249    -1.698149593883     1.792080341290     1.007825032230
         O           -1.212753993751    -0.247230593883     1.764191341290    15.994914619570
         H           -0.510254993751     2.172403406117     1.796632341290     1.007825032230
         O            1.767162006249     3.228042406117     1.848941341290    15.994914619570
         C            4.088687006249     1.528007406117     1.880104341290    12.000000000000
         H            4.798526006249     0.689622406117     1.894145341290     1.007825032230
         H            4.295208006249     2.158918406117     1.002719341290     1.007825032230
         H            4.257116006249     2.156702406117     2.767079341290     1.007825032230
         H            3.092345006249    -1.075755593883     1.841193341290     1.007825032230

  Running in c1 symmetry.

  Rotational constants: A =      0.01915  B =      0.00835  C =      0.00714 [cm^-1]
  Rotational constants: A =    574.19762  B =    250.46310  C =    214.04764 [MHz]
  Nuclear repulsion =  438.216145170192817

  Charge       = 0
  Multiplicity = 1
  Electrons    = 66
  Nalpha       = 33
  Nbeta        = 33

  ==> Algorithm <==

  SCF Algorithm Type is DF.
  DIIS enabled.
  MOM disabled.
  Fractional occupation disabled.
  Guess Type is SAD.
  Energy threshold   = 1.00e-08
  Density threshold  = 1.00e-08
  Integral threshold = 1.00e-12

  ==> Primary Basis <==

  Basis Set: AUG-CC-PVTZ
    Blend: AUG-CC-PVTZ
    Number of shells: 379
    Number of basis functions: 1173
    Number of Cartesian functions: 1375
    Spherical Harmonics?: true
    Max angular momentum: 3

   => Loading Basis Set <=

    Name: (AUG-CC-PVTZ AUX)
    Role: JKFIT
    Keyword: DF_BASIS_SCF
    atoms 1, 3, 7, 9, 11, 17, 19          entry N          line   224 file /opt/anaconda/envs/psi4v1.5/share/psi4/basis/aug-cc-pvtz-jkfit.gbs 
    atoms 2, 4-6, 8, 18, 20-22, 27        entry C          line   162 file /opt/anaconda/envs/psi4v1.5/share/psi4/basis/aug-cc-pvtz-jkfit.gbs 
    atoms 10, 12-13, 15-16, 23, 25, 28-31 entry H          line    70 file /opt/anaconda/envs/psi4v1.5/share/psi4/basis/aug-cc-pvtz-jkfit.gbs 
    atoms 14, 24, 26                      entry O          line   286 file /opt/anaconda/envs/psi4v1.5/share/psi4/basis/aug-cc-pvtz-jkfit.gbs 

  ==> Integral Setup <==

  ==> DiskDFJK: Density-Fitted J/K Matrices <==

    J tasked:                  Yes
    K tasked:                  Yes
    wK tasked:                  No
    OpenMP threads:              8
    Integrals threads:           8
    Memory [MiB]:            57220
    Algorithm:                Core
    Integral Cache:           LOAD
    Schwarz Cutoff:          1E-12
    Fitting Condition:       1E-10

   => Auxiliary Basis Set <=

  Basis Set: (AUG-CC-PVTZ AUX)
    Blend: AUG-CC-PVTZ-JKFIT
    Number of shells: 754
    Number of basis functions: 2586
    Number of Cartesian functions: 3225
    Spherical Harmonics?: true
    Max angular momentum: 4

  Minimum eigenvalue in the overlap matrix is 9.0207911116E-07.
  Reciprocal condition number of the overlap matrix is 4.3284854548E-08.
    Using symmetric orthogonalization.

  ==> Pre-Iterations <==

  SCF Guess: Superposition of Atomic Densities via on-the-fly atomic UHF (no occupation information).

   -------------------------
    Irrep   Nso     Nmo    
   -------------------------
     A       1173    1173 
   -------------------------
    Total    1173    1173
   -------------------------

  ==> Iterations <==

                           Total Energy        Delta E     RMS |[F,P]|

   @DF-RHF iter SAD:  -450.91023481211727   -4.50910e+02   0.00000e+00 
   @DF-RHF iter   1:  -451.37277009080827   -4.62535e-01   6.76690e-04 DIIS
   @DF-RHF iter   2:  -451.57024424204673   -1.97474e-01   4.46547e-04 DIIS
   @DF-RHF iter   3:  -451.66303511647021   -9.27909e-02   8.55327e-05 DIIS
   @DF-RHF iter   4:  -451.66848202419646   -5.44691e-03   3.43207e-05 DIIS
   @DF-RHF iter   5:  -451.66957776576453   -1.09574e-03   6.93111e-06 DIIS
   @DF-RHF iter   6:  -451.66969009017441   -1.12324e-04   3.57388e-06 DIIS
   @DF-RHF iter   7:  -451.66971327290088   -2.31827e-05   1.52862e-06 DIIS
   @DF-RHF iter   8:  -451.66971747224767   -4.19935e-06   5.80882e-07 DIIS
   @DF-RHF iter   9:  -451.66971794398296   -4.71735e-07   1.93136e-07 DIIS
   @DF-RHF iter  10:  -451.66971802289436   -7.89114e-08   7.61076e-08 DIIS
   @DF-RHF iter  11:  -451.66971803196202   -9.06766e-09   2.91506e-08 DIIS
   @DF-RHF iter  12:  -451.66971803338885   -1.42683e-09   9.23666e-09 DIIS
  Energy and wave function converged.


  ==> Post-Iterations <==

    Orbital Energies [Eh]
    ---------------------

    Doubly Occupied:                                                      

       1A    -20.543420     2A    -20.538821     3A    -15.640234  
       4A    -15.635327     5A    -11.417910     6A    -11.379397  
       7A    -11.331008     8A    -11.262660     9A    -11.241723  
      10A     -1.428319    11A     -1.387122    12A     -1.303465  
      13A     -1.242283    14A     -1.104652    15A     -0.966468  
      16A     -0.913012    17A     -0.893809    18A     -0.769671  
      19A     -0.765956    20A     -0.706289    21A     -0.673011  
      22A     -0.666234    23A     -0.637533    24A     -0.611914  
      25A     -0.588081    26A     -0.567321    27A     -0.556739  
      28A     -0.550013    29A     -0.511375    30A     -0.477900  
      31A     -0.446616    32A     -0.433710    33A     -0.352553  

    Virtual:                                                              

      34A      0.011797    35A      0.024713    36A      0.027671  
      37A      0.033780    38A      0.037982    39A      0.042581  
      40A      0.045635    41A      0.051546    42A      0.055477  
      43A      0.056626    44A      0.062992    45A      0.064952  
      46A      0.072128    47A      0.074474    48A      0.078998  
      49A      0.082625    50A      0.085322    51A      0.088321  
      52A      0.091033    53A      0.096544    54A      0.098790  
      55A      0.103658    56A      0.106697    57A      0.109500  
      58A      0.111440    59A      0.113570    60A      0.115612  
      61A      0.118724    62A      0.122700    63A      0.128355  
      64A      0.132733    65A      0.135814    66A      0.137151  
      67A      0.139679    68A      0.143522    69A      0.145127  
      70A      0.147688    71A      0.150878    72A      0.153843  
      73A      0.156265    74A      0.162123    75A      0.163421  
      76A      0.164383    77A      0.166237    78A      0.170016  
      79A      0.172904    80A      0.175544    81A      0.181726  
      82A      0.183978    83A      0.185385    84A      0.192438  
      85A      0.195330    86A      0.200119    87A      0.202431  
      88A      0.207225    89A      0.209342    90A      0.211085  
      91A      0.214209    92A      0.219308    93A      0.222246  
      94A      0.224911    95A      0.228814    96A      0.230159  
      97A      0.230845    98A      0.238912    99A      0.239557  
     100A      0.243136   101A      0.245518   102A      0.249167  
     103A      0.251962   104A      0.254316   105A      0.256637  
     106A      0.258401   107A      0.270527   108A      0.273880  
     109A      0.275465   110A      0.277537   111A      0.281169  
     112A      0.284123   113A      0.287063   114A      0.290623  
     115A      0.292751   116A      0.295297   117A      0.298184  
     118A      0.299096   119A      0.306394   120A      0.309131  
     121A      0.313687   122A      0.317763   123A      0.322140  
     124A      0.324489   125A      0.326629   126A      0.329792  
     127A      0.334058   128A      0.338143   129A      0.340661  
     130A      0.344892   131A      0.348235   132A      0.352527  
     133A      0.353454   134A      0.357498   135A      0.360887  
     136A      0.366266   137A      0.367451   138A      0.370136  
     139A      0.374709   140A      0.379537   141A      0.380808  
     142A      0.383800   143A      0.386898   144A      0.388301  
     145A      0.392757   146A      0.396945   147A      0.399659  
     148A      0.403502   149A      0.406933   150A      0.409380  
     151A      0.413426   152A      0.415824   153A      0.417156  
     154A      0.421200   155A      0.423869   156A      0.428623  
     157A      0.431129   158A      0.434520   159A      0.437561  
     160A      0.438089   161A      0.438755   162A      0.443142  
     163A      0.445294   164A      0.449541   165A      0.451775  
     166A      0.453240   167A      0.457778   168A      0.460198  
     169A      0.463748   170A      0.465026   171A      0.468418  
     172A      0.469608   173A      0.472376   174A      0.476865  
     175A      0.479590   176A      0.481202   177A      0.486596  
     178A      0.488861   179A      0.492702   180A      0.496376  
     181A      0.498728   182A      0.502956   183A      0.504865  
     184A      0.507353   185A      0.508922   186A      0.514662  
     187A      0.516753   188A      0.523623   189A      0.524824  
     190A      0.527096   191A      0.531459   192A      0.535083  
     193A      0.538894   194A      0.541276   195A      0.548382  
     196A      0.550013   197A      0.552449   198A      0.554306  
     199A      0.560811   200A      0.562780   201A      0.568537  
     202A      0.569370   203A      0.575385   204A      0.579992  
     205A      0.583416   206A      0.584459   207A      0.586421  
     208A      0.590283   209A      0.593261   210A      0.598265  
     211A      0.601744   212A      0.605887   213A      0.611143  
     214A      0.616944   215A      0.618285   216A      0.622696  
     217A      0.632681   218A      0.635865   219A      0.637725  
     220A      0.642377   221A      0.650408   222A      0.653010  
     223A      0.657740   224A      0.663404   225A      0.665231  
     226A      0.669162   227A      0.675689   228A      0.680352  
     229A      0.684367   230A      0.685205   231A      0.697739  
     232A      0.701984   233A      0.706971   234A      0.711319  
     235A      0.719347   236A      0.721551   237A      0.729229  
     238A      0.730202   239A      0.735209   240A      0.737153  
     241A      0.741735   242A      0.745003   243A      0.751800  
     244A      0.756945   245A      0.762246   246A      0.769256  
     247A      0.773133   248A      0.776978   249A      0.780178  
     250A      0.783509   251A      0.788544   252A      0.789518  
     253A      0.790733   254A      0.794508   255A      0.802237  
     256A      0.806295   257A      0.811678   258A      0.815924  
     259A      0.821200   260A      0.822572   261A      0.827634  
     262A      0.832786   263A      0.836842   264A      0.839909  
     265A      0.843251   266A      0.845773   267A      0.848660  
     268A      0.854990   269A      0.856481   270A      0.859852  
     271A      0.865990   272A      0.867696   273A      0.869494  
     274A      0.873376   275A      0.874648   276A      0.876523  
     277A      0.886059   278A      0.887065   279A      0.888721  
     280A      0.891335   281A      0.902083   282A      0.904919  
     283A      0.908484   284A      0.911219   285A      0.913955  
     286A      0.917464   287A      0.919873   288A      0.923063  
     289A      0.928646   290A      0.935118   291A      0.936963  
     292A      0.937799   293A      0.940890   294A      0.944414  
     295A      0.946655   296A      0.952741   297A      0.956192  
     298A      0.956904   299A      0.961664   300A      0.965072  
     301A      0.968504   302A      0.969480   303A      0.974352  
     304A      0.977032   305A      0.981944   306A      0.983817  
     307A      0.984618   308A      0.992829   309A      0.995213  
     310A      0.997951   311A      1.000863   312A      1.004163  
     313A      1.012057   314A      1.013272   315A      1.021077  
     316A      1.024760   317A      1.028026   318A      1.029526  
     319A      1.033092   320A      1.042075   321A      1.044425  
     322A      1.050728   323A      1.052372   324A      1.057950  
     325A      1.059288   326A      1.073161   327A      1.075126  
     328A      1.079017   329A      1.082245   330A      1.087703  
     331A      1.090941   332A      1.096264   333A      1.098062  
     334A      1.103336   335A      1.104365   336A      1.110245  
     337A      1.112804   338A      1.116621   339A      1.120886  
     340A      1.126682   341A      1.130513   342A      1.135486  
     343A      1.141336   344A      1.141918   345A      1.144750  
     346A      1.153264   347A      1.157607   348A      1.159206  
     349A      1.161523   350A      1.164124   351A      1.167894  
     352A      1.172299   353A      1.175077   354A      1.176760  
     355A      1.182947   356A      1.187786   357A      1.191960  
     358A      1.195333   359A      1.199222   360A      1.205537  
     361A      1.210482   362A      1.212662   363A      1.216660  
     364A      1.218285   365A      1.223885   366A      1.229768  
     367A      1.232206   368A      1.236798   369A      1.244464  
     370A      1.245116   371A      1.247180   372A      1.256308  
     373A      1.258190   374A      1.263857   375A      1.266731  
     376A      1.274425   377A      1.276150   378A      1.279439  
     379A      1.285608   380A      1.290475   381A      1.293811  
     382A      1.306082   383A      1.311509   384A      1.312310  
     385A      1.316459   386A      1.326405   387A      1.329483  
     388A      1.330847   389A      1.340741   390A      1.344861  
     391A      1.356397   392A      1.358090   393A      1.359103  
     394A      1.367589   395A      1.371201   396A      1.373468  
     397A      1.379805   398A      1.381548   399A      1.387836  
     400A      1.391808   401A      1.398204   402A      1.406016  
     403A      1.409690   404A      1.413555   405A      1.418138  
     406A      1.425904   407A      1.428249   408A      1.433862  
     409A      1.436712   410A      1.446189   411A      1.449217  
     412A      1.450974   413A      1.461709   414A      1.465674  
     415A      1.467655   416A      1.472951   417A      1.473958  
     418A      1.484747   419A      1.491017   420A      1.495752  
     421A      1.499077   422A      1.502465   423A      1.512891  
     424A      1.513380   425A      1.518670   426A      1.519691  
     427A      1.530966   428A      1.535819   429A      1.538228  
     430A      1.541059   431A      1.549265   432A      1.551579  
     433A      1.556630   434A      1.560223   435A      1.568786  
     436A      1.577997   437A      1.580404   438A      1.587202  
     439A      1.593968   440A      1.599260   441A      1.604591  
     442A      1.607861   443A      1.612281   444A      1.619309  
     445A      1.623280   446A      1.631934   447A      1.635227  
     448A      1.636073   449A      1.645740   450A      1.647311  
     451A      1.647740   452A      1.652673   453A      1.654051  
     454A      1.665557   455A      1.667863   456A      1.672581  
     457A      1.675161   458A      1.680822   459A      1.684386  
     460A      1.686177   461A      1.687834   462A      1.695822  
     463A      1.701469   464A      1.702608   465A      1.708063  
     466A      1.710067   467A      1.711743   468A      1.722667  
     469A      1.729754   470A      1.730682   471A      1.733879  
     472A      1.738128   473A      1.747421   474A      1.754997  
     475A      1.756294   476A      1.759352   477A      1.767730  
     478A      1.768420   479A      1.773170   480A      1.777204  
     481A      1.780251   482A      1.783308   483A      1.785833  
     484A      1.795093   485A      1.797203   486A      1.804133  
     487A      1.807023   488A      1.813137   489A      1.817787  
     490A      1.825866   491A      1.829478   492A      1.834703  
     493A      1.840868   494A      1.847539   495A      1.851271  
     496A      1.854777   497A      1.860556   498A      1.868585  
     499A      1.868968   500A      1.876980   501A      1.883948  
     502A      1.884967   503A      1.894357   504A      1.902433  
     505A      1.911069   506A      1.914033   507A      1.923652  
     508A      1.924862   509A      1.927585   510A      1.934138  
     511A      1.937295   512A      1.940510   513A      1.945599  
     514A      1.949689   515A      1.954450   516A      1.960945  
     517A      1.974615   518A      1.977907   519A      1.981587  
     520A      1.993662   521A      1.994658   522A      2.003684  
     523A      2.014826   524A      2.020825   525A      2.023634  
     526A      2.033623   527A      2.040973   528A      2.044245  
     529A      2.048467   530A      2.054261   531A      2.061663  
     532A      2.064819   533A      2.071797   534A      2.077250  
     535A      2.078860   536A      2.088549   537A      2.094221  
     538A      2.097433   539A      2.104668   540A      2.117404  
     541A      2.122639   542A      2.129689   543A      2.134651  
     544A      2.138316   545A      2.147465   546A      2.147935  
     547A      2.152535   548A      2.166337   549A      2.178059  
     550A      2.180973   551A      2.184608   552A      2.188512  
     553A      2.192675   554A      2.201380   555A      2.203821  
     556A      2.208845   557A      2.216169   558A      2.221819  
     559A      2.228875   560A      2.237920   561A      2.242396  
     562A      2.244701   563A      2.254165   564A      2.257972  
     565A      2.268921   566A      2.277201   567A      2.282225  
     568A      2.286744   569A      2.290033   570A      2.299919  
     571A      2.307248   572A      2.310872   573A      2.314313  
     574A      2.325353   575A      2.326557   576A      2.331412  
     577A      2.338740   578A      2.344820   579A      2.354166  
     580A      2.359089   581A      2.369466   582A      2.373696  
     583A      2.381733   584A      2.393776   585A      2.400694  
     586A      2.405593   587A      2.415437   588A      2.421015  
     589A      2.431682   590A      2.434709   591A      2.447087  
     592A      2.447828   593A      2.469497   594A      2.474271  
     595A      2.482002   596A      2.483557   597A      2.487412  
     598A      2.496796   599A      2.504518   600A      2.514682  
     601A      2.519842   602A      2.534017   603A      2.536071  
     604A      2.550468   605A      2.554275   606A      2.557078  
     607A      2.560923   608A      2.574109   609A      2.582064  
     610A      2.587174   611A      2.590867   612A      2.596409  
     613A      2.605577   614A      2.610949   615A      2.620314  
     616A      2.627155   617A      2.630126   618A      2.640646  
     619A      2.653798   620A      2.655075   621A      2.664734  
     622A      2.674438   623A      2.675243   624A      2.684983  
     625A      2.686667   626A      2.695468   627A      2.701656  
     628A      2.703341   629A      2.720768   630A      2.724187  
     631A      2.729576   632A      2.733783   633A      2.736325  
     634A      2.747607   635A      2.757331   636A      2.759340  
     637A      2.769633   638A      2.776696   639A      2.785360  
     640A      2.793724   641A      2.796742   642A      2.801255  
     643A      2.812930   644A      2.822306   645A      2.829923  
     646A      2.839388   647A      2.844824   648A      2.849682  
     649A      2.862941   650A      2.865236   651A      2.872787  
     652A      2.876919   653A      2.895134   654A      2.900068  
     655A      2.908560   656A      2.912617   657A      2.920579  
     658A      2.929268   659A      2.937211   660A      2.950244  
     661A      2.957670   662A      2.960945   663A      2.968699  
     664A      2.973346   665A      2.979292   666A      2.988712  
     667A      2.999710   668A      3.011352   669A      3.019443  
     670A      3.020410   671A      3.027082   672A      3.031177  
     673A      3.033706   674A      3.044181   675A      3.054330  
     676A      3.058671   677A      3.069353   678A      3.075023  
     679A      3.085934   680A      3.088349   681A      3.099081  
     682A      3.100493   683A      3.113084   684A      3.136187  
     685A      3.146457   686A      3.151224   687A      3.158579  
     688A      3.174060   689A      3.180060   690A      3.192363  
     691A      3.198521   692A      3.209179   693A      3.211793  
     694A      3.230469   695A      3.231243   696A      3.238380  
     697A      3.251540   698A      3.261754   699A      3.271850  
     700A      3.281926   701A      3.291077   702A      3.296993  
     703A      3.298984   704A      3.319731   705A      3.329264  
     706A      3.338110   707A      3.342916   708A      3.356990  
     709A      3.370976   710A      3.381071   711A      3.386180  
     712A      3.404765   713A      3.405822   714A      3.420652  
     715A      3.428083   716A      3.434006   717A      3.444252  
     718A      3.453793   719A      3.456195   720A      3.464420  
     721A      3.480545   722A      3.486744   723A      3.498952  
     724A      3.504514   725A      3.514318   726A      3.524534  
     727A      3.530523   728A      3.559479   729A      3.575438  
     730A      3.587069   731A      3.597262   732A      3.617597  
     733A      3.622920   734A      3.640340   735A      3.654470  
     736A      3.661179   737A      3.667792   738A      3.674063  
     739A      3.678920   740A      3.691561   741A      3.696771  
     742A      3.713503   743A      3.721498   744A      3.735029  
     745A      3.755551   746A      3.775020   747A      3.784522  
     748A      3.793363   749A      3.802949   750A      3.804624  
     751A      3.813557   752A      3.828063   753A      3.830294  
     754A      3.849244   755A      3.856175   756A      3.864570  
     757A      3.873816   758A      3.877852   759A      3.882353  
     760A      3.890125   761A      3.903776   762A      3.907745  
     763A      3.918492   764A      3.940179   765A      3.943190  
     766A      3.959556   767A      3.972039   768A      3.979146  
     769A      3.990006   770A      3.993391   771A      4.010556  
     772A      4.017549   773A      4.027353   774A      4.030876  
     775A      4.044610   776A      4.068976   777A      4.083214  
     778A      4.092629   779A      4.109388   780A      4.121095  
     781A      4.133623   782A      4.139275   783A      4.150868  
     784A      4.156093   785A      4.164465   786A      4.166591  
     787A      4.189996   788A      4.191402   789A      4.198905  
     790A      4.211588   791A      4.227150   792A      4.236440  
     793A      4.242184   794A      4.246507   795A      4.249575  
     796A      4.252491   797A      4.268085   798A      4.268780  
     799A      4.282735   800A      4.300074   801A      4.307194  
     802A      4.314145   803A      4.321870   804A      4.327618  
     805A      4.341512   806A      4.350652   807A      4.355641  
     808A      4.378816   809A      4.390477   810A      4.398936  
     811A      4.405098   812A      4.413300   813A      4.431521  
     814A      4.434397   815A      4.441966   816A      4.457542  
     817A      4.471197   818A      4.479869   819A      4.490088  
     820A      4.494102   821A      4.501626   822A      4.519555  
     823A      4.528924   824A      4.536871   825A      4.538965  
     826A      4.547539   827A      4.555805   828A      4.563772  
     829A      4.567911   830A      4.575877   831A      4.581550  
     832A      4.594263   833A      4.599338   834A      4.622888  
     835A      4.636521   836A      4.645735   837A      4.652561  
     838A      4.658369   839A      4.665135   840A      4.675052  
     841A      4.681746   842A      4.690218   843A      4.692843  
     844A      4.701300   845A      4.713296   846A      4.718242  
     847A      4.723878   848A      4.727042   849A      4.745727  
     850A      4.751404   851A      4.758095   852A      4.765178  
     853A      4.773688   854A      4.777983   855A      4.786300  
     856A      4.788515   857A      4.792342   858A      4.797895  
     859A      4.805889   860A      4.811009   861A      4.824672  
     862A      4.838133   863A      4.861189   864A      4.871455  
     865A      4.886121   866A      4.888665   867A      4.908963  
     868A      4.913753   869A      4.921257   870A      4.924512  
     871A      4.932367   872A      4.942168   873A      4.944273  
     874A      4.959321   875A      4.964075   876A      4.974970  
     877A      4.977436   878A      4.986165   879A      4.994549  
     880A      5.002196   881A      5.007088   882A      5.009477  
     883A      5.014618   884A      5.026204   885A      5.034293  
     886A      5.051309   887A      5.059207   888A      5.066851  
     889A      5.072499   890A      5.078333   891A      5.086644  
     892A      5.095719   893A      5.107954   894A      5.112153  
     895A      5.121636   896A      5.138182   897A      5.145670  
     898A      5.151010   899A      5.156707   900A      5.161524  
     901A      5.180637   902A      5.188909   903A      5.202596  
     904A      5.204983   905A      5.210176   906A      5.225017  
     907A      5.253261   908A      5.267506   909A      5.281016  
     910A      5.290765   911A      5.306585   912A      5.313396  
     913A      5.321995   914A      5.326767   915A      5.337101  
     916A      5.346267   917A      5.351325   918A      5.362369  
     919A      5.368489   920A      5.379534   921A      5.394295  
     922A      5.407836   923A      5.420407   924A      5.425683  
     925A      5.444114   926A      5.450355   927A      5.459182  
     928A      5.476495   929A      5.486584   930A      5.493128  
     931A      5.495049   932A      5.518314   933A      5.527208  
     934A      5.549530   935A      5.566000   936A      5.570167  
     937A      5.574024   938A      5.578213   939A      5.587439  
     940A      5.594738   941A      5.598457   942A      5.603586  
     943A      5.614977   944A      5.618360   945A      5.639509  
     946A      5.654630   947A      5.668505   948A      5.690567  
     949A      5.704534   950A      5.727959   951A      5.745341  
     952A      5.749644   953A      5.759794   954A      5.770248  
     955A      5.780180   956A      5.804711   957A      5.809191  
     958A      5.822152   959A      5.844103   960A      5.845608  
     961A      5.882267   962A      5.897491   963A      5.928538  
     964A      5.935088   965A      5.946066   966A      5.947100  
     967A      5.960009   968A      5.970497   969A      6.012503  
     970A      6.018937   971A      6.025799   972A      6.049375  
     973A      6.088101   974A      6.089400   975A      6.098878  
     976A      6.111270   977A      6.122408   978A      6.127217  
     979A      6.137704   980A      6.142713   981A      6.166301  
     982A      6.181915   983A      6.187354   984A      6.208763  
     985A      6.222923   986A      6.229148   987A      6.241080  
     988A      6.275191   989A      6.286314   990A      6.305485  
     991A      6.311496   992A      6.361510   993A      6.383356  
     994A      6.400667   995A      6.405830   996A      6.413769  
     997A      6.461224   998A      6.486880   999A      6.498332  
    1000A      6.504809  1001A      6.521719  1002A      6.532110  
    1003A      6.543288  1004A      6.547343  1005A      6.572937  
    1006A      6.588927  1007A      6.592171  1008A      6.636397  
    1009A      6.648041  1010A      6.661387  1011A      6.695436  
    1012A      6.705092  1013A      6.718844  1014A      6.738680  
    1015A      6.746219  1016A      6.755178  1017A      6.760959  
    1018A      6.777532  1019A      6.785669  1020A      6.791793  
    1021A      6.800906  1022A      6.806765  1023A      6.816075  
    1024A      6.824984  1025A      6.836031  1026A      6.837066  
    1027A      6.851712  1028A      6.854612  1029A      6.882595  
    1030A      6.894738  1031A      6.900709  1032A      6.928174  
    1033A      6.946846  1034A      6.951015  1035A      6.958738  
    1036A      6.991709  1037A      6.999773  1038A      7.015864  
    1039A      7.048043  1040A      7.069279  1041A      7.086383  
    1042A      7.103603  1043A      7.120616  1044A      7.180323  
    1045A      7.185418  1046A      7.223202  1047A      7.268387  
    1048A      7.295562  1049A      7.297569  1050A      7.335531  
    1051A      7.368467  1052A      7.392898  1053A      7.419655  
    1054A      7.435980  1055A      7.442495  1056A      7.445195  
    1057A      7.469222  1058A      7.473266  1059A      7.484937  
    1060A      7.503115  1061A      7.522561  1062A      7.546197  
    1063A      7.615506  1064A      7.625970  1065A      7.637865  
    1066A      7.644108  1067A      7.648733  1068A      7.666764  
    1069A      7.673944  1070A      7.678233  1071A      7.696654  
    1072A      7.713395  1073A      7.724244  1074A      7.733774  
    1075A      7.758951  1076A      7.763766  1077A      7.771129  
    1078A      7.776680  1079A      7.801971  1080A      7.835285  
    1081A      7.851805  1082A      7.863686  1083A      7.881170  
    1084A      7.914100  1085A      7.923695  1086A      7.944664  
    1087A      7.948537  1088A      7.968394  1089A      8.001958  
    1090A      8.009859  1091A      8.015203  1092A      8.021858  
    1093A      8.035958  1094A      8.041898  1095A      8.071799  
    1096A      8.078772  1097A      8.118042  1098A      8.181818  
    1099A      8.201482  1100A      8.273209  1101A      8.299842  
    1102A      8.324309  1103A      8.362714  1104A      8.418132  
    1105A      8.498719  1106A      8.587607  1107A      8.597162  
    1108A      8.717658  1109A      8.741229  1110A      8.807422  
    1111A      8.849344  1112A      8.956987  1113A      9.029614  
    1114A      9.078231  1115A      9.161824  1116A      9.268556  
    1117A      9.358383  1118A      9.435943  1119A      9.509314  
    1120A      9.600470  1121A      9.619274  1122A      9.674218  
    1123A      9.800005  1124A      9.812026  1125A      9.999054  
    1126A     10.045826  1127A     10.182632  1128A     10.325306  
    1129A     10.394565  1130A     10.419116  1131A     10.465371  
    1132A     10.573327  1133A     10.732750  1134A     11.118923  
    1135A     11.166851  1136A     11.287238  1137A     11.422540  
    1138A     11.451812  1139A     11.653457  1140A     11.731895  
    1141A     11.994250  1142A     12.036171  1143A     12.093659  
    1144A     12.106348  1145A     12.195214  1146A     12.302552  
    1147A     12.395763  1148A     12.604296  1149A     12.786611  
    1150A     12.960922  1151A     13.365399  1152A     13.588957  
    1153A     14.216712  1154A     15.846680  1155A     16.168836  
    1156A     16.412968  1157A     16.848753  1158A     18.130386  
    1159A     19.164681  1160A     20.341648  1161A     20.733106  
    1162A     21.120216  1163A     52.035716  1164A     52.314043  
    1165A     53.300275  1166A     54.165907  1167A     57.051188  
    1168A     60.120460  1169A     61.735157  1170A     62.104928  
    1171A     63.501151  1172A     65.638044  1173A     70.221580  

    Final Occupation by Irrep:
              A 
    DOCC [    33 ]

  @DF-RHF Final Energy:  -451.66971803338885

   => Energetics <=

    Nuclear Repulsion Energy =            438.2161451701928172
    One-Electron Energy =               -1484.6826240934660746
    Two-Electron Energy =                 594.7967608898844674
    Total Energy =                       -451.6697180333889037

Computation Completed


Properties will be evaluated at   0.000000,   0.000000,   0.000000 [a0]

Properties computed using the SCF density matrix

  Nuclear Dipole Moment: [e a0]
     X:   178.0840      Y:   113.8201      Z:   227.5226

  Electronic Dipole Moment: [e a0]
     X:  -176.8734      Y:  -115.2711      Z:  -227.5101

  Dipole Moment: [e a0]
     X:     1.2105      Y:    -1.4509      Z:     0.0125     Total:     1.8896

  Dipole Moment: [D]
     X:     3.0768      Y:    -3.6879      Z:     0.0318     Total:     4.8030


*** tstop() called on node156.bme.utexas.edu at Mon Jan 22 15:40:54 2024
Module time:
	user time   =     954.39 seconds =      15.91 minutes
	system time =       6.46 seconds =       0.11 minutes
	total time  =        142 seconds =       2.37 minutes
Total time:
	user time   =    4510.39 seconds =      75.17 minutes
	system time =      63.73 seconds =       1.06 minutes
	total time  =        774 seconds =      12.90 minutes

*** tstart() called on node156.bme.utexas.edu
*** at Mon Jan 22 15:40:54 2024


  //>>>>>>>>>>>>>>>>>>>>>>>>>>>>>>>>>>>//
  //               DFMP2               //
  //<<<<<<<<<<<<<<<<<<<<<<<<<<<<<<<<<<<//

   => Loading Basis Set <=

    Name: (AUG-CC-PVTZ AUX)
    Role: RIFIT
    Keyword: DF_BASIS_MP2
    atoms 1, 3, 7, 9, 11, 17, 19          entry N          line   206 file /opt/anaconda/envs/psi4v1.5/share/psi4/basis/aug-cc-pvtz-ri.gbs 
    atoms 2, 4-6, 8, 18, 20-22, 27        entry C          line   148 file /opt/anaconda/envs/psi4v1.5/share/psi4/basis/aug-cc-pvtz-ri.gbs 
    atoms 10, 12-13, 15-16, 23, 25, 28-31 entry H          line    30 file /opt/anaconda/envs/psi4v1.5/share/psi4/basis/aug-cc-pvtz-ri.gbs 
    atoms 14, 24, 26                      entry O          line   264 file /opt/anaconda/envs/psi4v1.5/share/psi4/basis/aug-cc-pvtz-ri.gbs 

	 --------------------------------------------------------
	                          DF-MP2                         
	      2nd-Order Density-Fitted Moller-Plesset Theory     
	              RMP2 Wavefunction,   8 Threads             
	                                                         
	        Rob Parrish, Justin Turney, Andy Simmonett,      
	           Ed Hohenstein, and C. David Sherrill          
	 --------------------------------------------------------

   => Auxiliary Basis Set <=

  Basis Set: (AUG-CC-PVTZ AUX)
    Blend: AUG-CC-PVTZ-RI
    Number of shells: 714
    Number of basis functions: 2626
    Number of Cartesian functions: 3325
    Spherical Harmonics?: true
    Max angular momentum: 4

	 --------------------------------------------------------
	                 NBF =  1173, NAUX =  2626
	 --------------------------------------------------------
	   CLASS    FOCC     OCC    AOCC    AVIR     VIR    FVIR
	   PAIRS       9      33      24    1140    1140       0
	 --------------------------------------------------------

	 Will attempt to load fitting metric from file 97.

	-----------------------------------------------------------
	 ==================> DF-MP2 Energies <==================== 
	-----------------------------------------------------------
	 Reference Energy          =    -451.6697180333888468 [Eh]
	 Singles Energy            =      -0.0000000000000000 [Eh]
	 Same-Spin Energy          =      -0.4340075684545626 [Eh]
	 Opposite-Spin Energy      =      -1.2517694709046547 [Eh]
	 Correlation Energy        =      -1.6857770393592173 [Eh]
	 Total Energy              =    -453.3554950727480559 [Eh]
	-----------------------------------------------------------
	 ================> DF-SCS-MP2 Energies <================== 
	-----------------------------------------------------------
	 SCS Same-Spin Scale       =       0.3333333333333333 [-]
	 SCS Opposite-Spin Scale   =       1.2000000000000000 [-]
	 SCS Same-Spin Energy      =      -0.1446691894848542 [Eh]
	 SCS Opposite-Spin Energy  =      -1.5021233650855856 [Eh]
	 SCS Correlation Energy    =      -1.6467925545704398 [Eh]
	 SCS Total Energy          =    -453.3165105879592716 [Eh]
	-----------------------------------------------------------


*** tstop() called on node156.bme.utexas.edu at Mon Jan 22 15:41:27 2024
Module time:
	user time   =     172.98 seconds =       2.88 minutes
	system time =       4.33 seconds =       0.07 minutes
	total time  =         33 seconds =       0.55 minutes
Total time:
	user time   =    4683.38 seconds =      78.06 minutes
	system time =      68.06 seconds =       1.13 minutes
	total time  =        807 seconds =      13.45 minutes
  Constructing Basis Sets for SAPT...

   => Loading Basis Set <=

    Name: (AUG-CC-PVTZ AUX)
    Role: RIFIT
    Keyword: DF_BASIS_SAPT
    atoms 1, 3, 7, 9, 11, 17, 19          entry N          line   206 file /opt/anaconda/envs/psi4v1.5/share/psi4/basis/aug-cc-pvtz-ri.gbs 
    atoms 2, 4-6, 8, 18, 20-22, 27        entry C          line   148 file /opt/anaconda/envs/psi4v1.5/share/psi4/basis/aug-cc-pvtz-ri.gbs 
    atoms 10, 12-13, 15-16, 23, 25, 28-31 entry H          line    30 file /opt/anaconda/envs/psi4v1.5/share/psi4/basis/aug-cc-pvtz-ri.gbs 
    atoms 14, 24, 26                      entry O          line   264 file /opt/anaconda/envs/psi4v1.5/share/psi4/basis/aug-cc-pvtz-ri.gbs 


  //>>>>>>>>>>>>>>>>>>>>>>>>>>>>>>>>>>>//
  //           SAPT2+(3)DMP2           //
  //<<<<<<<<<<<<<<<<<<<<<<<<<<<<<<<<<<<//


*** tstart() called on node156.bme.utexas.edu
*** at Mon Jan 22 15:41:27 2024

      SAPT2+(3)  
    Ed Hohenstein
     6 June 2009

      Orbital Information
  --------------------------
    NSO        =      1173
    NMO        =      1173
    NRI        =      2626
    NOCC A     =        39
    NOCC B     =        33
    FOCC A     =        11
    FOCC B     =         9
    NVIR A     =      1134
    NVIR B     =      1140

    Estimated memory usage: 74742.6 MB

    Natural Orbital Cutoff:   1.000E-06
    Disp(T3) Truncation:            Yes
    CCD (vv|vv) Truncation:         Yes
    MBPT T2 Truncation:             Yes

    Monomer A: 599 virtual orbitals dropped
    Monomer B: 667 virtual orbitals dropped

    Elst10,r            =    -0.006372940363 [Eh]
    Exch10 (S^2)        =     0.005712238175 [Eh]
    Exch10              =     0.005716630770 [Eh]
    Ind20,r (A<-B)      =    -0.001981261866 [Eh]
    Ind20,r (B<-A)      =    -0.001771775148 [Eh]
    Ind20,r             =    -0.003753037014 [Eh]
    Exch-Ind20,r (A<-B) =     0.001331839067 [Eh]
    Exch-Ind20,r (B<-A) =     0.000734383360 [Eh]
    Exch-Ind20,r        =     0.002066222428 [Eh]
    Disp20              =    -0.013381110444 [Eh]
    Disp20 (NO)         =    -0.012572531331 [Eh]
    Exch-Disp20         =     0.000969940286 [Eh]
    Elst12,r            =     0.001303903671 [Eh]
    Exch11              =     0.000070748210 [Eh]
    Exch12              =     0.000713117407 [Eh]
    Ind22               =     0.000087090076 [Eh]
    Disp21              =     0.004112472424 [Eh]
    Disp22 (SDQ)        =    -0.000850980397 [Eh]

    (i =   1 of  24)       5295 seconds
    (i =   2 of  24)      10640 seconds
    (i =   3 of  24)      16043 seconds
    (i =   4 of  24)      22227 seconds
    (i =   5 of  24)      28173 seconds
    (i =   6 of  24)      34589 seconds
    (i =   7 of  24)      41479 seconds
    (i =   8 of  24)      47700 seconds
    (i =   9 of  24)      54391 seconds
    (i =  10 of  24)      60713 seconds
    (i =  11 of  24)      67493 seconds
    (i =  12 of  24)      73830 seconds
    (i =  13 of  24)      80382 seconds
    (i =  14 of  24)      86674 seconds
    (i =  15 of  24)      93463 seconds
    (i =  16 of  24)      99767 seconds
    (i =  17 of  24)     106336 seconds
    (i =  18 of  24)     112819 seconds
    (i =  19 of  24)     119309 seconds
    (i =  20 of  24)     126065 seconds
    (i =  21 of  24)     132580 seconds
    (i =  22 of  24)     139521 seconds
    (i =  23 of  24)     146107 seconds
    (i =  24 of  24)     153096 seconds

    Disp220 (T)         =    -0.001592143183 [Eh]

    (i =   1 of  28)       4749 seconds
    (i =   2 of  28)       9719 seconds
    (i =   3 of  28)      14439 seconds
    (i =   4 of  28)      19335 seconds
    (i =   5 of  28)      24121 seconds
    (i =   6 of  28)      28779 seconds
    (i =   7 of  28)      33369 seconds
    (i =   8 of  28)      38078 seconds
    (i =   9 of  28)      43257 seconds
    (i =  10 of  28)      47745 seconds
    (i =  11 of  28)      52371 seconds
    (i =  12 of  28)      56754 seconds
    (i =  13 of  28)      61207 seconds
    (i =  14 of  28)      64376 seconds
    (i =  15 of  28)      67686 seconds
    (i =  16 of  28)      71337 seconds
    (i =  17 of  28)      74641 seconds
    (i =  18 of  28)      78350 seconds
    (i =  19 of  28)      82789 seconds
    (i =  20 of  28)      86669 seconds
    (i =  21 of  28)      91056 seconds
    (i =  22 of  28)      95804 seconds
    (i =  23 of  28)     100972 seconds
    (i =  24 of  28)     106002 seconds
    (i =  25 of  28)     110988 seconds
    (i =  26 of  28)     116149 seconds
    (i =  27 of  28)     121103 seconds
    (i =  28 of  28)     125393 seconds

    Disp202 (T)         =    -0.001529156925 [Eh]

    Disp22 (T)          =    -0.003121300108 [Eh]

    Est. Disp220 (T)    =    -0.001694538929 [Eh]
    Est. Disp202 (T)    =    -0.001627501826 [Eh]

    Est. Disp22 (T)     =    -0.003322040755 [Eh]
    Elst13,r            =    -0.000354832534 [Eh]
    Disp30              =     0.000247528906 [Eh]

    SAPT Results 
  --------------------------------------------------------------------------------------------------------
    Electrostatics                 -5.42386923 [mEh]      -3.40352932 [kcal/mol]     -14.24036669 [kJ/mol]
      Elst10,r                     -6.37294036 [mEh]      -3.99908045 [kcal/mol]     -16.73215262 [kJ/mol]
      Elst12,r                      1.30390367 [mEh]       0.81821191 [kcal/mol]       3.42339862 [kJ/mol]
      Elst13,r                     -0.35483253 [mEh]      -0.22266078 [kcal/mol]      -0.93161269 [kJ/mol]

    Exchange                        6.50049639 [mEh]       4.07912307 [kcal/mol]      17.06705091 [kJ/mol]
      Exch10                        5.71663077 [mEh]       3.58723997 [kcal/mol]      15.00901202 [kJ/mol]
      Exch10(S^2)                   5.71223817 [mEh]       3.58448357 [kcal/mol]      14.99747926 [kJ/mol]
      Exch11(S^2)                   0.07074821 [mEh]       0.04439517 [kcal/mol]       0.18574940 [kJ/mol]
      Exch12(S^2)                   0.71311741 [mEh]       0.44748793 [kcal/mol]       1.87228949 [kJ/mol]

    Induction                      -1.62321832 [mEh]      -1.01858487 [kcal/mol]      -4.26175910 [kJ/mol]
      Ind20,r                      -3.75303701 [mEh]      -2.35506628 [kcal/mol]      -9.85359732 [kJ/mol]
      Ind22                         0.08709008 [mEh]       0.05464985 [kcal/mol]       0.22865496 [kJ/mol]
      Exch-Ind20,r                  2.06622243 [mEh]       1.29657415 [kcal/mol]       5.42486624 [kJ/mol]
      Exch-Ind22                   -0.04794716 [mEh]      -0.03008730 [kcal/mol]      -0.12588525 [kJ/mol]
      delta HF,r (2)               -0.42888958 [mEh]      -0.26913227 [kcal/mol]      -1.12604943 [kJ/mol]
      delta MP2,r (2)               0.45334293 [mEh]       0.28447699 [kcal/mol]       1.19025171 [kJ/mol]

    Dispersion                    -12.22418998 [mEh]      -7.67079502 [kcal/mol]     -32.09460637 [kJ/mol]
      Disp20                      -13.38111044 [mEh]      -8.39677357 [kcal/mol]     -35.13210063 [kJ/mol]
      Disp30                        0.24752891 [mEh]       0.15532673 [kcal/mol]       0.64988705 [kJ/mol]
      Disp21                        4.11247242 [mEh]       2.58061541 [kcal/mol]      10.79729486 [kJ/mol]
      Disp22 (SDQ)                 -0.85098040 [mEh]      -0.53399826 [kcal/mol]      -2.23424873 [kJ/mol]
      Disp22 (T)                   -3.12130011 [mEh]      -1.95864539 [kcal/mol]      -8.19497230 [kJ/mol]
      Est. Disp22 (T)              -3.32204075 [mEh]      -2.08461205 [kcal/mol]      -8.72201680 [kJ/mol]
      Exch-Disp20                   0.96994029 [mEh]       0.60864672 [kcal/mol]       2.54657787 [kJ/mol]

  Total HF                         -2.77201376 [mEh]      -1.73946489 [kcal/mol]      -7.27792112 [kJ/mol]
  Total SAPT0                     -15.18318392 [mEh]      -9.52759175 [kcal/mol]     -39.86344388 [kJ/mol]
  Total SAPT2                     -13.05627171 [mEh]      -8.19293419 [kcal/mol]     -34.27923666 [kJ/mol]
  Total SAPT2+                    -13.11682044 [mEh]      -8.23092909 [kcal/mol]     -34.43820732 [kJ/mol]
  Total SAPT2+(3)                 -13.22412407 [mEh]      -8.29826314 [kcal/mol]     -34.71993296 [kJ/mol]
  Total SAPT2+dMP2                -12.66347751 [mEh]      -7.94645211 [kcal/mol]     -33.24795562 [kJ/mol]
  Total SAPT2+(3)dMP2             -12.77078114 [mEh]      -8.01378615 [kcal/mol]     -33.52968125 [kJ/mol]

  Special recipe for scaled SAPT0 (see Manual):
    Electrostatics sSAPT0          -6.37294036 [mEh]      -3.99908045 [kcal/mol]     -16.73215262 [kJ/mol]
    Exchange sSAPT0                 5.71663077 [mEh]       3.58723997 [kcal/mol]      15.00901202 [kJ/mol]
    Induction sSAPT0               -2.11093385 [mEh]      -1.32463099 [kcal/mol]      -5.54225606 [kJ/mol]
    Dispersion sSAPT0             -12.40893084 [mEh]      -7.78672166 [kcal/mol]     -32.57964344 [kJ/mol]
  Total sSAPT0                    -15.17617429 [mEh]      -9.52319314 [kcal/mol]     -39.84504010 [kJ/mol]
  --------------------------------------------------------------------------------------------------------

*** tstop() called on node156.bme.utexas.edu at Fri Jan 26 04:47:02 2024
Module time:
	user time   = 1669647.11 seconds =   27827.45 minutes
	system time =    3748.98 seconds =      62.48 minutes
	total time  =     306335 seconds =    5105.58 minutes
Total time:
	user time   = 1674331.30 seconds =   27905.52 minutes
	system time =    3817.05 seconds =      63.62 minutes
	total time  =     307142 seconds =    5119.03 minutes

    Psi4 stopped on: Friday, 26 January 2024 04:47AM
    Psi4 wall time for execution: 3 days, 13:19:01.94

*** Psi4 exiting successfully. Buy a developer a beer!
