
    -----------------------------------------------------------------------
          Psi4: An Open-Source Ab Initio Electronic Structure Package
                               Psi4 1.5 release

                         Git: Rev {HEAD} e9f4d6d 


    D. G. A. Smith, L. A. Burns, A. C. Simmonett, R. M. Parrish,
    M. C. Schieber, R. Galvelis, P. Kraus, H. Kruse, R. Di Remigio,
    A. Alenaizan, A. M. James, S. Lehtola, J. P. Misiewicz, M. Scheurer,
    R. A. Shaw, J. B. Schriber, Y. Xie, Z. L. Glick, D. A. Sirianni,
    J. S. O'Brien, J. M. Waldrop, A. Kumar, E. G. Hohenstein,
    B. P. Pritchard, B. R. Brooks, H. F. Schaefer III, A. Yu. Sokolov,
    K. Patkowski, A. E. DePrince III, U. Bozkaya, R. A. King,
    F. A. Evangelista, J. M. Turney, T. D. Crawford, C. D. Sherrill,
    J. Chem. Phys. 152(18) 184108 (2020). https://doi.org/10.1063/5.0006002

                            Additional Code Authors
    E. T. Seidl, C. L. Janssen, E. F. Valeev, M. L. Leininger,
    J. F. Gonthier, R. M. Richard, H. R. McAlexander, M. Saitow, X. Wang,
    P. Verma, M. H. Lechner, and A. Jiang

             Previous Authors, Complete List of Code Contributors,
                       and Citations for Specific Modules
    https://github.com/psi4/psi4/blob/master/codemeta.json
    https://github.com/psi4/psi4/graphs/contributors
    http://psicode.org/psi4manual/master/introduction.html#citing-psifour

    -----------------------------------------------------------------------


    Psi4 started on: Sunday, 12 May 2024 11:42PM

    Process ID: 3960642
    Host:       node154.bme.utexas.edu
    PSIDATADIR: /opt/anaconda/envs/psi4v1.5/share/psi4
    Memory:     500.0 MiB
    Threads:    8
    
  ==> Input File <==

--------------------------------------------------------------------------
memory 80GB

molecule {
0 1
N -1.252617 4.415339 -1e-06
C -1.48122 3.025044 5.3e-05
N -0.395947 2.209109 0.0001
C 0.847406 2.714237 0.0001
C 1.088893 4.139708 4.7e-05
C 0.0 4.951862 0.0
H -2.078756 4.999035 -4.1e-05
O -2.652372 2.623116 6e-05
N 1.866869 1.849375 0.000149
H 1.692519 0.821507 0.000207
H 2.81458 2.192942 0.000155
H 2.096261 4.547306 4.3e-05
H 0.068633 6.038934 -4.4e-05
--
0 1
N -1.543278 1.702796 3.299966
C -2.781705 1.170437 3.271699
N -3.94866 1.815752 3.253772
C -3.771534 3.147459 3.267384
C -2.554399 3.83808 3.296481
C -1.382762 3.045687 3.313355
N -2.751726 5.208943 3.303072
C -4.057308 5.34522 3.278553
N -4.729191 4.137135 3.256184
H -2.808765 0.079524 3.262857
N -0.141696 3.560691 3.341565
H -0.036404 4.563748 3.351315
H 0.677549 2.945149 3.352988
H -4.589851 6.291049 3.275341
H -5.728866 3.991762 3.235495
 units angstrom
 no_reorient
 symmetry c1}
set  {scf_type DF
 basis aug-cc-pvdz
 freeze_core True
 guess SAD}
energy('sapt2+(3)dmp2')
--------------------------------------------------------------------------

  Memory set to  74.506 GiB by Python driver.

Scratch directory: /tmp/
   => Loading Basis Set <=

    Name: AUG-CC-PVDZ
    Role: ORBITAL
    Keyword: BASIS
    atoms 1, 3, 9, 14, 16, 20, 22, 24 entry N          line   218 file /opt/anaconda/envs/psi4v1.5/share/psi4/basis/aug-cc-pvdz.gbs 
    atoms 2, 4-6, 15, 17-19, 21       entry C          line   182 file /opt/anaconda/envs/psi4v1.5/share/psi4/basis/aug-cc-pvdz.gbs 
    atoms 7, 10-13, 23, 25-28         entry H          line    40 file /opt/anaconda/envs/psi4v1.5/share/psi4/basis/aug-cc-pvdz.gbs 
    atoms 8                           entry O          line   254 file /opt/anaconda/envs/psi4v1.5/share/psi4/basis/aug-cc-pvdz.gbs 

   => Loading Basis Set <=

    Name: AUG-CC-PVDZ
    Role: ORBITAL
    Keyword: BASIS
    atoms 1, 3, 9, 14, 16, 20, 22, 24 entry N          line   218 file /opt/anaconda/envs/psi4v1.5/share/psi4/basis/aug-cc-pvdz.gbs 
    atoms 2, 4-6, 15, 17-19, 21       entry C          line   182 file /opt/anaconda/envs/psi4v1.5/share/psi4/basis/aug-cc-pvdz.gbs 
    atoms 7, 10-13, 23, 25-28         entry H          line    40 file /opt/anaconda/envs/psi4v1.5/share/psi4/basis/aug-cc-pvdz.gbs 
    atoms 8                           entry O          line   254 file /opt/anaconda/envs/psi4v1.5/share/psi4/basis/aug-cc-pvdz.gbs 


  //>>>>>>>>>>>>>>>>>>>>>>>>>>>>>>>>>>>//
  //              Dimer HF             //
  //<<<<<<<<<<<<<<<<<<<<<<<<<<<<<<<<<<<//


*** tstart() called on node154.bme.utexas.edu
*** at Sun May 12 23:42:38 2024

   => Loading Basis Set <=

    Name: AUG-CC-PVDZ
    Role: ORBITAL
    Keyword: BASIS
    atoms 1, 3, 9, 14, 16, 20, 22, 24 entry N          line   218 file /opt/anaconda/envs/psi4v1.5/share/psi4/basis/aug-cc-pvdz.gbs 
    atoms 2, 4-6, 15, 17-19, 21       entry C          line   182 file /opt/anaconda/envs/psi4v1.5/share/psi4/basis/aug-cc-pvdz.gbs 
    atoms 7, 10-13, 23, 25-28         entry H          line    40 file /opt/anaconda/envs/psi4v1.5/share/psi4/basis/aug-cc-pvdz.gbs 
    atoms 8                           entry O          line   254 file /opt/anaconda/envs/psi4v1.5/share/psi4/basis/aug-cc-pvdz.gbs 


         ---------------------------------------------------------
                                   SCF
               by Justin Turney, Rob Parrish, Andy Simmonett
                          and Daniel G. A. Smith
                              RHF Reference
                        8 Threads,  76293 MiB Core
         ---------------------------------------------------------

  ==> Geometry <==

    Molecular point group: c1
    Full point group: C1

    Geometry (in Angstrom), charge = 0, multiplicity = 1:

       Center              X                  Y                   Z               Mass       
    ------------   -----------------  -----------------  -----------------  -----------------
         N            0.373070155676     1.148709605226    -1.804804784698    14.003074004430
         C            0.144467155676    -0.241585394774    -1.804750784698    12.000000000000
         N            1.229740155676    -1.057520394774    -1.804703784698    14.003074004430
         C            2.473093155676    -0.552392394774    -1.804703784698    12.000000000000
         C            2.714580155676     0.873078605226    -1.804756784698    12.000000000000
         C            1.625687155676     1.685232605226    -1.804803784698    12.000000000000
         H           -0.453068844324     1.732405605226    -1.804844784698     1.007825032230
         O           -1.026684844324    -0.643513394774    -1.804743784698    15.994914619570
         N            3.492556155676    -1.417254394774    -1.804654784698    14.003074004430
         H            3.318206155676    -2.445122394774    -1.804596784698     1.007825032230
         H            4.440267155676    -1.073687394774    -1.804648784698     1.007825032230
         H            3.721948155676     1.280676605226    -1.804760784698     1.007825032230
         H            1.694320155676     2.772304605226    -1.804847784698     1.007825032230
         N            0.082409155676    -1.563833394774     1.495162215302    14.003074004430
         C           -1.156017844324    -2.096192394774     1.466895215302    12.000000000000
         N           -2.322972844324    -1.450877394774     1.448968215302    14.003074004430
         C           -2.145846844324    -0.119170394774     1.462580215302    12.000000000000
         C           -0.928711844324     0.571450605226     1.491677215302    12.000000000000
         C            0.242925155676    -0.220942394774     1.508551215302    12.000000000000
         N           -1.126038844324     1.942313605226     1.498268215302    14.003074004430
         C           -2.431620844324     2.078590605226     1.473749215302    12.000000000000
         N           -3.103503844324     0.870505605226     1.451380215302    14.003074004430
         H           -1.183077844324    -3.187105394774     1.458053215302     1.007825032230
         N            1.483991155676     0.294061605226     1.536761215302    14.003074004430
         H            1.589283155676     1.297118605226     1.546511215302     1.007825032230
         H            2.303236155676    -0.321480394774     1.548184215302     1.007825032230
         H           -2.964163844324     3.024419605226     1.470537215302     1.007825032230
         H           -4.103178844324     0.725132605226     1.430691215302     1.007825032230

  Running in c1 symmetry.

  Rotational constants: A =      0.02551  B =      0.01085  C =      0.00995 [cm^-1]
  Rotational constants: A =    764.89917  B =    325.22486  C =    298.16133 [MHz]
  Nuclear repulsion = 1321.669832532975988

  Charge       = 0
  Multiplicity = 1
  Electrons    = 128
  Nalpha       = 64
  Nbeta        = 64

  ==> Algorithm <==

  SCF Algorithm Type is DF.
  DIIS enabled.
  MOM disabled.
  Fractional occupation disabled.
  Guess Type is SAD.
  Energy threshold   = 1.00e-08
  Density threshold  = 1.00e-08
  Integral threshold = 1.00e-12

  ==> Primary Basis <==

  Basis Set: AUG-CC-PVDZ
    Blend: AUG-CC-PVDZ
    Number of shells: 212
    Number of basis functions: 504
    Number of Cartesian functions: 540
    Spherical Harmonics?: true
    Max angular momentum: 2

   => Loading Basis Set <=

    Name: (AUG-CC-PVDZ AUX)
    Role: JKFIT
    Keyword: DF_BASIS_SCF
    atoms 1, 3, 9, 14, 16, 20, 22, 24 entry N          line   212 file /opt/anaconda/envs/psi4v1.5/share/psi4/basis/aug-cc-pvdz-jkfit.gbs 
    atoms 2, 4-6, 15, 17-19, 21       entry C          line   154 file /opt/anaconda/envs/psi4v1.5/share/psi4/basis/aug-cc-pvdz-jkfit.gbs 
    atoms 7, 10-13, 23, 25-28         entry H          line    70 file /opt/anaconda/envs/psi4v1.5/share/psi4/basis/aug-cc-pvdz-jkfit.gbs 
    atoms 8                           entry O          line   270 file /opt/anaconda/envs/psi4v1.5/share/psi4/basis/aug-cc-pvdz-jkfit.gbs 

  ==> Integral Setup <==

  ==> DiskDFJK: Density-Fitted J/K Matrices <==

    J tasked:                  Yes
    K tasked:                  Yes
    wK tasked:                  No
    OpenMP threads:              8
    Integrals threads:           8
    Memory [MiB]:            57220
    Algorithm:                Core
    Integral Cache:           SAVE
    Schwarz Cutoff:          1E-12
    Fitting Condition:       1E-10

   => Auxiliary Basis Set <=

  Basis Set: (AUG-CC-PVDZ AUX)
    Blend: AUG-CC-PVDZ-JKFIT
    Number of shells: 624
    Number of basis functions: 1868
    Number of Cartesian functions: 2168
    Spherical Harmonics?: true
    Max angular momentum: 3

  Minimum eigenvalue in the overlap matrix is 2.3690455578E-06.
  Reciprocal condition number of the overlap matrix is 1.3077941742E-07.
    Using symmetric orthogonalization.

  ==> Pre-Iterations <==

  SCF Guess: Superposition of Atomic Densities via on-the-fly atomic UHF (no occupation information).

   -------------------------
    Irrep   Nso     Nmo    
   -------------------------
     A        504     504 
   -------------------------
    Total     504     504
   -------------------------

  ==> Iterations <==

                           Total Energy        Delta E     RMS |[F,P]|

   @DF-RHF iter SAD:  -856.52587371221261   -8.56526e+02   0.00000e+00 
   @DF-RHF iter   1:  -856.75930805416442   -2.33434e-01   1.89732e-03 DIIS
   @DF-RHF iter   2:  -857.14131614462781   -3.82008e-01   9.93930e-04 DIIS
   @DF-RHF iter   3:  -857.24273527659921   -1.01419e-01   2.07549e-04 DIIS
   @DF-RHF iter   4:  -857.24921260908445   -6.47733e-03   8.80600e-05 DIIS
   @DF-RHF iter   5:  -857.25034181830745   -1.12921e-03   1.79039e-05 DIIS
   @DF-RHF iter   6:  -857.25045457021065   -1.12752e-04   9.31637e-06 DIIS
   @DF-RHF iter   7:  -857.25048308816713   -2.85180e-05   3.53743e-06 DIIS
   @DF-RHF iter   8:  -857.25048883015018   -5.74198e-06   1.32481e-06 DIIS
   @DF-RHF iter   9:  -857.25048951852796   -6.88378e-07   5.69291e-07 DIIS
   @DF-RHF iter  10:  -857.25048966961981   -1.51092e-07   2.23187e-07 DIIS
   @DF-RHF iter  11:  -857.25048969904003   -2.94202e-08   7.69785e-08 DIIS
   @DF-RHF iter  12:  -857.25048970254966   -3.50963e-09   3.41494e-08 DIIS
   @DF-RHF iter  13:  -857.25048970312207   -5.72413e-10   1.33201e-08 DIIS
   @DF-RHF iter  14:  -857.25048970320984   -8.77662e-11   6.63965e-09 DIIS
  Energy and wave function converged.


  ==> Post-Iterations <==

    Orbital Energies [Eh]
    ---------------------

    Doubly Occupied:                                                      

       1A    -20.498294     2A    -15.627118     3A    -15.623559  
       4A    -15.613602     5A    -15.589162     6A    -15.571539  
       7A    -15.547416     8A    -15.541425     9A    -15.540539  
      10A    -11.368487    11A    -11.361725    12A    -11.336231  
      13A    -11.333611    14A    -11.323840    15A    -11.310281  
      16A    -11.301627    17A    -11.253090    18A    -11.245669  
      19A     -1.372764    20A     -1.356210    21A     -1.294270  
      22A     -1.285342    23A     -1.261988    24A     -1.237333  
      25A     -1.179170    26A     -1.168143    27A     -1.135172  
      28A     -1.063821    29A     -1.022277    30A     -0.900764  
      31A     -0.883940    32A     -0.875229    33A     -0.861950  
      34A     -0.833644    35A     -0.767900    36A     -0.760045  
      37A     -0.757689    38A     -0.730604    39A     -0.725451  
      40A     -0.688065    41A     -0.675067    42A     -0.665055  
      43A     -0.630143    44A     -0.624241    45A     -0.619933  
      46A     -0.612904    47A     -0.609184    48A     -0.602114  
      49A     -0.579734    50A     -0.578365    51A     -0.543612  
      52A     -0.537237    53A     -0.487850    54A     -0.483094  
      55A     -0.474119    56A     -0.435521    57A     -0.427333  
      58A     -0.415569    59A     -0.411162    60A     -0.390785  
      61A     -0.377324    62A     -0.353130    63A     -0.336679  
      64A     -0.295396  

    Virtual:                                                              

      65A      0.018906    66A      0.027349    67A      0.034736  
      68A      0.044379    69A      0.046428    70A      0.053482  
      71A      0.061878    72A      0.065722    73A      0.073038  
      74A      0.073742    75A      0.082002    76A      0.091875  
      77A      0.097058    78A      0.100455    79A      0.108991  
      80A      0.115644    81A      0.117840    82A      0.122281  
      83A      0.125990    84A      0.129377    85A      0.130204  
      86A      0.133114    87A      0.137045    88A      0.144508  
      89A      0.149296    90A      0.150124    91A      0.152058  
      92A      0.153967    93A      0.157449    94A      0.160892  
      95A      0.162432    96A      0.167428    97A      0.170718  
      98A      0.175526    99A      0.178183   100A      0.184166  
     101A      0.186095   102A      0.192928   103A      0.197191  
     104A      0.199430   105A      0.203780   106A      0.208191  
     107A      0.209385   108A      0.218299   109A      0.225077  
     110A      0.229861   111A      0.234834   112A      0.236078  
     113A      0.243271   114A      0.254831   115A      0.256031  
     116A      0.259955   117A      0.265171   118A      0.268265  
     119A      0.274702   120A      0.277424   121A      0.284628  
     122A      0.285793   123A      0.293214   124A      0.295885  
     125A      0.297735   126A      0.302898   127A      0.305757  
     128A      0.308528   129A      0.318844   130A      0.323945  
     131A      0.326919   132A      0.327667   133A      0.330111  
     134A      0.333346   135A      0.337380   136A      0.344507  
     137A      0.346152   138A      0.353125   139A      0.356064  
     140A      0.361392   141A      0.365320   142A      0.374067  
     143A      0.375028   144A      0.380422   145A      0.382165  
     146A      0.387383   147A      0.389629   148A      0.397171  
     149A      0.401454   150A      0.407261   151A      0.411406  
     152A      0.413239   153A      0.415047   154A      0.421032  
     155A      0.423985   156A      0.428643   157A      0.434588  
     158A      0.439558   159A      0.441823   160A      0.447133  
     161A      0.454003   162A      0.460843   163A      0.463566  
     164A      0.467347   165A      0.467740   166A      0.471994  
     167A      0.478262   168A      0.481216   169A      0.496304  
     170A      0.500531   171A      0.506225   172A      0.507707  
     173A      0.512729   174A      0.515465   175A      0.519823  
     176A      0.525498   177A      0.531095   178A      0.539962  
     179A      0.544369   180A      0.545223   181A      0.548045  
     182A      0.556275   183A      0.562350   184A      0.574001  
     185A      0.577294   186A      0.584184   187A      0.586709  
     188A      0.593720   189A      0.596915   190A      0.598475  
     191A      0.611037   192A      0.616705   193A      0.618781  
     194A      0.621726   195A      0.631916   196A      0.639579  
     197A      0.641132   198A      0.645472   199A      0.647806  
     200A      0.656268   201A      0.661970   202A      0.665389  
     203A      0.667903   204A      0.673061   205A      0.674097  
     206A      0.682958   207A      0.686679   208A      0.691290  
     209A      0.696242   210A      0.700412   211A      0.704405  
     212A      0.707731   213A      0.711181   214A      0.719494  
     215A      0.722827   216A      0.730499   217A      0.734554  
     218A      0.738900   219A      0.744936   220A      0.752744  
     221A      0.759054   222A      0.770538   223A      0.777358  
     224A      0.780076   225A      0.791676   226A      0.793388  
     227A      0.794811   228A      0.799341   229A      0.808337  
     230A      0.811177   231A      0.819813   232A      0.824335  
     233A      0.830987   234A      0.836247   235A      0.840641  
     236A      0.852541   237A      0.856454   238A      0.864827  
     239A      0.869271   240A      0.874206   241A      0.879411  
     242A      0.887030   243A      0.891901   244A      0.895669  
     245A      0.897746   246A      0.904588   247A      0.905656  
     248A      0.911884   249A      0.919699   250A      0.926774  
     251A      0.932878   252A      0.939515   253A      0.947380  
     254A      0.955572   255A      0.959280   256A      0.966514  
     257A      0.979157   258A      0.987073   259A      0.991297  
     260A      0.997814   261A      1.000187   262A      1.009448  
     263A      1.012270   264A      1.021011   265A      1.027338  
     266A      1.032330   267A      1.041059   268A      1.041836  
     269A      1.048689   270A      1.053390   271A      1.058993  
     272A      1.065871   273A      1.075393   274A      1.080496  
     275A      1.085025   276A      1.093322   277A      1.103556  
     278A      1.109234   279A      1.117111   280A      1.125399  
     281A      1.132688   282A      1.135848   283A      1.153354  
     284A      1.154424   285A      1.155827   286A      1.164985  
     287A      1.175270   288A      1.181256   289A      1.186536  
     290A      1.196167   291A      1.199738   292A      1.214016  
     293A      1.221008   294A      1.230920   295A      1.235022  
     296A      1.241876   297A      1.250852   298A      1.266085  
     299A      1.282599   300A      1.290010   301A      1.292830  
     302A      1.305292   303A      1.318365   304A      1.338207  
     305A      1.342092   306A      1.350350   307A      1.362342  
     308A      1.375905   309A      1.386856   310A      1.397619  
     311A      1.406654   312A      1.424440   313A      1.439422  
     314A      1.447765   315A      1.455103   316A      1.463356  
     317A      1.480071   318A      1.483815   319A      1.507442  
     320A      1.515870   321A      1.524480   322A      1.535696  
     323A      1.543126   324A      1.554860   325A      1.564735  
     326A      1.582709   327A      1.588753   328A      1.600537  
     329A      1.610842   330A      1.617037   331A      1.623005  
     332A      1.632042   333A      1.644675   334A      1.654073  
     335A      1.655642   336A      1.676468   337A      1.694613  
     338A      1.705140   339A      1.714359   340A      1.724626  
     341A      1.732285   342A      1.738040   343A      1.749244  
     344A      1.752811   345A      1.757395   346A      1.765773  
     347A      1.780257   348A      1.788753   349A      1.803813  
     350A      1.811342   351A      1.821485   352A      1.844005  
     353A      1.852135   354A      1.855437   355A      1.857323  
     356A      1.867931   357A      1.877294   358A      1.891782  
     359A      1.898306   360A      1.909229   361A      1.914340  
     362A      1.928087   363A      1.934048   364A      1.950527  
     365A      1.967207   366A      1.971506   367A      1.984704  
     368A      1.989066   369A      2.001798   370A      2.008445  
     371A      2.025904   372A      2.034066   373A      2.042118  
     374A      2.056149   375A      2.062736   376A      2.072900  
     377A      2.092931   378A      2.104145   379A      2.115720  
     380A      2.118220   381A      2.127175   382A      2.138189  
     383A      2.150572   384A      2.162430   385A      2.168812  
     386A      2.182566   387A      2.194239   388A      2.198674  
     389A      2.213805   390A      2.217885   391A      2.224578  
     392A      2.236668   393A      2.243434   394A      2.255178  
     395A      2.270734   396A      2.276632   397A      2.282613  
     398A      2.286021   399A      2.305457   400A      2.314004  
     401A      2.320214   402A      2.330530   403A      2.336741  
     404A      2.344153   405A      2.358844   406A      2.363714  
     407A      2.369550   408A      2.380055   409A      2.391618  
     410A      2.407847   411A      2.416266   412A      2.420697  
     413A      2.439189   414A      2.446364   415A      2.456782  
     416A      2.470482   417A      2.485649   418A      2.497508  
     419A      2.504586   420A      2.514857   421A      2.529691  
     422A      2.552012   423A      2.569898   424A      2.586914  
     425A      2.593279   426A      2.623692   427A      2.629507  
     428A      2.632775   429A      2.658858   430A      2.663180  
     431A      2.680164   432A      2.687961   433A      2.692948  
     434A      2.712935   435A      2.729693   436A      2.735718  
     437A      2.751184   438A      2.755610   439A      2.769987  
     440A      2.777451   441A      2.782705   442A      2.787834  
     443A      2.813002   444A      2.815675   445A      2.831419  
     446A      2.839376   447A      2.849699   448A      2.857415  
     449A      2.862519   450A      2.881034   451A      2.882336  
     452A      2.890992   453A      2.901398   454A      2.915203  
     455A      2.919973   456A      2.938302   457A      2.944329  
     458A      2.954974   459A      2.968172   460A      2.978174  
     461A      2.983637   462A      3.026075   463A      3.043059  
     464A      3.046436   465A      3.065518   466A      3.082353  
     467A      3.099080   468A      3.106237   469A      3.127280  
     470A      3.139287   471A      3.194121   472A      3.212138  
     473A      3.237896   474A      3.257104   475A      3.297612  
     476A      3.311321   477A      3.325855   478A      3.334909  
     479A      3.356247   480A      3.368741   481A      3.390209  
     482A      3.402988   483A      3.447801   484A      3.468195  
     485A      3.504493   486A      3.518648   487A      3.535535  
     488A      3.547471   489A      3.642358   490A      3.690171  
     491A      3.720624   492A      3.780532   493A      3.853453  
     494A      3.865115   495A      3.896125   496A      3.932876  
     497A      3.951028   498A      3.980959   499A      4.056351  
     500A      4.134517   501A      4.158338   502A      4.268961  
     503A      4.353812   504A      4.779857  

    Final Occupation by Irrep:
              A 
    DOCC [    64 ]

  @DF-RHF Final Energy:  -857.25048970320984

   => Energetics <=

    Nuclear Repulsion Energy =           1321.6698325329759882
    One-Electron Energy =               -3795.2115710923117149
    Two-Electron Energy =                1616.2912488561255486
    Total Energy =                       -857.2504897032099507

Computation Completed


Properties will be evaluated at   0.000000,   0.000000,   0.000000 [a0]

Properties computed using the SCF density matrix

  Nuclear Dipole Moment: [e a0]
     X:     7.8355      Y:     3.5672      Z:    -1.4861

  Electronic Dipole Moment: [e a0]
     X:    -5.8355      Y:    -1.3452      Z:     1.3573

  Dipole Moment: [e a0]
     X:     2.0000      Y:     2.2220      Z:    -0.1288     Total:     2.9923

  Dipole Moment: [D]
     X:     5.0836      Y:     5.6478      Z:    -0.3273     Total:     7.6058


*** tstop() called on node154.bme.utexas.edu at Sun May 12 23:43:13 2024
Module time:
	user time   =     221.44 seconds =       3.69 minutes
	system time =       6.34 seconds =       0.11 minutes
	total time  =         35 seconds =       0.58 minutes
Total time:
	user time   =     221.44 seconds =       3.69 minutes
	system time =       6.34 seconds =       0.11 minutes
	total time  =         35 seconds =       0.58 minutes

*** tstart() called on node154.bme.utexas.edu
*** at Sun May 12 23:43:13 2024


  //>>>>>>>>>>>>>>>>>>>>>>>>>>>>>>>>>>>//
  //               DFMP2               //
  //<<<<<<<<<<<<<<<<<<<<<<<<<<<<<<<<<<<//

   => Loading Basis Set <=

    Name: (AUG-CC-PVDZ AUX)
    Role: RIFIT
    Keyword: DF_BASIS_MP2
    atoms 1, 3, 9, 14, 16, 20, 22, 24 entry N          line   158 file /opt/anaconda/envs/psi4v1.5/share/psi4/basis/aug-cc-pvdz-ri.gbs 
    atoms 2, 4-6, 15, 17-19, 21       entry C          line   112 file /opt/anaconda/envs/psi4v1.5/share/psi4/basis/aug-cc-pvdz-ri.gbs 
    atoms 7, 10-13, 23, 25-28         entry H          line    30 file /opt/anaconda/envs/psi4v1.5/share/psi4/basis/aug-cc-pvdz-ri.gbs 
    atoms 8                           entry O          line   204 file /opt/anaconda/envs/psi4v1.5/share/psi4/basis/aug-cc-pvdz-ri.gbs 

	 --------------------------------------------------------
	                          DF-MP2                         
	      2nd-Order Density-Fitted Moller-Plesset Theory     
	              RMP2 Wavefunction,   8 Threads             
	                                                         
	        Rob Parrish, Justin Turney, Andy Simmonett,      
	           Ed Hohenstein, and C. David Sherrill          
	 --------------------------------------------------------

   => Auxiliary Basis Set <=

  Basis Set: (AUG-CC-PVDZ AUX)
    Blend: AUG-CC-PVDZ-RI
    Number of shells: 486
    Number of basis functions: 1526
    Number of Cartesian functions: 1798
    Spherical Harmonics?: true
    Max angular momentum: 3

	 --------------------------------------------------------
	                 NBF =   504, NAUX =  1526
	 --------------------------------------------------------
	   CLASS    FOCC     OCC    AOCC    AVIR     VIR    FVIR
	   PAIRS      18      64      46     440     440       0
	 --------------------------------------------------------

	 Will save fitting metric to file 97.

	-----------------------------------------------------------
	 ==================> DF-MP2 Energies <==================== 
	-----------------------------------------------------------
	 Reference Energy          =    -857.2504897032098370 [Eh]
	 Singles Energy            =      -0.0000000000000000 [Eh]
	 Same-Spin Energy          =      -0.7664704785327900 [Eh]
	 Opposite-Spin Energy      =      -1.9979495379797740 [Eh]
	 Correlation Energy        =      -2.7644200165125641 [Eh]
	 Total Energy              =    -860.0149097197223682 [Eh]
	-----------------------------------------------------------
	 ================> DF-SCS-MP2 Energies <================== 
	-----------------------------------------------------------
	 SCS Same-Spin Scale       =       0.3333333333333333 [-]
	 SCS Opposite-Spin Scale   =       1.2000000000000000 [-]
	 SCS Same-Spin Energy      =      -0.2554901595109300 [Eh]
	 SCS Opposite-Spin Energy  =      -2.3975394455757288 [Eh]
	 SCS Correlation Energy    =      -2.6530296050866591 [Eh]
	 SCS Total Energy          =    -859.9035193082964952 [Eh]
	-----------------------------------------------------------


*** tstop() called on node154.bme.utexas.edu at Sun May 12 23:43:22 2024
Module time:
	user time   =      52.67 seconds =       0.88 minutes
	system time =       2.17 seconds =       0.04 minutes
	total time  =          9 seconds =       0.15 minutes
Total time:
	user time   =     274.12 seconds =       4.57 minutes
	system time =       8.51 seconds =       0.14 minutes
	total time  =         44 seconds =       0.73 minutes

  //>>>>>>>>>>>>>>>>>>>>>>>>>>>>>>>>>>>//
  //            Monomer A HF           //
  //<<<<<<<<<<<<<<<<<<<<<<<<<<<<<<<<<<<//


*** tstart() called on node154.bme.utexas.edu
*** at Sun May 12 23:43:22 2024

   => Loading Basis Set <=

    Name: AUG-CC-PVDZ
    Role: ORBITAL
    Keyword: BASIS
    atoms 1, 3, 9, 14, 16, 20, 22, 24 entry N          line   218 file /opt/anaconda/envs/psi4v1.5/share/psi4/basis/aug-cc-pvdz.gbs 
    atoms 2, 4-6, 15, 17-19, 21       entry C          line   182 file /opt/anaconda/envs/psi4v1.5/share/psi4/basis/aug-cc-pvdz.gbs 
    atoms 7, 10-13, 23, 25-28         entry H          line    40 file /opt/anaconda/envs/psi4v1.5/share/psi4/basis/aug-cc-pvdz.gbs 
    atoms 8                           entry O          line   254 file /opt/anaconda/envs/psi4v1.5/share/psi4/basis/aug-cc-pvdz.gbs 


         ---------------------------------------------------------
                                   SCF
               by Justin Turney, Rob Parrish, Andy Simmonett
                          and Daniel G. A. Smith
                              RHF Reference
                        8 Threads,  76293 MiB Core
         ---------------------------------------------------------

  ==> Geometry <==

    Molecular point group: c1
    Full point group: C1

    Geometry (in Angstrom), charge = 0, multiplicity = 1:

       Center              X                  Y                   Z               Mass       
    ------------   -----------------  -----------------  -----------------  -----------------
         N            0.373070155676     1.148709605226    -1.804804784698    14.003074004430
         C            0.144467155676    -0.241585394774    -1.804750784698    12.000000000000
         N            1.229740155676    -1.057520394774    -1.804703784698    14.003074004430
         C            2.473093155676    -0.552392394774    -1.804703784698    12.000000000000
         C            2.714580155676     0.873078605226    -1.804756784698    12.000000000000
         C            1.625687155676     1.685232605226    -1.804803784698    12.000000000000
         H           -0.453068844324     1.732405605226    -1.804844784698     1.007825032230
         O           -1.026684844324    -0.643513394774    -1.804743784698    15.994914619570
         N            3.492556155676    -1.417254394774    -1.804654784698    14.003074004430
         H            3.318206155676    -2.445122394774    -1.804596784698     1.007825032230
         H            4.440267155676    -1.073687394774    -1.804648784698     1.007825032230
         H            3.721948155676     1.280676605226    -1.804760784698     1.007825032230
         H            1.694320155676     2.772304605226    -1.804847784698     1.007825032230
      Gh(N)           0.082409155676    -1.563833394774     1.495162215302    14.003074004430
      Gh(C)          -1.156017844324    -2.096192394774     1.466895215302    12.000000000000
      Gh(N)          -2.322972844324    -1.450877394774     1.448968215302    14.003074004430
      Gh(C)          -2.145846844324    -0.119170394774     1.462580215302    12.000000000000
      Gh(C)          -0.928711844324     0.571450605226     1.491677215302    12.000000000000
      Gh(C)           0.242925155676    -0.220942394774     1.508551215302    12.000000000000
      Gh(N)          -1.126038844324     1.942313605226     1.498268215302    14.003074004430
      Gh(C)          -2.431620844324     2.078590605226     1.473749215302    12.000000000000
      Gh(N)          -3.103503844324     0.870505605226     1.451380215302    14.003074004430
      Gh(H)          -1.183077844324    -3.187105394774     1.458053215302     1.007825032230
      Gh(N)           1.483991155676     0.294061605226     1.536761215302    14.003074004430
      Gh(H)           1.589283155676     1.297118605226     1.546511215302     1.007825032230
      Gh(H)           2.303236155676    -0.321480394774     1.548184215302     1.007825032230
      Gh(H)          -2.964163844324     3.024419605226     1.470537215302     1.007825032230
      Gh(H)          -4.103178844324     0.725132605226     1.430691215302     1.007825032230

  Running in c1 symmetry.

  Rotational constants: A =      0.02551  B =      0.01085  C =      0.00995 [cm^-1]
  Rotational constants: A =    764.89917  B =    325.22486  C =    298.16133 [MHz]
  Nuclear repulsion =  355.312363002821201

  Charge       = 0
  Multiplicity = 1
  Electrons    = 58
  Nalpha       = 29
  Nbeta        = 29

  ==> Algorithm <==

  SCF Algorithm Type is DF.
  DIIS enabled.
  MOM disabled.
  Fractional occupation disabled.
  Guess Type is SAD.
  Energy threshold   = 1.00e-08
  Density threshold  = 1.00e-08
  Integral threshold = 1.00e-12

  ==> Primary Basis <==

  Basis Set: AUG-CC-PVDZ
    Blend: AUG-CC-PVDZ
    Number of shells: 212
    Number of basis functions: 504
    Number of Cartesian functions: 540
    Spherical Harmonics?: true
    Max angular momentum: 2

   => Loading Basis Set <=

    Name: (AUG-CC-PVDZ AUX)
    Role: JKFIT
    Keyword: DF_BASIS_SCF
    atoms 1, 3, 9, 14, 16, 20, 22, 24 entry N          line   212 file /opt/anaconda/envs/psi4v1.5/share/psi4/basis/aug-cc-pvdz-jkfit.gbs 
    atoms 2, 4-6, 15, 17-19, 21       entry C          line   154 file /opt/anaconda/envs/psi4v1.5/share/psi4/basis/aug-cc-pvdz-jkfit.gbs 
    atoms 7, 10-13, 23, 25-28         entry H          line    70 file /opt/anaconda/envs/psi4v1.5/share/psi4/basis/aug-cc-pvdz-jkfit.gbs 
    atoms 8                           entry O          line   270 file /opt/anaconda/envs/psi4v1.5/share/psi4/basis/aug-cc-pvdz-jkfit.gbs 

  ==> Integral Setup <==

  ==> DiskDFJK: Density-Fitted J/K Matrices <==

    J tasked:                  Yes
    K tasked:                  Yes
    wK tasked:                  No
    OpenMP threads:              8
    Integrals threads:           8
    Memory [MiB]:            57220
    Algorithm:                Core
    Integral Cache:           LOAD
    Schwarz Cutoff:          1E-12
    Fitting Condition:       1E-10

   => Auxiliary Basis Set <=

  Basis Set: (AUG-CC-PVDZ AUX)
    Blend: AUG-CC-PVDZ-JKFIT
    Number of shells: 624
    Number of basis functions: 1868
    Number of Cartesian functions: 2168
    Spherical Harmonics?: true
    Max angular momentum: 3

  Minimum eigenvalue in the overlap matrix is 2.3690455578E-06.
  Reciprocal condition number of the overlap matrix is 1.3077941742E-07.
    Using symmetric orthogonalization.

  ==> Pre-Iterations <==

  SCF Guess: Superposition of Atomic Densities via on-the-fly atomic UHF (no occupation information).

   -------------------------
    Irrep   Nso     Nmo    
   -------------------------
     A        504     504 
   -------------------------
    Total     504     504
   -------------------------

  ==> Iterations <==

                           Total Energy        Delta E     RMS |[F,P]|

   @DF-RHF iter SAD:  -392.00424278840512   -3.92004e+02   0.00000e+00 
   @DF-RHF iter   1:  -392.42092814932613   -4.16685e-01   1.39873e-03 DIIS
   @DF-RHF iter   2:  -392.61134590394727   -1.90418e-01   7.74588e-04 DIIS
   @DF-RHF iter   3:  -392.66849417479870   -5.71483e-02   1.51177e-04 DIIS
   @DF-RHF iter   4:  -392.67177559322670   -3.28142e-03   6.56719e-05 DIIS
   @DF-RHF iter   5:  -392.67243839445860   -6.62801e-04   1.31411e-05 DIIS
   @DF-RHF iter   6:  -392.67250236377720   -6.39693e-05   7.12610e-06 DIIS
   @DF-RHF iter   7:  -392.67251906718042   -1.67034e-05   2.54412e-06 DIIS
   @DF-RHF iter   8:  -392.67252201425532   -2.94707e-06   8.90713e-07 DIIS
   @DF-RHF iter   9:  -392.67252229090769   -2.76652e-07   3.64705e-07 DIIS
   @DF-RHF iter  10:  -392.67252233992707   -4.90194e-08   1.23370e-07 DIIS
   @DF-RHF iter  11:  -392.67252234696508   -7.03801e-09   3.12676e-08 DIIS
   @DF-RHF iter  12:  -392.67252234736901   -4.03929e-10   1.13040e-08 DIIS
   @DF-RHF iter  13:  -392.67252234741318   -4.41673e-11   4.57603e-09 DIIS
  Energy and wave function converged.


  ==> Post-Iterations <==

    Orbital Energies [Eh]
    ---------------------

    Doubly Occupied:                                                      

       1A    -20.503190     2A    -15.629058     3A    -15.616601  
       4A    -15.546940     5A    -11.373632     6A    -11.366478  
       7A    -11.340621     8A    -11.257129     9A     -1.377436  
      10A     -1.298239    11A     -1.266620    12A     -1.172822  
      13A     -1.067923    14A     -0.904997    15A     -0.879803  
      16A     -0.764734    17A     -0.761857    18A     -0.729328  
      19A     -0.678856    20A     -0.623771    21A     -0.622604  
      22A     -0.613350    23A     -0.584186    24A     -0.541412  
      25A     -0.483228    26A     -0.432482    27A     -0.415900  
      28A     -0.382192    29A     -0.341684  

    Virtual:                                                              

      30A      0.017068    31A      0.024776    32A      0.033229  
      33A      0.040457    34A      0.045311    35A      0.048599  
      36A      0.061508    37A      0.066836    38A      0.068039  
      39A      0.070228    40A      0.074719    41A      0.084340  
      42A      0.089960    43A      0.097306    44A      0.101395  
      45A      0.106249    46A      0.111191    47A      0.115092  
      48A      0.116239    49A      0.119004    50A      0.124477  
      51A      0.126948    52A      0.129342    53A      0.136208  
      54A      0.141730    55A      0.147899    56A      0.148666  
      57A      0.153409    58A      0.156035    59A      0.160024  
      60A      0.165909    61A      0.170002    62A      0.172127  
      63A      0.175972    64A      0.177909    65A      0.180689  
      66A      0.187080    67A      0.189935    68A      0.191550  
      69A      0.203596    70A      0.205909    71A      0.206447  
      72A      0.213960    73A      0.219217    74A      0.220518  
      75A      0.227407    76A      0.230047    77A      0.235899  
      78A      0.240736    79A      0.244419    80A      0.247155  
      81A      0.254674    82A      0.257104    83A      0.265870  
      84A      0.267153    85A      0.272372    86A      0.276271  
      87A      0.279965    88A      0.284274    89A      0.286857  
      90A      0.291283    91A      0.293727    92A      0.299244  
      93A      0.303610    94A      0.307580    95A      0.309811  
      96A      0.316747    97A      0.321940    98A      0.326792  
      99A      0.332657   100A      0.336767   101A      0.341291  
     102A      0.342284   103A      0.350414   104A      0.355609  
     105A      0.358300   106A      0.364160   107A      0.370043  
     108A      0.373774   109A      0.378164   110A      0.378350  
     111A      0.388373   112A      0.389578   113A      0.392356  
     114A      0.399995   115A      0.409250   116A      0.411384  
     117A      0.420114   118A      0.428035   119A      0.433449  
     120A      0.435839   121A      0.438100   122A      0.438826  
     123A      0.457373   124A      0.460386   125A      0.467924  
     126A      0.481519   127A      0.482702   128A      0.487519  
     129A      0.493576   130A      0.499380   131A      0.505714  
     132A      0.509263   133A      0.513526   134A      0.521710  
     135A      0.525000   136A      0.527258   137A      0.531949  
     138A      0.538472   139A      0.542770   140A      0.549012  
     141A      0.549526   142A      0.555636   143A      0.556181  
     144A      0.561642   145A      0.568743   146A      0.572836  
     147A      0.573809   148A      0.579921   149A      0.588136  
     150A      0.591034   151A      0.595308   152A      0.599193  
     153A      0.606257   154A      0.613935   155A      0.617602  
     156A      0.619596   157A      0.625061   158A      0.630486  
     159A      0.633347   160A      0.642498   161A      0.645111  
     162A      0.647885   163A      0.651472   164A      0.656159  
     165A      0.663090   166A      0.665671   167A      0.666585  
     168A      0.672104   169A      0.678296   170A      0.683069  
     171A      0.684798   172A      0.694848   173A      0.701566  
     174A      0.706727   175A      0.713007   176A      0.715918  
     177A      0.719958   178A      0.728003   179A      0.733800  
     180A      0.745080   181A      0.746763   182A      0.764385  
     183A      0.768339   184A      0.769731   185A      0.775867  
     186A      0.789486   187A      0.793339   188A      0.800783  
     189A      0.806092   190A      0.807972   191A      0.811964  
     192A      0.822208   193A      0.827392   194A      0.831344  
     195A      0.836315   196A      0.846651   197A      0.855597  
     198A      0.857575   199A      0.866964   200A      0.872904  
     201A      0.878600   202A      0.885225   203A      0.888978  
     204A      0.892276   205A      0.900627   206A      0.910556  
     207A      0.915680   208A      0.924482   209A      0.937741  
     210A      0.942104   211A      0.945567   212A      0.949125  
     213A      0.957457   214A      0.962955   215A      0.970977  
     216A      0.977135   217A      0.994611   218A      0.995892  
     219A      1.000381   220A      1.015016   221A      1.016467  
     222A      1.021416   223A      1.025976   224A      1.036808  
     225A      1.037069   226A      1.049061   227A      1.053271  
     228A      1.069095   229A      1.074604   230A      1.084734  
     231A      1.086934   232A      1.089978   233A      1.092337  
     234A      1.103669   235A      1.107695   236A      1.123048  
     237A      1.131288   238A      1.134849   239A      1.137517  
     240A      1.150226   241A      1.151933   242A      1.155085  
     243A      1.164261   244A      1.176952   245A      1.186015  
     246A      1.193500   247A      1.206842   248A      1.211592  
     249A      1.220636   250A      1.228186   251A      1.231856  
     252A      1.233906   253A      1.242792   254A      1.252072  
     255A      1.260922   256A      1.269498   257A      1.270834  
     258A      1.279414   259A      1.290273   260A      1.297579  
     261A      1.309822   262A      1.317640   263A      1.327173  
     264A      1.333333   265A      1.336526   266A      1.347150  
     267A      1.354939   268A      1.362273   269A      1.375260  
     270A      1.381621   271A      1.381955   272A      1.397285  
     273A      1.398504   274A      1.416481   275A      1.419847  
     276A      1.429846   277A      1.434400   278A      1.444940  
     279A      1.456766   280A      1.465545   281A      1.472137  
     282A      1.491212   283A      1.497927   284A      1.511565  
     285A      1.525624   286A      1.528565   287A      1.537740  
     288A      1.545403   289A      1.552675   290A      1.557361  
     291A      1.570425   292A      1.580969   293A      1.597147  
     294A      1.601276   295A      1.611077   296A      1.622501  
     297A      1.636073   298A      1.645162   299A      1.657693  
     300A      1.676474   301A      1.686526   302A      1.698797  
     303A      1.701632   304A      1.722774   305A      1.729480  
     306A      1.736371   307A      1.748834   308A      1.764427  
     309A      1.767501   310A      1.778351   311A      1.793398  
     312A      1.796363   313A      1.809996   314A      1.824700  
     315A      1.847063   316A      1.863838   317A      1.876216  
     318A      1.894551   319A      1.912668   320A      1.948743  
     321A      1.961992   322A      1.988104   323A      2.001294  
     324A      2.021239   325A      2.033914   326A      2.071476  
     327A      2.090036   328A      2.110881   329A      2.143490  
     330A      2.155516   331A      2.171106   332A      2.182961  
     333A      2.194716   334A      2.203977   335A      2.213190  
     336A      2.229993   337A      2.238564   338A      2.248595  
     339A      2.270012   340A      2.274224   341A      2.280612  
     342A      2.300066   343A      2.306575   344A      2.323064  
     345A      2.331711   346A      2.337857   347A      2.345127  
     348A      2.360081   349A      2.378870   350A      2.403822  
     351A      2.406073   352A      2.417642   353A      2.439702  
     354A      2.454630   355A      2.454821   356A      2.466082  
     357A      2.472500   358A      2.476704   359A      2.497224  
     360A      2.500802   361A      2.507545   362A      2.518286  
     363A      2.532215   364A      2.537080   365A      2.552895  
     366A      2.571911   367A      2.586536   368A      2.598397  
     369A      2.607518   370A      2.615160   371A      2.624134  
     372A      2.629652   373A      2.645989   374A      2.665356  
     375A      2.672781   376A      2.685506   377A      2.696924  
     378A      2.721275   379A      2.738608   380A      2.761793  
     381A      2.769190   382A      2.778183   383A      2.800674  
     384A      2.817901   385A      2.822764   386A      2.835798  
     387A      2.843097   388A      2.858207   389A      2.863582  
     390A      2.884364   391A      2.900186   392A      2.906901  
     393A      2.913607   394A      2.923246   395A      2.936533  
     396A      2.955601   397A      2.968646   398A      2.979794  
     399A      2.999186   400A      3.007460   401A      3.039784  
     402A      3.049247   403A      3.084184   404A      3.089182  
     405A      3.119796   406A      3.151535   407A      3.157455  
     408A      3.176704   409A      3.206329   410A      3.246357  
     411A      3.248504   412A      3.278613   413A      3.297594  
     414A      3.308155   415A      3.335661   416A      3.344820  
     417A      3.357007   418A      3.373828   419A      3.391503  
     420A      3.413017   421A      3.454838   422A      3.472222  
     423A      3.480456   424A      3.502144   425A      3.516441  
     426A      3.527915   427A      3.537623   428A      3.550987  
     429A      3.564871   430A      3.583531   431A      3.609792  
     432A      3.631051   433A      3.642229   434A      3.668762  
     435A      3.673673   436A      3.687136   437A      3.714133  
     438A      3.735163   439A      3.752299   440A      3.763508  
     441A      3.773492   442A      3.788847   443A      3.825008  
     444A      3.837039   445A      3.842190   446A      3.849340  
     447A      3.866301   448A      3.887662   449A      3.907265  
     450A      3.931024   451A      3.937260   452A      3.954802  
     453A      3.962016   454A      3.983861   455A      4.024863  
     456A      4.042208   457A      4.056518   458A      4.132981  
     459A      4.151888   460A      4.186773   461A      4.255250  
     462A      4.331245   463A      4.358695   464A      4.405861  
     465A      4.475642   466A      4.535525   467A      4.657002  
     468A      4.772031   469A      4.793843   470A      4.813771  
     471A      4.876527   472A      4.909293   473A      4.913283  
     474A      5.055076   475A      5.107326   476A      5.125680  
     477A      5.286736   478A      5.355532   479A      5.377907  
     480A      5.506571   481A      5.556199   482A      5.614326  
     483A      5.637734   484A      5.733337   485A      5.796396  
     486A      5.868615   487A      5.916752   488A      5.997663  
     489A      6.100984   490A      6.145095   491A      6.202366  
     492A      6.240202   493A      6.350201   494A      6.446678  
     495A     18.277993   496A     18.628848   497A     18.700733  
     498A     19.226150   499A     20.293030   500A     25.337560  
     501A     25.386784   502A     25.390054   503A     25.523412  
     504A     25.583343  

    Final Occupation by Irrep:
              A 
    DOCC [    29 ]

  @DF-RHF Final Energy:  -392.67252234741318

   => Energetics <=

    Nuclear Repulsion Energy =            355.3123630028212006
    One-Electron Energy =               -1238.8156294635532504
    Two-Electron Energy =                 490.8307441133188149
    Total Energy =                       -392.6725223474131781

Computation Completed


Properties will be evaluated at   0.000000,   0.000000,   0.000000 [a0]

Properties computed using the SCF density matrix

  Nuclear Dipole Moment: [e a0]
     X:   154.8115      Y:    -2.9820      Z:  -197.8069

  Electronic Dipole Moment: [e a0]
     X:  -152.2390      Y:     4.6206      Z:   197.8059

  Dipole Moment: [e a0]
     X:     2.5725      Y:     1.6386      Z:    -0.0010     Total:     3.0501

  Dipole Moment: [D]
     X:     6.5387      Y:     4.1649      Z:    -0.0025     Total:     7.7525


*** tstop() called on node154.bme.utexas.edu at Sun May 12 23:43:45 2024
Module time:
	user time   =     146.75 seconds =       2.45 minutes
	system time =       2.69 seconds =       0.04 minutes
	total time  =         23 seconds =       0.38 minutes
Total time:
	user time   =     420.89 seconds =       7.01 minutes
	system time =      11.20 seconds =       0.19 minutes
	total time  =         67 seconds =       1.12 minutes

*** tstart() called on node154.bme.utexas.edu
*** at Sun May 12 23:43:45 2024


  //>>>>>>>>>>>>>>>>>>>>>>>>>>>>>>>>>>>//
  //               DFMP2               //
  //<<<<<<<<<<<<<<<<<<<<<<<<<<<<<<<<<<<//

   => Loading Basis Set <=

    Name: (AUG-CC-PVDZ AUX)
    Role: RIFIT
    Keyword: DF_BASIS_MP2
    atoms 1, 3, 9, 14, 16, 20, 22, 24 entry N          line   158 file /opt/anaconda/envs/psi4v1.5/share/psi4/basis/aug-cc-pvdz-ri.gbs 
    atoms 2, 4-6, 15, 17-19, 21       entry C          line   112 file /opt/anaconda/envs/psi4v1.5/share/psi4/basis/aug-cc-pvdz-ri.gbs 
    atoms 7, 10-13, 23, 25-28         entry H          line    30 file /opt/anaconda/envs/psi4v1.5/share/psi4/basis/aug-cc-pvdz-ri.gbs 
    atoms 8                           entry O          line   204 file /opt/anaconda/envs/psi4v1.5/share/psi4/basis/aug-cc-pvdz-ri.gbs 

	 --------------------------------------------------------
	                          DF-MP2                         
	      2nd-Order Density-Fitted Moller-Plesset Theory     
	              RMP2 Wavefunction,   8 Threads             
	                                                         
	        Rob Parrish, Justin Turney, Andy Simmonett,      
	           Ed Hohenstein, and C. David Sherrill          
	 --------------------------------------------------------

   => Auxiliary Basis Set <=

  Basis Set: (AUG-CC-PVDZ AUX)
    Blend: AUG-CC-PVDZ-RI
    Number of shells: 486
    Number of basis functions: 1526
    Number of Cartesian functions: 1798
    Spherical Harmonics?: true
    Max angular momentum: 3

	 --------------------------------------------------------
	                 NBF =   504, NAUX =  1526
	 --------------------------------------------------------
	   CLASS    FOCC     OCC    AOCC    AVIR     VIR    FVIR
	   PAIRS       8      29      21     475     475       0
	 --------------------------------------------------------

	 Will attempt to load fitting metric from file 97.

	-----------------------------------------------------------
	 ==================> DF-MP2 Energies <==================== 
	-----------------------------------------------------------
	 Reference Energy          =    -392.6725223474131781 [Eh]
	 Singles Energy            =      -0.0000000000000000 [Eh]
	 Same-Spin Energy          =      -0.3377290486362233 [Eh]
	 Opposite-Spin Energy      =      -0.9003834448137751 [Eh]
	 Correlation Energy        =      -1.2381124934499983 [Eh]
	 Total Energy              =    -393.9106348408631675 [Eh]
	-----------------------------------------------------------
	 ================> DF-SCS-MP2 Energies <================== 
	-----------------------------------------------------------
	 SCS Same-Spin Scale       =       0.3333333333333333 [-]
	 SCS Opposite-Spin Scale   =       1.2000000000000000 [-]
	 SCS Same-Spin Energy      =      -0.1125763495454078 [Eh]
	 SCS Opposite-Spin Energy  =      -1.0804601337765301 [Eh]
	 SCS Correlation Energy    =      -1.1930364833219378 [Eh]
	 SCS Total Energy          =    -393.8655588307350968 [Eh]
	-----------------------------------------------------------


*** tstop() called on node154.bme.utexas.edu at Sun May 12 23:43:51 2024
Module time:
	user time   =      34.48 seconds =       0.57 minutes
	system time =       1.41 seconds =       0.02 minutes
	total time  =          6 seconds =       0.10 minutes
Total time:
	user time   =     455.38 seconds =       7.59 minutes
	system time =      12.61 seconds =       0.21 minutes
	total time  =         73 seconds =       1.22 minutes

  //>>>>>>>>>>>>>>>>>>>>>>>>>>>>>>>>>>>//
  //            Monomer B HF           //
  //<<<<<<<<<<<<<<<<<<<<<<<<<<<<<<<<<<<//


*** tstart() called on node154.bme.utexas.edu
*** at Sun May 12 23:43:51 2024

   => Loading Basis Set <=

    Name: AUG-CC-PVDZ
    Role: ORBITAL
    Keyword: BASIS
    atoms 1, 3, 9, 14, 16, 20, 22, 24 entry N          line   218 file /opt/anaconda/envs/psi4v1.5/share/psi4/basis/aug-cc-pvdz.gbs 
    atoms 2, 4-6, 15, 17-19, 21       entry C          line   182 file /opt/anaconda/envs/psi4v1.5/share/psi4/basis/aug-cc-pvdz.gbs 
    atoms 7, 10-13, 23, 25-28         entry H          line    40 file /opt/anaconda/envs/psi4v1.5/share/psi4/basis/aug-cc-pvdz.gbs 
    atoms 8                           entry O          line   254 file /opt/anaconda/envs/psi4v1.5/share/psi4/basis/aug-cc-pvdz.gbs 


         ---------------------------------------------------------
                                   SCF
               by Justin Turney, Rob Parrish, Andy Simmonett
                          and Daniel G. A. Smith
                              RHF Reference
                        8 Threads,  76293 MiB Core
         ---------------------------------------------------------

  ==> Geometry <==

    Molecular point group: c1
    Full point group: C1

    Geometry (in Angstrom), charge = 0, multiplicity = 1:

       Center              X                  Y                   Z               Mass       
    ------------   -----------------  -----------------  -----------------  -----------------
      Gh(N)           0.373070155676     1.148709605226    -1.804804784698    14.003074004430
      Gh(C)           0.144467155676    -0.241585394774    -1.804750784698    12.000000000000
      Gh(N)           1.229740155676    -1.057520394774    -1.804703784698    14.003074004430
      Gh(C)           2.473093155676    -0.552392394774    -1.804703784698    12.000000000000
      Gh(C)           2.714580155676     0.873078605226    -1.804756784698    12.000000000000
      Gh(C)           1.625687155676     1.685232605226    -1.804803784698    12.000000000000
      Gh(H)          -0.453068844324     1.732405605226    -1.804844784698     1.007825032230
      Gh(O)          -1.026684844324    -0.643513394774    -1.804743784698    15.994914619570
      Gh(N)           3.492556155676    -1.417254394774    -1.804654784698    14.003074004430
      Gh(H)           3.318206155676    -2.445122394774    -1.804596784698     1.007825032230
      Gh(H)           4.440267155676    -1.073687394774    -1.804648784698     1.007825032230
      Gh(H)           3.721948155676     1.280676605226    -1.804760784698     1.007825032230
      Gh(H)           1.694320155676     2.772304605226    -1.804847784698     1.007825032230
         N            0.082409155676    -1.563833394774     1.495162215302    14.003074004430
         C           -1.156017844324    -2.096192394774     1.466895215302    12.000000000000
         N           -2.322972844324    -1.450877394774     1.448968215302    14.003074004430
         C           -2.145846844324    -0.119170394774     1.462580215302    12.000000000000
         C           -0.928711844324     0.571450605226     1.491677215302    12.000000000000
         C            0.242925155676    -0.220942394774     1.508551215302    12.000000000000
         N           -1.126038844324     1.942313605226     1.498268215302    14.003074004430
         C           -2.431620844324     2.078590605226     1.473749215302    12.000000000000
         N           -3.103503844324     0.870505605226     1.451380215302    14.003074004430
         H           -1.183077844324    -3.187105394774     1.458053215302     1.007825032230
         N            1.483991155676     0.294061605226     1.536761215302    14.003074004430
         H            1.589283155676     1.297118605226     1.546511215302     1.007825032230
         H            2.303236155676    -0.321480394774     1.548184215302     1.007825032230
         H           -2.964163844324     3.024419605226     1.470537215302     1.007825032230
         H           -4.103178844324     0.725132605226     1.430691215302     1.007825032230

  Running in c1 symmetry.

  Rotational constants: A =      0.02551  B =      0.01085  C =      0.00995 [cm^-1]
  Rotational constants: A =    764.89917  B =    325.22486  C =    298.16133 [MHz]
  Nuclear repulsion =  501.306587133401820

  Charge       = 0
  Multiplicity = 1
  Electrons    = 70
  Nalpha       = 35
  Nbeta        = 35

  ==> Algorithm <==

  SCF Algorithm Type is DF.
  DIIS enabled.
  MOM disabled.
  Fractional occupation disabled.
  Guess Type is SAD.
  Energy threshold   = 1.00e-08
  Density threshold  = 1.00e-08
  Integral threshold = 1.00e-12

  ==> Primary Basis <==

  Basis Set: AUG-CC-PVDZ
    Blend: AUG-CC-PVDZ
    Number of shells: 212
    Number of basis functions: 504
    Number of Cartesian functions: 540
    Spherical Harmonics?: true
    Max angular momentum: 2

   => Loading Basis Set <=

    Name: (AUG-CC-PVDZ AUX)
    Role: JKFIT
    Keyword: DF_BASIS_SCF
    atoms 1, 3, 9, 14, 16, 20, 22, 24 entry N          line   212 file /opt/anaconda/envs/psi4v1.5/share/psi4/basis/aug-cc-pvdz-jkfit.gbs 
    atoms 2, 4-6, 15, 17-19, 21       entry C          line   154 file /opt/anaconda/envs/psi4v1.5/share/psi4/basis/aug-cc-pvdz-jkfit.gbs 
    atoms 7, 10-13, 23, 25-28         entry H          line    70 file /opt/anaconda/envs/psi4v1.5/share/psi4/basis/aug-cc-pvdz-jkfit.gbs 
    atoms 8                           entry O          line   270 file /opt/anaconda/envs/psi4v1.5/share/psi4/basis/aug-cc-pvdz-jkfit.gbs 

  ==> Integral Setup <==

  ==> DiskDFJK: Density-Fitted J/K Matrices <==

    J tasked:                  Yes
    K tasked:                  Yes
    wK tasked:                  No
    OpenMP threads:              8
    Integrals threads:           8
    Memory [MiB]:            57220
    Algorithm:                Core
    Integral Cache:           LOAD
    Schwarz Cutoff:          1E-12
    Fitting Condition:       1E-10

   => Auxiliary Basis Set <=

  Basis Set: (AUG-CC-PVDZ AUX)
    Blend: AUG-CC-PVDZ-JKFIT
    Number of shells: 624
    Number of basis functions: 1868
    Number of Cartesian functions: 2168
    Spherical Harmonics?: true
    Max angular momentum: 3

  Minimum eigenvalue in the overlap matrix is 2.3690455578E-06.
  Reciprocal condition number of the overlap matrix is 1.3077941742E-07.
    Using symmetric orthogonalization.

  ==> Pre-Iterations <==

  SCF Guess: Superposition of Atomic Densities via on-the-fly atomic UHF (no occupation information).

   -------------------------
    Irrep   Nso     Nmo    
   -------------------------
     A        504     504 
   -------------------------
    Total     504     504
   -------------------------

  ==> Iterations <==

                           Total Energy        Delta E     RMS |[F,P]|

   @DF-RHF iter SAD:  -464.35706871910673   -4.64357e+02   0.00000e+00 
   @DF-RHF iter   1:  -464.34873374921273    8.33497e-03   1.28255e-03 DIIS
   @DF-RHF iter   2:  -464.53857403718609   -1.89840e-01   6.17779e-04 DIIS
   @DF-RHF iter   3:  -464.58061116352434   -4.20371e-02   1.43541e-04 DIIS
   @DF-RHF iter   4:  -464.58377315567998   -3.16199e-03   6.57682e-05 DIIS
   @DF-RHF iter   5:  -464.58436881361087   -5.95658e-04   1.31317e-05 DIIS
   @DF-RHF iter   6:  -464.58441931261683   -5.04990e-05   6.38914e-06 DIIS
   @DF-RHF iter   7:  -464.58443307618057   -1.37636e-05   2.56920e-06 DIIS
   @DF-RHF iter   8:  -464.58443601501187   -2.93883e-06   9.38374e-07 DIIS
   @DF-RHF iter   9:  -464.58443642455279   -4.09541e-07   4.84571e-07 DIIS
   @DF-RHF iter  10:  -464.58443653195519   -1.07402e-07   1.79199e-07 DIIS
   @DF-RHF iter  11:  -464.58443655224158   -2.02864e-08   7.63390e-08 DIIS
   @DF-RHF iter  12:  -464.58443655533847   -3.09689e-09   2.78949e-08 DIIS
   @DF-RHF iter  13:  -464.58443655570312   -3.64651e-10   1.04500e-08 DIIS
   @DF-RHF iter  14:  -464.58443655574007   -3.69482e-11   3.89251e-09 DIIS
  Energy and wave function converged.


  ==> Post-Iterations <==

    Orbital Energies [Eh]
    ---------------------

    Doubly Occupied:                                                      

       1A    -15.638719     2A    -15.597964     3A    -15.579151  
       4A    -15.564928     5A    -15.556835     6A    -11.347471  
       7A    -11.332285     8A    -11.324279     9A    -11.318230  
      10A    -11.259420    11A     -1.367960    12A     -1.299178  
      13A     -1.250152    14A     -1.189178    15A     -1.150030  
      16A     -1.035106    17A     -0.896009    18A     -0.875862  
      19A     -0.844790    20A     -0.779721    21A     -0.741226  
      22A     -0.698316    23A     -0.676999    24A     -0.636325  
      25A     -0.635425    26A     -0.613231    27A     -0.592725  
      28A     -0.556767    29A     -0.497660    30A     -0.494741  
      31A     -0.448201    32A     -0.424049    33A     -0.406247  
      34A     -0.368912    35A     -0.308322  

    Virtual:                                                              

      36A      0.023101    37A      0.028200    38A      0.039184  
      39A      0.042931    40A      0.049239    41A      0.049842  
      42A      0.058268    43A      0.067253    44A      0.069143  
      45A      0.077996    46A      0.079638    47A      0.088535  
      48A      0.090495    49A      0.095153    50A      0.101213  
      51A      0.109119    52A      0.112125    53A      0.116578  
      54A      0.119799    55A      0.121025    56A      0.125323  
      57A      0.130755    58A      0.131983    59A      0.140109  
      60A      0.141526    61A      0.146122    62A      0.148128  
      63A      0.151416    64A      0.153738    65A      0.159273  
      66A      0.161998    67A      0.163987    68A      0.166063  
      69A      0.170724    70A      0.177242    71A      0.178945  
      72A      0.184922    73A      0.192063    74A      0.193152  
      75A      0.200211    76A      0.205479    77A      0.209541  
      78A      0.211857    79A      0.221075    80A      0.222085  
      81A      0.226028    82A      0.230417    83A      0.234200  
      84A      0.236911    85A      0.241699    86A      0.247974  
      87A      0.253892    88A      0.259115    89A      0.262949  
      90A      0.265017    91A      0.268486    92A      0.272794  
      93A      0.276625    94A      0.280324    95A      0.288879  
      96A      0.291943    97A      0.298915    98A      0.301352  
      99A      0.304652   100A      0.307407   101A      0.312202  
     102A      0.312898   103A      0.319210   104A      0.323615  
     105A      0.328955   106A      0.333463   107A      0.337054  
     108A      0.340267   109A      0.350825   110A      0.354569  
     111A      0.356366   112A      0.362669   113A      0.365374  
     114A      0.372435   115A      0.374541   116A      0.382383  
     117A      0.385488   118A      0.394174   119A      0.396155  
     120A      0.403810   121A      0.409723   122A      0.414843  
     123A      0.417731   124A      0.421554   125A      0.430444  
     126A      0.435548   127A      0.435708   128A      0.442572  
     129A      0.444964   130A      0.450834   131A      0.452642  
     132A      0.461046   133A      0.470175   134A      0.479388  
     135A      0.484744   136A      0.488725   137A      0.489887  
     138A      0.494933   139A      0.497344   140A      0.505419  
     141A      0.510391   142A      0.515690   143A      0.518755  
     144A      0.525653   145A      0.529106   146A      0.541622  
     147A      0.545973   148A      0.548067   149A      0.553279  
     150A      0.560843   151A      0.562324   152A      0.564296  
     153A      0.568434   154A      0.573472   155A      0.574143  
     156A      0.584242   157A      0.591717   158A      0.596131  
     159A      0.600602   160A      0.606731   161A      0.613115  
     162A      0.615420   163A      0.620271   164A      0.629348  
     165A      0.633824   166A      0.637512   167A      0.643820  
     168A      0.649772   169A      0.654119   170A      0.655140  
     171A      0.658546   172A      0.666437   173A      0.671609  
     174A      0.675668   175A      0.679625   176A      0.686807  
     177A      0.692190   178A      0.699631   179A      0.701652  
     180A      0.708545   181A      0.715349   182A      0.720414  
     183A      0.722636   184A      0.729196   185A      0.735172  
     186A      0.739723   187A      0.749568   188A      0.752093  
     189A      0.760313   190A      0.762074   191A      0.765121  
     192A      0.774058   193A      0.778387   194A      0.785300  
     195A      0.793104   196A      0.796717   197A      0.804592  
     198A      0.805977   199A      0.818491   200A      0.823344  
     201A      0.826987   202A      0.838381   203A      0.841177  
     204A      0.848537   205A      0.853055   206A      0.860007  
     207A      0.866296   208A      0.875030   209A      0.884112  
     210A      0.890852   211A      0.893055   212A      0.899465  
     213A      0.903021   214A      0.916496   215A      0.921846  
     216A      0.935000   217A      0.936086   218A      0.943185  
     219A      0.947937   220A      0.951792   221A      0.958153  
     222A      0.966528   223A      0.970192   224A      0.978490  
     225A      0.984722   226A      0.987272   227A      0.990664  
     228A      1.001109   229A      1.005541   230A      1.016132  
     231A      1.019645   232A      1.033213   233A      1.040121  
     234A      1.043066   235A      1.049813   236A      1.060617  
     237A      1.066983   238A      1.071927   239A      1.083520  
     240A      1.087672   241A      1.089958   242A      1.095333  
     243A      1.105655   244A      1.110430   245A      1.122886  
     246A      1.124732   247A      1.128852   248A      1.135359  
     249A      1.140353   250A      1.152649   251A      1.156496  
     252A      1.163127   253A      1.173815   254A      1.182156  
     255A      1.188910   256A      1.195467   257A      1.198467  
     258A      1.215371   259A      1.224085   260A      1.228073  
     261A      1.238080   262A      1.240752   263A      1.242823  
     264A      1.262876   265A      1.271685   266A      1.276284  
     267A      1.282403   268A      1.294412   269A      1.301534  
     270A      1.311554   271A      1.317448   272A      1.327087  
     273A      1.338161   274A      1.341022   275A      1.357670  
     276A      1.359000   277A      1.371085   278A      1.381624  
     279A      1.390873   280A      1.399187   281A      1.404445  
     282A      1.423754   283A      1.429660   284A      1.432683  
     285A      1.449203   286A      1.454600   287A      1.462776  
     288A      1.469278   289A      1.484190   290A      1.488439  
     291A      1.500918   292A      1.510273   293A      1.518056  
     294A      1.539892   295A      1.547805   296A      1.555907  
     297A      1.566925   298A      1.572710   299A      1.581943  
     300A      1.605983   301A      1.625907   302A      1.630747  
     303A      1.642264   304A      1.646972   305A      1.666171  
     306A      1.674679   307A      1.687829   308A      1.703985  
     309A      1.711599   310A      1.722561   311A      1.728130  
     312A      1.748280   313A      1.759581   314A      1.761368  
     315A      1.777039   316A      1.791037   317A      1.804928  
     318A      1.820876   319A      1.838252   320A      1.851518  
     321A      1.852779   322A      1.874447   323A      1.886090  
     324A      1.907177   325A      1.912600   326A      1.931174  
     327A      1.936739   328A      1.952211   329A      1.968349  
     330A      1.977712   331A      1.989022   332A      2.015496  
     333A      2.024378   334A      2.059528   335A      2.081157  
     336A      2.089997   337A      2.102666   338A      2.110372  
     339A      2.126861   340A      2.153121   341A      2.164432  
     342A      2.183011   343A      2.191322   344A      2.199990  
     345A      2.208010   346A      2.222538   347A      2.227026  
     348A      2.242184   349A      2.250820   350A      2.267779  
     351A      2.277846   352A      2.281504   353A      2.299559  
     354A      2.302261   355A      2.319144   356A      2.332207  
     357A      2.334097   358A      2.353963   359A      2.358059  
     360A      2.374438   361A      2.380298   362A      2.387724  
     363A      2.403903   364A      2.404752   365A      2.418478  
     366A      2.434266   367A      2.442551   368A      2.451615  
     369A      2.481580   370A      2.487917   371A      2.503252  
     372A      2.531095   373A      2.537993   374A      2.549161  
     375A      2.563217   376A      2.568003   377A      2.571514  
     378A      2.583845   379A      2.590387   380A      2.596314  
     381A      2.609588   382A      2.620486   383A      2.641446  
     384A      2.647580   385A      2.660469   386A      2.672394  
     387A      2.690482   388A      2.707732   389A      2.724035  
     390A      2.728754   391A      2.735042   392A      2.750584  
     393A      2.763054   394A      2.766410   395A      2.781154  
     396A      2.789733   397A      2.792021   398A      2.809737  
     399A      2.820331   400A      2.827755   401A      2.840196  
     402A      2.842153   403A      2.864868   404A      2.876550  
     405A      2.898473   406A      2.899124   407A      2.917137  
     408A      2.929283   409A      2.941096   410A      2.957923  
     411A      2.959166   412A      2.978380   413A      2.996672  
     414A      3.014532   415A      3.032121   416A      3.036864  
     417A      3.051983   418A      3.063996   419A      3.084138  
     420A      3.107659   421A      3.136762   422A      3.189945  
     423A      3.201185   424A      3.219275   425A      3.241914  
     426A      3.271210   427A      3.286043   428A      3.311562  
     429A      3.322287   430A      3.330986   431A      3.339086  
     432A      3.382567   433A      3.419678   434A      3.429452  
     435A      3.448922   436A      3.468184   437A      3.474582  
     438A      3.492013   439A      3.499958   440A      3.512598  
     441A      3.530180   442A      3.540158   443A      3.548840  
     444A      3.576835   445A      3.642137   446A      3.661512  
     447A      3.668581   448A      3.706458   449A      3.720681  
     450A      3.764614   451A      3.768677   452A      3.777420  
     453A      3.801300   454A      3.830909   455A      3.847953  
     456A      3.868562   457A      3.896846   458A      3.913261  
     459A      3.938920   460A      3.950239   461A      3.997522  
     462A      4.092785   463A      4.157531   464A      4.229351  
     465A      4.252411   466A      4.363568   467A      4.447152  
     468A      4.554167   469A      4.586489   470A      4.644757  
     471A      4.733451   472A      4.788938   473A      4.812731  
     474A      4.885776   475A      4.898649   476A      4.956812  
     477A      5.041271   478A      5.090198   479A      5.111437  
     480A      5.159359   481A      5.160076   482A      5.315439  
     483A      5.361294   484A      5.472439   485A      5.606356  
     486A      5.653785   487A      5.723532   488A      5.889383  
     489A      6.030935   490A      6.063860   491A      6.120454  
     492A      6.176224   493A      6.286603   494A      6.318829  
     495A      6.548889   496A      7.079259   497A     18.168569  
     498A     18.830568   499A     18.915873   500A     19.697669  
     501A     25.383640   502A     25.466869   503A     25.493145  
     504A     33.554282  

    Final Occupation by Irrep:
              A 
    DOCC [    35 ]

  @DF-RHF Final Energy:  -464.58443655574007

   => Energetics <=

    Nuclear Repulsion Energy =            501.3065871334018198
    One-Electron Energy =               -1625.1692211841138942
    Two-Electron Energy =                 659.2781974949720052
    Total Energy =                       -464.5844365557401261

Computation Completed


Properties will be evaluated at   0.000000,   0.000000,   0.000000 [a0]

Properties computed using the SCF density matrix

  Nuclear Dipole Moment: [e a0]
     X:  -146.9760      Y:     6.5492      Z:   196.3208

  Electronic Dipole Moment: [e a0]
     X:   146.6060      Y:    -5.6688      Z:  -196.3208

  Dipole Moment: [e a0]
     X:    -0.3700      Y:     0.8804      Z:    -0.0001     Total:     0.9549

  Dipole Moment: [D]
     X:    -0.9404      Y:     2.2377      Z:    -0.0002     Total:     2.4272


*** tstop() called on node154.bme.utexas.edu at Sun May 12 23:44:18 2024
Module time:
	user time   =     173.42 seconds =       2.89 minutes
	system time =       3.06 seconds =       0.05 minutes
	total time  =         27 seconds =       0.45 minutes
Total time:
	user time   =     628.82 seconds =      10.48 minutes
	system time =      15.67 seconds =       0.26 minutes
	total time  =        100 seconds =       1.67 minutes

*** tstart() called on node154.bme.utexas.edu
*** at Sun May 12 23:44:18 2024


  //>>>>>>>>>>>>>>>>>>>>>>>>>>>>>>>>>>>//
  //               DFMP2               //
  //<<<<<<<<<<<<<<<<<<<<<<<<<<<<<<<<<<<//

   => Loading Basis Set <=

    Name: (AUG-CC-PVDZ AUX)
    Role: RIFIT
    Keyword: DF_BASIS_MP2
    atoms 1, 3, 9, 14, 16, 20, 22, 24 entry N          line   158 file /opt/anaconda/envs/psi4v1.5/share/psi4/basis/aug-cc-pvdz-ri.gbs 
    atoms 2, 4-6, 15, 17-19, 21       entry C          line   112 file /opt/anaconda/envs/psi4v1.5/share/psi4/basis/aug-cc-pvdz-ri.gbs 
    atoms 7, 10-13, 23, 25-28         entry H          line    30 file /opt/anaconda/envs/psi4v1.5/share/psi4/basis/aug-cc-pvdz-ri.gbs 
    atoms 8                           entry O          line   204 file /opt/anaconda/envs/psi4v1.5/share/psi4/basis/aug-cc-pvdz-ri.gbs 

	 --------------------------------------------------------
	                          DF-MP2                         
	      2nd-Order Density-Fitted Moller-Plesset Theory     
	              RMP2 Wavefunction,   8 Threads             
	                                                         
	        Rob Parrish, Justin Turney, Andy Simmonett,      
	           Ed Hohenstein, and C. David Sherrill          
	 --------------------------------------------------------

   => Auxiliary Basis Set <=

  Basis Set: (AUG-CC-PVDZ AUX)
    Blend: AUG-CC-PVDZ-RI
    Number of shells: 486
    Number of basis functions: 1526
    Number of Cartesian functions: 1798
    Spherical Harmonics?: true
    Max angular momentum: 3

	 --------------------------------------------------------
	                 NBF =   504, NAUX =  1526
	 --------------------------------------------------------
	   CLASS    FOCC     OCC    AOCC    AVIR     VIR    FVIR
	   PAIRS      10      35      25     469     469       0
	 --------------------------------------------------------

	 Will attempt to load fitting metric from file 97.

	-----------------------------------------------------------
	 ==================> DF-MP2 Energies <==================== 
	-----------------------------------------------------------
	 Reference Energy          =    -464.5844365557400693 [Eh]
	 Singles Energy            =      -0.0000000000000000 [Eh]
	 Same-Spin Energy          =      -0.4217572061571269 [Eh]
	 Opposite-Spin Energy      =      -1.0902726196043111 [Eh]
	 Correlation Energy        =      -1.5120298257614380 [Eh]
	 Total Energy              =    -466.0964663815015001 [Eh]
	-----------------------------------------------------------
	 ================> DF-SCS-MP2 Energies <================== 
	-----------------------------------------------------------
	 SCS Same-Spin Scale       =       0.3333333333333333 [-]
	 SCS Opposite-Spin Scale   =       1.2000000000000000 [-]
	 SCS Same-Spin Energy      =      -0.1405857353857090 [Eh]
	 SCS Opposite-Spin Energy  =      -1.3083271435251733 [Eh]
	 SCS Correlation Energy    =      -1.4489128789108823 [Eh]
	 SCS Total Energy          =    -466.0333494346509724 [Eh]
	-----------------------------------------------------------


*** tstop() called on node154.bme.utexas.edu at Sun May 12 23:44:26 2024
Module time:
	user time   =      38.65 seconds =       0.64 minutes
	system time =       2.20 seconds =       0.04 minutes
	total time  =          8 seconds =       0.13 minutes
Total time:
	user time   =     667.48 seconds =      11.12 minutes
	system time =      17.87 seconds =       0.30 minutes
	total time  =        108 seconds =       1.80 minutes
  Constructing Basis Sets for SAPT...

   => Loading Basis Set <=

    Name: (AUG-CC-PVDZ AUX)
    Role: RIFIT
    Keyword: DF_BASIS_SAPT
    atoms 1, 3, 9, 14, 16, 20, 22, 24 entry N          line   158 file /opt/anaconda/envs/psi4v1.5/share/psi4/basis/aug-cc-pvdz-ri.gbs 
    atoms 2, 4-6, 15, 17-19, 21       entry C          line   112 file /opt/anaconda/envs/psi4v1.5/share/psi4/basis/aug-cc-pvdz-ri.gbs 
    atoms 7, 10-13, 23, 25-28         entry H          line    30 file /opt/anaconda/envs/psi4v1.5/share/psi4/basis/aug-cc-pvdz-ri.gbs 
    atoms 8                           entry O          line   204 file /opt/anaconda/envs/psi4v1.5/share/psi4/basis/aug-cc-pvdz-ri.gbs 


  //>>>>>>>>>>>>>>>>>>>>>>>>>>>>>>>>>>>//
  //           SAPT2+(3)DMP2           //
  //<<<<<<<<<<<<<<<<<<<<<<<<<<<<<<<<<<<//


*** tstart() called on node154.bme.utexas.edu
*** at Sun May 12 23:44:26 2024

      SAPT2+(3)  
    Ed Hohenstein
     6 June 2009

      Orbital Information
  --------------------------
    NSO        =       504
    NMO        =       504
    NRI        =      1526
    NOCC A     =        29
    NOCC B     =        35
    FOCC A     =         8
    FOCC B     =        10
    NVIR A     =       475
    NVIR B     =       469

    Estimated memory usage: 9387.8 MB

    Natural Orbital Cutoff:   1.000E-06
    Disp(T3) Truncation:            Yes
    CCD (vv|vv) Truncation:         Yes
    MBPT T2 Truncation:             Yes

    Monomer A: 268 virtual orbitals dropped
    Monomer B: 225 virtual orbitals dropped

    Elst10,r            =    -0.000111982286 [Eh]
    Exch10 (S^2)        =     0.008549331476 [Eh]
    Exch10              =     0.008555922857 [Eh]
    Ind20,r (A<-B)      =    -0.001354960379 [Eh]
    Ind20,r (B<-A)      =    -0.003202290308 [Eh]
    Ind20,r             =    -0.004557250687 [Eh]
    Exch-Ind20,r (A<-B) =     0.001139171503 [Eh]
    Exch-Ind20,r (B<-A) =     0.001756133488 [Eh]
    Exch-Ind20,r        =     0.002895304992 [Eh]
    Disp20              =    -0.015850432223 [Eh]
    Disp20 (NO)         =    -0.015057317414 [Eh]
    Exch-Disp20         =     0.001401784792 [Eh]
    Elst12,r            =    -0.001623124499 [Eh]
    Exch11              =     0.000069306060 [Eh]
    Exch12              =     0.001363168922 [Eh]
    Ind22               =    -0.000404590238 [Eh]
    Disp21              =     0.005125187138 [Eh]
    Disp22 (SDQ)        =    -0.001405937793 [Eh]

    (i =   1 of  25)        220 seconds
    (i =   2 of  25)        439 seconds
    (i =   3 of  25)        665 seconds
    (i =   4 of  25)        876 seconds
    (i =   5 of  25)       1096 seconds
    (i =   6 of  25)       1264 seconds
    (i =   7 of  25)       1433 seconds
    (i =   8 of  25)       1604 seconds
    (i =   9 of  25)       1777 seconds
    (i =  10 of  25)       1951 seconds
    (i =  11 of  25)       2122 seconds
    (i =  12 of  25)       2285 seconds
    (i =  13 of  25)       2444 seconds
    (i =  14 of  25)       2610 seconds
    (i =  15 of  25)       2766 seconds
    (i =  16 of  25)       2922 seconds
    (i =  17 of  25)       3090 seconds
    (i =  18 of  25)       3262 seconds
    (i =  19 of  25)       3432 seconds
    (i =  20 of  25)       3601 seconds
    (i =  21 of  25)       3766 seconds
    (i =  22 of  25)       3938 seconds
    (i =  23 of  25)       4107 seconds
    (i =  24 of  25)       4276 seconds
    (i =  25 of  25)       4443 seconds

    Disp220 (T)         =    -0.001745809562 [Eh]

    (i =   1 of  21)        230 seconds
    (i =   2 of  21)        459 seconds
    (i =   3 of  21)        692 seconds
    (i =   4 of  21)        925 seconds
    (i =   5 of  21)       1159 seconds
    (i =   6 of  21)       1392 seconds
    (i =   7 of  21)       1626 seconds
    (i =   8 of  21)       1863 seconds
    (i =   9 of  21)       2166 seconds
    (i =  10 of  21)       2505 seconds
    (i =  11 of  21)       2846 seconds
    (i =  12 of  21)       3177 seconds
    (i =  13 of  21)       3512 seconds
    (i =  14 of  21)       3841 seconds
    (i =  15 of  21)       4115 seconds
    (i =  16 of  21)       4415 seconds
    (i =  17 of  21)       4723 seconds
    (i =  18 of  21)       5043 seconds
    (i =  19 of  21)       5369 seconds
    (i =  20 of  21)       5696 seconds
    (i =  21 of  21)       6007 seconds

    Disp202 (T)         =    -0.001707339926 [Eh]

    Disp22 (T)          =    -0.003453149488 [Eh]

    Est. Disp220 (T)    =    -0.001837766674 [Eh]
    Est. Disp202 (T)    =    -0.001797270725 [Eh]

    Est. Disp22 (T)     =    -0.003635037398 [Eh]
    Elst13,r            =     0.000593609804 [Eh]
    Disp30              =     0.000226340489 [Eh]

    SAPT Results 
  --------------------------------------------------------------------------------------------------------
    Electrostatics                 -1.14149698 [mEh]      -0.71630017 [kcal/mol]      -2.99699991 [kJ/mol]
      Elst10,r                     -0.11198229 [mEh]      -0.07026995 [kcal/mol]      -0.29400945 [kJ/mol]
      Elst12,r                     -1.62312450 [mEh]      -1.01852600 [kcal/mol]      -4.26151278 [kJ/mol]
      Elst13,r                      0.59360980 [mEh]       0.37249578 [kcal/mol]       1.55852233 [kJ/mol]

    Exchange                        9.98839784 [mEh]       6.26781427 [kcal/mol]      26.22453491 [kJ/mol]
      Exch10                        8.55592286 [mEh]       5.36892265 [kcal/mol]      22.46357237 [kJ/mol]
      Exch10(S^2)                   8.54933148 [mEh]       5.36478650 [kcal/mol]      22.44626670 [kJ/mol]
      Exch11(S^2)                   0.06930606 [mEh]       0.04349021 [kcal/mol]       0.18196304 [kJ/mol]
      Exch12(S^2)                   1.36316892 [mEh]       0.85540141 [kcal/mol]       3.57899951 [kJ/mol]

    Induction                      -1.61314098 [mEh]      -1.01226125 [kcal/mol]      -4.23530106 [kJ/mol]
      Ind20,r                      -4.55725069 [mEh]      -2.85971798 [kcal/mol]     -11.96506003 [kJ/mol]
      Ind22                        -0.40459024 [mEh]      -0.25388421 [kcal/mol]      -1.06225152 [kJ/mol]
      Exch-Ind20,r                  2.89530499 [mEh]       1.81683131 [kcal/mol]       7.60162221 [kJ/mol]
      Exch-Ind22                    0.25704360 [mEh]       0.16129730 [kcal/mol]       0.67486789 [kJ/mol]
      delta HF,r (2)               -0.31279493 [mEh]      -0.19628178 [kcal/mol]      -0.82124298 [kJ/mol]
      delta MP2,r (2)               0.50914628 [mEh]       0.31949412 [kcal/mol]       1.33676338 [kJ/mol]

    Dispersion                    -14.13809499 [mEh]      -8.87178855 [kcal/mol]     -37.11956330 [kJ/mol]
      Disp20                      -15.85043222 [mEh]      -9.94629638 [kcal/mol]     -41.61530407 [kJ/mol]
      Disp30                        0.22634049 [mEh]       0.14203080 [kcal/mol]       0.59425687 [kJ/mol]
      Disp21                        5.12518714 [mEh]       3.21610348 [kcal/mol]      13.45617698 [kJ/mol]
      Disp22 (SDQ)                 -1.40593779 [mEh]      -0.88223928 [kcal/mol]      -3.69128917 [kJ/mol]
      Disp22 (T)                   -3.45314949 [mEh]      -2.16688402 [kcal/mol]      -9.06624273 [kJ/mol]
      Est. Disp22 (T)              -3.63503740 [mEh]      -2.28102040 [kcal/mol]      -9.54378937 [kJ/mol]
      Exch-Disp20                   1.40178479 [mEh]       0.87963324 [kcal/mol]       3.68038546 [kJ/mol]

  Total HF                          6.46919994 [mEh]       4.05948425 [kcal/mol]      16.98488211 [kJ/mol]
  Total SAPT0                      -7.97944749 [mEh]      -5.00717889 [kcal/mol]     -20.95003649 [kJ/mol]
  Total SAPT2                      -8.31764364 [mEh]      -5.21940018 [kcal/mol]     -21.83797037 [kJ/mol]
  Total SAPT2+                     -8.23343169 [mEh]      -5.16655639 [kcal/mol]     -21.61687193 [kJ/mol]
  Total SAPT2+(3)                  -7.41348140 [mEh]      -4.65202981 [kcal/mol]     -19.46409273 [kJ/mol]
  Total SAPT2+dMP2                 -7.72428541 [mEh]      -4.84706227 [kcal/mol]     -20.28010855 [kJ/mol]
  Total SAPT2+(3)dMP2              -6.90433512 [mEh]      -4.33253570 [kcal/mol]     -18.12732935 [kJ/mol]

  Special recipe for scaled SAPT0 (see Manual):
    Electrostatics sSAPT0          -0.11198229 [mEh]      -0.07026995 [kcal/mol]      -0.29400945 [kJ/mol]
    Exchange sSAPT0                 8.55592286 [mEh]       5.36892265 [kcal/mol]      22.46357237 [kJ/mol]
    Induction sSAPT0               -1.96803878 [mEh]      -1.23496298 [kcal/mol]      -5.16708510 [kJ/mol]
    Dispersion sSAPT0             -14.44540268 [mEh]      -9.06462703 [kcal/mol]     -37.92639951 [kJ/mol]
  Total sSAPT0                     -7.96950089 [mEh]      -5.00093731 [kcal/mol]     -20.92392169 [kJ/mol]
  --------------------------------------------------------------------------------------------------------

*** tstop() called on node154.bme.utexas.edu at Mon May 13 03:03:14 2024
Module time:
	user time   =   79109.74 seconds =    1318.50 minutes
	system time =     571.86 seconds =       9.53 minutes
	total time  =      11928 seconds =     198.80 minutes
Total time:
	user time   =   79777.91 seconds =    1329.63 minutes
	system time =     589.74 seconds =       9.83 minutes
	total time  =      12036 seconds =     200.60 minutes

    Psi4 stopped on: Monday, 13 May 2024 03:03AM
    Psi4 wall time for execution: 3:20:36.78

*** Psi4 exiting successfully. Buy a developer a beer!
