
    -----------------------------------------------------------------------
          Psi4: An Open-Source Ab Initio Electronic Structure Package
                               Psi4 1.5 release

                         Git: Rev {HEAD} e9f4d6d 


    D. G. A. Smith, L. A. Burns, A. C. Simmonett, R. M. Parrish,
    M. C. Schieber, R. Galvelis, P. Kraus, H. Kruse, R. Di Remigio,
    A. Alenaizan, A. M. James, S. Lehtola, J. P. Misiewicz, M. Scheurer,
    R. A. Shaw, J. B. Schriber, Y. Xie, Z. L. Glick, D. A. Sirianni,
    J. S. O'Brien, J. M. Waldrop, A. Kumar, E. G. Hohenstein,
    B. P. Pritchard, B. R. Brooks, H. F. Schaefer III, A. Yu. Sokolov,
    K. Patkowski, A. E. DePrince III, U. Bozkaya, R. A. King,
    F. A. Evangelista, J. M. Turney, T. D. Crawford, C. D. Sherrill,
    J. Chem. Phys. 152(18) 184108 (2020). https://doi.org/10.1063/5.0006002

                            Additional Code Authors
    E. T. Seidl, C. L. Janssen, E. F. Valeev, M. L. Leininger,
    J. F. Gonthier, R. M. Richard, H. R. McAlexander, M. Saitow, X. Wang,
    P. Verma, M. H. Lechner, and A. Jiang

             Previous Authors, Complete List of Code Contributors,
                       and Citations for Specific Modules
    https://github.com/psi4/psi4/blob/master/codemeta.json
    https://github.com/psi4/psi4/graphs/contributors
    http://psicode.org/psi4manual/master/introduction.html#citing-psifour

    -----------------------------------------------------------------------


    Psi4 started on: Thursday, 25 January 2024 10:36AM

    Process ID: 3593987
    Host:       node150.bme.utexas.edu
    PSIDATADIR: /opt/anaconda/envs/psi4v1.5/share/psi4
    Memory:     500.0 MiB
    Threads:    8
    
  ==> Input File <==

--------------------------------------------------------------------------
memory 80GB

molecule {
0 1
N -0.892798 -0.641213 0.000177
C -2.178983 -1.129399 0.000138
N -2.468274 -2.425461 7.7e-05
C -1.363696 -3.200471 5.8e-05
C -0.014974 -2.816806 9.2e-05
C 0.279491 -1.416691 0.000154
N 0.8152 -3.928228 5.6e-05
C -0.0 -4.951862 0.0
N -1.336777 -4.573395 0.0
H -0.745051 0.38547 0.000222
N -3.173589 -0.213779 0.000162
H -2.999709 0.796316 0.000206
H -4.117404 -0.565463 0.000136
O 1.38905 -0.85623 0.000185
H 0.294954 -5.996323 -3.7e-05
H -2.147795 -5.175782 -3.4e-05
--
0 1
N 1.252551 -3.734552 3.249842
C 0.343876 -2.659652 3.313704
N 0.849228 -1.402597 3.224262
C 2.167636 -1.197286 3.080285
C 3.105349 -2.295736 3.014064
C 2.594972 -3.551407 3.103994
H 0.84865 -4.659368 3.319012
O -0.86004 -2.916389 3.447181
N 2.59181 0.067932 2.999101
H 1.915461 0.85988 3.046853
H 3.575442 0.259973 2.890549
H 4.172676 -2.12797 2.897466
H 3.21168 -4.448417 3.06552
 units angstrom
 no_reorient
 symmetry c1}
set  {scf_type DF
 basis aug-cc-pvtz
 freeze_core True
 guess SAD}
energy('sapt2+(3)dmp2')
--------------------------------------------------------------------------

  Memory set to  74.506 GiB by Python driver.

Scratch directory: /tmp/
   => Loading Basis Set <=

    Name: AUG-CC-PVTZ
    Role: ORBITAL
    Keyword: BASIS
    atoms 1, 3, 7, 9, 11, 17, 19, 25  entry N          line   285 file /opt/anaconda/envs/psi4v1.5/share/psi4/basis/aug-cc-pvtz.gbs 
    atoms 2, 4-6, 8, 18, 20-22        entry C          line   239 file /opt/anaconda/envs/psi4v1.5/share/psi4/basis/aug-cc-pvtz.gbs 
    atoms 10, 12-13, 15-16, 23, 26-29 entry H          line    40 file /opt/anaconda/envs/psi4v1.5/share/psi4/basis/aug-cc-pvtz.gbs 
    atoms 14, 24                      entry O          line   331 file /opt/anaconda/envs/psi4v1.5/share/psi4/basis/aug-cc-pvtz.gbs 

   => Loading Basis Set <=

    Name: AUG-CC-PVTZ
    Role: ORBITAL
    Keyword: BASIS
    atoms 1, 3, 7, 9, 11, 17, 19, 25  entry N          line   285 file /opt/anaconda/envs/psi4v1.5/share/psi4/basis/aug-cc-pvtz.gbs 
    atoms 2, 4-6, 8, 18, 20-22        entry C          line   239 file /opt/anaconda/envs/psi4v1.5/share/psi4/basis/aug-cc-pvtz.gbs 
    atoms 10, 12-13, 15-16, 23, 26-29 entry H          line    40 file /opt/anaconda/envs/psi4v1.5/share/psi4/basis/aug-cc-pvtz.gbs 
    atoms 14, 24                      entry O          line   331 file /opt/anaconda/envs/psi4v1.5/share/psi4/basis/aug-cc-pvtz.gbs 


  //>>>>>>>>>>>>>>>>>>>>>>>>>>>>>>>>>>>//
  //              Dimer HF             //
  //<<<<<<<<<<<<<<<<<<<<<<<<<<<<<<<<<<<//


*** tstart() called on node150.bme.utexas.edu
*** at Thu Jan 25 10:36:38 2024

   => Loading Basis Set <=

    Name: AUG-CC-PVTZ
    Role: ORBITAL
    Keyword: BASIS
    atoms 1, 3, 7, 9, 11, 17, 19, 25  entry N          line   285 file /opt/anaconda/envs/psi4v1.5/share/psi4/basis/aug-cc-pvtz.gbs 
    atoms 2, 4-6, 8, 18, 20-22        entry C          line   239 file /opt/anaconda/envs/psi4v1.5/share/psi4/basis/aug-cc-pvtz.gbs 
    atoms 10, 12-13, 15-16, 23, 26-29 entry H          line    40 file /opt/anaconda/envs/psi4v1.5/share/psi4/basis/aug-cc-pvtz.gbs 
    atoms 14, 24                      entry O          line   331 file /opt/anaconda/envs/psi4v1.5/share/psi4/basis/aug-cc-pvtz.gbs 


         ---------------------------------------------------------
                                   SCF
               by Justin Turney, Rob Parrish, Andy Simmonett
                          and Daniel G. A. Smith
                              RHF Reference
                        8 Threads,  76293 MiB Core
         ---------------------------------------------------------

  ==> Geometry <==

    Molecular point group: c1
    Full point group: C1

    Geometry (in Angstrom), charge = 0, multiplicity = 1:

       Center              X                  Y                   Z               Mass       
    ------------   -----------------  -----------------  -----------------  -----------------
         N           -1.040155980508     1.631943966618    -1.347780498995    14.003074004430
         C           -2.326340980508     1.143757966618    -1.347819498995    12.000000000000
         N           -2.615631980508    -0.152304033382    -1.347880498995    14.003074004430
         C           -1.511053980508    -0.927314033382    -1.347899498995    12.000000000000
         C           -0.162331980508    -0.543649033382    -1.347865498995    12.000000000000
         C            0.132133019492     0.856465966618    -1.347803498995    12.000000000000
         N            0.667842019492    -1.655071033382    -1.347901498995    14.003074004430
         C           -0.147357980508    -2.678705033382    -1.347957498995    12.000000000000
         N           -1.484134980508    -2.300238033382    -1.347957498995    14.003074004430
         H           -0.892408980508     2.658626966618    -1.347735498995     1.007825032230
         N           -3.320946980508     2.059377966618    -1.347795498995    14.003074004430
         H           -3.147066980508     3.069472966618    -1.347751498995     1.007825032230
         H           -4.264761980508     1.707693966618    -1.347821498995     1.007825032230
         O            1.241692019492     1.416926966618    -1.347772498995    15.994914619570
         H            0.147596019492    -3.723166033382    -1.347994498995     1.007825032230
         H           -2.295152980508    -2.902625033382    -1.347991498995     1.007825032230
         N            1.105193019492    -1.461395033382     1.901884501005    14.003074004430
         C            0.196518019492    -0.386495033382     1.965746501005    12.000000000000
         N            0.701870019492     0.870559966618     1.876304501005    14.003074004430
         C            2.020278019492     1.075870966618     1.732327501005    12.000000000000
         C            2.957991019492    -0.022579033382     1.666106501005    12.000000000000
         C            2.447614019492    -1.278250033382     1.756036501005    12.000000000000
         H            0.701292019492    -2.386211033382     1.971054501005     1.007825032230
         O           -1.007397980508    -0.643232033382     2.099223501005    15.994914619570
         N            2.444452019492     2.341088966618     1.651143501005    14.003074004430
         H            1.768103019492     3.133036966618     1.698895501005     1.007825032230
         H            3.428084019492     2.533129966618     1.542591501005     1.007825032230
         H            4.025318019492     0.145186966618     1.549508501005     1.007825032230
         H            3.064322019492    -2.175260033382     1.717562501005     1.007825032230

  Running in c1 symmetry.

  Rotational constants: A =      0.01909  B =      0.01127  C =      0.00935 [cm^-1]
  Rotational constants: A =    572.28493  B =    337.83324  C =    280.39875 [MHz]
  Nuclear repulsion = 1470.192584143283511

  Charge       = 0
  Multiplicity = 1
  Electrons    = 136
  Nalpha       = 68
  Nbeta        = 68

  ==> Algorithm <==

  SCF Algorithm Type is DF.
  DIIS enabled.
  MOM disabled.
  Fractional occupation disabled.
  Guess Type is SAD.
  Energy threshold   = 1.00e-08
  Density threshold  = 1.00e-08
  Integral threshold = 1.00e-12

  ==> Primary Basis <==

  Basis Set: AUG-CC-PVTZ
    Blend: AUG-CC-PVTZ
    Number of shells: 356
    Number of basis functions: 1104
    Number of Cartesian functions: 1295
    Spherical Harmonics?: true
    Max angular momentum: 3

   => Loading Basis Set <=

    Name: (AUG-CC-PVTZ AUX)
    Role: JKFIT
    Keyword: DF_BASIS_SCF
    atoms 1, 3, 7, 9, 11, 17, 19, 25  entry N          line   224 file /opt/anaconda/envs/psi4v1.5/share/psi4/basis/aug-cc-pvtz-jkfit.gbs 
    atoms 2, 4-6, 8, 18, 20-22        entry C          line   162 file /opt/anaconda/envs/psi4v1.5/share/psi4/basis/aug-cc-pvtz-jkfit.gbs 
    atoms 10, 12-13, 15-16, 23, 26-29 entry H          line    70 file /opt/anaconda/envs/psi4v1.5/share/psi4/basis/aug-cc-pvtz-jkfit.gbs 
    atoms 14, 24                      entry O          line   286 file /opt/anaconda/envs/psi4v1.5/share/psi4/basis/aug-cc-pvtz-jkfit.gbs 

  ==> Integral Setup <==

  ==> DiskDFJK: Density-Fitted J/K Matrices <==

    J tasked:                  Yes
    K tasked:                  Yes
    wK tasked:                  No
    OpenMP threads:              8
    Integrals threads:           8
    Memory [MiB]:            57220
    Algorithm:                Core
    Integral Cache:           SAVE
    Schwarz Cutoff:          1E-12
    Fitting Condition:       1E-10

   => Auxiliary Basis Set <=

  Basis Set: (AUG-CC-PVTZ AUX)
    Blend: AUG-CC-PVTZ-JKFIT
    Number of shells: 710
    Number of basis functions: 2436
    Number of Cartesian functions: 3039
    Spherical Harmonics?: true
    Max angular momentum: 4

  Minimum eigenvalue in the overlap matrix is 9.3009342948E-07.
  Reciprocal condition number of the overlap matrix is 4.4301882743E-08.
    Using symmetric orthogonalization.

  ==> Pre-Iterations <==

  SCF Guess: Superposition of Atomic Densities via on-the-fly atomic UHF (no occupation information).

   -------------------------
    Irrep   Nso     Nmo    
   -------------------------
     A       1104    1104 
   -------------------------
    Total    1104    1104
   -------------------------

  ==> Iterations <==

                           Total Energy        Delta E     RMS |[F,P]|

   @DF-RHF iter SAD:  -931.52819210857342   -9.31528e+02   0.00000e+00 
   @DF-RHF iter   1:  -931.78423143878399   -2.56039e-01   9.74973e-04 DIIS
   @DF-RHF iter   2:  -932.20001314342539   -4.15782e-01   5.59927e-04 DIIS
   @DF-RHF iter   3:  -932.33579493735647   -1.35782e-01   1.08818e-04 DIIS
   @DF-RHF iter   4:  -932.34368229832990   -7.88736e-03   4.76492e-05 DIIS
   @DF-RHF iter   5:  -932.34524342350255   -1.56113e-03   1.03247e-05 DIIS
   @DF-RHF iter   6:  -932.34541021419057   -1.66791e-04   5.53897e-06 DIIS
   @DF-RHF iter   7:  -932.34545791897960   -4.77048e-05   2.20902e-06 DIIS
   @DF-RHF iter   8:  -932.34546703556509   -9.11659e-06   7.81978e-07 DIIS
   @DF-RHF iter   9:  -932.34546809899086   -1.06343e-06   3.33499e-07 DIIS
   @DF-RHF iter  10:  -932.34546828772113   -1.88730e-07   1.29841e-07 DIIS
   @DF-RHF iter  11:  -932.34546832092337   -3.32022e-08   5.59818e-08 DIIS
   @DF-RHF iter  12:  -932.34546832599631   -5.07293e-09   1.80671e-08 DIIS
   @DF-RHF iter  13:  -932.34546832664694   -6.50630e-10   6.81707e-09 DIIS
  Energy and wave function converged.


  ==> Post-Iterations <==

    Orbital Energies [Eh]
    ---------------------

    Doubly Occupied:                                                      

       1A    -20.501552     2A    -20.478547     3A    -15.622678  
       4A    -15.618123     5A    -15.607680     6A    -15.601611  
       7A    -15.587545     8A    -15.555414     9A    -15.551692  
      10A    -15.519208    11A    -11.391141    12A    -11.351077  
      13A    -11.349453    14A    -11.339700    15A    -11.315002  
      16A    -11.311788    17A    -11.302929    18A    -11.232111  
      19A    -11.228610    20A     -1.375160    21A     -1.357906  
      22A     -1.339272    23A     -1.320341    24A     -1.275524  
      25A     -1.243678    26A     -1.212890    27A     -1.203840  
      28A     -1.162886    29A     -1.150767    30A     -1.043618  
      31A     -1.016751    32A     -0.892708    33A     -0.882291  
      34A     -0.880404    35A     -0.857937    36A     -0.826958  
      37A     -0.791445    38A     -0.743490    39A     -0.739962  
      40A     -0.731500    41A     -0.728865    42A     -0.707984  
      43A     -0.697451    44A     -0.658980    45A     -0.658020  
      46A     -0.645828    47A     -0.623524    48A     -0.605352  
      49A     -0.603865    50A     -0.596199    51A     -0.591740  
      52A     -0.588427    53A     -0.585439    54A     -0.567910  
      55A     -0.534618    56A     -0.517980    57A     -0.483660  
      58A     -0.467781    59A     -0.441240    60A     -0.426618  
      61A     -0.418225    62A     -0.417306    63A     -0.415384  
      64A     -0.401420    65A     -0.396541    66A     -0.363148  
      67A     -0.324433    68A     -0.284164  

    Virtual:                                                              

      69A      0.019466    70A      0.023962    71A      0.028742  
      72A      0.035623    73A      0.038815    74A      0.046936  
      75A      0.050211    76A      0.056674    77A      0.058386  
      78A      0.068254    79A      0.071890    80A      0.083984  
      81A      0.086869    82A      0.090309    83A      0.093240  
      84A      0.097752    85A      0.102770    86A      0.105331  
      87A      0.106769    88A      0.109229    89A      0.112656  
      90A      0.115880    91A      0.118226    92A      0.118974  
      93A      0.126739    94A      0.130730    95A      0.131505  
      96A      0.134004    97A      0.136543    98A      0.138530  
      99A      0.141296   100A      0.144660   101A      0.145131  
     102A      0.151231   103A      0.152042   104A      0.153041  
     105A      0.157591   106A      0.158883   107A      0.165456  
     108A      0.173374   109A      0.174437   110A      0.177237  
     111A      0.182322   112A      0.185240   113A      0.187745  
     114A      0.192765   115A      0.196297   116A      0.198823  
     117A      0.201211   118A      0.204576   119A      0.205891  
     120A      0.212828   121A      0.215377   122A      0.218654  
     123A      0.222738   124A      0.223596   125A      0.231279  
     126A      0.232617   127A      0.235421   128A      0.240927  
     129A      0.247317   130A      0.249479   131A      0.249984  
     132A      0.254092   133A      0.256352   134A      0.257136  
     135A      0.262692   136A      0.265889   137A      0.272230  
     138A      0.277103   139A      0.279159   140A      0.283068  
     141A      0.286344   142A      0.290485   143A      0.294555  
     144A      0.297108   145A      0.308030   146A      0.308384  
     147A      0.312706   148A      0.314560   149A      0.316971  
     150A      0.320573   151A      0.326279   152A      0.326872  
     153A      0.329242   154A      0.332353   155A      0.334764  
     156A      0.339637   157A      0.341558   158A      0.344180  
     159A      0.349456   160A      0.352245   161A      0.354467  
     162A      0.357206   163A      0.359718   164A      0.363637  
     165A      0.365171   166A      0.368601   167A      0.373649  
     168A      0.377186   169A      0.379399   170A      0.383110  
     171A      0.389691   172A      0.390156   173A      0.394444  
     174A      0.396898   175A      0.400148   176A      0.404070  
     177A      0.407325   178A      0.410265   179A      0.413504  
     180A      0.416638   181A      0.418360   182A      0.422608  
     183A      0.424924   184A      0.427231   185A      0.431783  
     186A      0.432869   187A      0.437062   188A      0.438089  
     189A      0.446079   190A      0.447663   191A      0.453630  
     192A      0.456006   193A      0.460552   194A      0.462092  
     195A      0.462879   196A      0.468550   197A      0.470475  
     198A      0.476167   199A      0.476727   200A      0.480338  
     201A      0.481835   202A      0.486459   203A      0.489956  
     204A      0.493318   205A      0.494831   206A      0.498762  
     207A      0.501358   208A      0.509066   209A      0.512057  
     210A      0.512680   211A      0.516254   212A      0.517777  
     213A      0.518614   214A      0.524551   215A      0.528255  
     216A      0.529402   217A      0.531326   218A      0.538217  
     219A      0.540075   220A      0.544928   221A      0.550675  
     222A      0.552511   223A      0.556380   224A      0.559977  
     225A      0.563484   226A      0.569814   227A      0.572534  
     228A      0.578539   229A      0.580681   230A      0.584506  
     231A      0.587681   232A      0.592771   233A      0.597512  
     234A      0.602009   235A      0.607716   236A      0.612501  
     237A      0.614270   238A      0.617862   239A      0.620549  
     240A      0.625161   241A      0.629846   242A      0.631645  
     243A      0.638139   244A      0.643193   245A      0.645624  
     246A      0.647907   247A      0.651890   248A      0.654537  
     249A      0.668405   250A      0.669247   251A      0.670989  
     252A      0.680015   253A      0.684327   254A      0.688625  
     255A      0.690571   256A      0.694402   257A      0.699165  
     258A      0.702236   259A      0.706784   260A      0.707742  
     261A      0.710669   262A      0.715417   263A      0.722008  
     264A      0.725043   265A      0.726732   266A      0.732975  
     267A      0.735473   268A      0.739578   269A      0.743648  
     270A      0.749278   271A      0.755287   272A      0.759582  
     273A      0.760364   274A      0.762468   275A      0.768268  
     276A      0.770810   277A      0.777259   278A      0.781597  
     279A      0.784135   280A      0.790427   281A      0.794952  
     282A      0.797741   283A      0.800565   284A      0.806226  
     285A      0.808140   286A      0.813815   287A      0.819308  
     288A      0.824849   289A      0.830156   290A      0.834601  
     291A      0.837038   292A      0.844804   293A      0.848589  
     294A      0.849300   295A      0.855467   296A      0.861058  
     297A      0.865378   298A      0.871306   299A      0.872583  
     300A      0.875716   301A      0.883012   302A      0.885671  
     303A      0.887545   304A      0.890997   305A      0.899650  
     306A      0.902091   307A      0.902980   308A      0.910958  
     309A      0.917829   310A      0.918801   311A      0.926217  
     312A      0.927855   313A      0.933045   314A      0.936805  
     315A      0.941803   316A      0.942280   317A      0.952163  
     318A      0.953423   319A      0.956582   320A      0.962246  
     321A      0.970592   322A      0.973667   323A      0.980841  
     324A      0.985426   325A      0.989247   326A      0.993276  
     327A      0.994960   328A      1.000187   329A      1.003060  
     330A      1.007196   331A      1.009141   332A      1.013302  
     333A      1.015595   334A      1.020959   335A      1.023524  
     336A      1.028944   337A      1.035845   338A      1.040398  
     339A      1.047093   340A      1.047998   341A      1.052221  
     342A      1.055495   343A      1.061569   344A      1.063819  
     345A      1.070694   346A      1.075368   347A      1.077756  
     348A      1.079629   349A      1.084708   350A      1.087406  
     351A      1.090108   352A      1.095211   353A      1.096421  
     354A      1.100763   355A      1.106368   356A      1.108520  
     357A      1.110808   358A      1.115007   359A      1.121266  
     360A      1.125232   361A      1.126944   362A      1.129147  
     363A      1.136369   364A      1.139519   365A      1.140633  
     366A      1.146006   367A      1.150935   368A      1.155355  
     369A      1.159955   370A      1.163552   371A      1.168856  
     372A      1.173276   373A      1.178069   374A      1.181150  
     375A      1.186338   376A      1.192323   377A      1.193292  
     378A      1.198601   379A      1.202292   380A      1.204616  
     381A      1.206691   382A      1.210864   383A      1.219273  
     384A      1.224259   385A      1.225106   386A      1.230447  
     387A      1.231837   388A      1.236868   389A      1.244462  
     390A      1.248252   391A      1.248628   392A      1.254305  
     393A      1.258538   394A      1.261290   395A      1.267325  
     396A      1.270231   397A      1.273521   398A      1.283537  
     399A      1.291212   400A      1.295206   401A      1.299820  
     402A      1.304925   403A      1.306258   404A      1.308932  
     405A      1.314213   406A      1.319194   407A      1.324377  
     408A      1.325208   409A      1.332367   410A      1.335935  
     411A      1.339449   412A      1.347288   413A      1.348559  
     414A      1.349769   415A      1.353549   416A      1.362468  
     417A      1.363436   418A      1.373830   419A      1.380075  
     420A      1.380666   421A      1.382855   422A      1.387264  
     423A      1.394406   424A      1.399074   425A      1.401507  
     426A      1.404888   427A      1.409456   428A      1.416548  
     429A      1.423350   430A      1.424943   431A      1.429027  
     432A      1.430582   433A      1.433229   434A      1.440985  
     435A      1.445467   436A      1.452575   437A      1.455914  
     438A      1.460457   439A      1.466963   440A      1.471140  
     441A      1.473342   442A      1.483940   443A      1.487647  
     444A      1.497415   445A      1.497961   446A      1.504479  
     447A      1.511171   448A      1.513301   449A      1.516342  
     450A      1.522123   451A      1.524769   452A      1.525333  
     453A      1.535712   454A      1.539150   455A      1.545929  
     456A      1.549651   457A      1.554173   458A      1.557669  
     459A      1.567950   460A      1.573408   461A      1.575579  
     462A      1.580317   463A      1.583976   464A      1.589224  
     465A      1.600621   466A      1.604047   467A      1.614315  
     468A      1.615313   469A      1.622411   470A      1.624439  
     471A      1.633184   472A      1.636579   473A      1.644438  
     474A      1.646070   475A      1.656563   476A      1.659116  
     477A      1.662168   478A      1.668281   479A      1.677228  
     480A      1.679192   481A      1.687428   482A      1.692942  
     483A      1.698272   484A      1.702857   485A      1.707415  
     486A      1.709562   487A      1.711131   488A      1.722379  
     489A      1.731097   490A      1.740255   491A      1.744604  
     492A      1.747186   493A      1.758108   494A      1.762827  
     495A      1.773404   496A      1.774616   497A      1.779434  
     498A      1.783862   499A      1.786330   500A      1.790645  
     501A      1.800422   502A      1.809679   503A      1.817821  
     504A      1.820816   505A      1.823081   506A      1.830069  
     507A      1.837540   508A      1.838316   509A      1.843633  
     510A      1.847348   511A      1.862114   512A      1.863339  
     513A      1.867131   514A      1.875364   515A      1.881233  
     516A      1.889813   517A      1.896409   518A      1.898587  
     519A      1.903005   520A      1.916524   521A      1.918055  
     522A      1.929193   523A      1.933910   524A      1.937222  
     525A      1.949945   526A      1.956399   527A      1.963413  
     528A      1.964193   529A      1.969247   530A      1.980078  
     531A      1.987491   532A      1.996996   533A      2.001141  
     534A      2.005491   535A      2.015781   536A      2.026433  
     537A      2.039690   538A      2.047510   539A      2.050846  
     540A      2.056160   541A      2.062395   542A      2.065536  
     543A      2.072154   544A      2.083856   545A      2.087053  
     546A      2.095007   547A      2.095827   548A      2.099309  
     549A      2.110486   550A      2.119603   551A      2.130025  
     552A      2.135424   553A      2.140238   554A      2.144271  
     555A      2.153331   556A      2.159185   557A      2.165142  
     558A      2.168830   559A      2.175807   560A      2.186330  
     561A      2.193821   562A      2.196421   563A      2.199114  
     564A      2.205865   565A      2.216948   566A      2.225625  
     567A      2.230685   568A      2.237474   569A      2.244306  
     570A      2.249892   571A      2.252730   572A      2.262177  
     573A      2.267159   574A      2.274610   575A      2.276408  
     576A      2.285305   577A      2.298765   578A      2.301447  
     579A      2.309904   580A      2.312119   581A      2.319630  
     582A      2.326671   583A      2.338582   584A      2.342201  
     585A      2.343560   586A      2.356225   587A      2.358941  
     588A      2.360712   589A      2.374440   590A      2.374643  
     591A      2.379545   592A      2.383142   593A      2.395555  
     594A      2.398650   595A      2.407433   596A      2.408431  
     597A      2.420221   598A      2.424848   599A      2.430995  
     600A      2.436918   601A      2.439722   602A      2.449908  
     603A      2.454796   604A      2.465484   605A      2.472403  
     606A      2.482070   607A      2.489642   608A      2.498890  
     609A      2.502551   610A      2.506190   611A      2.515673  
     612A      2.520616   613A      2.527542   614A      2.537181  
     615A      2.546200   616A      2.549302   617A      2.555117  
     618A      2.557537   619A      2.563344   620A      2.564593  
     621A      2.565721   622A      2.583235   623A      2.587990  
     624A      2.598838   625A      2.600693   626A      2.605783  
     627A      2.610347   628A      2.617367   629A      2.623281  
     630A      2.634867   631A      2.647246   632A      2.653614  
     633A      2.658742   634A      2.668534   635A      2.674782  
     636A      2.685289   637A      2.695825   638A      2.701592  
     639A      2.711897   640A      2.719829   641A      2.726719  
     642A      2.735451   643A      2.738452   644A      2.745769  
     645A      2.754138   646A      2.762263   647A      2.770129  
     648A      2.781493   649A      2.784137   650A      2.786603  
     651A      2.790972   652A      2.795699   653A      2.801313  
     654A      2.811494   655A      2.816436   656A      2.827094  
     657A      2.840120   658A      2.842393   659A      2.849409  
     660A      2.858419   661A      2.868076   662A      2.871623  
     663A      2.886000   664A      2.892089   665A      2.905688  
     666A      2.908288   667A      2.926263   668A      2.929831  
     669A      2.935371   670A      2.952360   671A      2.963328  
     672A      2.970037   673A      2.984960   674A      2.995124  
     675A      3.008395   676A      3.023645   677A      3.031740  
     678A      3.038489   679A      3.051262   680A      3.062500  
     681A      3.080607   682A      3.103517   683A      3.109251  
     684A      3.113959   685A      3.132439   686A      3.155356  
     687A      3.168592   688A      3.181578   689A      3.188274  
     690A      3.192657   691A      3.199144   692A      3.202176  
     693A      3.214768   694A      3.234477   695A      3.249607  
     696A      3.266127   697A      3.281592   698A      3.288898  
     699A      3.316730   700A      3.331387   701A      3.340053  
     702A      3.362110   703A      3.365953   704A      3.371643  
     705A      3.390491   706A      3.397157   707A      3.399645  
     708A      3.410960   709A      3.430289   710A      3.434125  
     711A      3.437518   712A      3.451722   713A      3.465763  
     714A      3.485309   715A      3.485805   716A      3.499776  
     717A      3.506162   718A      3.537224   719A      3.545467  
     720A      3.558308   721A      3.570366   722A      3.576297  
     723A      3.583177   724A      3.587417   725A      3.589998  
     726A      3.610654   727A      3.619891   728A      3.626382  
     729A      3.636071   730A      3.655156   731A      3.662553  
     732A      3.665869   733A      3.674163   734A      3.682648  
     735A      3.692488   736A      3.698870   737A      3.709253  
     738A      3.715298   739A      3.727512   740A      3.737737  
     741A      3.745724   742A      3.758231   743A      3.763160  
     744A      3.764622   745A      3.768234   746A      3.781657  
     747A      3.793794   748A      3.805459   749A      3.813050  
     750A      3.821711   751A      3.829716   752A      3.830985  
     753A      3.842148   754A      3.844722   755A      3.860328  
     756A      3.862790   757A      3.870457   758A      3.878893  
     759A      3.888289   760A      3.891425   761A      3.897321  
     762A      3.913285   763A      3.920747   764A      3.926742  
     765A      3.938181   766A      3.941853   767A      3.949990  
     768A      3.954488   769A      3.958019   770A      3.973355  
     771A      3.983684   772A      3.987502   773A      3.998957  
     774A      4.006851   775A      4.014739   776A      4.026053  
     777A      4.031294   778A      4.036365   779A      4.051847  
     780A      4.055578   781A      4.063831   782A      4.074817  
     783A      4.080697   784A      4.096165   785A      4.100757  
     786A      4.103103   787A      4.120666   788A      4.127999  
     789A      4.131777   790A      4.138144   791A      4.143306  
     792A      4.157081   793A      4.160073   794A      4.164949  
     795A      4.170451   796A      4.176767   797A      4.179493  
     798A      4.194412   799A      4.198157   800A      4.207646  
     801A      4.212528   802A      4.220008   803A      4.222847  
     804A      4.235589   805A      4.243905   806A      4.247532  
     807A      4.257395   808A      4.263771   809A      4.267533  
     810A      4.271205   811A      4.273105   812A      4.282390  
     813A      4.290249   814A      4.299083   815A      4.304441  
     816A      4.311679   817A      4.316358   818A      4.329420  
     819A      4.340152   820A      4.344081   821A      4.345742  
     822A      4.355998   823A      4.360273   824A      4.366035  
     825A      4.375840   826A      4.387554   827A      4.392383  
     828A      4.401436   829A      4.409697   830A      4.416127  
     831A      4.427027   832A      4.442309   833A      4.444440  
     834A      4.451622   835A      4.453670   836A      4.455391  
     837A      4.464866   838A      4.471327   839A      4.473502  
     840A      4.480163   841A      4.488814   842A      4.508446  
     843A      4.509193   844A      4.516007   845A      4.526991  
     846A      4.532227   847A      4.545453   848A      4.554117  
     849A      4.557933   850A      4.568037   851A      4.581088  
     852A      4.586678   853A      4.598304   854A      4.605021  
     855A      4.618272   856A      4.630903   857A      4.645635  
     858A      4.659569   859A      4.678198   860A      4.690136  
     861A      4.693296   862A      4.701866   863A      4.710835  
     864A      4.719991   865A      4.723930   866A      4.731166  
     867A      4.735848   868A      4.745094   869A      4.758065  
     870A      4.763846   871A      4.772625   872A      4.787167  
     873A      4.793010   874A      4.814698   875A      4.820446  
     876A      4.834225   877A      4.839258   878A      4.848808  
     879A      4.857459   880A      4.868820   881A      4.871680  
     882A      4.888446   883A      4.895385   884A      4.903641  
     885A      4.916057   886A      4.920939   887A      4.924127  
     888A      4.935475   889A      4.942663   890A      4.956074  
     891A      4.979219   892A      4.992775   893A      4.996157  
     894A      5.005103   895A      5.012081   896A      5.018516  
     897A      5.026068   898A      5.031308   899A      5.058171  
     900A      5.062002   901A      5.071684   902A      5.076588  
     903A      5.089228   904A      5.110774   905A      5.120241  
     906A      5.137272   907A      5.143707   908A      5.155563  
     909A      5.166999   910A      5.173512   911A      5.187303  
     912A      5.206711   913A      5.221359   914A      5.233509  
     915A      5.244192   916A      5.255184   917A      5.265532  
     918A      5.280126   919A      5.292039   920A      5.293733  
     921A      5.313103   922A      5.321204   923A      5.358087  
     924A      5.365397   925A      5.367530   926A      5.372960  
     927A      5.376184   928A      5.385736   929A      5.395186  
     930A      5.414439   931A      5.443117   932A      5.446681  
     933A      5.455301   934A      5.468490   935A      5.483977  
     936A      5.493215   937A      5.500564   938A      5.506242  
     939A      5.508799   940A      5.523825   941A      5.528489  
     942A      5.546941   943A      5.551113   944A      5.558386  
     945A      5.559737   946A      5.572996   947A      5.576962  
     948A      5.582077   949A      5.590634   950A      5.602131  
     951A      5.612287   952A      5.614403   953A      5.626594  
     954A      5.630092   955A      5.637219   956A      5.647256  
     957A      5.670004   958A      5.672349   959A      5.681917  
     960A      5.687893   961A      5.697716   962A      5.710029  
     963A      5.725677   964A      5.747988   965A      5.748697  
     966A      5.758697   967A      5.782740   968A      5.791664  
     969A      5.793404   970A      5.806639   971A      5.824382  
     972A      5.831204   973A      5.839944   974A      5.840704  
     975A      5.849698   976A      5.855365   977A      5.872095  
     978A      5.882028   979A      5.885781   980A      5.901181  
     981A      5.913623   982A      5.918215   983A      5.936619  
     984A      5.953209   985A      5.964811   986A      5.971353  
     987A      5.986418   988A      5.989310   989A      5.994415  
     990A      6.014893   991A      6.046492   992A      6.051226  
     993A      6.064780   994A      6.072450   995A      6.090375  
     996A      6.106411   997A      6.114993   998A      6.132498  
     999A      6.139971  1000A      6.159735  1001A      6.171071  
    1002A      6.175525  1003A      6.188842  1004A      6.201778  
    1005A      6.204644  1006A      6.210639  1007A      6.238791  
    1008A      6.242715  1009A      6.248288  1010A      6.266441  
    1011A      6.280269  1012A      6.303652  1013A      6.323713  
    1014A      6.340578  1015A      6.366245  1016A      6.418013  
    1017A      6.439165  1018A      6.457477  1019A      6.506198  
    1020A      6.529445  1021A      6.543197  1022A      6.575892  
    1023A      6.601746  1024A      6.611314  1025A      6.634218  
    1026A      6.669408  1027A      6.683710  1028A      6.699593  
    1029A      6.709506  1030A      6.745835  1031A      6.764681  
    1032A      6.786486  1033A      6.805407  1034A      6.809888  
    1035A      6.830559  1036A      6.847338  1037A      6.857639  
    1038A      6.863148  1039A      6.870494  1040A      6.881145  
    1041A      6.895369  1042A      6.913425  1043A      6.933289  
    1044A      6.953428  1045A      7.029714  1046A      7.035518  
    1047A      7.045063  1048A      7.060410  1049A      7.073787  
    1050A      7.080768  1051A      7.097047  1052A      7.113914  
    1053A      7.127042  1054A      7.151597  1055A      7.180784  
    1056A      7.222951  1057A      7.267731  1058A      7.291024  
    1059A      7.313539  1060A      7.384000  1061A      7.441004  
    1062A      7.445863  1063A      7.458866  1064A      7.497114  
    1065A      7.500755  1066A      7.529970  1067A      7.536836  
    1068A      7.557422  1069A      7.563455  1070A      7.616103  
    1071A      7.681256  1072A      7.693440  1073A      7.774648  
    1074A      7.776151  1075A      7.863836  1076A      7.881865  
    1077A      7.903172  1078A      7.910438  1079A      7.926692  
    1080A      7.989495  1081A      8.016294  1082A      8.022361  
    1083A      8.049954  1084A      8.108840  1085A      8.116390  
    1086A     15.794373  1087A     16.079228  1088A     16.203369  
    1089A     16.445396  1090A     16.567130  1091A     16.673616  
    1092A     17.068133  1093A     17.736016  1094A     17.748166  
    1095A     18.325276  1096A     18.549661  1097A     19.389416  
    1098A     19.498321  1099A     19.797288  1100A     20.393120  
    1101A     20.633779  1102A     20.939013  1103A     20.949727  
    1104A     21.471828  

    Final Occupation by Irrep:
              A 
    DOCC [    68 ]

  @DF-RHF Final Energy:  -932.34546832664694

   => Energetics <=

    Nuclear Repulsion Energy =           1470.1925841432835114
    One-Electron Energy =               -4196.5415143213867850
    Two-Electron Energy =                1794.0034618514564499
    Total Energy =                       -932.3454683266468237

Computation Completed


Properties will be evaluated at   0.000000,   0.000000,   0.000000 [a0]

Properties computed using the SCF density matrix

  Nuclear Dipole Moment: [e a0]
     X:     2.3882      Y:     1.9309      Z:     1.6389

  Electronic Dipole Moment: [e a0]
     X:    -2.4812      Y:    -1.7048      Z:    -2.0208

  Dipole Moment: [e a0]
     X:    -0.0930      Y:     0.2261      Z:    -0.3819     Total:     0.4535

  Dipole Moment: [D]
     X:    -0.2365      Y:     0.5748      Z:    -0.9707     Total:     1.1526


*** tstop() called on node150.bme.utexas.edu at Thu Jan 25 10:39:48 2024
Module time:
	user time   =    1195.66 seconds =      19.93 minutes
	system time =      21.08 seconds =       0.35 minutes
	total time  =        190 seconds =       3.17 minutes
Total time:
	user time   =    1195.66 seconds =      19.93 minutes
	system time =      21.08 seconds =       0.35 minutes
	total time  =        190 seconds =       3.17 minutes

*** tstart() called on node150.bme.utexas.edu
*** at Thu Jan 25 10:39:48 2024


  //>>>>>>>>>>>>>>>>>>>>>>>>>>>>>>>>>>>//
  //               DFMP2               //
  //<<<<<<<<<<<<<<<<<<<<<<<<<<<<<<<<<<<//

   => Loading Basis Set <=

    Name: (AUG-CC-PVTZ AUX)
    Role: RIFIT
    Keyword: DF_BASIS_MP2
    atoms 1, 3, 7, 9, 11, 17, 19, 25  entry N          line   206 file /opt/anaconda/envs/psi4v1.5/share/psi4/basis/aug-cc-pvtz-ri.gbs 
    atoms 2, 4-6, 8, 18, 20-22        entry C          line   148 file /opt/anaconda/envs/psi4v1.5/share/psi4/basis/aug-cc-pvtz-ri.gbs 
    atoms 10, 12-13, 15-16, 23, 26-29 entry H          line    30 file /opt/anaconda/envs/psi4v1.5/share/psi4/basis/aug-cc-pvtz-ri.gbs 
    atoms 14, 24                      entry O          line   264 file /opt/anaconda/envs/psi4v1.5/share/psi4/basis/aug-cc-pvtz-ri.gbs 

	 --------------------------------------------------------
	                          DF-MP2                         
	      2nd-Order Density-Fitted Moller-Plesset Theory     
	              RMP2 Wavefunction,   8 Threads             
	                                                         
	        Rob Parrish, Justin Turney, Andy Simmonett,      
	           Ed Hohenstein, and C. David Sherrill          
	 --------------------------------------------------------

   => Auxiliary Basis Set <=

  Basis Set: (AUG-CC-PVTZ AUX)
    Blend: AUG-CC-PVTZ-RI
    Number of shells: 672
    Number of basis functions: 2474
    Number of Cartesian functions: 3134
    Spherical Harmonics?: true
    Max angular momentum: 4

	 --------------------------------------------------------
	                 NBF =  1104, NAUX =  2474
	 --------------------------------------------------------
	   CLASS    FOCC     OCC    AOCC    AVIR     VIR    FVIR
	   PAIRS      19      68      49    1036    1036       0
	 --------------------------------------------------------

	 Will save fitting metric to file 97.

	-----------------------------------------------------------
	 ==================> DF-MP2 Energies <==================== 
	-----------------------------------------------------------
	 Reference Energy          =    -932.3454683266469374 [Eh]
	 Singles Energy            =      -0.0000000000000000 [Eh]
	 Same-Spin Energy          =      -0.9336488100166377 [Eh]
	 Opposite-Spin Energy      =      -2.6009671592117178 [Eh]
	 Correlation Energy        =      -3.5346159692283554 [Eh]
	 Total Energy              =    -935.8800842958753492 [Eh]
	-----------------------------------------------------------
	 ================> DF-SCS-MP2 Energies <================== 
	-----------------------------------------------------------
	 SCS Same-Spin Scale       =       0.3333333333333333 [-]
	 SCS Opposite-Spin Scale   =       1.2000000000000000 [-]
	 SCS Same-Spin Energy      =      -0.3112162700055459 [Eh]
	 SCS Opposite-Spin Energy  =      -3.1211605910540614 [Eh]
	 SCS Correlation Energy    =      -3.4323768610596073 [Eh]
	 SCS Total Energy          =    -935.7778451877065891 [Eh]
	-----------------------------------------------------------


*** tstop() called on node150.bme.utexas.edu at Thu Jan 25 10:40:52 2024
Module time:
	user time   =     341.28 seconds =       5.69 minutes
	system time =      11.61 seconds =       0.19 minutes
	total time  =         64 seconds =       1.07 minutes
Total time:
	user time   =    1536.95 seconds =      25.62 minutes
	system time =      32.69 seconds =       0.54 minutes
	total time  =        254 seconds =       4.23 minutes

  //>>>>>>>>>>>>>>>>>>>>>>>>>>>>>>>>>>>//
  //            Monomer A HF           //
  //<<<<<<<<<<<<<<<<<<<<<<<<<<<<<<<<<<<//


*** tstart() called on node150.bme.utexas.edu
*** at Thu Jan 25 10:40:52 2024

   => Loading Basis Set <=

    Name: AUG-CC-PVTZ
    Role: ORBITAL
    Keyword: BASIS
    atoms 1, 3, 7, 9, 11, 17, 19, 25  entry N          line   285 file /opt/anaconda/envs/psi4v1.5/share/psi4/basis/aug-cc-pvtz.gbs 
    atoms 2, 4-6, 8, 18, 20-22        entry C          line   239 file /opt/anaconda/envs/psi4v1.5/share/psi4/basis/aug-cc-pvtz.gbs 
    atoms 10, 12-13, 15-16, 23, 26-29 entry H          line    40 file /opt/anaconda/envs/psi4v1.5/share/psi4/basis/aug-cc-pvtz.gbs 
    atoms 14, 24                      entry O          line   331 file /opt/anaconda/envs/psi4v1.5/share/psi4/basis/aug-cc-pvtz.gbs 


         ---------------------------------------------------------
                                   SCF
               by Justin Turney, Rob Parrish, Andy Simmonett
                          and Daniel G. A. Smith
                              RHF Reference
                        8 Threads,  76293 MiB Core
         ---------------------------------------------------------

  ==> Geometry <==

    Molecular point group: c1
    Full point group: C1

    Geometry (in Angstrom), charge = 0, multiplicity = 1:

       Center              X                  Y                   Z               Mass       
    ------------   -----------------  -----------------  -----------------  -----------------
         N           -1.040155980508     1.631943966618    -1.347780498995    14.003074004430
         C           -2.326340980508     1.143757966618    -1.347819498995    12.000000000000
         N           -2.615631980508    -0.152304033382    -1.347880498995    14.003074004430
         C           -1.511053980508    -0.927314033382    -1.347899498995    12.000000000000
         C           -0.162331980508    -0.543649033382    -1.347865498995    12.000000000000
         C            0.132133019492     0.856465966618    -1.347803498995    12.000000000000
         N            0.667842019492    -1.655071033382    -1.347901498995    14.003074004430
         C           -0.147357980508    -2.678705033382    -1.347957498995    12.000000000000
         N           -1.484134980508    -2.300238033382    -1.347957498995    14.003074004430
         H           -0.892408980508     2.658626966618    -1.347735498995     1.007825032230
         N           -3.320946980508     2.059377966618    -1.347795498995    14.003074004430
         H           -3.147066980508     3.069472966618    -1.347751498995     1.007825032230
         H           -4.264761980508     1.707693966618    -1.347821498995     1.007825032230
         O            1.241692019492     1.416926966618    -1.347772498995    15.994914619570
         H            0.147596019492    -3.723166033382    -1.347994498995     1.007825032230
         H           -2.295152980508    -2.902625033382    -1.347991498995     1.007825032230
      Gh(N)           1.105193019492    -1.461395033382     1.901884501005    14.003074004430
      Gh(C)           0.196518019492    -0.386495033382     1.965746501005    12.000000000000
      Gh(N)           0.701870019492     0.870559966618     1.876304501005    14.003074004430
      Gh(C)           2.020278019492     1.075870966618     1.732327501005    12.000000000000
      Gh(C)           2.957991019492    -0.022579033382     1.666106501005    12.000000000000
      Gh(C)           2.447614019492    -1.278250033382     1.756036501005    12.000000000000
      Gh(H)           0.701292019492    -2.386211033382     1.971054501005     1.007825032230
      Gh(O)          -1.007397980508    -0.643232033382     2.099223501005    15.994914619570
      Gh(N)           2.444452019492     2.341088966618     1.651143501005    14.003074004430
      Gh(H)           1.768103019492     3.133036966618     1.698895501005     1.007825032230
      Gh(H)           3.428084019492     2.533129966618     1.542591501005     1.007825032230
      Gh(H)           4.025318019492     0.145186966618     1.549508501005     1.007825032230
      Gh(H)           3.064322019492    -2.175260033382     1.717562501005     1.007825032230

  Running in c1 symmetry.

  Rotational constants: A =      0.01909  B =      0.01127  C =      0.00935 [cm^-1]
  Rotational constants: A =    572.28493  B =    337.83324  C =    280.39875 [MHz]
  Nuclear repulsion =  593.872086066747443

  Charge       = 0
  Multiplicity = 1
  Electrons    = 78
  Nalpha       = 39
  Nbeta        = 39

  ==> Algorithm <==

  SCF Algorithm Type is DF.
  DIIS enabled.
  MOM disabled.
  Fractional occupation disabled.
  Guess Type is SAD.
  Energy threshold   = 1.00e-08
  Density threshold  = 1.00e-08
  Integral threshold = 1.00e-12

  ==> Primary Basis <==

  Basis Set: AUG-CC-PVTZ
    Blend: AUG-CC-PVTZ
    Number of shells: 356
    Number of basis functions: 1104
    Number of Cartesian functions: 1295
    Spherical Harmonics?: true
    Max angular momentum: 3

   => Loading Basis Set <=

    Name: (AUG-CC-PVTZ AUX)
    Role: JKFIT
    Keyword: DF_BASIS_SCF
    atoms 1, 3, 7, 9, 11, 17, 19, 25  entry N          line   224 file /opt/anaconda/envs/psi4v1.5/share/psi4/basis/aug-cc-pvtz-jkfit.gbs 
    atoms 2, 4-6, 8, 18, 20-22        entry C          line   162 file /opt/anaconda/envs/psi4v1.5/share/psi4/basis/aug-cc-pvtz-jkfit.gbs 
    atoms 10, 12-13, 15-16, 23, 26-29 entry H          line    70 file /opt/anaconda/envs/psi4v1.5/share/psi4/basis/aug-cc-pvtz-jkfit.gbs 
    atoms 14, 24                      entry O          line   286 file /opt/anaconda/envs/psi4v1.5/share/psi4/basis/aug-cc-pvtz-jkfit.gbs 

  ==> Integral Setup <==

  ==> DiskDFJK: Density-Fitted J/K Matrices <==

    J tasked:                  Yes
    K tasked:                  Yes
    wK tasked:                  No
    OpenMP threads:              8
    Integrals threads:           8
    Memory [MiB]:            57220
    Algorithm:                Core
    Integral Cache:           LOAD
    Schwarz Cutoff:          1E-12
    Fitting Condition:       1E-10

   => Auxiliary Basis Set <=

  Basis Set: (AUG-CC-PVTZ AUX)
    Blend: AUG-CC-PVTZ-JKFIT
    Number of shells: 710
    Number of basis functions: 2436
    Number of Cartesian functions: 3039
    Spherical Harmonics?: true
    Max angular momentum: 4

  Minimum eigenvalue in the overlap matrix is 9.3009342948E-07.
  Reciprocal condition number of the overlap matrix is 4.4301882743E-08.
    Using symmetric orthogonalization.

  ==> Pre-Iterations <==

  SCF Guess: Superposition of Atomic Densities via on-the-fly atomic UHF (no occupation information).

   -------------------------
    Irrep   Nso     Nmo    
   -------------------------
     A       1104    1104 
   -------------------------
    Total    1104    1104
   -------------------------

  ==> Iterations <==

                           Total Energy        Delta E     RMS |[F,P]|

   @DF-RHF iter SAD:  -539.30121320886894   -5.39301e+02   0.00000e+00 
   @DF-RHF iter   1:  -539.27269935041431    2.85139e-02   7.22325e-04 DIIS
   @DF-RHF iter   2:  -539.49769991668870   -2.25001e-01   4.30932e-04 DIIS
   @DF-RHF iter   3:  -539.57824912771844   -8.05492e-02   9.00443e-05 DIIS
   @DF-RHF iter   4:  -539.58337190021064   -5.12277e-03   3.63051e-05 DIIS
   @DF-RHF iter   5:  -539.58432574837730   -9.53848e-04   7.74429e-06 DIIS
   @DF-RHF iter   6:  -539.58442451318319   -9.87648e-05   4.07896e-06 DIIS
   @DF-RHF iter   7:  -539.58445200501137   -2.74918e-05   1.72622e-06 DIIS
   @DF-RHF iter   8:  -539.58445743960317   -5.43459e-06   5.86905e-07 DIIS
   @DF-RHF iter   9:  -539.58445803703626   -5.97433e-07   2.39537e-07 DIIS
   @DF-RHF iter  10:  -539.58445814606694   -1.09031e-07   1.01583e-07 DIIS
   @DF-RHF iter  11:  -539.58445816407493   -1.80080e-08   4.32172e-08 DIIS
   @DF-RHF iter  12:  -539.58445816691585   -2.84092e-09   1.41993e-08 DIIS
   @DF-RHF iter  13:  -539.58445816728909   -3.73234e-10   5.85141e-09 DIIS
  Energy and wave function converged.


  ==> Post-Iterations <==

    Orbital Energies [Eh]
    ---------------------

    Doubly Occupied:                                                      

       1A    -20.511500     2A    -15.636321     3A    -15.628580  
       4A    -15.621752     5A    -15.567121     6A    -15.561287  
       7A    -11.405348     8A    -11.360786     9A    -11.325979  
      10A    -11.309587    11A    -11.244176    12A     -1.387064  
      13A     -1.348800    14A     -1.332102    15A     -1.226574  
      16A     -1.216772    17A     -1.172419    18A     -1.027608  
      19A     -0.904037    20A     -0.893234    21A     -0.836191  
      22A     -0.803814    23A     -0.744179    24A     -0.739662  
      25A     -0.709721    26A     -0.669769    27A     -0.657878  
      28A     -0.634699    29A     -0.604135    30A     -0.597969  
      31A     -0.595859    32A     -0.544363    33A     -0.493908  
      34A     -0.455054    35A     -0.435100    36A     -0.428768  
      37A     -0.423960    38A     -0.406595    39A     -0.295014  

    Virtual:                                                              

      40A      0.011912    41A      0.022333    42A      0.030479  
      43A      0.035771    44A      0.040724    45A      0.044936  
      46A      0.050047    47A      0.055407    48A      0.061208  
      49A      0.062383    50A      0.067855    51A      0.078955  
      52A      0.083327    53A      0.085748    54A      0.088243  
      55A      0.090478    56A      0.094534    57A      0.097568  
      58A      0.103036    59A      0.105247    60A      0.108462  
      61A      0.109946    62A      0.115945    63A      0.118342  
      64A      0.121796    65A      0.125007    66A      0.128536  
      67A      0.133047    68A      0.135306    69A      0.137506  
      70A      0.140786    71A      0.141615    72A      0.143964  
      73A      0.146181    74A      0.147785    75A      0.149110  
      76A      0.154118    77A      0.158643    78A      0.165840  
      79A      0.170324    80A      0.174263    81A      0.176045  
      82A      0.181600    83A      0.183614    84A      0.186583  
      85A      0.189467    86A      0.190817    87A      0.193584  
      88A      0.198061    89A      0.200982    90A      0.203853  
      91A      0.208585    92A      0.209312    93A      0.213773  
      94A      0.216277    95A      0.221668    96A      0.223096  
      97A      0.229131    98A      0.229854    99A      0.233655  
     100A      0.236934   101A      0.241342   102A      0.242985  
     103A      0.248897   104A      0.252268   105A      0.254925  
     106A      0.259723   107A      0.261262   108A      0.264839  
     109A      0.267554   110A      0.272878   111A      0.278786  
     112A      0.282380   113A      0.288363   114A      0.290942  
     115A      0.292014   116A      0.297289   117A      0.297673  
     118A      0.306221   119A      0.308759   120A      0.310317  
     121A      0.313786   122A      0.315251   123A      0.324570  
     124A      0.326744   125A      0.331462   126A      0.334245  
     127A      0.340133   128A      0.340692   129A      0.343844  
     130A      0.348750   131A      0.352238   132A      0.354575  
     133A      0.359792   134A      0.362345   135A      0.364388  
     136A      0.367443   137A      0.370718   138A      0.372947  
     139A      0.377395   140A      0.381442   141A      0.383520  
     142A      0.386627   143A      0.388716   144A      0.394078  
     145A      0.399782   146A      0.401778   147A      0.402344  
     148A      0.404367   149A      0.411633   150A      0.413455  
     151A      0.415801   152A      0.419601   153A      0.421517  
     154A      0.422620   155A      0.426115   156A      0.433322  
     157A      0.440383   158A      0.444446   159A      0.445316  
     160A      0.447897   161A      0.450697   162A      0.451596  
     163A      0.454306   164A      0.458226   165A      0.464604  
     166A      0.465687   167A      0.468418   168A      0.473748  
     169A      0.474959   170A      0.475268   171A      0.480198  
     172A      0.484079   173A      0.486023   174A      0.491304  
     175A      0.493681   176A      0.494770   177A      0.499440  
     178A      0.501774   179A      0.504029   180A      0.508327  
     181A      0.511887   182A      0.515004   183A      0.518179  
     184A      0.522470   185A      0.527662   186A      0.530000  
     187A      0.531689   188A      0.532926   189A      0.539807  
     190A      0.548187   191A      0.552099   192A      0.554939  
     193A      0.557138   194A      0.558768   195A      0.564343  
     196A      0.571225   197A      0.576435   198A      0.579107  
     199A      0.587716   200A      0.590452   201A      0.596152  
     202A      0.598727   203A      0.601311   204A      0.604696  
     205A      0.607511   206A      0.609897   207A      0.620852  
     208A      0.624229   209A      0.626590   210A      0.630176  
     211A      0.638018   212A      0.642980   213A      0.643884  
     214A      0.651727   215A      0.653390   216A      0.656860  
     217A      0.658347   218A      0.667535   219A      0.673079  
     220A      0.674522   221A      0.678923   222A      0.680589  
     223A      0.687247   224A      0.690191   225A      0.692722  
     226A      0.698911   227A      0.704088   228A      0.705812  
     229A      0.707486   230A      0.712866   231A      0.721521  
     232A      0.726404   233A      0.728034   234A      0.731100  
     235A      0.734217   236A      0.738484   237A      0.745750  
     238A      0.748471   239A      0.752945   240A      0.753189  
     241A      0.759989   242A      0.763918   243A      0.767835  
     244A      0.771636   245A      0.775052   246A      0.783749  
     247A      0.787001   248A      0.790710   249A      0.793675  
     250A      0.801632   251A      0.811181   252A      0.813226  
     253A      0.816690   254A      0.820963   255A      0.823447  
     256A      0.828923   257A      0.836885   258A      0.841520  
     259A      0.845120   260A      0.847445   261A      0.851376  
     262A      0.857430   263A      0.858984   264A      0.861773  
     265A      0.867548   266A      0.870632   267A      0.873811  
     268A      0.881698   269A      0.887453   270A      0.894940  
     271A      0.895502   272A      0.898354   273A      0.899520  
     274A      0.904478   275A      0.907709   276A      0.913008  
     277A      0.916659   278A      0.919667   279A      0.920869  
     280A      0.926120   281A      0.930094   282A      0.937674  
     283A      0.941733   284A      0.947274   285A      0.952740  
     286A      0.959273   287A      0.960395   288A      0.962190  
     289A      0.966532   290A      0.968453   291A      0.979259  
     292A      0.984955   293A      0.986639   294A      0.992567  
     295A      0.995462   296A      1.000608   297A      1.005886  
     298A      1.009072   299A      1.009719   300A      1.015650  
     301A      1.020740   302A      1.030525   303A      1.031584  
     304A      1.032806   305A      1.039332   306A      1.041541  
     307A      1.044482   308A      1.051078   309A      1.055588  
     310A      1.060588   311A      1.066626   312A      1.067997  
     313A      1.075050   314A      1.075599   315A      1.079494  
     316A      1.087420   317A      1.088569   318A      1.091108  
     319A      1.099062   320A      1.100117   321A      1.106730  
     322A      1.109873   323A      1.115652   324A      1.119524  
     325A      1.121264   326A      1.124210   327A      1.128309  
     328A      1.137407   329A      1.139744   330A      1.142669  
     331A      1.146123   332A      1.154227   333A      1.155526  
     334A      1.158029   335A      1.165480   336A      1.171648  
     337A      1.174965   338A      1.176536   339A      1.179363  
     340A      1.184552   341A      1.188034   342A      1.195691  
     343A      1.197210   344A      1.203892   345A      1.204978  
     346A      1.210005   347A      1.212576   348A      1.214894  
     349A      1.219913   350A      1.227737   351A      1.230748  
     352A      1.236634   353A      1.240692   354A      1.243705  
     355A      1.248067   356A      1.250931   357A      1.256926  
     358A      1.263246   359A      1.266328   360A      1.267125  
     361A      1.275020   362A      1.284427   363A      1.284850  
     364A      1.287213   365A      1.292849   366A      1.297271  
     367A      1.302852   368A      1.305100   369A      1.312737  
     370A      1.317480   371A      1.320864   372A      1.327573  
     373A      1.334765   374A      1.338731   375A      1.340299  
     376A      1.343603   377A      1.351192   378A      1.351906  
     379A      1.355038   380A      1.357425   381A      1.361985  
     382A      1.366638   383A      1.375923   384A      1.384687  
     385A      1.388222   386A      1.392121   387A      1.393575  
     388A      1.398092   389A      1.399584   390A      1.409555  
     391A      1.412200   392A      1.418952   393A      1.421316  
     394A      1.423186   395A      1.426810   396A      1.430170  
     397A      1.439019   398A      1.444276   399A      1.447884  
     400A      1.456078   401A      1.459811   402A      1.462644  
     403A      1.476330   404A      1.478583   405A      1.486084  
     406A      1.492905   407A      1.494665   408A      1.497292  
     409A      1.500017   410A      1.506085   411A      1.516738  
     412A      1.517111   413A      1.523896   414A      1.529541  
     415A      1.532505   416A      1.539759   417A      1.543384  
     418A      1.547560   419A      1.553820   420A      1.560589  
     421A      1.564032   422A      1.567663   423A      1.573492  
     424A      1.579142   425A      1.583678   426A      1.586337  
     427A      1.591862   428A      1.601803   429A      1.607945  
     430A      1.612535   431A      1.619532   432A      1.623818  
     433A      1.630812   434A      1.634353   435A      1.636808  
     436A      1.644445   437A      1.648546   438A      1.654707  
     439A      1.659053   440A      1.664211   441A      1.675653  
     442A      1.678388   443A      1.687924   444A      1.693948  
     445A      1.696448   446A      1.702283   447A      1.707954  
     448A      1.714996   449A      1.718606   450A      1.722519  
     451A      1.725884   452A      1.733566   453A      1.738571  
     454A      1.740711   455A      1.748551   456A      1.753595  
     457A      1.756184   458A      1.762902   459A      1.772115  
     460A      1.780701   461A      1.782180   462A      1.787246  
     463A      1.791842   464A      1.797504   465A      1.803366  
     466A      1.809050   467A      1.815809   468A      1.820923  
     469A      1.827642   470A      1.828616   471A      1.837124  
     472A      1.840994   473A      1.845622   474A      1.851726  
     475A      1.857223   476A      1.859780   477A      1.872322  
     478A      1.877527   479A      1.881947   480A      1.888109  
     481A      1.888928   482A      1.900163   483A      1.900565  
     484A      1.911467   485A      1.921581   486A      1.927686  
     487A      1.934107   488A      1.938949   489A      1.945849  
     490A      1.951062   491A      1.955054   492A      1.960312  
     493A      1.966761   494A      1.979807   495A      1.982064  
     496A      1.989135   497A      1.998549   498A      2.009746  
     499A      2.013988   500A      2.023609   501A      2.027045  
     502A      2.029577   503A      2.039041   504A      2.045019  
     505A      2.050663   506A      2.055703   507A      2.060348  
     508A      2.072287   509A      2.074875   510A      2.082623  
     511A      2.094406   512A      2.098290   513A      2.103933  
     514A      2.109707   515A      2.117935   516A      2.124499  
     517A      2.128014   518A      2.131073   519A      2.135048  
     520A      2.142364   521A      2.157074   522A      2.159558  
     523A      2.163132   524A      2.172477   525A      2.181218  
     526A      2.192051   527A      2.196989   528A      2.203425  
     529A      2.208381   530A      2.210811   531A      2.216261  
     532A      2.223432   533A      2.237062   534A      2.241592  
     535A      2.251798   536A      2.261033   537A      2.267659  
     538A      2.273199   539A      2.283948   540A      2.287906  
     541A      2.293195   542A      2.302293   543A      2.303416  
     544A      2.311291   545A      2.319943   546A      2.324077  
     547A      2.327945   548A      2.334300   549A      2.342831  
     550A      2.346962   551A      2.350103   552A      2.356990  
     553A      2.363729   554A      2.373819   555A      2.374588  
     556A      2.385333   557A      2.387771   558A      2.397518  
     559A      2.399583   560A      2.403296   561A      2.410715  
     562A      2.414667   563A      2.421585   564A      2.429700  
     565A      2.445552   566A      2.448191   567A      2.452902  
     568A      2.461213   569A      2.465824   570A      2.470082  
     571A      2.473730   572A      2.483067   573A      2.492315  
     574A      2.499247   575A      2.505717   576A      2.513087  
     577A      2.522264   578A      2.524536   579A      2.535468  
     580A      2.541988   581A      2.548019   582A      2.557779  
     583A      2.566747   584A      2.569214   585A      2.574909  
     586A      2.586899   587A      2.592330   588A      2.600792  
     589A      2.605902   590A      2.613967   591A      2.618028  
     592A      2.638985   593A      2.645528   594A      2.651188  
     595A      2.655443   596A      2.666376   597A      2.674117  
     598A      2.681696   599A      2.684811   600A      2.690100  
     601A      2.698145   602A      2.700670   603A      2.722072  
     604A      2.726042   605A      2.735000   606A      2.737173  
     607A      2.743846   608A      2.754167   609A      2.767269  
     610A      2.772434   611A      2.777906   612A      2.785526  
     613A      2.789888   614A      2.794187   615A      2.796420  
     616A      2.802235   617A      2.810830   618A      2.817204  
     619A      2.826062   620A      2.837060   621A      2.840502  
     622A      2.849990   623A      2.855767   624A      2.862393  
     625A      2.866435   626A      2.880294   627A      2.882476  
     628A      2.893204   629A      2.901074   630A      2.904935  
     631A      2.912479   632A      2.929894   633A      2.934014  
     634A      2.939018   635A      2.948710   636A      2.951396  
     637A      2.968881   638A      2.973447   639A      2.976675  
     640A      2.986188   641A      2.991638   642A      2.999821  
     643A      3.022389   644A      3.027032   645A      3.031254  
     646A      3.041729   647A      3.055366   648A      3.057429  
     649A      3.082434   650A      3.085551   651A      3.092019  
     652A      3.109109   653A      3.115313   654A      3.133953  
     655A      3.138283   656A      3.151861   657A      3.166656  
     658A      3.174889   659A      3.185380   660A      3.197074  
     661A      3.200572   662A      3.214777   663A      3.237595  
     664A      3.245059   665A      3.251331   666A      3.258352  
     667A      3.280263   668A      3.287268   669A      3.301438  
     670A      3.317370   671A      3.327178   672A      3.345136  
     673A      3.349507   674A      3.360398   675A      3.376020  
     676A      3.381898   677A      3.395794   678A      3.412242  
     679A      3.420775   680A      3.426629   681A      3.444249  
     682A      3.452651   683A      3.460324   684A      3.482915  
     685A      3.492713   686A      3.507441   687A      3.527558  
     688A      3.536745   689A      3.560143   690A      3.560842  
     691A      3.580182   692A      3.600581   693A      3.609082  
     694A      3.612270   695A      3.625966   696A      3.638928  
     697A      3.645417   698A      3.658975   699A      3.666231  
     700A      3.679589   701A      3.681993   702A      3.689488  
     703A      3.708999   704A      3.723386   705A      3.740722  
     706A      3.743807   707A      3.754819   708A      3.760332  
     709A      3.768459   710A      3.783149   711A      3.795359  
     712A      3.805802   713A      3.811235   714A      3.823828  
     715A      3.828200   716A      3.833331   717A      3.847757  
     718A      3.856724   719A      3.862023   720A      3.880032  
     721A      3.900500   722A      3.916907   723A      3.923913  
     724A      3.938898   725A      3.943876   726A      3.947063  
     727A      3.954536   728A      3.963850   729A      3.968593  
     730A      3.986209   731A      3.992636   732A      3.994365  
     733A      4.022985   734A      4.036841   735A      4.047693  
     736A      4.053003   737A      4.064560   738A      4.081325  
     739A      4.095635   740A      4.098936   741A      4.107760  
     742A      4.117445   743A      4.127442   744A      4.128711  
     745A      4.142516   746A      4.151784   747A      4.155517  
     748A      4.160807   749A      4.171854   750A      4.179217  
     751A      4.193500   752A      4.203857   753A      4.204695  
     754A      4.210430   755A      4.225262   756A      4.236679  
     757A      4.239120   758A      4.248451   759A      4.254969  
     760A      4.257501   761A      4.268753   762A      4.285686  
     763A      4.294019   764A      4.295469   765A      4.308602  
     766A      4.317740   767A      4.328323   768A      4.340314  
     769A      4.343655   770A      4.352189   771A      4.356091  
     772A      4.374885   773A      4.377109   774A      4.381815  
     775A      4.395465   776A      4.409516   777A      4.417323  
     778A      4.428142   779A      4.434929   780A      4.441817  
     781A      4.444049   782A      4.453004   783A      4.460094  
     784A      4.471381   785A      4.478330   786A      4.488410  
     787A      4.503701   788A      4.506112   789A      4.527731  
     790A      4.530589   791A      4.537911   792A      4.542735  
     793A      4.560864   794A      4.566014   795A      4.581738  
     796A      4.592637   797A      4.598184   798A      4.604083  
     799A      4.625000   800A      4.636058   801A      4.644541  
     802A      4.652769   803A      4.671573   804A      4.676647  
     805A      4.683155   806A      4.697740   807A      4.703774  
     808A      4.710267   809A      4.714819   810A      4.721672  
     811A      4.730310   812A      4.733132   813A      4.749005  
     814A      4.759861   815A      4.764679   816A      4.774316  
     817A      4.792447   818A      4.804237   819A      4.809986  
     820A      4.818973   821A      4.836475   822A      4.840943  
     823A      4.858535   824A      4.868902   825A      4.871010  
     826A      4.879243   827A      4.884836   828A      4.897712  
     829A      4.919198   830A      4.919790   831A      4.930811  
     832A      4.943272   833A      4.943883   834A      4.966580  
     835A      4.971486   836A      4.985192   837A      4.991006  
     838A      4.993334   839A      5.006869   840A      5.010811  
     841A      5.013163   842A      5.037223   843A      5.046745  
     844A      5.050935   845A      5.061715   846A      5.064558  
     847A      5.078085   848A      5.083831   849A      5.098209  
     850A      5.114163   851A      5.129977   852A      5.141443  
     853A      5.154095   854A      5.159187   855A      5.168948  
     856A      5.173003   857A      5.187156   858A      5.198208  
     859A      5.212209   860A      5.223971   861A      5.230565  
     862A      5.234094   863A      5.244352   864A      5.254020  
     865A      5.269959   866A      5.288271   867A      5.298044  
     868A      5.309516   869A      5.314268   870A      5.317528  
     871A      5.332490   872A      5.347268   873A      5.356701  
     874A      5.364245   875A      5.366549   876A      5.371696  
     877A      5.377400   878A      5.387122   879A      5.407283  
     880A      5.428549   881A      5.435269   882A      5.442596  
     883A      5.450094   884A      5.474887   885A      5.479847  
     886A      5.492433   887A      5.500838   888A      5.503836  
     889A      5.508901   890A      5.519479   891A      5.533429  
     892A      5.545612   893A      5.556315   894A      5.561582  
     895A      5.565747   896A      5.572285   897A      5.573207  
     898A      5.579409   899A      5.607722   900A      5.611840  
     901A      5.618853   902A      5.637029   903A      5.642322  
     904A      5.654617   905A      5.664215   906A      5.672728  
     907A      5.681569   908A      5.685361   909A      5.699795  
     910A      5.714957   911A      5.732591   912A      5.740417  
     913A      5.747391   914A      5.764795   915A      5.774876  
     916A      5.782826   917A      5.803798   918A      5.812039  
     919A      5.832233   920A      5.835945   921A      5.848551  
     922A      5.854686   923A      5.868853   924A      5.887198  
     925A      5.901456   926A      5.906693   927A      5.915182  
     928A      5.932162   929A      5.943377   930A      5.953059  
     931A      5.955257   932A      5.980232   933A      6.000488  
     934A      6.002103   935A      6.033398   936A      6.053491  
     937A      6.055340   938A      6.066901   939A      6.078210  
     940A      6.086738   941A      6.108398   942A      6.120945  
     943A      6.129596   944A      6.136013   945A      6.159995  
     946A      6.169286   947A      6.181911   948A      6.189898  
     949A      6.206761   950A      6.223817   951A      6.227135  
     952A      6.249244   953A      6.262773   954A      6.272064  
     955A      6.291136   956A      6.327683   957A      6.355480  
     958A      6.357004   959A      6.383662   960A      6.432076  
     961A      6.437191   962A      6.447023   963A      6.470243  
     964A      6.488239   965A      6.497971   966A      6.516466  
     967A      6.563346   968A      6.577587   969A      6.591148  
     970A      6.599535   971A      6.613585   972A      6.631694  
     973A      6.658557   974A      6.662381   975A      6.699031  
     976A      6.716693   977A      6.748501   978A      6.751096  
     979A      6.758292   980A      6.763554   981A      6.775523  
     982A      6.791092   983A      6.816607   984A      6.828771  
     985A      6.853197   986A      6.865785   987A      6.876413  
     988A      6.883739   989A      6.898916   990A      6.907074  
     991A      6.941143   992A      6.957650   993A      6.973726  
     994A      7.014274   995A      7.031981   996A      7.033653  
     997A      7.060580   998A      7.062464   999A      7.082487  
    1000A      7.105031  1001A      7.132982  1002A      7.145602  
    1003A      7.199101  1004A      7.217492  1005A      7.255817  
    1006A      7.288609  1007A      7.310470  1008A      7.403678  
    1009A      7.424303  1010A      7.430313  1011A      7.446268  
    1012A      7.470643  1013A      7.487306  1014A      7.495799  
    1015A      7.504104  1016A      7.540455  1017A      7.561851  
    1018A      7.574361  1019A      7.597573  1020A      7.636356  
    1021A      7.658101  1022A      7.664636  1023A      7.671425  
    1024A      7.689893  1025A      7.710981  1026A      7.737538  
    1027A      7.762671  1028A      7.769831  1029A      7.783051  
    1030A      7.812618  1031A      7.859247  1032A      7.886379  
    1033A      7.889547  1034A      7.904965  1035A      7.915566  
    1036A      7.941548  1037A      7.968226  1038A      7.989718  
    1039A      8.012274  1040A      8.026740  1041A      8.056603  
    1042A      8.062790  1043A      8.096440  1044A      8.112440  
    1045A      8.117786  1046A      8.227756  1047A      8.276010  
    1048A      8.309533  1049A      8.371809  1050A      8.459284  
    1051A      8.630794  1052A      8.692414  1053A      8.744284  
    1054A      8.860090  1055A      8.936256  1056A      9.038589  
    1057A      9.180625  1058A      9.226300  1059A      9.441264  
    1060A      9.597119  1061A      9.624423  1062A      9.673419  
    1063A      9.710774  1064A      9.945566  1065A     10.041028  
    1066A     10.115617  1067A     10.215941  1068A     10.356738  
    1069A     10.380474  1070A     10.491235  1071A     10.840382  
    1072A     11.064040  1073A     11.176340  1074A     11.370930  
    1075A     11.476370  1076A     11.791018  1077A     11.858275  
    1078A     12.039256  1079A     12.067552  1080A     12.248138  
    1081A     12.577520  1082A     12.770954  1083A     13.084450  
    1084A     13.569789  1085A     14.128434  1086A     16.170328  
    1087A     16.439457  1088A     16.643012  1089A     17.014836  
    1090A     17.722390  1091A     18.542058  1092A     19.388778  
    1093A     19.489578  1094A     20.397729  1095A     20.905639  
    1096A     21.457123  1097A     51.625193  1098A     51.667547  
    1099A     54.433952  1100A     55.627669  1101A     60.335233  
    1102A     61.549045  1103A     64.327510  1104A     69.531331  

    Final Occupation by Irrep:
              A 
    DOCC [    39 ]

  @DF-RHF Final Energy:  -539.58445816728909

   => Energetics <=

    Nuclear Repulsion Energy =            593.8720860667474426
    One-Electron Energy =               -1913.3977086089573731
    Two-Electron Energy =                 779.9411643749208451
    Total Energy =                       -539.5844581672890854

Computation Completed


Properties will be evaluated at   0.000000,   0.000000,   0.000000 [a0]

Properties computed using the SCF density matrix

  Nuclear Dipole Moment: [e a0]
     X:  -149.5891      Y:    -6.9264      Z:  -198.6721

  Electronic Dipole Moment: [e a0]
     X:   146.5271      Y:     7.1431      Z:   198.6717

  Dipole Moment: [e a0]
     X:    -3.0621      Y:     0.2167      Z:    -0.0004     Total:     3.0697

  Dipole Moment: [D]
     X:    -7.7830      Y:     0.5508      Z:    -0.0011     Total:     7.8025


*** tstop() called on node150.bme.utexas.edu at Thu Jan 25 10:43:37 2024
Module time:
	user time   =    1010.47 seconds =      16.84 minutes
	system time =      13.79 seconds =       0.23 minutes
	total time  =        165 seconds =       2.75 minutes
Total time:
	user time   =    2547.42 seconds =      42.46 minutes
	system time =      46.48 seconds =       0.77 minutes
	total time  =        419 seconds =       6.98 minutes

*** tstart() called on node150.bme.utexas.edu
*** at Thu Jan 25 10:43:37 2024


  //>>>>>>>>>>>>>>>>>>>>>>>>>>>>>>>>>>>//
  //               DFMP2               //
  //<<<<<<<<<<<<<<<<<<<<<<<<<<<<<<<<<<<//

   => Loading Basis Set <=

    Name: (AUG-CC-PVTZ AUX)
    Role: RIFIT
    Keyword: DF_BASIS_MP2
    atoms 1, 3, 7, 9, 11, 17, 19, 25  entry N          line   206 file /opt/anaconda/envs/psi4v1.5/share/psi4/basis/aug-cc-pvtz-ri.gbs 
    atoms 2, 4-6, 8, 18, 20-22        entry C          line   148 file /opt/anaconda/envs/psi4v1.5/share/psi4/basis/aug-cc-pvtz-ri.gbs 
    atoms 10, 12-13, 15-16, 23, 26-29 entry H          line    30 file /opt/anaconda/envs/psi4v1.5/share/psi4/basis/aug-cc-pvtz-ri.gbs 
    atoms 14, 24                      entry O          line   264 file /opt/anaconda/envs/psi4v1.5/share/psi4/basis/aug-cc-pvtz-ri.gbs 

	 --------------------------------------------------------
	                          DF-MP2                         
	      2nd-Order Density-Fitted Moller-Plesset Theory     
	              RMP2 Wavefunction,   8 Threads             
	                                                         
	        Rob Parrish, Justin Turney, Andy Simmonett,      
	           Ed Hohenstein, and C. David Sherrill          
	 --------------------------------------------------------

   => Auxiliary Basis Set <=

  Basis Set: (AUG-CC-PVTZ AUX)
    Blend: AUG-CC-PVTZ-RI
    Number of shells: 672
    Number of basis functions: 2474
    Number of Cartesian functions: 3134
    Spherical Harmonics?: true
    Max angular momentum: 4

	 --------------------------------------------------------
	                 NBF =  1104, NAUX =  2474
	 --------------------------------------------------------
	   CLASS    FOCC     OCC    AOCC    AVIR     VIR    FVIR
	   PAIRS      11      39      28    1065    1065       0
	 --------------------------------------------------------

	 Will attempt to load fitting metric from file 97.

	-----------------------------------------------------------
	 ==================> DF-MP2 Energies <==================== 
	-----------------------------------------------------------
	 Reference Energy          =    -539.5844581672890854 [Eh]
	 Singles Energy            =      -0.0000000000000000 [Eh]
	 Same-Spin Energy          =      -0.5420953501208580 [Eh]
	 Opposite-Spin Energy      =      -1.4975869645990767 [Eh]
	 Correlation Energy        =      -2.0396823147199346 [Eh]
	 Total Energy              =    -541.6241404820090111 [Eh]
	-----------------------------------------------------------
	 ================> DF-SCS-MP2 Energies <================== 
	-----------------------------------------------------------
	 SCS Same-Spin Scale       =       0.3333333333333333 [-]
	 SCS Opposite-Spin Scale   =       1.2000000000000000 [-]
	 SCS Same-Spin Energy      =      -0.1806984500402860 [Eh]
	 SCS Opposite-Spin Energy  =      -1.7971043575188921 [Eh]
	 SCS Correlation Energy    =      -1.9778028075591780 [Eh]
	 SCS Total Energy          =    -541.5622609748483001 [Eh]
	-----------------------------------------------------------


*** tstop() called on node150.bme.utexas.edu at Thu Jan 25 10:44:28 2024
Module time:
	user time   =     228.47 seconds =       3.81 minutes
	system time =      11.00 seconds =       0.18 minutes
	total time  =         51 seconds =       0.85 minutes
Total time:
	user time   =    2775.90 seconds =      46.27 minutes
	system time =      57.48 seconds =       0.96 minutes
	total time  =        470 seconds =       7.83 minutes

  //>>>>>>>>>>>>>>>>>>>>>>>>>>>>>>>>>>>//
  //            Monomer B HF           //
  //<<<<<<<<<<<<<<<<<<<<<<<<<<<<<<<<<<<//


*** tstart() called on node150.bme.utexas.edu
*** at Thu Jan 25 10:44:28 2024

   => Loading Basis Set <=

    Name: AUG-CC-PVTZ
    Role: ORBITAL
    Keyword: BASIS
    atoms 1, 3, 7, 9, 11, 17, 19, 25  entry N          line   285 file /opt/anaconda/envs/psi4v1.5/share/psi4/basis/aug-cc-pvtz.gbs 
    atoms 2, 4-6, 8, 18, 20-22        entry C          line   239 file /opt/anaconda/envs/psi4v1.5/share/psi4/basis/aug-cc-pvtz.gbs 
    atoms 10, 12-13, 15-16, 23, 26-29 entry H          line    40 file /opt/anaconda/envs/psi4v1.5/share/psi4/basis/aug-cc-pvtz.gbs 
    atoms 14, 24                      entry O          line   331 file /opt/anaconda/envs/psi4v1.5/share/psi4/basis/aug-cc-pvtz.gbs 


         ---------------------------------------------------------
                                   SCF
               by Justin Turney, Rob Parrish, Andy Simmonett
                          and Daniel G. A. Smith
                              RHF Reference
                        8 Threads,  76293 MiB Core
         ---------------------------------------------------------

  ==> Geometry <==

    Molecular point group: c1
    Full point group: C1

    Geometry (in Angstrom), charge = 0, multiplicity = 1:

       Center              X                  Y                   Z               Mass       
    ------------   -----------------  -----------------  -----------------  -----------------
      Gh(N)          -1.040155980508     1.631943966618    -1.347780498995    14.003074004430
      Gh(C)          -2.326340980508     1.143757966618    -1.347819498995    12.000000000000
      Gh(N)          -2.615631980508    -0.152304033382    -1.347880498995    14.003074004430
      Gh(C)          -1.511053980508    -0.927314033382    -1.347899498995    12.000000000000
      Gh(C)          -0.162331980508    -0.543649033382    -1.347865498995    12.000000000000
      Gh(C)           0.132133019492     0.856465966618    -1.347803498995    12.000000000000
      Gh(N)           0.667842019492    -1.655071033382    -1.347901498995    14.003074004430
      Gh(C)          -0.147357980508    -2.678705033382    -1.347957498995    12.000000000000
      Gh(N)          -1.484134980508    -2.300238033382    -1.347957498995    14.003074004430
      Gh(H)          -0.892408980508     2.658626966618    -1.347735498995     1.007825032230
      Gh(N)          -3.320946980508     2.059377966618    -1.347795498995    14.003074004430
      Gh(H)          -3.147066980508     3.069472966618    -1.347751498995     1.007825032230
      Gh(H)          -4.264761980508     1.707693966618    -1.347821498995     1.007825032230
      Gh(O)           1.241692019492     1.416926966618    -1.347772498995    15.994914619570
      Gh(H)           0.147596019492    -3.723166033382    -1.347994498995     1.007825032230
      Gh(H)          -2.295152980508    -2.902625033382    -1.347991498995     1.007825032230
         N            1.105193019492    -1.461395033382     1.901884501005    14.003074004430
         C            0.196518019492    -0.386495033382     1.965746501005    12.000000000000
         N            0.701870019492     0.870559966618     1.876304501005    14.003074004430
         C            2.020278019492     1.075870966618     1.732327501005    12.000000000000
         C            2.957991019492    -0.022579033382     1.666106501005    12.000000000000
         C            2.447614019492    -1.278250033382     1.756036501005    12.000000000000
         H            0.701292019492    -2.386211033382     1.971054501005     1.007825032230
         O           -1.007397980508    -0.643232033382     2.099223501005    15.994914619570
         N            2.444452019492     2.341088966618     1.651143501005    14.003074004430
         H            1.768103019492     3.133036966618     1.698895501005     1.007825032230
         H            3.428084019492     2.533129966618     1.542591501005     1.007825032230
         H            4.025318019492     0.145186966618     1.549508501005     1.007825032230
         H            3.064322019492    -2.175260033382     1.717562501005     1.007825032230

  Running in c1 symmetry.

  Rotational constants: A =      0.01909  B =      0.01127  C =      0.00935 [cm^-1]
  Rotational constants: A =    572.28493  B =    337.83324  C =    280.39875 [MHz]
  Nuclear repulsion =  355.312350787767684

  Charge       = 0
  Multiplicity = 1
  Electrons    = 58
  Nalpha       = 29
  Nbeta        = 29

  ==> Algorithm <==

  SCF Algorithm Type is DF.
  DIIS enabled.
  MOM disabled.
  Fractional occupation disabled.
  Guess Type is SAD.
  Energy threshold   = 1.00e-08
  Density threshold  = 1.00e-08
  Integral threshold = 1.00e-12

  ==> Primary Basis <==

  Basis Set: AUG-CC-PVTZ
    Blend: AUG-CC-PVTZ
    Number of shells: 356
    Number of basis functions: 1104
    Number of Cartesian functions: 1295
    Spherical Harmonics?: true
    Max angular momentum: 3

   => Loading Basis Set <=

    Name: (AUG-CC-PVTZ AUX)
    Role: JKFIT
    Keyword: DF_BASIS_SCF
    atoms 1, 3, 7, 9, 11, 17, 19, 25  entry N          line   224 file /opt/anaconda/envs/psi4v1.5/share/psi4/basis/aug-cc-pvtz-jkfit.gbs 
    atoms 2, 4-6, 8, 18, 20-22        entry C          line   162 file /opt/anaconda/envs/psi4v1.5/share/psi4/basis/aug-cc-pvtz-jkfit.gbs 
    atoms 10, 12-13, 15-16, 23, 26-29 entry H          line    70 file /opt/anaconda/envs/psi4v1.5/share/psi4/basis/aug-cc-pvtz-jkfit.gbs 
    atoms 14, 24                      entry O          line   286 file /opt/anaconda/envs/psi4v1.5/share/psi4/basis/aug-cc-pvtz-jkfit.gbs 

  ==> Integral Setup <==

  ==> DiskDFJK: Density-Fitted J/K Matrices <==

    J tasked:                  Yes
    K tasked:                  Yes
    wK tasked:                  No
    OpenMP threads:              8
    Integrals threads:           8
    Memory [MiB]:            57220
    Algorithm:                Core
    Integral Cache:           LOAD
    Schwarz Cutoff:          1E-12
    Fitting Condition:       1E-10

   => Auxiliary Basis Set <=

  Basis Set: (AUG-CC-PVTZ AUX)
    Blend: AUG-CC-PVTZ-JKFIT
    Number of shells: 710
    Number of basis functions: 2436
    Number of Cartesian functions: 3039
    Spherical Harmonics?: true
    Max angular momentum: 4

  Minimum eigenvalue in the overlap matrix is 9.3009342948E-07.
  Reciprocal condition number of the overlap matrix is 4.4301882743E-08.
    Using symmetric orthogonalization.

  ==> Pre-Iterations <==

  SCF Guess: Superposition of Atomic Densities via on-the-fly atomic UHF (no occupation information).

   -------------------------
    Irrep   Nso     Nmo    
   -------------------------
     A       1104    1104 
   -------------------------
    Total    1104    1104
   -------------------------

  ==> Iterations <==

                           Total Energy        Delta E     RMS |[F,P]|

   @DF-RHF iter SAD:  -392.07842164827713   -3.92078e+02   0.00000e+00 
   @DF-RHF iter   1:  -392.50582309720181   -4.27401e-01   6.61551e-04 DIIS
   @DF-RHF iter   2:  -392.69642376355034   -1.90601e-01   3.76888e-04 DIIS
   @DF-RHF iter   3:  -392.75541335849954   -5.89896e-02   7.05921e-05 DIIS
   @DF-RHF iter   4:  -392.75871787712845   -3.30452e-03   3.15344e-05 DIIS
   @DF-RHF iter   5:  -392.75941195096584   -6.94074e-04   6.41868e-06 DIIS
   @DF-RHF iter   6:  -392.75948123391385   -6.92829e-05   3.38262e-06 DIIS
   @DF-RHF iter   7:  -392.75949864701954   -1.74131e-05   1.26491e-06 DIIS
   @DF-RHF iter   8:  -392.75950198293765   -3.33592e-06   4.34261e-07 DIIS
   @DF-RHF iter   9:  -392.75950230470329   -3.21766e-07   1.77003e-07 DIIS
   @DF-RHF iter  10:  -392.75950235704551   -5.23422e-08   6.29504e-08 DIIS
   @DF-RHF iter  11:  -392.75950236540666   -8.36116e-09   1.70272e-08 DIIS
   @DF-RHF iter  12:  -392.75950236597265   -5.65990e-10   5.40317e-09 DIIS
  Energy and wave function converged.


  ==> Post-Iterations <==

    Orbital Energies [Eh]
    ---------------------

    Doubly Occupied:                                                      

       1A    -20.491842     2A    -15.622067     3A    -15.608817  
       4A    -15.538189     5A    -11.364551     6A    -11.359719  
       7A    -11.334043     8A    -11.251123     9A     -1.372994  
      10A     -1.294636    11A     -1.263374    12A     -1.169877  
      13A     -1.065450    14A     -0.903026    15A     -0.877386  
      16A     -0.763360    17A     -0.760479    18A     -0.728040  
      19A     -0.678034    20A     -0.622935    21A     -0.622910  
      22A     -0.612966    23A     -0.582775    24A     -0.542226  
      25A     -0.483484    26A     -0.432644    27A     -0.416258  
      28A     -0.383529    29A     -0.342693  

    Virtual:                                                              

      30A      0.013094    31A      0.020253    32A      0.027914  
      33A      0.037093    34A      0.037274    35A      0.043470  
      36A      0.049999    37A      0.056275    38A      0.057756  
      39A      0.060692    40A      0.067830    41A      0.072607  
      42A      0.078487    43A      0.082196    44A      0.085471  
      45A      0.086680    46A      0.090662    47A      0.092897  
      48A      0.098094    49A      0.099413    50A      0.102667  
      51A      0.104663    52A      0.109344    53A      0.114089  
      54A      0.119473    55A      0.119908    56A      0.122282  
      57A      0.128824    58A      0.130518    59A      0.137255  
      60A      0.137644    61A      0.142346    62A      0.144492  
      63A      0.145724    64A      0.150168    65A      0.152956  
      66A      0.154637    67A      0.162014    68A      0.165521  
      69A      0.167130    70A      0.169583    71A      0.171332  
      72A      0.175226    73A      0.180045    74A      0.185422  
      75A      0.190236    76A      0.190959    77A      0.195303  
      78A      0.196160    79A      0.201538    80A      0.206517  
      81A      0.207499    82A      0.212160    83A      0.216229  
      84A      0.221106    85A      0.223811    86A      0.225120  
      87A      0.227685    88A      0.229430    89A      0.235465  
      90A      0.238092    91A      0.241270    92A      0.243548  
      93A      0.244378    94A      0.247632    95A      0.250749  
      96A      0.255407    97A      0.263697    98A      0.265847  
      99A      0.268090   100A      0.271040   101A      0.273431  
     102A      0.281610   103A      0.287489   104A      0.290234  
     105A      0.293273   106A      0.294368   107A      0.299670  
     108A      0.306017   109A      0.308058   110A      0.309445  
     111A      0.313347   112A      0.317363   113A      0.321928  
     114A      0.322575   115A      0.327453   116A      0.330345  
     117A      0.333051   118A      0.336163   119A      0.339280  
     120A      0.343530   121A      0.348435   122A      0.350882  
     123A      0.353087   124A      0.357158   125A      0.361022  
     126A      0.371146   127A      0.372699   128A      0.376942  
     129A      0.378344   130A      0.386566   131A      0.388285  
     132A      0.391342   133A      0.395868   134A      0.398860  
     135A      0.399383   136A      0.403479   137A      0.409742  
     138A      0.410618   139A      0.415233   140A      0.419294  
     141A      0.420447   142A      0.421514   143A      0.429020  
     144A      0.432280   145A      0.433708   146A      0.434077  
     147A      0.438295   148A      0.440948   149A      0.443326  
     150A      0.447631   151A      0.449510   152A      0.454793  
     153A      0.457083   154A      0.458358   155A      0.459424  
     156A      0.463308   157A      0.468203   158A      0.469385  
     159A      0.472441   160A      0.474746   161A      0.483572  
     162A      0.484798   163A      0.486694   164A      0.489581  
     165A      0.490470   166A      0.495157   167A      0.500089  
     168A      0.501375   169A      0.505748   170A      0.509642  
     171A      0.512528   172A      0.515546   173A      0.519879  
     174A      0.522076   175A      0.525352   176A      0.531812  
     177A      0.535281   178A      0.535818   179A      0.541565  
     180A      0.544795   181A      0.548168   182A      0.553907  
     183A      0.554631   184A      0.561745   185A      0.563306  
     186A      0.568317   187A      0.577057   188A      0.580779  
     189A      0.584579   190A      0.588987   191A      0.591504  
     192A      0.595821   193A      0.597601   194A      0.601095  
     195A      0.603328   196A      0.607741   197A      0.616566  
     198A      0.619356   199A      0.624921   200A      0.634335  
     201A      0.635989   202A      0.640660   203A      0.644212  
     204A      0.646195   205A      0.655987   206A      0.662595  
     207A      0.666638   208A      0.668665   209A      0.675108  
     210A      0.681251   211A      0.683913   212A      0.687988  
     213A      0.694749   214A      0.697727   215A      0.702135  
     216A      0.704848   217A      0.715337   218A      0.717715  
     219A      0.723060   220A      0.729705   221A      0.730306  
     222A      0.733139   223A      0.738484   224A      0.744637  
     225A      0.750761   226A      0.751811   227A      0.759511  
     228A      0.760466   229A      0.770586   230A      0.773931  
     231A      0.779324   232A      0.780488   233A      0.784494  
     234A      0.791883   235A      0.795736   236A      0.799013  
     237A      0.800304   238A      0.804341   239A      0.807667  
     240A      0.817402   241A      0.821778   242A      0.822322  
     243A      0.829024   244A      0.834881   245A      0.840517  
     246A      0.842015   247A      0.845073   248A      0.849544  
     249A      0.851437   250A      0.853089   251A      0.857685  
     252A      0.862227   253A      0.866392   254A      0.870325  
     255A      0.875480   256A      0.876570   257A      0.878765  
     258A      0.882928   259A      0.884736   260A      0.889951  
     261A      0.893907   262A      0.900651   263A      0.904938  
     264A      0.907073   265A      0.914312   266A      0.919393  
     267A      0.922414   268A      0.930363   269A      0.931507  
     270A      0.937761   271A      0.941603   272A      0.942497  
     273A      0.945810   274A      0.950076   275A      0.955737  
     276A      0.961192   277A      0.967135   278A      0.969267  
     279A      0.972058   280A      0.978820   281A      0.983246  
     282A      0.983299   283A      0.988263   284A      0.990650  
     285A      0.994670   286A      0.998347   287A      1.005203  
     288A      1.008699   289A      1.012105   290A      1.016218  
     291A      1.018585   292A      1.023475   293A      1.027892  
     294A      1.032672   295A      1.040768   296A      1.042266  
     297A      1.047982   298A      1.052848   299A      1.057210  
     300A      1.060609   301A      1.063333   302A      1.068098  
     303A      1.068961   304A      1.072250   305A      1.085917  
     306A      1.089491   307A      1.091854   308A      1.095116  
     309A      1.098554   310A      1.099843   311A      1.110147  
     312A      1.111973   313A      1.114265   314A      1.119051  
     315A      1.125252   316A      1.126925   317A      1.128740  
     318A      1.132960   319A      1.139579   320A      1.143694  
     321A      1.146286   322A      1.149045   323A      1.158687  
     324A      1.161357   325A      1.166753   326A      1.173209  
     327A      1.174507   328A      1.175884   329A      1.181680  
     330A      1.185996   331A      1.192761   332A      1.193261  
     333A      1.198818   334A      1.200291   335A      1.205561  
     336A      1.209054   337A      1.211821   338A      1.218428  
     339A      1.221586   340A      1.225456   341A      1.227151  
     342A      1.235853   343A      1.238167   344A      1.243434  
     345A      1.248939   346A      1.254158   347A      1.258420  
     348A      1.263309   349A      1.270054   350A      1.273993  
     351A      1.278934   352A      1.284806   353A      1.289527  
     354A      1.296132   355A      1.299466   356A      1.303225  
     357A      1.307431   358A      1.314943   359A      1.319911  
     360A      1.325974   361A      1.328474   362A      1.330689  
     363A      1.333807   364A      1.338678   365A      1.345061  
     366A      1.352361   367A      1.358228   368A      1.364053  
     369A      1.369678   370A      1.373256   371A      1.375561  
     372A      1.382046   373A      1.385083   374A      1.391468  
     375A      1.397272   376A      1.403990   377A      1.407298  
     378A      1.410926   379A      1.415334   380A      1.422425  
     381A      1.424817   382A      1.433223   383A      1.435367  
     384A      1.448309   385A      1.456748   386A      1.465220  
     387A      1.466035   388A      1.473256   389A      1.478925  
     390A      1.482751   391A      1.487894   392A      1.491489  
     393A      1.494442   394A      1.500130   395A      1.505921  
     396A      1.510396   397A      1.514721   398A      1.525529  
     399A      1.528991   400A      1.533956   401A      1.539170  
     402A      1.543507   403A      1.550186   404A      1.555753  
     405A      1.558873   406A      1.565675   407A      1.570858  
     408A      1.581600   409A      1.588274   410A      1.590014  
     411A      1.600990   412A      1.604709   413A      1.605481  
     414A      1.612051   415A      1.615716   416A      1.622819  
     417A      1.629106   418A      1.633679   419A      1.642247  
     420A      1.643786   421A      1.649563   422A      1.656466  
     423A      1.660705   424A      1.666410   425A      1.671921  
     426A      1.674790   427A      1.676561   428A      1.689018  
     429A      1.691361   430A      1.693531   431A      1.698805  
     432A      1.706311   433A      1.713901   434A      1.720229  
     435A      1.721371   436A      1.727663   437A      1.728602  
     438A      1.741991   439A      1.742849   440A      1.750420  
     441A      1.754447   442A      1.759281   443A      1.767371  
     444A      1.772456   445A      1.775314   446A      1.777646  
     447A      1.782407   448A      1.787861   449A      1.795144  
     450A      1.799091   451A      1.808639   452A      1.810129  
     453A      1.814109   454A      1.821149   455A      1.822766  
     456A      1.826947   457A      1.831070   458A      1.835741  
     459A      1.842415   460A      1.850030   461A      1.851904  
     462A      1.865106   463A      1.869790   464A      1.872374  
     465A      1.875534   466A      1.881884   467A      1.885292  
     468A      1.893069   469A      1.893692   470A      1.898337  
     471A      1.911485   472A      1.913910   473A      1.917862  
     474A      1.930559   475A      1.936338   476A      1.939336  
     477A      1.948054   478A      1.957508   479A      1.962005  
     480A      1.964047   481A      1.969170   482A      1.972471  
     483A      1.977039   484A      1.983119   485A      1.996053  
     486A      2.000478   487A      2.012475   488A      2.013473  
     489A      2.016072   490A      2.018222   491A      2.025837  
     492A      2.038285   493A      2.046464   494A      2.050279  
     495A      2.057491   496A      2.068423   497A      2.071711  
     498A      2.081355   499A      2.083933   500A      2.090031  
     501A      2.098365   502A      2.107692   503A      2.112210  
     504A      2.119505   505A      2.124191   506A      2.128446  
     507A      2.132701   508A      2.136060   509A      2.139793  
     510A      2.144647   511A      2.148239   512A      2.158050  
     513A      2.168165   514A      2.175398   515A      2.180013  
     516A      2.182048   517A      2.186494   518A      2.192117  
     519A      2.209446   520A      2.217751   521A      2.223920  
     522A      2.227611   523A      2.234734   524A      2.244772  
     525A      2.251605   526A      2.254563   527A      2.271059  
     528A      2.273877   529A      2.279582   530A      2.287104  
     531A      2.290168   532A      2.296900   533A      2.304166  
     534A      2.319743   535A      2.323794   536A      2.326475  
     537A      2.341194   538A      2.344963   539A      2.347488  
     540A      2.351832   541A      2.359650   542A      2.368118  
     543A      2.373456   544A      2.390117   545A      2.398632  
     546A      2.400166   547A      2.408150   548A      2.413019  
     549A      2.415211   550A      2.424963   551A      2.433797  
     552A      2.438333   553A      2.442431   554A      2.459383  
     555A      2.464405   556A      2.473772   557A      2.483703  
     558A      2.494966   559A      2.500420   560A      2.501644  
     561A      2.510084   562A      2.515245   563A      2.524266  
     564A      2.532647   565A      2.542426   566A      2.549073  
     567A      2.552589   568A      2.556471   569A      2.569626  
     570A      2.579409   571A      2.580225   572A      2.588257  
     573A      2.591019   574A      2.600012   575A      2.603351  
     576A      2.612556   577A      2.617922   578A      2.625016  
     579A      2.628913   580A      2.639471   581A      2.645564  
     582A      2.651882   583A      2.669515   584A      2.681291  
     585A      2.685897   586A      2.695235   587A      2.695700  
     588A      2.708924   589A      2.716320   590A      2.718052  
     591A      2.728281   592A      2.742574   593A      2.746576  
     594A      2.750172   595A      2.756671   596A      2.764341  
     597A      2.779418   598A      2.782906   599A      2.788595  
     600A      2.794613   601A      2.800502   602A      2.809519  
     603A      2.818275   604A      2.822073   605A      2.834201  
     606A      2.837122   607A      2.842273   608A      2.857873  
     609A      2.864755   610A      2.871802   611A      2.880800  
     612A      2.891332   613A      2.896418   614A      2.899540  
     615A      2.903508   616A      2.920542   617A      2.921314  
     618A      2.931461   619A      2.937661   620A      2.950415  
     621A      2.959337   622A      2.969201   623A      2.976606  
     624A      2.986259   625A      2.994203   626A      3.004700  
     627A      3.012098   628A      3.020624   629A      3.031451  
     630A      3.037492   631A      3.039634   632A      3.049418  
     633A      3.054258   634A      3.066339   635A      3.071223  
     636A      3.072088   637A      3.100334   638A      3.100682  
     639A      3.109251   640A      3.113291   641A      3.120938  
     642A      3.137728   643A      3.141211   644A      3.156876  
     645A      3.168574   646A      3.176831   647A      3.184234  
     648A      3.191942   649A      3.196034   650A      3.205400  
     651A      3.206568   652A      3.224527   653A      3.232060  
     654A      3.240939   655A      3.247905   656A      3.252438  
     657A      3.254292   658A      3.272319   659A      3.285552  
     660A      3.311061   661A      3.322144   662A      3.335876  
     663A      3.342415   664A      3.350762   665A      3.355178  
     666A      3.366611   667A      3.382916   668A      3.394426  
     669A      3.399801   670A      3.421688   671A      3.430555  
     672A      3.433561   673A      3.443221   674A      3.454908  
     675A      3.464800   676A      3.472884   677A      3.488678  
     678A      3.498665   679A      3.517774   680A      3.528449  
     681A      3.539842   682A      3.549785   683A      3.552562  
     684A      3.572282   685A      3.575392   686A      3.590370  
     687A      3.617345   688A      3.617810   689A      3.652168  
     690A      3.658923   691A      3.669401   692A      3.693211  
     693A      3.694956   694A      3.700514   695A      3.724773  
     696A      3.735791   697A      3.746021   698A      3.759198  
     699A      3.764034   700A      3.779578   701A      3.803086  
     702A      3.810230   703A      3.823423   704A      3.835860  
     705A      3.840469   706A      3.862885   707A      3.869625  
     708A      3.876764   709A      3.886936   710A      3.894413  
     711A      3.900093   712A      3.908242   713A      3.924073  
     714A      3.934263   715A      3.959461   716A      3.965131  
     717A      3.978800   718A      3.990743   719A      4.005520  
     720A      4.022696   721A      4.024484   722A      4.031559  
     723A      4.036335   724A      4.058362   725A      4.069377  
     726A      4.078428   727A      4.096873   728A      4.120447  
     729A      4.125616   730A      4.132227   731A      4.144283  
     732A      4.155079   733A      4.163072   734A      4.179851  
     735A      4.185267   736A      4.193683   737A      4.204091  
     738A      4.207790   739A      4.223804   740A      4.228823  
     741A      4.239917   742A      4.258113   743A      4.266010  
     744A      4.271596   745A      4.287139   746A      4.292737  
     747A      4.295380   748A      4.300088   749A      4.308337  
     750A      4.318136   751A      4.333233   752A      4.342274  
     753A      4.354890   754A      4.359242   755A      4.382150  
     756A      4.392020   757A      4.406940   758A      4.410584  
     759A      4.415904   760A      4.425298   761A      4.434915  
     762A      4.449295   763A      4.463487   764A      4.470892  
     765A      4.478703   766A      4.496500   767A      4.500216  
     768A      4.509129   769A      4.526452   770A      4.537288  
     771A      4.540781   772A      4.550078   773A      4.557443  
     774A      4.562443   775A      4.571932   776A      4.596548  
     777A      4.601350   778A      4.619147   779A      4.626147  
     780A      4.639661   781A      4.642177   782A      4.649449  
     783A      4.658289   784A      4.671263   785A      4.679978  
     786A      4.681235   787A      4.688522   788A      4.696177  
     789A      4.703687   790A      4.711303   791A      4.723163  
     792A      4.732031   793A      4.739933   794A      4.743049  
     795A      4.756207   796A      4.761641   797A      4.767996  
     798A      4.783568   799A      4.791854   800A      4.804552  
     801A      4.808987   802A      4.825762   803A      4.837183  
     804A      4.840594   805A      4.856792   806A      4.865617  
     807A      4.872678   808A      4.876471   809A      4.888649  
     810A      4.898542   811A      4.904590   812A      4.917340  
     813A      4.925492   814A      4.940204   815A      4.955489  
     816A      4.966671   817A      4.969356   818A      4.981547  
     819A      4.987678   820A      4.992763   821A      5.000517  
     822A      5.002928   823A      5.009680   824A      5.011421  
     825A      5.018172   826A      5.019960   827A      5.039069  
     828A      5.039662   829A      5.047436   830A      5.060995  
     831A      5.067074   832A      5.071970   833A      5.075787  
     834A      5.092103   835A      5.101098   836A      5.112290  
     837A      5.118523   838A      5.131604   839A      5.139249  
     840A      5.140778   841A      5.160802   842A      5.167838  
     843A      5.181937   844A      5.190783   845A      5.205006  
     846A      5.215929   847A      5.223729   848A      5.231112  
     849A      5.245907   850A      5.256197   851A      5.263907  
     852A      5.277149   853A      5.297235   854A      5.317202  
     855A      5.319035   856A      5.341433   857A      5.348883  
     858A      5.351878   859A      5.355531   860A      5.362910  
     861A      5.384342   862A      5.389122   863A      5.394111  
     864A      5.411229   865A      5.430438   866A      5.434793  
     867A      5.438376   868A      5.441652   869A      5.458685  
     870A      5.474173   871A      5.486641   872A      5.499602  
     873A      5.509657   874A      5.524011   875A      5.533946  
     876A      5.547407   877A      5.548726   878A      5.567237  
     879A      5.582460   880A      5.584367   881A      5.594105  
     882A      5.598564   883A      5.602121   884A      5.612386  
     885A      5.615157   886A      5.624949   887A      5.640693  
     888A      5.657889   889A      5.659271   890A      5.687407  
     891A      5.720785   892A      5.739622   893A      5.740710  
     894A      5.765097   895A      5.775086   896A      5.785551  
     897A      5.793852   898A      5.814387   899A      5.819920  
     900A      5.827429   901A      5.837598   902A      5.853660  
     903A      5.863554   904A      5.877807   905A      5.894837  
     906A      5.928020   907A      5.952633   908A      5.961667  
     909A      5.965351   910A      5.967343   911A      5.978907  
     912A      6.027535   913A      6.030279   914A      6.051960  
     915A      6.064865   916A      6.082241   917A      6.104437  
     918A      6.122031   919A      6.138464   920A      6.144829  
     921A      6.155447   922A      6.165313   923A      6.174936  
     924A      6.196837   925A      6.223131   926A      6.226770  
     927A      6.234671   928A      6.250786   929A      6.278584  
     930A      6.289237   931A      6.309647   932A      6.323580  
     933A      6.371444   934A      6.389613   935A      6.398974  
     936A      6.414378   937A      6.418440   938A      6.432438  
     939A      6.487136   940A      6.503229   941A      6.527304  
     942A      6.532292   943A      6.541287   944A      6.549743  
     945A      6.557207   946A      6.564900   947A      6.594318  
     948A      6.605227   949A      6.622390   950A      6.654348  
     951A      6.661404   952A      6.664989   953A      6.673604  
     954A      6.682597   955A      6.716651   956A      6.728699  
     957A      6.756632   958A      6.780129   959A      6.793124  
     960A      6.801636   961A      6.811362   962A      6.827303  
     963A      6.831849   964A      6.838879   965A      6.855532  
     966A      6.874866   967A      6.886974   968A      6.894170  
     969A      6.905524   970A      6.934852   971A      6.958992  
     972A      6.976547   973A      6.986583   974A      7.010974  
     975A      7.029836   976A      7.040777   977A      7.061905  
     978A      7.064655   979A      7.080557   980A      7.112473  
     981A      7.136742   982A      7.160870   983A      7.201184  
     984A      7.270079   985A      7.288083   986A      7.316547  
     987A      7.355250   988A      7.365635   989A      7.416020  
     990A      7.426875   991A      7.445796   992A      7.467919  
     993A      7.487128   994A      7.495960   995A      7.513488  
     996A      7.547178   997A      7.564785   998A      7.590082  
     999A      7.640718  1000A      7.644712  1001A      7.645658  
    1002A      7.670926  1003A      7.685234  1004A      7.691208  
    1005A      7.697659  1006A      7.709957  1007A      7.713665  
    1008A      7.727337  1009A      7.755989  1010A      7.761589  
    1011A      7.778976  1012A      7.787148  1013A      7.802513  
    1014A      7.809909  1015A      7.857267  1016A      7.880774  
    1017A      7.899389  1018A      7.923595  1019A      7.932003  
    1020A      7.961129  1021A      7.966277  1022A      7.975861  
    1023A      8.013590  1024A      8.021694  1025A      8.029866  
    1026A      8.045106  1027A      8.057504  1028A      8.099817  
    1029A      8.129424  1030A      8.199101  1031A      8.215468  
    1032A      8.294583  1033A      8.301847  1034A      8.339914  
    1035A      8.372964  1036A      8.435700  1037A      8.513861  
    1038A      8.603540  1039A      8.614810  1040A      8.736627  
    1041A      8.759696  1042A      8.829428  1043A      8.864034  
    1044A      8.971686  1045A      9.045589  1046A      9.085585  
    1047A      9.175375  1048A      9.282236  1049A      9.386513  
    1050A      9.445829  1051A      9.518038  1052A      9.584006  
    1053A      9.621739  1054A      9.699417  1055A      9.808644  
    1056A      9.818593  1057A     10.004353  1058A     10.054708  
    1059A     10.205773  1060A     10.342370  1061A     10.396081  
    1062A     10.430958  1063A     10.482477  1064A     10.587792  
    1065A     10.739309  1066A     11.138845  1067A     11.176457  
    1068A     11.326056  1069A     11.459110  1070A     11.462841  
    1071A     11.685087  1072A     11.756709  1073A     12.007481  
    1074A     12.057656  1075A     12.098167  1076A     12.131703  
    1077A     12.240681  1078A     12.318325  1079A     12.421999  
    1080A     12.629398  1081A     12.804683  1082A     12.973078  
    1083A     13.359982  1084A     13.588643  1085A     14.233679  
    1086A     15.795383  1087A     16.114986  1088A     16.588095  
    1089A     17.732800  1090A     18.305378  1091A     19.780803  
    1092A     20.609402  1093A     20.925880  1094A     52.154078  
    1095A     52.310996  1096A     53.352400  1097A     54.207236  
    1098A     57.197320  1099A     60.021305  1100A     61.849715  
    1101A     62.460737  1102A     63.495475  1103A     65.611357  
    1104A     70.286463  

    Final Occupation by Irrep:
              A 
    DOCC [    29 ]

  @DF-RHF Final Energy:  -392.75950236597265

   => Energetics <=

    Nuclear Repulsion Energy =            355.3123507877676843
    One-Electron Energy =               -1239.1648440571768788
    Two-Electron Energy =                 491.0929909034366005
    Total Energy =                       -392.7595023659726508

Computation Completed


Properties will be evaluated at   0.000000,   0.000000,   0.000000 [a0]

Properties computed using the SCF density matrix

  Nuclear Dipole Moment: [e a0]
     X:   151.9773      Y:     8.8573      Z:   200.3110

  Electronic Dipole Moment: [e a0]
     X:  -148.9490      Y:    -8.9379      Z:  -200.6251

  Dipole Moment: [e a0]
     X:     3.0283      Y:    -0.0806      Z:    -0.3141     Total:     3.0456

  Dipole Moment: [D]
     X:     7.6972      Y:    -0.2049      Z:    -0.7984     Total:     7.7412


*** tstop() called on node150.bme.utexas.edu at Thu Jan 25 10:47:01 2024
Module time:
	user time   =     851.60 seconds =      14.19 minutes
	system time =      12.08 seconds =       0.20 minutes
	total time  =        153 seconds =       2.55 minutes
Total time:
	user time   =    3627.50 seconds =      60.46 minutes
	system time =      69.56 seconds =       1.16 minutes
	total time  =        623 seconds =      10.38 minutes

*** tstart() called on node150.bme.utexas.edu
*** at Thu Jan 25 10:47:01 2024


  //>>>>>>>>>>>>>>>>>>>>>>>>>>>>>>>>>>>//
  //               DFMP2               //
  //<<<<<<<<<<<<<<<<<<<<<<<<<<<<<<<<<<<//

   => Loading Basis Set <=

    Name: (AUG-CC-PVTZ AUX)
    Role: RIFIT
    Keyword: DF_BASIS_MP2
    atoms 1, 3, 7, 9, 11, 17, 19, 25  entry N          line   206 file /opt/anaconda/envs/psi4v1.5/share/psi4/basis/aug-cc-pvtz-ri.gbs 
    atoms 2, 4-6, 8, 18, 20-22        entry C          line   148 file /opt/anaconda/envs/psi4v1.5/share/psi4/basis/aug-cc-pvtz-ri.gbs 
    atoms 10, 12-13, 15-16, 23, 26-29 entry H          line    30 file /opt/anaconda/envs/psi4v1.5/share/psi4/basis/aug-cc-pvtz-ri.gbs 
    atoms 14, 24                      entry O          line   264 file /opt/anaconda/envs/psi4v1.5/share/psi4/basis/aug-cc-pvtz-ri.gbs 

	 --------------------------------------------------------
	                          DF-MP2                         
	      2nd-Order Density-Fitted Moller-Plesset Theory     
	              RMP2 Wavefunction,   8 Threads             
	                                                         
	        Rob Parrish, Justin Turney, Andy Simmonett,      
	           Ed Hohenstein, and C. David Sherrill          
	 --------------------------------------------------------

   => Auxiliary Basis Set <=

  Basis Set: (AUG-CC-PVTZ AUX)
    Blend: AUG-CC-PVTZ-RI
    Number of shells: 672
    Number of basis functions: 2474
    Number of Cartesian functions: 3134
    Spherical Harmonics?: true
    Max angular momentum: 4

	 --------------------------------------------------------
	                 NBF =  1104, NAUX =  2474
	 --------------------------------------------------------
	   CLASS    FOCC     OCC    AOCC    AVIR     VIR    FVIR
	   PAIRS       8      29      21    1075    1075       0
	 --------------------------------------------------------

	 Will attempt to load fitting metric from file 97.

	-----------------------------------------------------------
	 ==================> DF-MP2 Energies <==================== 
	-----------------------------------------------------------
	 Reference Energy          =    -392.7595023659726508 [Eh]
	 Singles Energy            =      -0.0000000000000000 [Eh]
	 Same-Spin Energy          =      -0.3848994371170117 [Eh]
	 Opposite-Spin Energy      =      -1.0973346736488425 [Eh]
	 Correlation Energy        =      -1.4822341107658543 [Eh]
	 Total Energy              =    -394.2417364767384811 [Eh]
	-----------------------------------------------------------
	 ================> DF-SCS-MP2 Energies <================== 
	-----------------------------------------------------------
	 SCS Same-Spin Scale       =       0.3333333333333333 [-]
	 SCS Opposite-Spin Scale   =       1.2000000000000000 [-]
	 SCS Same-Spin Energy      =      -0.1282998123723372 [Eh]
	 SCS Opposite-Spin Energy  =      -1.3168016083786109 [Eh]
	 SCS Correlation Energy    =      -1.4451014207509481 [Eh]
	 SCS Total Energy          =    -394.2046037867236237 [Eh]
	-----------------------------------------------------------


*** tstop() called on node150.bme.utexas.edu at Thu Jan 25 10:47:42 2024
Module time:
	user time   =     196.62 seconds =       3.28 minutes
	system time =       8.71 seconds =       0.15 minutes
	total time  =         41 seconds =       0.68 minutes
Total time:
	user time   =    3824.13 seconds =      63.74 minutes
	system time =      78.28 seconds =       1.30 minutes
	total time  =        664 seconds =      11.07 minutes
  Constructing Basis Sets for SAPT...

   => Loading Basis Set <=

    Name: (AUG-CC-PVTZ AUX)
    Role: RIFIT
    Keyword: DF_BASIS_SAPT
    atoms 1, 3, 7, 9, 11, 17, 19, 25  entry N          line   206 file /opt/anaconda/envs/psi4v1.5/share/psi4/basis/aug-cc-pvtz-ri.gbs 
    atoms 2, 4-6, 8, 18, 20-22        entry C          line   148 file /opt/anaconda/envs/psi4v1.5/share/psi4/basis/aug-cc-pvtz-ri.gbs 
    atoms 10, 12-13, 15-16, 23, 26-29 entry H          line    30 file /opt/anaconda/envs/psi4v1.5/share/psi4/basis/aug-cc-pvtz-ri.gbs 
    atoms 14, 24                      entry O          line   264 file /opt/anaconda/envs/psi4v1.5/share/psi4/basis/aug-cc-pvtz-ri.gbs 


  //>>>>>>>>>>>>>>>>>>>>>>>>>>>>>>>>>>>//
  //           SAPT2+(3)DMP2           //
  //<<<<<<<<<<<<<<<<<<<<<<<<<<<<<<<<<<<//


*** tstart() called on node150.bme.utexas.edu
*** at Thu Jan 25 10:47:42 2024

      SAPT2+(3)  
    Ed Hohenstein
     6 June 2009

      Orbital Information
  --------------------------
    NSO        =      1104
    NMO        =      1104
    NRI        =      2474
    NOCC A     =        39
    NOCC B     =        29
    FOCC A     =        11
    FOCC B     =         8
    NVIR A     =      1065
    NVIR B     =      1075

    Estimated memory usage: 65057.1 MB

    Natural Orbital Cutoff:   1.000E-06
    Disp(T3) Truncation:            Yes
    CCD (vv|vv) Truncation:         Yes
    MBPT T2 Truncation:             Yes

    Monomer A: 528 virtual orbitals dropped
    Monomer B: 657 virtual orbitals dropped

    Elst10,r            =    -0.008983059493 [Eh]
    Exch10 (S^2)        =     0.010779855708 [Eh]
    Exch10              =     0.010791984160 [Eh]
    Ind20,r (A<-B)      =    -0.003933436150 [Eh]
    Ind20,r (B<-A)      =    -0.003086091634 [Eh]
    Ind20,r             =    -0.007019527784 [Eh]
    Exch-Ind20,r (A<-B) =     0.002671449611 [Eh]
    Exch-Ind20,r (B<-A) =     0.001754897525 [Eh]
    Exch-Ind20,r        =     0.004426347136 [Eh]
    Disp20              =    -0.018211978442 [Eh]
    Disp20 (NO)         =    -0.016956273318 [Eh]
    Exch-Disp20         =     0.001780407218 [Eh]
    Elst12,r            =     0.001877506105 [Eh]
    Exch11              =     0.000259622757 [Eh]
    Exch12              =     0.000871727071 [Eh]
    Ind22               =    -0.000002904012 [Eh]
    Disp21              =     0.005717716956 [Eh]
    Disp22 (SDQ)        =    -0.001029105455 [Eh]

    (i =   1 of  21)       4466 seconds
    (i =   2 of  21)       8884 seconds
    (i =   3 of  21)      13490 seconds
    (i =   4 of  21)      17908 seconds
    (i =   5 of  21)      22560 seconds
    (i =   6 of  21)      27224 seconds
    (i =   7 of  21)      31717 seconds
    (i =   8 of  21)      36120 seconds
    (i =   9 of  21)      40710 seconds
    (i =  10 of  21)      45342 seconds
    (i =  11 of  21)      49886 seconds
    (i =  12 of  21)      54526 seconds
    (i =  13 of  21)      58988 seconds
    (i =  14 of  21)      63817 seconds
    (i =  15 of  21)      68227 seconds
    (i =  16 of  21)      72965 seconds
    (i =  17 of  21)      77364 seconds
    (i =  18 of  21)      81968 seconds
    (i =  19 of  21)      86697 seconds
    (i =  20 of  21)      90928 seconds
    (i =  21 of  21)      95551 seconds

    Disp220 (T)         =    -0.002157077386 [Eh]

    (i =   1 of  28)       2030 seconds
    (i =   2 of  28)       4100 seconds
    (i =   3 of  28)       6536 seconds
    (i =   4 of  28)       8614 seconds
    (i =   5 of  28)      10605 seconds
    (i =   6 of  28)      12810 seconds
    (i =   7 of  28)      15132 seconds
    (i =   8 of  28)      17130 seconds
    (i =   9 of  28)      19137 seconds
    (i =  10 of  28)      21456 seconds
    (i =  11 of  28)      23675 seconds
    (i =  12 of  28)      25668 seconds
    (i =  13 of  28)      27685 seconds
    (i =  14 of  28)      30084 seconds
    (i =  15 of  28)      32086 seconds
    (i =  16 of  28)      34073 seconds
    (i =  17 of  28)      36299 seconds
    (i =  18 of  28)      38638 seconds
    (i =  19 of  28)      40708 seconds
    (i =  20 of  28)      42669 seconds
    (i =  21 of  28)      44932 seconds
    (i =  22 of  28)      47064 seconds
    (i =  23 of  28)      49057 seconds
    (i =  24 of  28)      51068 seconds
    (i =  25 of  28)      53399 seconds
    (i =  26 of  28)      55556 seconds
    (i =  27 of  28)      57518 seconds
    (i =  28 of  28)      59550 seconds

    Disp202 (T)         =    -0.002097783945 [Eh]

    Disp22 (T)          =    -0.004254861331 [Eh]

    Est. Disp220 (T)    =    -0.002316820808 [Eh]
    Est. Disp202 (T)    =    -0.002253136362 [Eh]

    Est. Disp22 (T)     =    -0.004569957170 [Eh]
    Elst13,r            =    -0.000442000949 [Eh]
    Disp30              =     0.000390132909 [Eh]

    SAPT Results 
  --------------------------------------------------------------------------------------------------------
    Electrostatics                 -7.54755434 [mEh]      -4.73616185 [kcal/mol]     -19.81610118 [kJ/mol]
      Elst10,r                     -8.98305949 [mEh]      -5.63695494 [kcal/mol]     -23.58501945 [kJ/mol]
      Elst12,r                      1.87750610 [mEh]       1.17815287 [kcal/mol]       4.92939160 [kJ/mol]
      Elst13,r                     -0.44200095 [mEh]      -0.27735978 [kcal/mol]      -1.16047333 [kJ/mol]

    Exchange                       11.92333399 [mEh]       7.48200504 [kcal/mol]      31.30470907 [kJ/mol]
      Exch10                       10.79198416 [mEh]       6.77207230 [kcal/mol]      28.33435051 [kJ/mol]
      Exch10(S^2)                  10.77985571 [mEh]       6.76446158 [kcal/mol]      28.30250726 [kJ/mol]
      Exch11(S^2)                   0.25962276 [mEh]       0.16291574 [kcal/mol]       0.68163945 [kJ/mol]
      Exch12(S^2)                   0.87172707 [mEh]       0.54701700 [kcal/mol]       2.28871911 [kJ/mol]

    Induction                      -2.59354650 [mEh]      -1.62747500 [kcal/mol]      -6.80935541 [kJ/mol]
      Ind20,r                      -7.01952778 [mEh]      -4.40482019 [kcal/mol]     -18.42976766 [kJ/mol]
      Ind22                        -0.00290401 [mEh]      -0.00182230 [kcal/mol]      -0.00762448 [kJ/mol]
      Exch-Ind20,r                  4.42634714 [mEh]       2.77757476 [kcal/mol]      11.62137281 [kJ/mol]
      Exch-Ind22                    0.00183120 [mEh]       0.00114910 [kcal/mol]       0.00480782 [kJ/mol]
      delta HF,r (2)               -0.72353741 [mEh]      -0.45402658 [kcal/mol]      -1.89964720 [kJ/mol]
      delta MP2,r (2)               0.72424436 [mEh]       0.45447020 [kcal/mol]       1.90150331 [kJ/mol]

    Dispersion                    -15.92278398 [mEh]      -9.99169780 [kcal/mol]     -41.80526359 [kJ/mol]
      Disp20                      -18.21197844 [mEh]     -11.42818901 [kcal/mol]     -47.81554281 [kJ/mol]
      Disp30                        0.39013291 [mEh]       0.24481210 [kcal/mol]       1.02429381 [kJ/mol]
      Disp21                        5.71771696 [mEh]       3.58792156 [kcal/mol]      15.01186380 [kJ/mol]
      Disp22 (SDQ)                 -1.02910545 [mEh]      -0.64577342 [kcal/mol]      -2.70191600 [kJ/mol]
      Disp22 (T)                   -4.25486133 [mEh]      -2.66996579 [kcal/mol]     -11.17113689 [kJ/mol]
      Est. Disp22 (T)              -4.56995717 [mEh]      -2.86769142 [kcal/mol]     -11.99842090 [kJ/mol]
      Exch-Disp20                   1.78040722 [mEh]       1.11722240 [kcal/mol]       4.67445851 [kJ/mol]

  Total HF                         -1.50779339 [mEh]      -0.94615463 [kcal/mol]      -3.95871099 [kJ/mol]
  Total SAPT0                     -17.93936461 [mEh]     -11.25712125 [kcal/mol]     -47.09979529 [kJ/mol]
  Total SAPT2                     -14.93158149 [mEh]      -9.36970884 [kcal/mol]     -39.20286180 [kJ/mol]
  Total SAPT2+                    -14.81292716 [mEh]      -9.29525213 [kcal/mol]     -38.89133489 [kJ/mol]
  Total SAPT2+(3)                 -14.86479520 [mEh]      -9.32779981 [kcal/mol]     -39.02751441 [kJ/mol]
  Total SAPT2+dMP2                -14.08868280 [mEh]      -8.84078193 [kcal/mol]     -36.98983159 [kJ/mol]
  Total SAPT2+(3)dMP2             -14.14055084 [mEh]      -8.87332961 [kcal/mol]     -37.12601111 [kJ/mol]

  Special recipe for scaled SAPT0 (see Manual):
    Electrostatics sSAPT0          -8.98305949 [mEh]      -5.63695494 [kcal/mol]     -23.58501945 [kJ/mol]
    Exchange sSAPT0                10.79198416 [mEh]       6.77207230 [kcal/mol]      28.33435051 [kJ/mol]
    Induction sSAPT0               -3.30176094 [mEh]      -2.07188627 [kcal/mol]      -8.66877216 [kJ/mol]
    Dispersion sSAPT0             -16.42555503 [mEh]     -10.30719140 [kcal/mol]     -43.12528880 [kJ/mol]
  Total sSAPT0                    -17.91839131 [mEh]     -11.24396030 [kcal/mol]     -47.04472990 [kJ/mol]
  --------------------------------------------------------------------------------------------------------

*** tstop() called on node150.bme.utexas.edu at Sat Jan 27 12:04:45 2024
Module time:
	user time   = 1008373.75 seconds =   16806.23 minutes
	system time =    2962.78 seconds =      49.38 minutes
	total time  =     177423 seconds =    2957.05 minutes
Total time:
	user time   = 1012198.47 seconds =   16869.97 minutes
	system time =    3041.07 seconds =      50.68 minutes
	total time  =     178087 seconds =    2968.12 minutes

    Psi4 stopped on: Saturday, 27 January 2024 12:04PM
    Psi4 wall time for execution: 2 days, 1:28:07.18

*** Psi4 exiting successfully. Buy a developer a beer!
