
    -----------------------------------------------------------------------
          Psi4: An Open-Source Ab Initio Electronic Structure Package
                               Psi4 1.5 release

                         Git: Rev {HEAD} e9f4d6d 


    D. G. A. Smith, L. A. Burns, A. C. Simmonett, R. M. Parrish,
    M. C. Schieber, R. Galvelis, P. Kraus, H. Kruse, R. Di Remigio,
    A. Alenaizan, A. M. James, S. Lehtola, J. P. Misiewicz, M. Scheurer,
    R. A. Shaw, J. B. Schriber, Y. Xie, Z. L. Glick, D. A. Sirianni,
    J. S. O'Brien, J. M. Waldrop, A. Kumar, E. G. Hohenstein,
    B. P. Pritchard, B. R. Brooks, H. F. Schaefer III, A. Yu. Sokolov,
    K. Patkowski, A. E. DePrince III, U. Bozkaya, R. A. King,
    F. A. Evangelista, J. M. Turney, T. D. Crawford, C. D. Sherrill,
    J. Chem. Phys. 152(18) 184108 (2020). https://doi.org/10.1063/5.0006002

                            Additional Code Authors
    E. T. Seidl, C. L. Janssen, E. F. Valeev, M. L. Leininger,
    J. F. Gonthier, R. M. Richard, H. R. McAlexander, M. Saitow, X. Wang,
    P. Verma, M. H. Lechner, and A. Jiang

             Previous Authors, Complete List of Code Contributors,
                       and Citations for Specific Modules
    https://github.com/psi4/psi4/blob/master/codemeta.json
    https://github.com/psi4/psi4/graphs/contributors
    http://psicode.org/psi4manual/master/introduction.html#citing-psifour

    -----------------------------------------------------------------------


    Psi4 started on: Sunday, 12 May 2024 11:37PM

    Process ID: 2747156
    Host:       node153.bme.utexas.edu
    PSIDATADIR: /opt/anaconda/envs/psi4v1.5/share/psi4
    Memory:     500.0 MiB
    Threads:    8
    
  ==> Input File <==

--------------------------------------------------------------------------
memory 90GB

molecule {
0 1
N -0.892798 0.641213 -0.000177
C -2.178983 1.129399 -0.000138
N -2.468274 2.425461 -7.7e-05
C -1.363696 3.200471 -5.8e-05
C -0.014974 2.816806 -9.2e-05
C 0.279491 1.416691 -0.000154
N 0.8152 3.928228 -5.6e-05
C -0.0 4.951862 0.0
N -1.336777 4.573395 -0.0
H -0.745051 -0.38547 -0.000222
N -3.173589 0.213779 -0.000162
H -2.999709 -0.796316 -0.000206
H -4.117404 0.565463 -0.000136
O 1.38905 0.85623 -0.000185
H 0.294954 5.996323 3.7e-05
H -2.147795 5.175782 3.4e-05
--
0 1
N -0.866658 -0.911963 3.469297
C -1.531243 -2.110171 3.345924
N -0.920886 -3.289375 3.366161
C 0.414825 -3.176192 3.520426
C 1.193877 -2.018081 3.654986
C 0.520803 -0.755768 3.631111
N 2.53657 -2.338644 3.792327
C 2.572825 -3.645791 3.743024
N 1.31468 -4.211798 3.578963
H -1.412018 -0.029999 3.444204
N -2.873459 -2.045085 3.198204
H -3.388337 -1.159103 3.176689
H -3.365335 -2.919318 3.107408
O 1.004888 0.384732 3.731899
H 3.46595 -4.257826 3.818102
H 1.084291 -5.193226 3.513087
 units angstrom
 no_reorient
 symmetry c1}
set  {scf_type DF
 basis jun-cc-pvdz
 freeze_core True
 guess SAD}
energy('sapt2+(3)dmp2')
--------------------------------------------------------------------------

  Memory set to  83.819 GiB by Python driver.

Scratch directory: /tmp/
   => Loading Basis Set <=

    Name: JUN-CC-PVDZ
    Role: ORBITAL
    Keyword: BASIS
    atoms 1, 3, 7, 9, 11, 17, 19, 23, 25, 27 entry N          line   198 file /opt/anaconda/envs/psi4v1.5/share/psi4/basis/jun-cc-pvdz.gbs 
    atoms 2, 4-6, 8, 18, 20-22, 24           entry C          line   164 file /opt/anaconda/envs/psi4v1.5/share/psi4/basis/jun-cc-pvdz.gbs 
    atoms 10, 12-13, 15-16, 26, 28-29, 31-32 entry H          line    36 file /opt/anaconda/envs/psi4v1.5/share/psi4/basis/jun-cc-pvdz.gbs 
    atoms 14, 30                             entry O          line   232 file /opt/anaconda/envs/psi4v1.5/share/psi4/basis/jun-cc-pvdz.gbs 

   => Loading Basis Set <=

    Name: JUN-CC-PVDZ
    Role: ORBITAL
    Keyword: BASIS
    atoms 1, 3, 7, 9, 11, 17, 19, 23, 25, 27 entry N          line   198 file /opt/anaconda/envs/psi4v1.5/share/psi4/basis/jun-cc-pvdz.gbs 
    atoms 2, 4-6, 8, 18, 20-22, 24           entry C          line   164 file /opt/anaconda/envs/psi4v1.5/share/psi4/basis/jun-cc-pvdz.gbs 
    atoms 10, 12-13, 15-16, 26, 28-29, 31-32 entry H          line    36 file /opt/anaconda/envs/psi4v1.5/share/psi4/basis/jun-cc-pvdz.gbs 
    atoms 14, 30                             entry O          line   232 file /opt/anaconda/envs/psi4v1.5/share/psi4/basis/jun-cc-pvdz.gbs 


  //>>>>>>>>>>>>>>>>>>>>>>>>>>>>>>>>>>>//
  //              Dimer HF             //
  //<<<<<<<<<<<<<<<<<<<<<<<<<<<<<<<<<<<//


*** tstart() called on node153.bme.utexas.edu
*** at Sun May 12 23:37:10 2024

   => Loading Basis Set <=

    Name: JUN-CC-PVDZ
    Role: ORBITAL
    Keyword: BASIS
    atoms 1, 3, 7, 9, 11, 17, 19, 23, 25, 27 entry N          line   198 file /opt/anaconda/envs/psi4v1.5/share/psi4/basis/jun-cc-pvdz.gbs 
    atoms 2, 4-6, 8, 18, 20-22, 24           entry C          line   164 file /opt/anaconda/envs/psi4v1.5/share/psi4/basis/jun-cc-pvdz.gbs 
    atoms 10, 12-13, 15-16, 26, 28-29, 31-32 entry H          line    36 file /opt/anaconda/envs/psi4v1.5/share/psi4/basis/jun-cc-pvdz.gbs 
    atoms 14, 30                             entry O          line   232 file /opt/anaconda/envs/psi4v1.5/share/psi4/basis/jun-cc-pvdz.gbs 


         ---------------------------------------------------------
                                   SCF
               by Justin Turney, Rob Parrish, Andy Simmonett
                          and Daniel G. A. Smith
                              RHF Reference
                        8 Threads,  85830 MiB Core
         ---------------------------------------------------------

  ==> Geometry <==

    Molecular point group: c1
    Full point group: C1

    Geometry (in Angstrom), charge = 0, multiplicity = 1:

       Center              X                  Y                   Z               Mass       
    ------------   -----------------  -----------------  -----------------  -----------------
         N           -0.606213346932     0.560701484493    -1.772237881149    14.003074004430
         C           -1.892398346932     1.048887484493    -1.772198881149    12.000000000000
         N           -2.181689346932     2.344949484493    -1.772137881149    14.003074004430
         C           -1.077111346932     3.119959484493    -1.772118881149    12.000000000000
         C            0.271610653068     2.736294484493    -1.772152881149    12.000000000000
         C            0.566075653068     1.336179484493    -1.772214881149    12.000000000000
         N            1.101784653068     3.847716484493    -1.772116881149    14.003074004430
         C            0.286584653068     4.871350484493    -1.772060881149    12.000000000000
         N           -1.050192346932     4.492883484493    -1.772060881149    14.003074004430
         H           -0.458466346932    -0.465981515507    -1.772282881149     1.007825032230
         N           -2.887004346932     0.133267484493    -1.772222881149    14.003074004430
         H           -2.713124346932    -0.876827515507    -1.772266881149     1.007825032230
         H           -3.830819346932     0.484951484493    -1.772196881149     1.007825032230
         O            1.675634653068     0.775718484493    -1.772245881149    15.994914619570
         H            0.581538653068     5.915811484493    -1.772023881149     1.007825032230
         H           -1.861210346932     5.095270484493    -1.772026881149     1.007825032230
         N           -0.580073346932    -0.992474515507     1.697236118851    14.003074004430
         C           -1.244658346932    -2.190682515507     1.573863118851    12.000000000000
         N           -0.634301346932    -3.369886515507     1.594100118851    14.003074004430
         C            0.701409653068    -3.256703515507     1.748365118851    12.000000000000
         C            1.480461653068    -2.098592515507     1.882925118851    12.000000000000
         C            0.807387653068    -0.836279515507     1.859050118851    12.000000000000
         N            2.823154653068    -2.419155515507     2.020266118851    14.003074004430
         C            2.859409653068    -3.726302515507     1.970963118851    12.000000000000
         N            1.601264653068    -4.292309515507     1.806902118851    14.003074004430
         H           -1.125433346932    -0.110510515507     1.672143118851     1.007825032230
         N           -2.586874346932    -2.125596515507     1.426143118851    14.003074004430
         H           -3.101752346932    -1.239614515507     1.404628118851     1.007825032230
         H           -3.078750346932    -2.999829515507     1.335347118851     1.007825032230
         O            1.291472653068     0.304220484493     1.959838118851    15.994914619570
         H            3.752534653068    -4.338337515507     2.046041118851     1.007825032230
         H            1.370875653068    -5.273737515507     1.741026118851     1.007825032230

  Running in c1 symmetry.

  Rotational constants: A =      0.01764  B =      0.00518  C =      0.00445 [cm^-1]
  Rotational constants: A =    528.88030  B =    155.39221  C =    133.39982 [MHz]
  Nuclear repulsion = 1721.435098557516540

  Charge       = 0
  Multiplicity = 1
  Electrons    = 156
  Nalpha       = 78
  Nbeta        = 78

  ==> Algorithm <==

  SCF Algorithm Type is DF.
  DIIS enabled.
  MOM disabled.
  Fractional occupation disabled.
  Guess Type is SAD.
  Energy threshold   = 1.00e-08
  Density threshold  = 1.00e-08
  Integral threshold = 1.00e-12

  ==> Primary Basis <==

  Basis Set: JUN-CC-PVDZ
    Blend: JUN-CC-PVDZ
    Number of shells: 206
    Number of basis functions: 446
    Number of Cartesian functions: 468
    Spherical Harmonics?: true
    Max angular momentum: 2

   => Loading Basis Set <=

    Name: (JUN-CC-PVDZ AUX)
    Role: JKFIT
    Keyword: DF_BASIS_SCF
    atoms 1, 3, 7, 9, 11, 17, 19, 23, 25, 27 entry N          line   202 file /opt/anaconda/envs/psi4v1.5/share/psi4/basis/jun-cc-pvdz-jkfit.gbs 
    atoms 2, 4-6, 8, 18, 20-22, 24           entry C          line   146 file /opt/anaconda/envs/psi4v1.5/share/psi4/basis/jun-cc-pvdz-jkfit.gbs 
    atoms 10, 12-13, 15-16, 26, 28-29, 31-32 entry H          line    70 file /opt/anaconda/envs/psi4v1.5/share/psi4/basis/jun-cc-pvdz-jkfit.gbs 
    atoms 14, 30                             entry O          line   258 file /opt/anaconda/envs/psi4v1.5/share/psi4/basis/jun-cc-pvdz-jkfit.gbs 

  ==> Integral Setup <==

  ==> DiskDFJK: Density-Fitted J/K Matrices <==

    J tasked:                  Yes
    K tasked:                  Yes
    wK tasked:                  No
    OpenMP threads:              8
    Integrals threads:           8
    Memory [MiB]:            64373
    Algorithm:                Core
    Integral Cache:           SAVE
    Schwarz Cutoff:          1E-12
    Fitting Condition:       1E-10

   => Auxiliary Basis Set <=

  Basis Set: (JUN-CC-PVDZ AUX)
    Blend: JUN-CC-PVDZ-JKFIT
    Number of shells: 684
    Number of basis functions: 1968
    Number of Cartesian functions: 2252
    Spherical Harmonics?: true
    Max angular momentum: 3

  Minimum eigenvalue in the overlap matrix is 8.7098471429E-06.
  Reciprocal condition number of the overlap matrix is 6.2722586561E-07.
    Using symmetric orthogonalization.

  ==> Pre-Iterations <==

  SCF Guess: Superposition of Atomic Densities via on-the-fly atomic UHF (no occupation information).

   -------------------------
    Irrep   Nso     Nmo    
   -------------------------
     A        446     446 
   -------------------------
    Total     446     446
   -------------------------

  ==> Iterations <==

                           Total Energy        Delta E     RMS |[F,P]|

   @DF-RHF iter SAD: -1078.47853968483605   -1.07848e+03   0.00000e+00 
   @DF-RHF iter   1: -1078.25889432401027    2.19645e-01   2.45446e-03 DIIS
   @DF-RHF iter   2: -1078.70455110175430   -4.45657e-01   1.51972e-03 DIIS
   @DF-RHF iter   3: -1078.88627146810745   -1.81720e-01   3.18261e-04 DIIS
   @DF-RHF iter   4: -1078.89719272101024   -1.09213e-02   1.19136e-04 DIIS
   @DF-RHF iter   5: -1078.89902450100726   -1.83178e-03   2.69714e-05 DIIS
   @DF-RHF iter   6: -1078.89921810283909   -1.93602e-04   1.43841e-05 DIIS
   @DF-RHF iter   7: -1078.89927599485509   -5.78920e-05   5.80293e-06 DIIS
   @DF-RHF iter   8: -1078.89928587943064   -9.88458e-06   1.99070e-06 DIIS
   @DF-RHF iter   9: -1078.89928694404853   -1.06462e-06   7.49620e-07 DIIS
   @DF-RHF iter  10: -1078.89928713119434   -1.87146e-07   3.20473e-07 DIIS
   @DF-RHF iter  11: -1078.89928715839164   -2.71973e-08   1.26478e-07 DIIS
   @DF-RHF iter  12: -1078.89928716218151   -3.78986e-09   4.21672e-08 DIIS
   @DF-RHF iter  13: -1078.89928716263967   -4.58158e-10   1.79304e-08 DIIS
   @DF-RHF iter  14: -1078.89928716271220   -7.25322e-11   5.95489e-09 DIIS
  Energy and wave function converged.


  ==> Post-Iterations <==

    Orbital Energies [Eh]
    ---------------------

    Doubly Occupied:                                                      

       1A    -20.518628     2A    -20.515202     3A    -15.648047  
       4A    -15.644713     5A    -15.639461     6A    -15.637932  
       7A    -15.635326     8A    -15.633127     9A    -15.580038  
      10A    -15.577556    11A    -15.565922    12A    -15.563920  
      13A    -11.418499    14A    -11.416011    15A    -11.367958  
      16A    -11.364718    17A    -11.331993    18A    -11.329275  
      19A    -11.314776    20A    -11.312658    21A    -11.249627  
      22A    -11.246884    23A     -1.394535    24A     -1.391480  
      25A     -1.352869    26A     -1.350140    27A     -1.339364  
      28A     -1.336692    29A     -1.236799    30A     -1.234546  
      31A     -1.224230    32A     -1.221354    33A     -1.175857  
      34A     -1.173574    35A     -1.032799    36A     -1.030178  
      37A     -0.909149    38A     -0.906427    39A     -0.900905  
      40A     -0.898350    41A     -0.837979    42A     -0.835731  
      43A     -0.810418    44A     -0.807983    45A     -0.751523  
      46A     -0.749185    47A     -0.744453    48A     -0.741852  
      49A     -0.717258    50A     -0.715232    51A     -0.672243  
      52A     -0.669601    53A     -0.663149    54A     -0.657888  
      55A     -0.638341    56A     -0.635898    57A     -0.603858  
      58A     -0.601430    59A     -0.600036    60A     -0.596687  
      61A     -0.595145    62A     -0.592190    63A     -0.548300  
      64A     -0.540497    65A     -0.496418    66A     -0.494161  
      67A     -0.460891    68A     -0.456241    69A     -0.434060  
      70A     -0.431836    71A     -0.431369    72A     -0.424357  
      73A     -0.421883    74A     -0.418958    75A     -0.404739  
      76A     -0.402278    77A     -0.295312    78A     -0.292545  

    Virtual:                                                              

      79A      0.024873    80A      0.046587    81A      0.050391  
      82A      0.052525    83A      0.060984    84A      0.070788  
      85A      0.077877    86A      0.083912    87A      0.085873  
      88A      0.092463    89A      0.101932    90A      0.102838  
      91A      0.106565    92A      0.112201    93A      0.114151  
      94A      0.117948    95A      0.121727    96A      0.124048  
      97A      0.131967    98A      0.133613    99A      0.137518  
     100A      0.144369   101A      0.145519   102A      0.150715  
     103A      0.153179   104A      0.154674   105A      0.162492  
     106A      0.164933   107A      0.169829   108A      0.178362  
     109A      0.178475   110A      0.183123   111A      0.186733  
     112A      0.194111   113A      0.196591   114A      0.203025  
     115A      0.205340   116A      0.207705   117A      0.209664  
     118A      0.212909   119A      0.214098   120A      0.226870  
     121A      0.229828   122A      0.231178   123A      0.234513  
     124A      0.237091   125A      0.243694   126A      0.249524  
     127A      0.251863   128A      0.258640   129A      0.260650  
     130A      0.263532   131A      0.265729   132A      0.273636  
     133A      0.276875   134A      0.278610   135A      0.282507  
     136A      0.287763   137A      0.289366   138A      0.291668  
     139A      0.296020   140A      0.296699   141A      0.302065  
     142A      0.305980   143A      0.308712   144A      0.315464  
     145A      0.320665   146A      0.322460   147A      0.323309  
     148A      0.326152   149A      0.330350   150A      0.334311  
     151A      0.343084   152A      0.345691   153A      0.354161  
     154A      0.356678   155A      0.359886   156A      0.362383  
     157A      0.365937   158A      0.367400   159A      0.368935  
     160A      0.378466   161A      0.381915   162A      0.385592  
     163A      0.394265   164A      0.397585   165A      0.402686  
     166A      0.404260   167A      0.407385   168A      0.417158  
     169A      0.421073   170A      0.425491   171A      0.430341  
     172A      0.435021   173A      0.439197   174A      0.443356  
     175A      0.444934   176A      0.447814   177A      0.449081  
     178A      0.452854   179A      0.458674   180A      0.466948  
     181A      0.474579   182A      0.482710   183A      0.493893  
     184A      0.500117   185A      0.505900   186A      0.512416  
     187A      0.514152   188A      0.524250   189A      0.526771  
     190A      0.539241   191A      0.540709   192A      0.547658  
     193A      0.583933   194A      0.586960   195A      0.613704  
     196A      0.616158   197A      0.621437   198A      0.626814  
     199A      0.634301   200A      0.641756   201A      0.678817  
     202A      0.681840   203A      0.735157   204A      0.748391  
     205A      0.779879   206A      0.789220   207A      0.815202  
     208A      0.818031   209A      0.835115   210A      0.843070  
     211A      0.865514   212A      0.869093   213A      0.875243  
     214A      0.880682   215A      0.881406   216A      0.884296  
     217A      0.886980   218A      0.893258   219A      0.901668  
     220A      0.906137   221A      0.915832   222A      0.950985  
     223A      0.954797   224A      0.958937   225A      0.966138  
     226A      0.970921   227A      0.972660   228A      0.988755  
     229A      0.995990   230A      1.006642   231A      1.017199  
     232A      1.023464   233A      1.040751   234A      1.052672  
     235A      1.059390   236A      1.063983   237A      1.067644  
     238A      1.072011   239A      1.081692   240A      1.084631  
     241A      1.090674   242A      1.097511   243A      1.102892  
     244A      1.108743   245A      1.117058   246A      1.126983  
     247A      1.134209   248A      1.145450   249A      1.150816  
     250A      1.157721   251A      1.165879   252A      1.169339  
     253A      1.180770   254A      1.192129   255A      1.194503  
     256A      1.199179   257A      1.211796   258A      1.213676  
     259A      1.217170   260A      1.223868   261A      1.228493  
     262A      1.251413   263A      1.253382   264A      1.255545  
     265A      1.259972   266A      1.265989   267A      1.275057  
     268A      1.278985   269A      1.284254   270A      1.290140  
     271A      1.300036   272A      1.307682   273A      1.310880  
     274A      1.313508   275A      1.323928   276A      1.327406  
     277A      1.327768   278A      1.336750   279A      1.338540  
     280A      1.346066   281A      1.355092   282A      1.355917  
     283A      1.370549   284A      1.373455   285A      1.377127  
     286A      1.379436   287A      1.394773   288A      1.403121  
     289A      1.416749   290A      1.420961   291A      1.426689  
     292A      1.436218   293A      1.448121   294A      1.464228  
     295A      1.488523   296A      1.490826   297A      1.497061  
     298A      1.502948   299A      1.520897   300A      1.523280  
     301A      1.532233   302A      1.535486   303A      1.587514  
     304A      1.595265   305A      1.604919   306A      1.608045  
     307A      1.615396   308A      1.635431   309A      1.648430  
     310A      1.663528   311A      1.696186   312A      1.701066  
     313A      1.739241   314A      1.743990   315A      1.779122  
     316A      1.786662   317A      1.792107   318A      1.812668  
     319A      1.815443   320A      1.834764   321A      1.841034  
     322A      1.848979   323A      1.855773   324A      1.864509  
     325A      1.869800   326A      1.877441   327A      1.885838  
     328A      1.889877   329A      1.900064   330A      1.904037  
     331A      1.918600   332A      1.921741   333A      1.939496  
     334A      1.949298   335A      1.956749   336A      1.958376  
     337A      1.970896   338A      1.974357   339A      2.017687  
     340A      2.021173   341A      2.022007   342A      2.025129  
     343A      2.064858   344A      2.067911   345A      2.074659  
     346A      2.075616   347A      2.082164   348A      2.091359  
     349A      2.104112   350A      2.114349   351A      2.146753  
     352A      2.160747   353A      2.168261   354A      2.174347  
     355A      2.206833   356A      2.211582   357A      2.233287  
     358A      2.236378   359A      2.251251   360A      2.262208  
     361A      2.276440   362A      2.288039   363A      2.316611  
     364A      2.321665   365A      2.323181   366A      2.325788  
     367A      2.347767   368A      2.356580   369A      2.372584  
     370A      2.377482   371A      2.400876   372A      2.404584  
     373A      2.430106   374A      2.440482   375A      2.456864  
     376A      2.460659   377A      2.472520   378A      2.472778  
     379A      2.477695   380A      2.484032   381A      2.541038  
     382A      2.552045   383A      2.561238   384A      2.570621  
     385A      2.610612   386A      2.635616   387A      2.639591  
     388A      2.641703   389A      2.675390   390A      2.686436  
     391A      2.708949   392A      2.711764   393A      2.722131  
     394A      2.724350   395A      2.731193   396A      2.734835  
     397A      2.755752   398A      2.757221   399A      2.831469  
     400A      2.835856   401A      2.863371   402A      2.865680  
     403A      2.890640   404A      2.893764   405A      2.930415  
     406A      2.933365   407A      2.947062   408A      2.952937  
     409A      2.973146   410A      2.975437   411A      3.030152  
     412A      3.041886   413A      3.063456   414A      3.067600  
     415A      3.086443   416A      3.092734   417A      3.103609  
     418A      3.105242   419A      3.124553   420A      3.129883  
     421A      3.151290   422A      3.159705   423A      3.200048  
     424A      3.204217   425A      3.243814   426A      3.246425  
     427A      3.280710   428A      3.285301   429A      3.301819  
     430A      3.313319   431A      3.363616   432A      3.368216  
     433A      3.402901   434A      3.410177   435A      3.506681  
     436A      3.511398   437A      3.687521   438A      3.692124  
     439A      3.748596   440A      3.753613   441A      3.810780  
     442A      3.813422   443A      3.851177   444A      3.854215  
     445A      4.080050   446A      4.083417  

    Final Occupation by Irrep:
              A 
    DOCC [    78 ]

  @DF-RHF Final Energy: -1078.89928716271220

   => Energetics <=

    Nuclear Repulsion Energy =           1721.4350985575165396
    One-Electron Energy =               -4893.0418864914026926
    Two-Electron Energy =                2092.7075007711737271
    Total Energy =                      -1078.8992871627124259

Computation Completed


Properties will be evaluated at   0.000000,   0.000000,   0.000000 [a0]

Properties computed using the SCF density matrix

  Nuclear Dipole Moment: [e a0]
     X:    -9.7815      Y:    -3.5602      Z:    -0.6184

  Electronic Dipole Moment: [e a0]
     X:     4.6546      Y:     1.6669      Z:     0.3226

  Dipole Moment: [e a0]
     X:    -5.1269      Y:    -1.8933      Z:    -0.2959     Total:     5.4733

  Dipole Moment: [D]
     X:   -13.0312      Y:    -4.8123      Z:    -0.7520     Total:    13.9117


*** tstop() called on node153.bme.utexas.edu at Sun May 12 23:37:38 2024
Module time:
	user time   =     185.56 seconds =       3.09 minutes
	system time =       6.03 seconds =       0.10 minutes
	total time  =         28 seconds =       0.47 minutes
Total time:
	user time   =     185.56 seconds =       3.09 minutes
	system time =       6.03 seconds =       0.10 minutes
	total time  =         28 seconds =       0.47 minutes

*** tstart() called on node153.bme.utexas.edu
*** at Sun May 12 23:37:38 2024


  //>>>>>>>>>>>>>>>>>>>>>>>>>>>>>>>>>>>//
  //               DFMP2               //
  //<<<<<<<<<<<<<<<<<<<<<<<<<<<<<<<<<<<//

   => Loading Basis Set <=

    Name: (JUN-CC-PVDZ AUX)
    Role: RIFIT
    Keyword: DF_BASIS_MP2
    atoms 1, 3, 7, 9, 11, 17, 19, 23, 25, 27 entry N          line   144 file /opt/anaconda/envs/psi4v1.5/share/psi4/basis/jun-cc-pvdz-ri.gbs 
    atoms 2, 4-6, 8, 18, 20-22, 24           entry C          line   100 file /opt/anaconda/envs/psi4v1.5/share/psi4/basis/jun-cc-pvdz-ri.gbs 
    atoms 10, 12-13, 15-16, 26, 28-29, 31-32 entry H          line    30 file /opt/anaconda/envs/psi4v1.5/share/psi4/basis/jun-cc-pvdz-ri.gbs 
    atoms 14, 30                             entry O          line   188 file /opt/anaconda/envs/psi4v1.5/share/psi4/basis/jun-cc-pvdz-ri.gbs 

	 --------------------------------------------------------
	                          DF-MP2                         
	      2nd-Order Density-Fitted Moller-Plesset Theory     
	              RMP2 Wavefunction,   8 Threads             
	                                                         
	        Rob Parrish, Justin Turney, Andy Simmonett,      
	           Ed Hohenstein, and C. David Sherrill          
	 --------------------------------------------------------

   => Auxiliary Basis Set <=

  Basis Set: (JUN-CC-PVDZ AUX)
    Blend: JUN-CC-PVDZ-RI
    Number of shells: 522
    Number of basis functions: 1570
    Number of Cartesian functions: 1822
    Spherical Harmonics?: true
    Max angular momentum: 3

	 --------------------------------------------------------
	                 NBF =   446, NAUX =  1570
	 --------------------------------------------------------
	   CLASS    FOCC     OCC    AOCC    AVIR     VIR    FVIR
	   PAIRS      22      78      56     368     368       0
	 --------------------------------------------------------

	 Will save fitting metric to file 97.

	-----------------------------------------------------------
	 ==================> DF-MP2 Energies <==================== 
	-----------------------------------------------------------
	 Reference Energy          =   -1078.8992871627121986 [Eh]
	 Singles Energy            =      -0.0000000000000000 [Eh]
	 Same-Spin Energy          =      -0.9240339506191215 [Eh]
	 Opposite-Spin Energy      =      -2.3737865296120280 [Eh]
	 Correlation Energy        =      -3.2978204802311497 [Eh]
	 Total Energy              =   -1082.1971076429433651 [Eh]
	-----------------------------------------------------------
	 ================> DF-SCS-MP2 Energies <================== 
	-----------------------------------------------------------
	 SCS Same-Spin Scale       =       0.3333333333333333 [-]
	 SCS Opposite-Spin Scale   =       1.2000000000000000 [-]
	 SCS Same-Spin Energy      =      -0.3080113168730405 [Eh]
	 SCS Opposite-Spin Energy  =      -2.8485438355344335 [Eh]
	 SCS Correlation Energy    =      -3.1565551524074742 [Eh]
	 SCS Total Energy          =   -1082.0558423151196621 [Eh]
	-----------------------------------------------------------


*** tstop() called on node153.bme.utexas.edu at Sun May 12 23:37:48 2024
Module time:
	user time   =      49.62 seconds =       0.83 minutes
	system time =       2.21 seconds =       0.04 minutes
	total time  =         10 seconds =       0.17 minutes
Total time:
	user time   =     235.19 seconds =       3.92 minutes
	system time =       8.24 seconds =       0.14 minutes
	total time  =         38 seconds =       0.63 minutes

  //>>>>>>>>>>>>>>>>>>>>>>>>>>>>>>>>>>>//
  //            Monomer A HF           //
  //<<<<<<<<<<<<<<<<<<<<<<<<<<<<<<<<<<<//


*** tstart() called on node153.bme.utexas.edu
*** at Sun May 12 23:37:48 2024

   => Loading Basis Set <=

    Name: JUN-CC-PVDZ
    Role: ORBITAL
    Keyword: BASIS
    atoms 1, 3, 7, 9, 11, 17, 19, 23, 25, 27 entry N          line   198 file /opt/anaconda/envs/psi4v1.5/share/psi4/basis/jun-cc-pvdz.gbs 
    atoms 2, 4-6, 8, 18, 20-22, 24           entry C          line   164 file /opt/anaconda/envs/psi4v1.5/share/psi4/basis/jun-cc-pvdz.gbs 
    atoms 10, 12-13, 15-16, 26, 28-29, 31-32 entry H          line    36 file /opt/anaconda/envs/psi4v1.5/share/psi4/basis/jun-cc-pvdz.gbs 
    atoms 14, 30                             entry O          line   232 file /opt/anaconda/envs/psi4v1.5/share/psi4/basis/jun-cc-pvdz.gbs 


         ---------------------------------------------------------
                                   SCF
               by Justin Turney, Rob Parrish, Andy Simmonett
                          and Daniel G. A. Smith
                              RHF Reference
                        8 Threads,  85830 MiB Core
         ---------------------------------------------------------

  ==> Geometry <==

    Molecular point group: c1
    Full point group: C1

    Geometry (in Angstrom), charge = 0, multiplicity = 1:

       Center              X                  Y                   Z               Mass       
    ------------   -----------------  -----------------  -----------------  -----------------
         N           -0.606213346932     0.560701484493    -1.772237881149    14.003074004430
         C           -1.892398346932     1.048887484493    -1.772198881149    12.000000000000
         N           -2.181689346932     2.344949484493    -1.772137881149    14.003074004430
         C           -1.077111346932     3.119959484493    -1.772118881149    12.000000000000
         C            0.271610653068     2.736294484493    -1.772152881149    12.000000000000
         C            0.566075653068     1.336179484493    -1.772214881149    12.000000000000
         N            1.101784653068     3.847716484493    -1.772116881149    14.003074004430
         C            0.286584653068     4.871350484493    -1.772060881149    12.000000000000
         N           -1.050192346932     4.492883484493    -1.772060881149    14.003074004430
         H           -0.458466346932    -0.465981515507    -1.772282881149     1.007825032230
         N           -2.887004346932     0.133267484493    -1.772222881149    14.003074004430
         H           -2.713124346932    -0.876827515507    -1.772266881149     1.007825032230
         H           -3.830819346932     0.484951484493    -1.772196881149     1.007825032230
         O            1.675634653068     0.775718484493    -1.772245881149    15.994914619570
         H            0.581538653068     5.915811484493    -1.772023881149     1.007825032230
         H           -1.861210346932     5.095270484493    -1.772026881149     1.007825032230
      Gh(N)          -0.580073346932    -0.992474515507     1.697236118851    14.003074004430
      Gh(C)          -1.244658346932    -2.190682515507     1.573863118851    12.000000000000
      Gh(N)          -0.634301346932    -3.369886515507     1.594100118851    14.003074004430
      Gh(C)           0.701409653068    -3.256703515507     1.748365118851    12.000000000000
      Gh(C)           1.480461653068    -2.098592515507     1.882925118851    12.000000000000
      Gh(C)           0.807387653068    -0.836279515507     1.859050118851    12.000000000000
      Gh(N)           2.823154653068    -2.419155515507     2.020266118851    14.003074004430
      Gh(C)           2.859409653068    -3.726302515507     1.970963118851    12.000000000000
      Gh(N)           1.601264653068    -4.292309515507     1.806902118851    14.003074004430
      Gh(H)          -1.125433346932    -0.110510515507     1.672143118851     1.007825032230
      Gh(N)          -2.586874346932    -2.125596515507     1.426143118851    14.003074004430
      Gh(H)          -3.101752346932    -1.239614515507     1.404628118851     1.007825032230
      Gh(H)          -3.078750346932    -2.999829515507     1.335347118851     1.007825032230
      Gh(O)           1.291472653068     0.304220484493     1.959838118851    15.994914619570
      Gh(H)           3.752534653068    -4.338337515507     2.046041118851     1.007825032230
      Gh(H)           1.370875653068    -5.273737515507     1.741026118851     1.007825032230

  Running in c1 symmetry.

  Rotational constants: A =      0.01764  B =      0.00518  C =      0.00445 [cm^-1]
  Rotational constants: A =    528.88030  B =    155.39221  C =    133.39982 [MHz]
  Nuclear repulsion =  593.872086066747329

  Charge       = 0
  Multiplicity = 1
  Electrons    = 78
  Nalpha       = 39
  Nbeta        = 39

  ==> Algorithm <==

  SCF Algorithm Type is DF.
  DIIS enabled.
  MOM disabled.
  Fractional occupation disabled.
  Guess Type is SAD.
  Energy threshold   = 1.00e-08
  Density threshold  = 1.00e-08
  Integral threshold = 1.00e-12

  ==> Primary Basis <==

  Basis Set: JUN-CC-PVDZ
    Blend: JUN-CC-PVDZ
    Number of shells: 206
    Number of basis functions: 446
    Number of Cartesian functions: 468
    Spherical Harmonics?: true
    Max angular momentum: 2

   => Loading Basis Set <=

    Name: (JUN-CC-PVDZ AUX)
    Role: JKFIT
    Keyword: DF_BASIS_SCF
    atoms 1, 3, 7, 9, 11, 17, 19, 23, 25, 27 entry N          line   202 file /opt/anaconda/envs/psi4v1.5/share/psi4/basis/jun-cc-pvdz-jkfit.gbs 
    atoms 2, 4-6, 8, 18, 20-22, 24           entry C          line   146 file /opt/anaconda/envs/psi4v1.5/share/psi4/basis/jun-cc-pvdz-jkfit.gbs 
    atoms 10, 12-13, 15-16, 26, 28-29, 31-32 entry H          line    70 file /opt/anaconda/envs/psi4v1.5/share/psi4/basis/jun-cc-pvdz-jkfit.gbs 
    atoms 14, 30                             entry O          line   258 file /opt/anaconda/envs/psi4v1.5/share/psi4/basis/jun-cc-pvdz-jkfit.gbs 

  ==> Integral Setup <==

  ==> DiskDFJK: Density-Fitted J/K Matrices <==

    J tasked:                  Yes
    K tasked:                  Yes
    wK tasked:                  No
    OpenMP threads:              8
    Integrals threads:           8
    Memory [MiB]:            64373
    Algorithm:                Core
    Integral Cache:           LOAD
    Schwarz Cutoff:          1E-12
    Fitting Condition:       1E-10

   => Auxiliary Basis Set <=

  Basis Set: (JUN-CC-PVDZ AUX)
    Blend: JUN-CC-PVDZ-JKFIT
    Number of shells: 684
    Number of basis functions: 1968
    Number of Cartesian functions: 2252
    Spherical Harmonics?: true
    Max angular momentum: 3

  Minimum eigenvalue in the overlap matrix is 8.7098471429E-06.
  Reciprocal condition number of the overlap matrix is 6.2722586561E-07.
    Using symmetric orthogonalization.

  ==> Pre-Iterations <==

  SCF Guess: Superposition of Atomic Densities via on-the-fly atomic UHF (no occupation information).

   -------------------------
    Irrep   Nso     Nmo    
   -------------------------
     A        446     446 
   -------------------------
    Total     446     446
   -------------------------

  ==> Iterations <==

                           Total Energy        Delta E     RMS |[F,P]|

   @DF-RHF iter SAD:  -539.22325910243831   -5.39223e+02   0.00000e+00 
   @DF-RHF iter   1:  -539.14301870361862    8.02404e-02   1.71780e-03 DIIS
   @DF-RHF iter   2:  -539.36578058885675   -2.22762e-01   1.02684e-03 DIIS
   @DF-RHF iter   3:  -539.44797261342967   -8.21920e-02   2.13731e-04 DIIS
   @DF-RHF iter   4:  -539.45299541302495   -5.02280e-03   8.26843e-05 DIIS
   @DF-RHF iter   5:  -539.45386216904012   -8.66756e-04   1.85144e-05 DIIS
   @DF-RHF iter   6:  -539.45395601369546   -9.38447e-05   9.88310e-06 DIIS
   @DF-RHF iter   7:  -539.45398350327014   -2.74896e-05   4.00920e-06 DIIS
   @DF-RHF iter   8:  -539.45398826001269   -4.75674e-06   1.36707e-06 DIIS
   @DF-RHF iter   9:  -539.45398876116246   -5.01150e-07   5.29977e-07 DIIS
   @DF-RHF iter  10:  -539.45398885285499   -9.16925e-08   2.26210e-07 DIIS
   @DF-RHF iter  11:  -539.45398886655414   -1.36992e-08   9.21803e-08 DIIS
   @DF-RHF iter  12:  -539.45398886859994   -2.04579e-09   2.81665e-08 DIIS
   @DF-RHF iter  13:  -539.45398886881878   -2.18847e-10   1.25144e-08 DIIS
   @DF-RHF iter  14:  -539.45398886885926   -4.04725e-11   4.21422e-09 DIIS
  Energy and wave function converged.


  ==> Post-Iterations <==

    Orbital Energies [Eh]
    ---------------------

    Doubly Occupied:                                                      

       1A    -20.522144     2A    -15.645618     3A    -15.636510  
       4A    -15.631627     5A    -15.576240     6A    -15.569087  
       7A    -11.414740     8A    -11.370665     9A    -11.333314  
      10A    -11.317572    11A    -11.250388    12A     -1.393827  
      13A     -1.355142    14A     -1.338354    15A     -1.231545  
      16A     -1.222746    17A     -1.177336    18A     -1.033066  
      19A     -0.908941    20A     -0.897945    21A     -0.839556  
      22A     -0.807633    23A     -0.747902    24A     -0.743460  
      25A     -0.712508    26A     -0.673055    27A     -0.659274  
      28A     -0.637743    29A     -0.606511    30A     -0.598960  
      31A     -0.598681    32A     -0.545731    33A     -0.495522  
      34A     -0.455507    35A     -0.436365    36A     -0.429921  
      37A     -0.425000    38A     -0.406991    39A     -0.296170  

    Virtual:                                                              

      40A      0.021429    41A      0.041553    42A      0.046765  
      43A      0.051575    44A      0.057744    45A      0.064913  
      46A      0.073832    47A      0.078531    48A      0.083432  
      49A      0.088004    50A      0.092037    51A      0.094045  
      52A      0.100518    53A      0.106479    54A      0.114998  
      55A      0.115755    56A      0.120116    57A      0.124506  
      58A      0.127735    59A      0.131485    60A      0.132958  
      61A      0.138305    62A      0.145364    63A      0.146868  
      64A      0.151309    65A      0.154540    66A      0.157532  
      67A      0.158589    68A      0.166964    69A      0.172084  
      70A      0.175871    71A      0.182247    72A      0.183888  
      73A      0.185991    74A      0.190515    75A      0.195329  
      76A      0.201213    77A      0.205875    78A      0.211027  
      79A      0.214723    80A      0.217993    81A      0.218477  
      82A      0.221463    83A      0.229410    84A      0.232589  
      85A      0.235589    86A      0.238649    87A      0.240194  
      88A      0.248438    89A      0.255639    90A      0.257489  
      91A      0.259642    92A      0.263440    93A      0.265427  
      94A      0.266489    95A      0.270710    96A      0.272640  
      97A      0.278890    98A      0.280466    99A      0.286750  
     100A      0.290225   101A      0.296177   102A      0.299048  
     103A      0.303069   104A      0.304379   105A      0.309520  
     106A      0.313524   107A      0.313983   108A      0.320187  
     109A      0.322109   110A      0.325630   111A      0.337124  
     112A      0.341208   113A      0.343910   114A      0.349773  
     115A      0.353879   116A      0.357395   117A      0.362098  
     118A      0.370270   119A      0.371057   120A      0.373154  
     121A      0.380672   122A      0.384008   123A      0.391939  
     124A      0.397301   125A      0.399723   126A      0.407052  
     127A      0.413815   128A      0.421248   129A      0.425911  
     130A      0.432009   131A      0.437883   132A      0.442403  
     133A      0.445477   134A      0.451249   135A      0.458032  
     136A      0.461022   137A      0.474486   138A      0.486688  
     139A      0.495247   140A      0.500823   141A      0.510358  
     142A      0.518003   143A      0.520316   144A      0.521912  
     145A      0.531096   146A      0.538124   147A      0.541157  
     148A      0.552043   149A      0.566723   150A      0.568530  
     151A      0.573089   152A      0.585293   153A      0.597391  
     154A      0.602456   155A      0.616436   156A      0.620019  
     157A      0.626789   158A      0.634856   159A      0.635790  
     160A      0.658512   161A      0.667314   162A      0.677724  
     163A      0.682538   164A      0.695345   165A      0.704727  
     166A      0.744912   167A      0.754898   168A      0.761862  
     169A      0.780666   170A      0.784972   171A      0.798967  
     172A      0.803061   173A      0.819965   174A      0.823806  
     175A      0.843342   176A      0.844678   177A      0.850000  
     178A      0.868141   179A      0.875881   180A      0.881649  
     181A      0.884475   182A      0.893170   183A      0.896633  
     184A      0.907890   185A      0.912917   186A      0.926896  
     187A      0.932108   188A      0.950752   189A      0.956836  
     190A      0.968726   191A      0.985567   192A      0.995057  
     193A      1.012770   194A      1.018178   195A      1.023209  
     196A      1.044672   197A      1.052767   198A      1.059884  
     199A      1.071593   200A      1.073850   201A      1.084402  
     202A      1.088781   203A      1.093643   204A      1.101214  
     205A      1.118485   206A      1.124048   207A      1.129993  
     208A      1.146908   209A      1.162055   210A      1.170215  
     211A      1.184883   212A      1.186897   213A      1.197493  
     214A      1.212298   215A      1.219685   216A      1.226100  
     217A      1.239084   218A      1.250870   219A      1.257609  
     220A      1.264299   221A      1.267263   222A      1.271182  
     223A      1.279141   224A      1.284425   225A      1.296457  
     226A      1.309578   227A      1.319819   228A      1.323338  
     229A      1.326363   230A      1.330170   231A      1.342419  
     232A      1.344009   233A      1.352322   234A      1.371532  
     235A      1.375345   236A      1.395892   237A      1.407623  
     238A      1.425071   239A      1.433903   240A      1.438395  
     241A      1.488792   242A      1.497708   243A      1.521213  
     244A      1.527232   245A      1.588006   246A      1.601406  
     247A      1.614417   248A      1.639797   249A      1.690331  
     250A      1.739089   251A      1.773517   252A      1.777782  
     253A      1.785797   254A      1.798848   255A      1.801768  
     256A      1.828625   257A      1.835188   258A      1.843024  
     259A      1.846466   260A      1.857443   261A      1.869901  
     262A      1.883123   263A      1.889671   264A      1.902105  
     265A      1.916701   266A      1.924456   267A      1.934196  
     268A      1.945055   269A      1.956598   270A      1.962952  
     271A      1.969812   272A      1.976860   273A      1.991390  
     274A      2.015164   275A      2.017700   276A      2.025330  
     277A      2.035685   278A      2.036669   279A      2.064722  
     280A      2.069645   281A      2.073107   282A      2.078312  
     283A      2.080071   284A      2.085837   285A      2.101271  
     286A      2.108736   287A      2.127953   288A      2.147111  
     289A      2.155003   290A      2.157595   291A      2.167502  
     292A      2.197434   293A      2.200178   294A      2.206649  
     295A      2.212458   296A      2.231475   297A      2.245445  
     298A      2.250193   299A      2.260853   300A      2.279536  
     301A      2.298187   302A      2.317137   303A      2.320209  
     304A      2.324538   305A      2.326658   306A      2.350055  
     307A      2.352366   308A      2.363268   309A      2.374114  
     310A      2.380593   311A      2.387516   312A      2.402778  
     313A      2.424706   314A      2.432963   315A      2.456587  
     316A      2.465634   317A      2.474215   318A      2.479340  
     319A      2.484459   320A      2.496518   321A      2.516139  
     322A      2.534077   323A      2.538522   324A      2.551839  
     325A      2.560542   326A      2.568581   327A      2.572424  
     328A      2.617172   329A      2.623254   330A      2.641512  
     331A      2.653098   332A      2.672648   333A      2.683218  
     334A      2.709997   335A      2.720460   336A      2.729649  
     337A      2.735387   338A      2.748416   339A      2.755003  
     340A      2.776038   341A      2.820376   342A      2.831552  
     343A      2.842384   344A      2.858107   345A      2.863040  
     346A      2.880342   347A      2.893214   348A      2.932202  
     349A      2.937639   350A      2.951186   351A      2.973055  
     352A      2.980505   353A      2.993979   354A      3.022705  
     355A      3.032256   356A      3.038025   357A      3.059127  
     358A      3.064065   359A      3.089636   360A      3.102285  
     361A      3.110752   362A      3.123246   363A      3.129076  
     364A      3.153401   365A      3.182198   366A      3.199876  
     367A      3.214136   368A      3.245154   369A      3.262762  
     370A      3.268764   371A      3.283225   372A      3.306014  
     373A      3.312465   374A      3.345914   375A      3.368049  
     376A      3.388174   377A      3.406247   378A      3.409308  
     379A      3.429601   380A      3.502533   381A      3.514242  
     382A      3.526385   383A      3.554823   384A      3.570700  
     385A      3.606367   386A      3.674527   387A      3.691624  
     388A      3.712531   389A      3.733054   390A      3.751330  
     391A      3.794235   392A      3.809900   393A      3.813177  
     394A      3.848142   395A      3.914032   396A      3.953963  
     397A      4.066571   398A      4.075010   399A      4.105514  
     400A      4.136482   401A      4.157567   402A      4.246990  
     403A      4.260653   404A      4.262110   405A      4.298322  
     406A      4.332615   407A      4.336903   408A      4.344564  
     409A      4.381039   410A      4.413710   411A      4.501296  
     412A      4.573134   413A      4.615168   414A      4.694369  
     415A      4.748570   416A      4.758887   417A      4.830677  
     418A      4.884173   419A      4.896673   420A      5.020488  
     421A      5.159345   422A      5.182185   423A      5.318934  
     424A      5.493906   425A      5.664610   426A      5.685184  
     427A      5.694208   428A      5.769570   429A      5.919876  
     430A      6.036855   431A      6.050339   432A      6.118350  
     433A      6.142973   434A      6.200545   435A      6.886746  
     436A     18.160031   437A     18.458664   438A     18.498250  
     439A     18.524638   440A     18.891577   441A     25.304686  
     442A     25.314709   443A     25.397628   444A     25.419470  
     445A     25.428015   446A     33.532563  

    Final Occupation by Irrep:
              A 
    DOCC [    39 ]

  @DF-RHF Final Energy:  -539.45398886885926

   => Energetics <=

    Nuclear Repulsion Energy =            593.8720860667473289
    One-Electron Energy =               -1912.7655541521623945
    Two-Electron Energy =                 779.4394792165556964
    Total Energy =                       -539.4539888688592555

Computation Completed


Properties will be evaluated at   0.000000,   0.000000,   0.000000 [a0]

Properties computed using the SCF density matrix

  Nuclear Dipole Moment: [e a0]
     X:   -85.6266      Y:   330.1193      Z:  -261.2143

  Electronic Dipole Moment: [e a0]
     X:    82.5245      Y:  -330.3555      Z:   261.2152

  Dipole Moment: [e a0]
     X:    -3.1020      Y:    -0.2362      Z:     0.0008     Total:     3.1110

  Dipole Moment: [D]
     X:    -7.8846      Y:    -0.6003      Z:     0.0021     Total:     7.9074


*** tstop() called on node153.bme.utexas.edu at Sun May 12 23:38:03 2024
Module time:
	user time   =     107.64 seconds =       1.79 minutes
	system time =       2.73 seconds =       0.05 minutes
	total time  =         15 seconds =       0.25 minutes
Total time:
	user time   =     342.86 seconds =       5.71 minutes
	system time =      10.97 seconds =       0.18 minutes
	total time  =         53 seconds =       0.88 minutes

*** tstart() called on node153.bme.utexas.edu
*** at Sun May 12 23:38:03 2024


  //>>>>>>>>>>>>>>>>>>>>>>>>>>>>>>>>>>>//
  //               DFMP2               //
  //<<<<<<<<<<<<<<<<<<<<<<<<<<<<<<<<<<<//

   => Loading Basis Set <=

    Name: (JUN-CC-PVDZ AUX)
    Role: RIFIT
    Keyword: DF_BASIS_MP2
    atoms 1, 3, 7, 9, 11, 17, 19, 23, 25, 27 entry N          line   144 file /opt/anaconda/envs/psi4v1.5/share/psi4/basis/jun-cc-pvdz-ri.gbs 
    atoms 2, 4-6, 8, 18, 20-22, 24           entry C          line   100 file /opt/anaconda/envs/psi4v1.5/share/psi4/basis/jun-cc-pvdz-ri.gbs 
    atoms 10, 12-13, 15-16, 26, 28-29, 31-32 entry H          line    30 file /opt/anaconda/envs/psi4v1.5/share/psi4/basis/jun-cc-pvdz-ri.gbs 
    atoms 14, 30                             entry O          line   188 file /opt/anaconda/envs/psi4v1.5/share/psi4/basis/jun-cc-pvdz-ri.gbs 

	 --------------------------------------------------------
	                          DF-MP2                         
	      2nd-Order Density-Fitted Moller-Plesset Theory     
	              RMP2 Wavefunction,   8 Threads             
	                                                         
	        Rob Parrish, Justin Turney, Andy Simmonett,      
	           Ed Hohenstein, and C. David Sherrill          
	 --------------------------------------------------------

   => Auxiliary Basis Set <=

  Basis Set: (JUN-CC-PVDZ AUX)
    Blend: JUN-CC-PVDZ-RI
    Number of shells: 522
    Number of basis functions: 1570
    Number of Cartesian functions: 1822
    Spherical Harmonics?: true
    Max angular momentum: 3

	 --------------------------------------------------------
	                 NBF =   446, NAUX =  1570
	 --------------------------------------------------------
	   CLASS    FOCC     OCC    AOCC    AVIR     VIR    FVIR
	   PAIRS      11      39      28     407     407       0
	 --------------------------------------------------------

	 Will attempt to load fitting metric from file 97.

	-----------------------------------------------------------
	 ==================> DF-MP2 Energies <==================== 
	-----------------------------------------------------------
	 Reference Energy          =    -539.4539888688592555 [Eh]
	 Singles Energy            =      -0.0000000000000000 [Eh]
	 Same-Spin Energy          =      -0.4606530457388233 [Eh]
	 Opposite-Spin Energy      =      -1.1849608486717487 [Eh]
	 Correlation Energy        =      -1.6456138944105718 [Eh]
	 Total Energy              =    -541.0996027632697860 [Eh]
	-----------------------------------------------------------
	 ================> DF-SCS-MP2 Energies <================== 
	-----------------------------------------------------------
	 SCS Same-Spin Scale       =       0.3333333333333333 [-]
	 SCS Opposite-Spin Scale   =       1.2000000000000000 [-]
	 SCS Same-Spin Energy      =      -0.1535510152462744 [Eh]
	 SCS Opposite-Spin Energy  =      -1.4219530184060984 [Eh]
	 SCS Correlation Energy    =      -1.5755040336523729 [Eh]
	 SCS Total Energy          =    -541.0294929025116062 [Eh]
	-----------------------------------------------------------


*** tstop() called on node153.bme.utexas.edu at Sun May 12 23:38:11 2024
Module time:
	user time   =      36.41 seconds =       0.61 minutes
	system time =       1.47 seconds =       0.02 minutes
	total time  =          8 seconds =       0.13 minutes
Total time:
	user time   =     379.27 seconds =       6.32 minutes
	system time =      12.44 seconds =       0.21 minutes
	total time  =         61 seconds =       1.02 minutes

  //>>>>>>>>>>>>>>>>>>>>>>>>>>>>>>>>>>>//
  //            Monomer B HF           //
  //<<<<<<<<<<<<<<<<<<<<<<<<<<<<<<<<<<<//


*** tstart() called on node153.bme.utexas.edu
*** at Sun May 12 23:38:11 2024

   => Loading Basis Set <=

    Name: JUN-CC-PVDZ
    Role: ORBITAL
    Keyword: BASIS
    atoms 1, 3, 7, 9, 11, 17, 19, 23, 25, 27 entry N          line   198 file /opt/anaconda/envs/psi4v1.5/share/psi4/basis/jun-cc-pvdz.gbs 
    atoms 2, 4-6, 8, 18, 20-22, 24           entry C          line   164 file /opt/anaconda/envs/psi4v1.5/share/psi4/basis/jun-cc-pvdz.gbs 
    atoms 10, 12-13, 15-16, 26, 28-29, 31-32 entry H          line    36 file /opt/anaconda/envs/psi4v1.5/share/psi4/basis/jun-cc-pvdz.gbs 
    atoms 14, 30                             entry O          line   232 file /opt/anaconda/envs/psi4v1.5/share/psi4/basis/jun-cc-pvdz.gbs 


         ---------------------------------------------------------
                                   SCF
               by Justin Turney, Rob Parrish, Andy Simmonett
                          and Daniel G. A. Smith
                              RHF Reference
                        8 Threads,  85830 MiB Core
         ---------------------------------------------------------

  ==> Geometry <==

    Molecular point group: c1
    Full point group: C1

    Geometry (in Angstrom), charge = 0, multiplicity = 1:

       Center              X                  Y                   Z               Mass       
    ------------   -----------------  -----------------  -----------------  -----------------
      Gh(N)          -0.606213346932     0.560701484493    -1.772237881149    14.003074004430
      Gh(C)          -1.892398346932     1.048887484493    -1.772198881149    12.000000000000
      Gh(N)          -2.181689346932     2.344949484493    -1.772137881149    14.003074004430
      Gh(C)          -1.077111346932     3.119959484493    -1.772118881149    12.000000000000
      Gh(C)           0.271610653068     2.736294484493    -1.772152881149    12.000000000000
      Gh(C)           0.566075653068     1.336179484493    -1.772214881149    12.000000000000
      Gh(N)           1.101784653068     3.847716484493    -1.772116881149    14.003074004430
      Gh(C)           0.286584653068     4.871350484493    -1.772060881149    12.000000000000
      Gh(N)          -1.050192346932     4.492883484493    -1.772060881149    14.003074004430
      Gh(H)          -0.458466346932    -0.465981515507    -1.772282881149     1.007825032230
      Gh(N)          -2.887004346932     0.133267484493    -1.772222881149    14.003074004430
      Gh(H)          -2.713124346932    -0.876827515507    -1.772266881149     1.007825032230
      Gh(H)          -3.830819346932     0.484951484493    -1.772196881149     1.007825032230
      Gh(O)           1.675634653068     0.775718484493    -1.772245881149    15.994914619570
      Gh(H)           0.581538653068     5.915811484493    -1.772023881149     1.007825032230
      Gh(H)          -1.861210346932     5.095270484493    -1.772026881149     1.007825032230
         N           -0.580073346932    -0.992474515507     1.697236118851    14.003074004430
         C           -1.244658346932    -2.190682515507     1.573863118851    12.000000000000
         N           -0.634301346932    -3.369886515507     1.594100118851    14.003074004430
         C            0.701409653068    -3.256703515507     1.748365118851    12.000000000000
         C            1.480461653068    -2.098592515507     1.882925118851    12.000000000000
         C            0.807387653068    -0.836279515507     1.859050118851    12.000000000000
         N            2.823154653068    -2.419155515507     2.020266118851    14.003074004430
         C            2.859409653068    -3.726302515507     1.970963118851    12.000000000000
         N            1.601264653068    -4.292309515507     1.806902118851    14.003074004430
         H           -1.125433346932    -0.110510515507     1.672143118851     1.007825032230
         N           -2.586874346932    -2.125596515507     1.426143118851    14.003074004430
         H           -3.101752346932    -1.239614515507     1.404628118851     1.007825032230
         H           -3.078750346932    -2.999829515507     1.335347118851     1.007825032230
         O            1.291472653068     0.304220484493     1.959838118851    15.994914619570
         H            3.752534653068    -4.338337515507     2.046041118851     1.007825032230
         H            1.370875653068    -5.273737515507     1.741026118851     1.007825032230

  Running in c1 symmetry.

  Rotational constants: A =      0.01764  B =      0.00518  C =      0.00445 [cm^-1]
  Rotational constants: A =    528.88030  B =    155.39221  C =    133.39982 [MHz]
  Nuclear repulsion =  593.872080269464163

  Charge       = 0
  Multiplicity = 1
  Electrons    = 78
  Nalpha       = 39
  Nbeta        = 39

  ==> Algorithm <==

  SCF Algorithm Type is DF.
  DIIS enabled.
  MOM disabled.
  Fractional occupation disabled.
  Guess Type is SAD.
  Energy threshold   = 1.00e-08
  Density threshold  = 1.00e-08
  Integral threshold = 1.00e-12

  ==> Primary Basis <==

  Basis Set: JUN-CC-PVDZ
    Blend: JUN-CC-PVDZ
    Number of shells: 206
    Number of basis functions: 446
    Number of Cartesian functions: 468
    Spherical Harmonics?: true
    Max angular momentum: 2

   => Loading Basis Set <=

    Name: (JUN-CC-PVDZ AUX)
    Role: JKFIT
    Keyword: DF_BASIS_SCF
    atoms 1, 3, 7, 9, 11, 17, 19, 23, 25, 27 entry N          line   202 file /opt/anaconda/envs/psi4v1.5/share/psi4/basis/jun-cc-pvdz-jkfit.gbs 
    atoms 2, 4-6, 8, 18, 20-22, 24           entry C          line   146 file /opt/anaconda/envs/psi4v1.5/share/psi4/basis/jun-cc-pvdz-jkfit.gbs 
    atoms 10, 12-13, 15-16, 26, 28-29, 31-32 entry H          line    70 file /opt/anaconda/envs/psi4v1.5/share/psi4/basis/jun-cc-pvdz-jkfit.gbs 
    atoms 14, 30                             entry O          line   258 file /opt/anaconda/envs/psi4v1.5/share/psi4/basis/jun-cc-pvdz-jkfit.gbs 

  ==> Integral Setup <==

  ==> DiskDFJK: Density-Fitted J/K Matrices <==

    J tasked:                  Yes
    K tasked:                  Yes
    wK tasked:                  No
    OpenMP threads:              8
    Integrals threads:           8
    Memory [MiB]:            64373
    Algorithm:                Core
    Integral Cache:           LOAD
    Schwarz Cutoff:          1E-12
    Fitting Condition:       1E-10

   => Auxiliary Basis Set <=

  Basis Set: (JUN-CC-PVDZ AUX)
    Blend: JUN-CC-PVDZ-JKFIT
    Number of shells: 684
    Number of basis functions: 1968
    Number of Cartesian functions: 2252
    Spherical Harmonics?: true
    Max angular momentum: 3

  Minimum eigenvalue in the overlap matrix is 8.7098471429E-06.
  Reciprocal condition number of the overlap matrix is 6.2722586561E-07.
    Using symmetric orthogonalization.

  ==> Pre-Iterations <==

  SCF Guess: Superposition of Atomic Densities via on-the-fly atomic UHF (no occupation information).

   -------------------------
    Irrep   Nso     Nmo    
   -------------------------
     A        446     446 
   -------------------------
    Total     446     446
   -------------------------

  ==> Iterations <==

                           Total Energy        Delta E     RMS |[F,P]|

   @DF-RHF iter SAD:  -539.22325898810709   -5.39223e+02   0.00000e+00 
   @DF-RHF iter   1:  -539.14304631368202    8.02127e-02   1.71779e-03 DIIS
   @DF-RHF iter   2:  -539.36581229400008   -2.22766e-01   1.02679e-03 DIIS
   @DF-RHF iter   3:  -539.44799589841364   -8.21836e-02   2.13741e-04 DIIS
   @DF-RHF iter   4:  -539.45301824279477   -5.02234e-03   8.26687e-05 DIIS
   @DF-RHF iter   5:  -539.45388464851931   -8.66406e-04   1.85101e-05 DIIS
   @DF-RHF iter   6:  -539.45397841696285   -9.37684e-05   9.87857e-06 DIIS
   @DF-RHF iter   7:  -539.45400587973245   -2.74628e-05   4.00834e-06 DIIS
   @DF-RHF iter   8:  -539.45401063367990   -4.75395e-06   1.36679e-06 DIIS
   @DF-RHF iter   9:  -539.45401113454932   -5.00869e-07   5.29923e-07 DIIS
   @DF-RHF iter  10:  -539.45401122619933   -9.16500e-08   2.26207e-07 DIIS
   @DF-RHF iter  11:  -539.45401123989507   -1.36957e-08   9.21945e-08 DIIS
   @DF-RHF iter  12:  -539.45401124194348   -2.04841e-09   2.81543e-08 DIIS
   @DF-RHF iter  13:  -539.45401124216392   -2.20439e-10   1.25088e-08 DIIS
   @DF-RHF iter  14:  -539.45401124220450   -4.05862e-11   4.21220e-09 DIIS
  Energy and wave function converged.


  ==> Post-Iterations <==

    Orbital Energies [Eh]
    ---------------------

    Doubly Occupied:                                                      

       1A    -20.522136     2A    -15.645584     3A    -15.636498  
       4A    -15.631595     5A    -15.576205     6A    -15.569082  
       7A    -11.414711     8A    -11.370670     9A    -11.333287  
      10A    -11.317581    11A    -11.250385    12A     -1.393801  
      13A     -1.355129    14A     -1.338330    15A     -1.231510  
      16A     -1.222724    17A     -1.177326    18A     -1.033043  
      19A     -0.908921    20A     -0.897920    21A     -0.839545  
      22A     -0.807609    23A     -0.747878    24A     -0.743447  
      25A     -0.712482    26A     -0.673035    27A     -0.659251  
      28A     -0.637726    29A     -0.606505    30A     -0.598945  
      31A     -0.598668    32A     -0.545718    33A     -0.495502  
      34A     -0.455480    35A     -0.436350    36A     -0.429898  
      37A     -0.424984    38A     -0.406978    39A     -0.296171  

    Virtual:                                                              

      40A      0.023081    41A      0.041742    42A      0.047066  
      43A      0.052894    44A      0.058489    45A      0.066186  
      46A      0.074591    47A      0.079328    48A      0.083254  
      49A      0.088133    50A      0.091656    51A      0.096760  
      52A      0.101764    53A      0.106437    54A      0.115430  
      55A      0.117077    56A      0.120219    57A      0.124151  
      58A      0.127663    59A      0.131001    60A      0.133506  
      61A      0.140186    62A      0.145462    63A      0.149082  
      64A      0.152113    65A      0.155719    66A      0.158215  
      67A      0.159226    68A      0.168986    69A      0.171976  
      70A      0.176261    71A      0.183157    72A      0.184952  
      73A      0.186079    74A      0.192061    75A      0.196474  
      76A      0.202079    77A      0.206744    78A      0.211361  
      79A      0.214412    80A      0.218086    81A      0.220972  
      82A      0.222626    83A      0.230494    84A      0.232309  
      85A      0.235564    86A      0.240494    87A      0.244348  
      88A      0.248197    89A      0.255704    90A      0.256986  
      91A      0.260007    92A      0.263923    93A      0.266050  
      94A      0.268748    95A      0.274932    96A      0.276087  
      97A      0.278471    98A      0.282178    99A      0.287098  
     100A      0.289048   101A      0.294870   102A      0.297746  
     103A      0.303019   104A      0.306214   105A      0.311365  
     106A      0.314116   107A      0.314261   108A      0.321794  
     109A      0.326020   110A      0.328254   111A      0.335725  
     112A      0.337514   113A      0.346971   114A      0.348501  
     115A      0.352913   116A      0.359141   117A      0.363272  
     118A      0.370191   119A      0.371792   120A      0.373516  
     121A      0.377841   122A      0.386344   123A      0.392721  
     124A      0.395490   125A      0.398011   126A      0.413117  
     127A      0.415321   128A      0.421828   129A      0.426535  
     130A      0.433445   131A      0.439627   132A      0.442974  
     133A      0.448206   134A      0.457600   135A      0.460404  
     136A      0.463868   137A      0.475057   138A      0.490378  
     139A      0.498878   140A      0.501910   141A      0.510539  
     142A      0.515835   143A      0.521448   144A      0.527732  
     145A      0.531993   146A      0.536454   147A      0.547459  
     148A      0.552178   149A      0.567730   150A      0.571134  
     151A      0.575378   152A      0.585600   153A      0.596538  
     154A      0.603277   155A      0.614201   156A      0.619051  
     157A      0.627924   158A      0.632234   159A      0.639572  
     160A      0.656432   161A      0.666099   162A      0.679460  
     163A      0.685290   164A      0.696712   165A      0.705453  
     166A      0.745945   167A      0.757100   168A      0.769424  
     169A      0.784469   170A      0.784706   171A      0.798591  
     172A      0.803371   173A      0.821825   174A      0.822971  
     175A      0.838686   176A      0.849185   177A      0.851277  
     178A      0.868795   179A      0.876334   180A      0.882986  
     181A      0.890981   182A      0.894170   183A      0.908523  
     184A      0.911682   185A      0.915086   186A      0.928401  
     187A      0.935845   188A      0.953112   189A      0.964497  
     190A      0.974217   191A      0.976346   192A      0.993583  
     193A      1.016469   194A      1.020473   195A      1.022842  
     196A      1.044904   197A      1.053882   198A      1.061556  
     199A      1.074491   200A      1.079545   201A      1.085646  
     202A      1.089706   203A      1.095320   204A      1.099267  
     205A      1.117007   206A      1.122234   207A      1.130052  
     208A      1.150312   209A      1.159042   210A      1.166567  
     211A      1.183206   212A      1.190775   213A      1.198414  
     214A      1.210622   215A      1.215925   216A      1.228731  
     217A      1.236869   218A      1.250426   219A      1.256946  
     220A      1.261430   221A      1.269602   222A      1.275628  
     223A      1.280839   224A      1.284822   225A      1.299050  
     226A      1.309377   227A      1.317345   228A      1.323678  
     229A      1.327495   230A      1.329865   231A      1.342312  
     232A      1.348795   233A      1.360938   234A      1.371243  
     235A      1.373429   236A      1.395591   237A      1.410733  
     238A      1.425748   239A      1.433490   240A      1.440411  
     241A      1.489124   242A      1.500316   243A      1.522656  
     244A      1.527560   245A      1.588211   246A      1.601464  
     247A      1.620625   248A      1.640253   249A      1.691360  
     250A      1.740047   251A      1.775187   252A      1.780729  
     253A      1.786607   254A      1.799656   255A      1.802576  
     256A      1.827454   257A      1.838800   258A      1.844727  
     259A      1.846996   260A      1.859996   261A      1.868150  
     262A      1.882881   263A      1.888318   264A      1.902174  
     265A      1.915861   266A      1.925912   267A      1.935387  
     268A      1.947816   269A      1.958066   270A      1.966141  
     271A      1.970085   272A      1.979525   273A      1.997845  
     274A      2.016455   275A      2.019808   276A      2.023864  
     277A      2.038579   278A      2.043789   279A      2.062196  
     280A      2.070041   281A      2.073760   282A      2.077517  
     283A      2.084247   284A      2.089282   285A      2.103049  
     286A      2.109047   287A      2.130419   288A      2.148301  
     289A      2.154322   290A      2.161926   291A      2.168103  
     292A      2.196607   293A      2.201751   294A      2.208092  
     295A      2.211873   296A      2.233467   297A      2.246522  
     298A      2.250109   299A      2.265652   300A      2.279231  
     301A      2.301481   302A      2.316575   303A      2.321870  
     304A      2.326881   305A      2.331167   306A      2.352174  
     307A      2.353940   308A      2.366304   309A      2.373836  
     310A      2.382123   311A      2.390193   312A      2.403257  
     313A      2.426275   314A      2.433419   315A      2.457567  
     316A      2.467844   317A      2.477720   318A      2.479576  
     319A      2.486354   320A      2.497493   321A      2.519256  
     322A      2.536107   323A      2.540434   324A      2.554636  
     325A      2.558018   326A      2.570577   327A      2.574031  
     328A      2.620513   329A      2.624334   330A      2.641260  
     331A      2.656810   332A      2.674973   333A      2.681631  
     334A      2.710278   335A      2.717427   336A      2.721748  
     337A      2.730958   338A      2.747279   339A      2.760207  
     340A      2.778490   341A      2.823146   342A      2.832321  
     343A      2.842515   344A      2.859657   345A      2.863551  
     346A      2.879461   347A      2.895024   348A      2.934675  
     349A      2.939600   350A      2.950340   351A      2.973984  
     352A      2.982838   353A      2.993353   354A      3.027173  
     355A      3.034165   356A      3.038817   357A      3.060586  
     358A      3.064879   359A      3.090036   360A      3.102569  
     361A      3.110294   362A      3.124828   363A      3.135053  
     364A      3.152380   365A      3.185834   366A      3.199718  
     367A      3.217568   368A      3.245980   369A      3.264757  
     370A      3.271399   371A      3.283083   372A      3.307400  
     373A      3.315037   374A      3.349514   375A      3.365928  
     376A      3.391139   377A      3.406998   378A      3.410014  
     379A      3.431071   380A      3.502317   381A      3.516173  
     382A      3.528015   383A      3.558351   384A      3.573360  
     385A      3.608761   386A      3.677230   387A      3.692219  
     388A      3.715175   389A      3.735631   390A      3.751529  
     391A      3.795975   392A      3.810182   393A      3.816316  
     394A      3.848538   395A      3.917157   396A      3.956417  
     397A      4.069571   398A      4.077023   399A      4.108300  
     400A      4.139449   401A      4.160170   402A      4.254340  
     403A      4.261889   404A      4.271897   405A      4.300132  
     406A      4.336633   407A      4.339089   408A      4.350024  
     409A      4.383325   410A      4.413995   411A      4.504174  
     412A      4.575458   413A      4.617573   414A      4.696331  
     415A      4.752619   416A      4.760899   417A      4.833027  
     418A      4.887033   419A      4.900484   420A      5.024494  
     421A      5.163194   422A      5.184295   423A      5.322068  
     424A      5.496463   425A      5.666710   426A      5.682444  
     427A      5.694054   428A      5.773396   429A      5.922953  
     430A      6.038609   431A      6.051857   432A      6.121884  
     433A      6.145789   434A      6.202823   435A      6.890245  
     436A     18.163976   437A     18.461681   438A     18.501520  
     439A     18.527007   440A     18.895256   441A     25.306621  
     442A     25.317326   443A     25.401903   444A     25.421491  
     445A     25.429655   446A     33.536491  

    Final Occupation by Irrep:
              A 
    DOCC [    39 ]

  @DF-RHF Final Energy:  -539.45401124220450

   => Energetics <=

    Nuclear Repulsion Energy =            593.8720802694641634
    One-Electron Energy =               -1912.7669589795084448
    Two-Electron Energy =                 779.4408674678398938
    Total Energy =                       -539.4540112422045013

Computation Completed


Properties will be evaluated at   0.000000,   0.000000,   0.000000 [a0]

Properties computed using the SCF density matrix

  Nuclear Dipole Moment: [e a0]
     X:    75.8451      Y:  -333.6795      Z:   260.5959

  Electronic Dipole Moment: [e a0]
     X:   -78.3522      Y:   331.8754      Z:  -260.9512

  Dipole Moment: [e a0]
     X:    -2.5070      Y:    -1.8041      Z:    -0.3553     Total:     3.1091

  Dipole Moment: [D]
     X:    -6.3723      Y:    -4.5855      Z:    -0.9031     Total:     7.9024


*** tstop() called on node153.bme.utexas.edu at Sun May 12 23:38:29 2024
Module time:
	user time   =     125.63 seconds =       2.09 minutes
	system time =       2.97 seconds =       0.05 minutes
	total time  =         18 seconds =       0.30 minutes
Total time:
	user time   =     504.92 seconds =       8.42 minutes
	system time =      15.41 seconds =       0.26 minutes
	total time  =         79 seconds =       1.32 minutes

*** tstart() called on node153.bme.utexas.edu
*** at Sun May 12 23:38:29 2024


  //>>>>>>>>>>>>>>>>>>>>>>>>>>>>>>>>>>>//
  //               DFMP2               //
  //<<<<<<<<<<<<<<<<<<<<<<<<<<<<<<<<<<<//

   => Loading Basis Set <=

    Name: (JUN-CC-PVDZ AUX)
    Role: RIFIT
    Keyword: DF_BASIS_MP2
    atoms 1, 3, 7, 9, 11, 17, 19, 23, 25, 27 entry N          line   144 file /opt/anaconda/envs/psi4v1.5/share/psi4/basis/jun-cc-pvdz-ri.gbs 
    atoms 2, 4-6, 8, 18, 20-22, 24           entry C          line   100 file /opt/anaconda/envs/psi4v1.5/share/psi4/basis/jun-cc-pvdz-ri.gbs 
    atoms 10, 12-13, 15-16, 26, 28-29, 31-32 entry H          line    30 file /opt/anaconda/envs/psi4v1.5/share/psi4/basis/jun-cc-pvdz-ri.gbs 
    atoms 14, 30                             entry O          line   188 file /opt/anaconda/envs/psi4v1.5/share/psi4/basis/jun-cc-pvdz-ri.gbs 

	 --------------------------------------------------------
	                          DF-MP2                         
	      2nd-Order Density-Fitted Moller-Plesset Theory     
	              RMP2 Wavefunction,   8 Threads             
	                                                         
	        Rob Parrish, Justin Turney, Andy Simmonett,      
	           Ed Hohenstein, and C. David Sherrill          
	 --------------------------------------------------------

   => Auxiliary Basis Set <=

  Basis Set: (JUN-CC-PVDZ AUX)
    Blend: JUN-CC-PVDZ-RI
    Number of shells: 522
    Number of basis functions: 1570
    Number of Cartesian functions: 1822
    Spherical Harmonics?: true
    Max angular momentum: 3

	 --------------------------------------------------------
	                 NBF =   446, NAUX =  1570
	 --------------------------------------------------------
	   CLASS    FOCC     OCC    AOCC    AVIR     VIR    FVIR
	   PAIRS      11      39      28     407     407       0
	 --------------------------------------------------------

	 Will attempt to load fitting metric from file 97.

	-----------------------------------------------------------
	 ==================> DF-MP2 Energies <==================== 
	-----------------------------------------------------------
	 Reference Energy          =    -539.4540112422045013 [Eh]
	 Singles Energy            =      -0.0000000000000000 [Eh]
	 Same-Spin Energy          =      -0.4606419131082389 [Eh]
	 Opposite-Spin Energy      =      -1.1849478658790862 [Eh]
	 Correlation Energy        =      -1.6455897789873251 [Eh]
	 Total Energy              =    -541.0996010211918019 [Eh]
	-----------------------------------------------------------
	 ================> DF-SCS-MP2 Energies <================== 
	-----------------------------------------------------------
	 SCS Same-Spin Scale       =       0.3333333333333333 [-]
	 SCS Opposite-Spin Scale   =       1.2000000000000000 [-]
	 SCS Same-Spin Energy      =      -0.1535473043694129 [Eh]
	 SCS Opposite-Spin Energy  =      -1.4219374390549033 [Eh]
	 SCS Correlation Energy    =      -1.5754847434243162 [Eh]
	 SCS Total Energy          =    -541.0294959856288415 [Eh]
	-----------------------------------------------------------


*** tstop() called on node153.bme.utexas.edu at Sun May 12 23:38:37 2024
Module time:
	user time   =      36.47 seconds =       0.61 minutes
	system time =       1.57 seconds =       0.03 minutes
	total time  =          8 seconds =       0.13 minutes
Total time:
	user time   =     541.40 seconds =       9.02 minutes
	system time =      16.98 seconds =       0.28 minutes
	total time  =         87 seconds =       1.45 minutes
  Constructing Basis Sets for SAPT...

   => Loading Basis Set <=

    Name: (JUN-CC-PVDZ AUX)
    Role: RIFIT
    Keyword: DF_BASIS_SAPT
    atoms 1, 3, 7, 9, 11, 17, 19, 23, 25, 27 entry N          line   144 file /opt/anaconda/envs/psi4v1.5/share/psi4/basis/jun-cc-pvdz-ri.gbs 
    atoms 2, 4-6, 8, 18, 20-22, 24           entry C          line   100 file /opt/anaconda/envs/psi4v1.5/share/psi4/basis/jun-cc-pvdz-ri.gbs 
    atoms 10, 12-13, 15-16, 26, 28-29, 31-32 entry H          line    30 file /opt/anaconda/envs/psi4v1.5/share/psi4/basis/jun-cc-pvdz-ri.gbs 
    atoms 14, 30                             entry O          line   188 file /opt/anaconda/envs/psi4v1.5/share/psi4/basis/jun-cc-pvdz-ri.gbs 


  //>>>>>>>>>>>>>>>>>>>>>>>>>>>>>>>>>>>//
  //           SAPT2+(3)DMP2           //
  //<<<<<<<<<<<<<<<<<<<<<<<<<<<<<<<<<<<//


*** tstart() called on node153.bme.utexas.edu
*** at Sun May 12 23:38:37 2024

      SAPT2+(3)  
    Ed Hohenstein
     6 June 2009

      Orbital Information
  --------------------------
    NSO        =       446
    NMO        =       446
    NRI        =      1570
    NOCC A     =        39
    NOCC B     =        39
    FOCC A     =        11
    FOCC B     =        11
    NVIR A     =       407
    NVIR B     =       407

    Estimated memory usage: 8127.4 MB

    Natural Orbital Cutoff:   1.000E-06
    Disp(T3) Truncation:            Yes
    CCD (vv|vv) Truncation:         Yes
    MBPT T2 Truncation:             Yes

    Monomer A: 213 virtual orbitals dropped
    Monomer B: 213 virtual orbitals dropped

    Elst10,r            =     0.008763266992 [Eh]
    Exch10 (S^2)        =     0.001301811234 [Eh]
    Exch10              =     0.001302097228 [Eh]
    Ind20,r (A<-B)      =    -0.000934601522 [Eh]
    Ind20,r (B<-A)      =    -0.000867049082 [Eh]
    Ind20,r             =    -0.001801650604 [Eh]
    Exch-Ind20,r (A<-B) =     0.000182448036 [Eh]
    Exch-Ind20,r (B<-A) =     0.000177930734 [Eh]
    Exch-Ind20,r        =     0.000360378770 [Eh]
    Disp20              =    -0.004056456975 [Eh]
    Disp20 (NO)         =    -0.003915516041 [Eh]
    Exch-Disp20         =     0.000150714782 [Eh]
    Elst12,r            =    -0.003254600404 [Eh]
    Exch11              =    -0.000044081897 [Eh]
    Exch12              =     0.000372854869 [Eh]
    Ind22               =    -0.000080676152 [Eh]
    Disp21              =     0.001046134540 [Eh]
    Disp22 (SDQ)        =    -0.000308560627 [Eh]

    (i =   1 of  28)        166 seconds
    (i =   2 of  28)        329 seconds
    (i =   3 of  28)        498 seconds
    (i =   4 of  28)        656 seconds
    (i =   5 of  28)        812 seconds
    (i =   6 of  28)        977 seconds
    (i =   7 of  28)       1140 seconds
    (i =   8 of  28)       1307 seconds
    (i =   9 of  28)       1481 seconds
    (i =  10 of  28)       1649 seconds
    (i =  11 of  28)       1841 seconds
    (i =  12 of  28)       2034 seconds
    (i =  13 of  28)       2228 seconds
    (i =  14 of  28)       2419 seconds
    (i =  15 of  28)       2613 seconds
    (i =  16 of  28)       2811 seconds
    (i =  17 of  28)       3017 seconds
    (i =  18 of  28)       3221 seconds
    (i =  19 of  28)       3433 seconds
    (i =  20 of  28)       3650 seconds
    (i =  21 of  28)       3851 seconds
    (i =  22 of  28)       4059 seconds
    (i =  23 of  28)       4278 seconds
    (i =  24 of  28)       4512 seconds
    (i =  25 of  28)       4769 seconds
    (i =  26 of  28)       5033 seconds
    (i =  27 of  28)       5294 seconds
    (i =  28 of  28)       5558 seconds

    Disp220 (T)         =    -0.000445778314 [Eh]

    (i =   1 of  28)        282 seconds
    (i =   2 of  28)        575 seconds
    (i =   3 of  28)        847 seconds
    (i =   4 of  28)       1049 seconds
    (i =   5 of  28)       1229 seconds
    (i =   6 of  28)       1453 seconds
    (i =   7 of  28)       1727 seconds
    (i =   8 of  28)       2009 seconds
    (i =   9 of  28)       2286 seconds
    (i =  10 of  28)       2575 seconds
    (i =  11 of  28)       2859 seconds
    (i =  12 of  28)       3124 seconds
    (i =  13 of  28)       3371 seconds
    (i =  14 of  28)       3598 seconds
    (i =  15 of  28)       3825 seconds
    (i =  16 of  28)       4055 seconds
    (i =  17 of  28)       4303 seconds
    (i =  18 of  28)       4556 seconds
    (i =  19 of  28)       4821 seconds
    (i =  20 of  28)       5069 seconds
    (i =  21 of  28)       5320 seconds
    (i =  22 of  28)       5545 seconds
    (i =  23 of  28)       5734 seconds
    (i =  24 of  28)       5921 seconds
    (i =  25 of  28)       6109 seconds
    (i =  26 of  28)       6296 seconds
    (i =  27 of  28)       6482 seconds
    (i =  28 of  28)       6668 seconds

    Disp202 (T)         =    -0.000450955917 [Eh]

    Disp22 (T)          =    -0.000896734231 [Eh]

    Est. Disp220 (T)    =    -0.000461824324 [Eh]
    Est. Disp202 (T)    =    -0.000467188298 [Eh]

    Est. Disp22 (T)     =    -0.000929012622 [Eh]
    Elst13,r            =     0.001067084978 [Eh]
    Disp30              =     0.000014760690 [Eh]

    SAPT Results 
  --------------------------------------------------------------------------------------------------------
    Electrostatics                  6.57575157 [mEh]       4.12634641 [kcal/mol]      17.26463336 [kJ/mol]
      Elst10,r                      8.76326699 [mEh]       5.49903306 [kcal/mol]      23.00795432 [kJ/mol]
      Elst12,r                     -3.25460040 [mEh]      -2.04229259 [kcal/mol]      -8.54495218 [kJ/mol]
      Elst13,r                      1.06708498 [mEh]       0.66960593 [kcal/mol]       2.80163122 [kJ/mol]

    Exchange                        1.63087020 [mEh]       1.02338650 [kcal/mol]       4.28184912 [kJ/mol]
      Exch10                        1.30209723 [mEh]       0.81707835 [kcal/mol]       3.41865580 [kJ/mol]
      Exch10(S^2)                   1.30181123 [mEh]       0.81689888 [kcal/mol]       3.41790492 [kJ/mol]
      Exch11(S^2)                  -0.04408190 [mEh]      -0.02766181 [kcal/mol]      -0.11573700 [kJ/mol]
      Exch12(S^2)                   0.37285487 [mEh]       0.23396996 [kcal/mol]       0.97893032 [kJ/mol]

    Induction                      -1.13765308 [mEh]      -0.71388808 [kcal/mol]      -2.98690775 [kJ/mol]
      Ind20,r                      -1.80165060 [mEh]      -1.13055282 [kcal/mol]      -4.73023301 [kJ/mol]
      Ind22                        -0.08067615 [mEh]      -0.05062505 [kcal/mol]      -0.21181521 [kJ/mol]
      Exch-Ind20,r                  0.36037877 [mEh]       0.22614109 [kcal/mol]       0.94617433 [kJ/mol]
      Exch-Ind22                    0.01613741 [mEh]       0.01012638 [kcal/mol]       0.04236876 [kJ/mol]
      delta HF,r (2)                0.08885597 [mEh]       0.05575796 [kcal/mol]       0.23329130 [kJ/mol]
      delta MP2,r (2)               0.27930153 [mEh]       0.17526436 [kcal/mol]       0.73330607 [kJ/mol]

    Dispersion                     -4.08242021 [mEh]      -2.56175736 [kcal/mol]     -10.71839279 [kJ/mol]
      Disp20                       -4.05645697 [mEh]      -2.54546518 [kcal/mol]     -10.65022632 [kJ/mol]
      Disp30                        0.01476069 [mEh]       0.00926247 [kcal/mol]       0.03875419 [kJ/mol]
      Disp21                        1.04613454 [mEh]       0.65645933 [kcal/mol]       2.74662586 [kJ/mol]
      Disp22 (SDQ)                 -0.30856063 [mEh]      -0.19362472 [kcal/mol]      -0.81012581 [kJ/mol]
      Disp22 (T)                   -0.89673423 [mEh]      -0.56270923 [kcal/mol]      -2.35437540 [kJ/mol]
      Est. Disp22 (T)              -0.92901262 [mEh]      -0.58296422 [kcal/mol]      -2.43912230 [kJ/mol]
      Exch-Disp20                   0.15071478 [mEh]       0.09457495 [kcal/mol]       0.39570161 [kJ/mol]

  Total HF                          8.71294835 [mEh]       5.46745764 [kcal/mol]      22.87584275 [kJ/mol]
  Total SAPT0                       4.80720616 [mEh]       3.01656741 [kcal/mol]      12.62131803 [kJ/mol]
  Total SAPT2                       1.81683999 [mEh]       1.14008430 [kcal/mol]       4.77011272 [kJ/mol]
  Total SAPT2+                      1.62540128 [mEh]       1.01995470 [kcal/mol]       4.26749046 [kJ/mol]
  Total SAPT2+(3)                   2.70724694 [mEh]       1.69882311 [kcal/mol]       7.10787587 [kJ/mol]
  Total SAPT2+dMP2                  1.90470281 [mEh]       1.19521906 [kcal/mol]       5.00079654 [kJ/mol]
  Total SAPT2+(3)dMP2               2.98654848 [mEh]       1.87408746 [kcal/mol]       7.84118195 [kJ/mol]

  Special recipe for scaled SAPT0 (see Manual):
    Electrostatics sSAPT0           8.76326699 [mEh]       5.49903306 [kcal/mol]      23.00795432 [kJ/mol]
    Exchange sSAPT0                 1.30209723 [mEh]       0.81707835 [kcal/mol]       3.41865580 [kJ/mol]
    Induction sSAPT0               -1.35217830 [mEh]      -0.84850469 [kcal/mol]      -3.55014364 [kJ/mol]
    Dispersion sSAPT0              -3.90564284 [mEh]      -2.45082788 [kcal/mol]     -10.25426386 [kJ/mol]
  Total sSAPT0                      4.80754308 [mEh]       3.01677883 [kcal/mol]      12.62220261 [kJ/mol]
  --------------------------------------------------------------------------------------------------------

*** tstop() called on node153.bme.utexas.edu at Mon May 13 03:21:13 2024
Module time:
	user time   =   89117.76 seconds =    1485.30 minutes
	system time =     582.24 seconds =       9.70 minutes
	total time  =      13356 seconds =     222.60 minutes
Total time:
	user time   =   89659.99 seconds =    1494.33 minutes
	system time =     599.23 seconds =       9.99 minutes
	total time  =      13443 seconds =     224.05 minutes

    Psi4 stopped on: Monday, 13 May 2024 03:21AM
    Psi4 wall time for execution: 3:44:03.60

*** Psi4 exiting successfully. Buy a developer a beer!
