
    -----------------------------------------------------------------------
          Psi4: An Open-Source Ab Initio Electronic Structure Package
                               Psi4 1.5 release

                         Git: Rev {HEAD} e9f4d6d 


    D. G. A. Smith, L. A. Burns, A. C. Simmonett, R. M. Parrish,
    M. C. Schieber, R. Galvelis, P. Kraus, H. Kruse, R. Di Remigio,
    A. Alenaizan, A. M. James, S. Lehtola, J. P. Misiewicz, M. Scheurer,
    R. A. Shaw, J. B. Schriber, Y. Xie, Z. L. Glick, D. A. Sirianni,
    J. S. O'Brien, J. M. Waldrop, A. Kumar, E. G. Hohenstein,
    B. P. Pritchard, B. R. Brooks, H. F. Schaefer III, A. Yu. Sokolov,
    K. Patkowski, A. E. DePrince III, U. Bozkaya, R. A. King,
    F. A. Evangelista, J. M. Turney, T. D. Crawford, C. D. Sherrill,
    J. Chem. Phys. 152(18) 184108 (2020). https://doi.org/10.1063/5.0006002

                            Additional Code Authors
    E. T. Seidl, C. L. Janssen, E. F. Valeev, M. L. Leininger,
    J. F. Gonthier, R. M. Richard, H. R. McAlexander, M. Saitow, X. Wang,
    P. Verma, M. H. Lechner, and A. Jiang

             Previous Authors, Complete List of Code Contributors,
                       and Citations for Specific Modules
    https://github.com/psi4/psi4/blob/master/codemeta.json
    https://github.com/psi4/psi4/graphs/contributors
    http://psicode.org/psi4manual/master/introduction.html#citing-psifour

    -----------------------------------------------------------------------


    Psi4 started on: Wednesday, 24 January 2024 02:04PM

    Process ID: 2488692
    Host:       node154.bme.utexas.edu
    PSIDATADIR: /opt/anaconda/envs/psi4v1.5/share/psi4
    Memory:     500.0 MiB
    Threads:    8
    
  ==> Input File <==

--------------------------------------------------------------------------
memory 90GB

molecule {
0 1
N -0.892798 0.641213 -0.000177
C -2.178983 1.129399 -0.000138
N -2.468274 2.425461 -7.7e-05
C -1.363696 3.200471 -5.8e-05
C -0.014974 2.816806 -9.2e-05
C 0.279491 1.416691 -0.000154
N 0.8152 3.928228 -5.6e-05
C -0.0 4.951862 0.0
N -1.336777 4.573395 -0.0
H -0.745051 -0.38547 -0.000222
N -3.173589 0.213779 -0.000162
H -2.999709 -0.796316 -0.000206
H -4.117404 0.565463 -0.000136
O 1.38905 0.85623 -0.000185
H 0.294954 5.996323 3.7e-05
H -2.147795 5.175782 3.4e-05
--
0 1
N -0.866658 -0.911963 3.469297
C -1.531243 -2.110171 3.345924
N -0.920886 -3.289375 3.366161
C 0.414825 -3.176192 3.520426
C 1.193877 -2.018081 3.654986
C 0.520803 -0.755768 3.631111
N 2.53657 -2.338644 3.792327
C 2.572825 -3.645791 3.743024
N 1.31468 -4.211798 3.578963
H -1.412018 -0.029999 3.444204
N -2.873459 -2.045085 3.198204
H -3.388337 -1.159103 3.176689
H -3.365335 -2.919318 3.107408
O 1.004888 0.384732 3.731899
H 3.46595 -4.257826 3.818102
H 1.084291 -5.193226 3.513087
 units angstrom
 no_reorient
 symmetry c1}
set  {scf_type DF
 basis aug-cc-pvtz
 freeze_core True
 guess SAD}
energy('sapt2+(3)dmp2')
--------------------------------------------------------------------------

  Memory set to  83.819 GiB by Python driver.

Scratch directory: /tmp/
   => Loading Basis Set <=

    Name: AUG-CC-PVTZ
    Role: ORBITAL
    Keyword: BASIS
    atoms 1, 3, 7, 9, 11, 17, 19, 23, 25, 27 entry N          line   285 file /opt/anaconda/envs/psi4v1.5/share/psi4/basis/aug-cc-pvtz.gbs 
    atoms 2, 4-6, 8, 18, 20-22, 24           entry C          line   239 file /opt/anaconda/envs/psi4v1.5/share/psi4/basis/aug-cc-pvtz.gbs 
    atoms 10, 12-13, 15-16, 26, 28-29, 31-32 entry H          line    40 file /opt/anaconda/envs/psi4v1.5/share/psi4/basis/aug-cc-pvtz.gbs 
    atoms 14, 30                             entry O          line   331 file /opt/anaconda/envs/psi4v1.5/share/psi4/basis/aug-cc-pvtz.gbs 

   => Loading Basis Set <=

    Name: AUG-CC-PVTZ
    Role: ORBITAL
    Keyword: BASIS
    atoms 1, 3, 7, 9, 11, 17, 19, 23, 25, 27 entry N          line   285 file /opt/anaconda/envs/psi4v1.5/share/psi4/basis/aug-cc-pvtz.gbs 
    atoms 2, 4-6, 8, 18, 20-22, 24           entry C          line   239 file /opt/anaconda/envs/psi4v1.5/share/psi4/basis/aug-cc-pvtz.gbs 
    atoms 10, 12-13, 15-16, 26, 28-29, 31-32 entry H          line    40 file /opt/anaconda/envs/psi4v1.5/share/psi4/basis/aug-cc-pvtz.gbs 
    atoms 14, 30                             entry O          line   331 file /opt/anaconda/envs/psi4v1.5/share/psi4/basis/aug-cc-pvtz.gbs 


  //>>>>>>>>>>>>>>>>>>>>>>>>>>>>>>>>>>>//
  //              Dimer HF             //
  //<<<<<<<<<<<<<<<<<<<<<<<<<<<<<<<<<<<//


*** tstart() called on node154.bme.utexas.edu
*** at Wed Jan 24 14:04:37 2024

   => Loading Basis Set <=

    Name: AUG-CC-PVTZ
    Role: ORBITAL
    Keyword: BASIS
    atoms 1, 3, 7, 9, 11, 17, 19, 23, 25, 27 entry N          line   285 file /opt/anaconda/envs/psi4v1.5/share/psi4/basis/aug-cc-pvtz.gbs 
    atoms 2, 4-6, 8, 18, 20-22, 24           entry C          line   239 file /opt/anaconda/envs/psi4v1.5/share/psi4/basis/aug-cc-pvtz.gbs 
    atoms 10, 12-13, 15-16, 26, 28-29, 31-32 entry H          line    40 file /opt/anaconda/envs/psi4v1.5/share/psi4/basis/aug-cc-pvtz.gbs 
    atoms 14, 30                             entry O          line   331 file /opt/anaconda/envs/psi4v1.5/share/psi4/basis/aug-cc-pvtz.gbs 


         ---------------------------------------------------------
                                   SCF
               by Justin Turney, Rob Parrish, Andy Simmonett
                          and Daniel G. A. Smith
                              RHF Reference
                        8 Threads,  85830 MiB Core
         ---------------------------------------------------------

  ==> Geometry <==

    Molecular point group: c1
    Full point group: C1

    Geometry (in Angstrom), charge = 0, multiplicity = 1:

       Center              X                  Y                   Z               Mass       
    ------------   -----------------  -----------------  -----------------  -----------------
         N           -0.606213346932     0.560701484493    -1.772237881149    14.003074004430
         C           -1.892398346932     1.048887484493    -1.772198881149    12.000000000000
         N           -2.181689346932     2.344949484493    -1.772137881149    14.003074004430
         C           -1.077111346932     3.119959484493    -1.772118881149    12.000000000000
         C            0.271610653068     2.736294484493    -1.772152881149    12.000000000000
         C            0.566075653068     1.336179484493    -1.772214881149    12.000000000000
         N            1.101784653068     3.847716484493    -1.772116881149    14.003074004430
         C            0.286584653068     4.871350484493    -1.772060881149    12.000000000000
         N           -1.050192346932     4.492883484493    -1.772060881149    14.003074004430
         H           -0.458466346932    -0.465981515507    -1.772282881149     1.007825032230
         N           -2.887004346932     0.133267484493    -1.772222881149    14.003074004430
         H           -2.713124346932    -0.876827515507    -1.772266881149     1.007825032230
         H           -3.830819346932     0.484951484493    -1.772196881149     1.007825032230
         O            1.675634653068     0.775718484493    -1.772245881149    15.994914619570
         H            0.581538653068     5.915811484493    -1.772023881149     1.007825032230
         H           -1.861210346932     5.095270484493    -1.772026881149     1.007825032230
         N           -0.580073346932    -0.992474515507     1.697236118851    14.003074004430
         C           -1.244658346932    -2.190682515507     1.573863118851    12.000000000000
         N           -0.634301346932    -3.369886515507     1.594100118851    14.003074004430
         C            0.701409653068    -3.256703515507     1.748365118851    12.000000000000
         C            1.480461653068    -2.098592515507     1.882925118851    12.000000000000
         C            0.807387653068    -0.836279515507     1.859050118851    12.000000000000
         N            2.823154653068    -2.419155515507     2.020266118851    14.003074004430
         C            2.859409653068    -3.726302515507     1.970963118851    12.000000000000
         N            1.601264653068    -4.292309515507     1.806902118851    14.003074004430
         H           -1.125433346932    -0.110510515507     1.672143118851     1.007825032230
         N           -2.586874346932    -2.125596515507     1.426143118851    14.003074004430
         H           -3.101752346932    -1.239614515507     1.404628118851     1.007825032230
         H           -3.078750346932    -2.999829515507     1.335347118851     1.007825032230
         O            1.291472653068     0.304220484493     1.959838118851    15.994914619570
         H            3.752534653068    -4.338337515507     2.046041118851     1.007825032230
         H            1.370875653068    -5.273737515507     1.741026118851     1.007825032230

  Running in c1 symmetry.

  Rotational constants: A =      0.01764  B =      0.00518  C =      0.00445 [cm^-1]
  Rotational constants: A =    528.88030  B =    155.39221  C =    133.39982 [MHz]
  Nuclear repulsion = 1721.435098557516540

  Charge       = 0
  Multiplicity = 1
  Electrons    = 156
  Nalpha       = 78
  Nbeta        = 78

  ==> Algorithm <==

  SCF Algorithm Type is DF.
  DIIS enabled.
  MOM disabled.
  Fractional occupation disabled.
  Guess Type is SAD.
  Energy threshold   = 1.00e-08
  Density threshold  = 1.00e-08
  Integral threshold = 1.00e-12

  ==> Primary Basis <==

  Basis Set: AUG-CC-PVTZ
    Blend: AUG-CC-PVTZ
    Number of shells: 398
    Number of basis functions: 1242
    Number of Cartesian functions: 1460
    Spherical Harmonics?: true
    Max angular momentum: 3

   => Loading Basis Set <=

    Name: (AUG-CC-PVTZ AUX)
    Role: JKFIT
    Keyword: DF_BASIS_SCF
    atoms 1, 3, 7, 9, 11, 17, 19, 23, 25, 27 entry N          line   224 file /opt/anaconda/envs/psi4v1.5/share/psi4/basis/aug-cc-pvtz-jkfit.gbs 
    atoms 2, 4-6, 8, 18, 20-22, 24           entry C          line   162 file /opt/anaconda/envs/psi4v1.5/share/psi4/basis/aug-cc-pvtz-jkfit.gbs 
    atoms 10, 12-13, 15-16, 26, 28-29, 31-32 entry H          line    70 file /opt/anaconda/envs/psi4v1.5/share/psi4/basis/aug-cc-pvtz-jkfit.gbs 
    atoms 14, 30                             entry O          line   286 file /opt/anaconda/envs/psi4v1.5/share/psi4/basis/aug-cc-pvtz-jkfit.gbs 

  ==> Integral Setup <==

  ==> DiskDFJK: Density-Fitted J/K Matrices <==

    J tasked:                  Yes
    K tasked:                  Yes
    wK tasked:                  No
    OpenMP threads:              8
    Integrals threads:           8
    Memory [MiB]:            64373
    Algorithm:                Core
    Integral Cache:           SAVE
    Schwarz Cutoff:          1E-12
    Fitting Condition:       1E-10

   => Auxiliary Basis Set <=

  Basis Set: (AUG-CC-PVTZ AUX)
    Blend: AUG-CC-PVTZ-JKFIT
    Number of shells: 800
    Number of basis functions: 2748
    Number of Cartesian functions: 3432
    Spherical Harmonics?: true
    Max angular momentum: 4

  Minimum eigenvalue in the overlap matrix is 1.1818376172E-06.
  Reciprocal condition number of the overlap matrix is 6.0592689057E-08.
    Using symmetric orthogonalization.

  ==> Pre-Iterations <==

  SCF Guess: Superposition of Atomic Densities via on-the-fly atomic UHF (no occupation information).

   -------------------------
    Irrep   Nso     Nmo    
   -------------------------
     A       1242    1242 
   -------------------------
    Total    1242    1242
   -------------------------

  ==> Iterations <==

                           Total Energy        Delta E     RMS |[F,P]|

   @DF-RHF iter SAD: -1078.64838075710236   -1.07865e+03   0.00000e+00 
   @DF-RHF iter   1: -1078.52031716750344    1.28064e-01   9.15498e-04 DIIS
   @DF-RHF iter   2: -1078.96982757947399   -4.49510e-01   5.63946e-04 DIIS
   @DF-RHF iter   3: -1079.14681381983223   -1.76986e-01   1.19659e-04 DIIS
   @DF-RHF iter   4: -1079.15800160964091   -1.11878e-02   4.64431e-05 DIIS
   @DF-RHF iter   5: -1079.16001626602520   -2.01466e-03   9.93404e-06 DIIS
   @DF-RHF iter   6: -1079.16021928192640   -2.03016e-04   5.27319e-06 DIIS
   @DF-RHF iter   7: -1079.16027680109573   -5.75192e-05   2.20307e-06 DIIS
   @DF-RHF iter   8: -1079.16028796260002   -1.11615e-05   7.57183e-07 DIIS
   @DF-RHF iter   9: -1079.16028921487896   -1.25228e-06   2.98581e-07 DIIS
   @DF-RHF iter  10: -1079.16028943510287   -2.20224e-07   1.27957e-07 DIIS
   @DF-RHF iter  11: -1079.16028947076757   -3.56647e-08   5.25480e-08 DIIS
   @DF-RHF iter  12: -1079.16028947597783   -5.21027e-09   1.86737e-08 DIIS
   @DF-RHF iter  13: -1079.16028947672748   -7.49651e-10   7.49548e-09 DIIS
  Energy and wave function converged.


  ==> Post-Iterations <==

    Orbital Energies [Eh]
    ---------------------

    Doubly Occupied:                                                      

       1A    -20.507946     2A    -20.504597     3A    -15.638479  
       4A    -15.635189     5A    -15.629134     6A    -15.627502  
       7A    -15.627368     8A    -15.625167     9A    -15.570640  
      10A    -15.568133    11A    -15.558209    12A    -15.556208  
      13A    -11.408845    14A    -11.406335    15A    -11.358021  
      16A    -11.354860    17A    -11.324662    18A    -11.321942  
      19A    -11.306860    20A    -11.304737    21A    -11.243365  
      22A    -11.240662    23A     -1.387616    24A     -1.384596  
      25A     -1.346497    26A     -1.343810    27A     -1.332932  
      28A     -1.330243    29A     -1.231478    30A     -1.229171  
      31A     -1.218035    32A     -1.215175    33A     -1.170936  
      34A     -1.168653    35A     -1.027232    36A     -1.024620  
      37A     -0.904089    38A     -0.901378    39A     -0.895988  
      40A     -0.893430    41A     -0.834591    42A     -0.832338  
      43A     -0.806411    44A     -0.803950    45A     -0.747628  
      46A     -0.745287    47A     -0.740410    48A     -0.737802  
      49A     -0.714139    50A     -0.712030    51A     -0.668877  
      52A     -0.666249    53A     -0.661410    54A     -0.656247  
      55A     -0.635199    56A     -0.632751    57A     -0.601495  
      58A     -0.599163    59A     -0.598907    60A     -0.595573  
      61A     -0.592299    62A     -0.589353    63A     -0.546720  
      64A     -0.538912    65A     -0.494648    66A     -0.492373  
      67A     -0.460151    68A     -0.455444    69A     -0.432766  
      70A     -0.430509    71A     -0.430071    72A     -0.423024  
      73A     -0.420812    74A     -0.417919    75A     -0.404389  
      76A     -0.401925    77A     -0.294074    78A     -0.291327  

    Virtual:                                                              

      79A      0.002604    80A      0.020455    81A      0.024256  
      82A      0.024627    83A      0.031292    84A      0.039032  
      85A      0.044477    86A      0.048713    87A      0.056846  
      88A      0.058438    89A      0.069485    90A      0.074610  
      91A      0.078669    92A      0.084563    93A      0.086958  
      94A      0.091567    95A      0.094906    96A      0.096808  
      97A      0.098370    98A      0.102419    99A      0.104569  
     100A      0.108072   101A      0.108570   102A      0.112216  
     103A      0.117990   104A      0.118798   105A      0.122017  
     106A      0.123175   107A      0.124950   108A      0.126249  
     109A      0.127738   110A      0.129625   111A      0.130011  
     112A      0.133081   113A      0.142746   114A      0.143604  
     115A      0.145745   116A      0.147061   117A      0.150206  
     118A      0.153371   119A      0.156941   120A      0.157882  
     121A      0.161631   122A      0.162616   123A      0.166765  
     124A      0.170920   125A      0.171407   126A      0.178601  
     127A      0.181032   128A      0.184723   129A      0.187638  
     130A      0.192526   131A      0.193990   132A      0.196004  
     133A      0.201414   134A      0.204238   135A      0.207340  
     136A      0.211113   137A      0.214786   138A      0.216794  
     139A      0.219606   140A      0.220440   141A      0.224478  
     142A      0.224893   143A      0.226698   144A      0.228853  
     145A      0.233658   146A      0.234920   147A      0.237971  
     148A      0.240119   149A      0.246055   150A      0.247309  
     151A      0.248954   152A      0.254565   153A      0.257257  
     154A      0.258772   155A      0.262550   156A      0.263737  
     157A      0.267013   158A      0.269709   159A      0.275085  
     160A      0.277133   161A      0.283883   162A      0.284937  
     163A      0.286746   164A      0.292136   165A      0.295872  
     166A      0.297219   167A      0.300822   168A      0.303242  
     169A      0.306846   170A      0.310546   171A      0.315284  
     172A      0.317349   173A      0.323285   174A      0.325862  
     175A      0.330028   176A      0.330303   177A      0.334140  
     178A      0.335801   179A      0.336326   180A      0.338194  
     181A      0.341987   182A      0.345097   183A      0.349472  
     184A      0.350655   185A      0.350824   186A      0.357593  
     187A      0.359568   188A      0.361358   189A      0.363828  
     190A      0.365815   191A      0.366124   192A      0.368348  
     193A      0.380647   194A      0.382691   195A      0.383496  
     196A      0.385340   197A      0.386659   198A      0.388941  
     199A      0.389894   200A      0.393396   201A      0.396762  
     202A      0.399450   203A      0.406871   204A      0.411547  
     205A      0.412767   206A      0.413983   207A      0.416964  
     208A      0.419825   209A      0.421102   210A      0.425489  
     211A      0.430716   212A      0.435310   213A      0.436974  
     214A      0.440395   215A      0.446492   216A      0.447345  
     217A      0.449867   218A      0.452800   219A      0.456162  
     220A      0.458546   221A      0.460052   222A      0.462555  
     223A      0.464219   224A      0.467889   225A      0.469618  
     226A      0.474104   227A      0.477018   228A      0.479439  
     229A      0.483009   230A      0.484608   231A      0.489457  
     232A      0.492308   233A      0.497678   234A      0.500637  
     235A      0.502147   236A      0.502857   237A      0.506408  
     238A      0.508122   239A      0.510955   240A      0.514905  
     241A      0.516915   242A      0.519663   243A      0.521413  
     244A      0.523313   245A      0.523866   246A      0.526989  
     247A      0.534054   248A      0.537528   249A      0.540247  
     250A      0.545732   251A      0.547783   252A      0.548328  
     253A      0.551989   254A      0.559213   255A      0.560920  
     256A      0.564174   257A      0.565748   258A      0.567235  
     259A      0.569647   260A      0.572839   261A      0.579310  
     262A      0.584461   263A      0.585415   264A      0.588423  
     265A      0.590855   266A      0.596076   267A      0.601676  
     268A      0.602099   269A      0.605560   270A      0.608012  
     271A      0.611760   272A      0.618374   273A      0.623749  
     274A      0.627399   275A      0.630653   276A      0.632716  
     277A      0.637965   278A      0.641385   279A      0.644814  
     280A      0.648683   281A      0.650911   282A      0.655142  
     283A      0.662451   284A      0.664165   285A      0.668478  
     286A      0.668560   287A      0.670690   288A      0.676215  
     289A      0.677495   290A      0.679539   291A      0.683407  
     292A      0.687397   293A      0.691653   294A      0.695161  
     295A      0.697391   296A      0.703611   297A      0.710311  
     298A      0.712758   299A      0.716238   300A      0.719112  
     301A      0.720373   302A      0.724847   303A      0.729081  
     304A      0.731745   305A      0.740306   306A      0.742004  
     307A      0.745021   308A      0.747187   309A      0.752549  
     310A      0.755723   311A      0.756242   312A      0.766413  
     313A      0.769470   314A      0.773459   315A      0.773733  
     316A      0.775351   317A      0.779952   318A      0.782566  
     319A      0.784061   320A      0.791823   321A      0.794105  
     322A      0.801722   323A      0.803916   324A      0.806088  
     325A      0.809043   326A      0.812033   327A      0.815518  
     328A      0.820047   329A      0.826495   330A      0.829786  
     331A      0.831935   332A      0.834007   333A      0.839627  
     334A      0.841153   335A      0.846623   336A      0.852785  
     337A      0.856157   338A      0.862221   339A      0.864830  
     340A      0.866832   341A      0.876234   342A      0.878430  
     343A      0.881346   344A      0.883936   345A      0.884888  
     346A      0.889302   347A      0.890699   348A      0.893537  
     349A      0.895977   350A      0.899097   351A      0.906686  
     352A      0.910111   353A      0.914572   354A      0.916683  
     355A      0.918880   356A      0.924286   357A      0.926422  
     358A      0.931028   359A      0.934190   360A      0.937617  
     361A      0.941476   362A      0.947628   363A      0.950175  
     364A      0.951457   365A      0.952907   366A      0.959135  
     367A      0.970674   368A      0.972025   369A      0.974451  
     370A      0.981250   371A      0.983994   372A      0.988667  
     373A      0.990027   374A      0.994663   375A      0.999786  
     376A      1.002676   377A      1.004451   378A      1.005725  
     379A      1.008997   380A      1.010972   381A      1.016815  
     382A      1.018865   383A      1.021700   384A      1.027663  
     385A      1.028508   386A      1.032727   387A      1.035996  
     388A      1.038472   389A      1.042447   390A      1.045791  
     391A      1.051856   392A      1.053848   393A      1.058086  
     394A      1.059362   395A      1.062405   396A      1.067348  
     397A      1.072890   398A      1.074951   399A      1.078455  
     400A      1.079514   401A      1.082800   402A      1.084945  
     403A      1.086788   404A      1.090056   405A      1.096541  
     406A      1.098491   407A      1.103502   408A      1.104547  
     409A      1.105830   410A      1.112263   411A      1.114952  
     412A      1.119016   413A      1.121829   414A      1.122968  
     415A      1.127042   416A      1.129082   417A      1.137226  
     418A      1.142337   419A      1.147566   420A      1.152406  
     421A      1.154024   422A      1.154262   423A      1.162374  
     424A      1.166682   425A      1.171553   426A      1.173479  
     427A      1.180133   428A      1.183094   429A      1.186988  
     430A      1.190693   431A      1.193991   432A      1.197825  
     433A      1.201447   434A      1.205714   435A      1.211931  
     436A      1.216817   437A      1.220238   438A      1.226639  
     439A      1.230676   440A      1.234084   441A      1.235021  
     442A      1.239785   443A      1.242087   444A      1.247234  
     445A      1.249504   446A      1.252701   447A      1.253858  
     448A      1.259508   449A      1.262831   450A      1.264331  
     451A      1.271752   452A      1.276472   453A      1.279981  
     454A      1.283719   455A      1.287901   456A      1.291402  
     457A      1.298762   458A      1.301491   459A      1.306891  
     460A      1.311991   461A      1.323621   462A      1.327443  
     463A      1.331236   464A      1.334875   465A      1.334977  
     466A      1.339527   467A      1.343145   468A      1.344107  
     469A      1.346776   470A      1.352042   471A      1.358513  
     472A      1.359078   473A      1.367599   474A      1.371124  
     475A      1.376056   476A      1.377465   477A      1.381956  
     478A      1.384700   479A      1.392081   480A      1.397231  
     481A      1.400621   482A      1.402679   483A      1.404817  
     484A      1.405343   485A      1.408638   486A      1.414272  
     487A      1.421782   488A      1.427098   489A      1.428339  
     490A      1.430723   491A      1.434055   492A      1.438358  
     493A      1.442693   494A      1.444675   495A      1.446636  
     496A      1.451592   497A      1.457021   498A      1.464098  
     499A      1.468082   500A      1.472088   501A      1.476869  
     502A      1.481992   503A      1.483014   504A      1.488235  
     505A      1.493769   506A      1.501128   507A      1.503083  
     508A      1.505308   509A      1.507090   510A      1.508221  
     511A      1.520656   512A      1.524964   513A      1.532902  
     514A      1.541697   515A      1.546090   516A      1.547874  
     517A      1.552732   518A      1.555829   519A      1.559227  
     520A      1.561268   521A      1.563044   522A      1.563783  
     523A      1.570181   524A      1.579733   525A      1.584617  
     526A      1.590682   527A      1.594996   528A      1.603508  
     529A      1.606904   530A      1.610907   531A      1.616890  
     532A      1.622282   533A      1.624138   534A      1.627256  
     535A      1.633771   536A      1.638319   537A      1.645890  
     538A      1.653432   539A      1.655829   540A      1.660014  
     541A      1.663449   542A      1.668917   543A      1.671164  
     544A      1.672870   545A      1.676070   546A      1.681760  
     547A      1.691118   548A      1.695394   549A      1.704434  
     550A      1.707426   551A      1.711409   552A      1.714437  
     553A      1.720483   554A      1.728052   555A      1.729149  
     556A      1.733270   557A      1.740685   558A      1.746047  
     559A      1.751539   560A      1.757544   561A      1.761009  
     562A      1.763728   563A      1.767393   564A      1.773071  
     565A      1.774593   566A      1.778977   567A      1.785744  
     568A      1.795735   569A      1.803449   570A      1.810612  
     571A      1.813406   572A      1.817703   573A      1.822784  
     574A      1.829560   575A      1.835674   576A      1.842910  
     577A      1.845447   578A      1.852777   579A      1.854593  
     580A      1.863996   581A      1.871369   582A      1.876244  
     583A      1.881866   584A      1.887268   585A      1.889756  
     586A      1.895014   587A      1.899283   588A      1.905786  
     589A      1.914117   590A      1.916638   591A      1.930913  
     592A      1.933236   593A      1.940752   594A      1.948775  
     595A      1.959390   596A      1.963160   597A      1.973113  
     598A      1.985245   599A      1.991619   600A      1.995305  
     601A      2.000156   602A      2.005827   603A      2.009159  
     604A      2.019577   605A      2.022203   606A      2.026982  
     607A      2.037153   608A      2.039858   609A      2.044665  
     610A      2.050067   611A      2.066815   612A      2.068997  
     613A      2.076352   614A      2.083984   615A      2.086459  
     616A      2.090631   617A      2.095958   618A      2.098037  
     619A      2.102034   620A      2.106576   621A      2.112949  
     622A      2.116157   623A      2.124265   624A      2.128329  
     625A      2.129593   626A      2.138175   627A      2.146172  
     628A      2.155294   629A      2.162166   630A      2.164196  
     631A      2.166445   632A      2.172872   633A      2.176091  
     634A      2.183531   635A      2.190695   636A      2.193359  
     637A      2.200937   638A      2.213428   639A      2.221895  
     640A      2.224435   641A      2.228460   642A      2.236403  
     643A      2.242348   644A      2.247218   645A      2.257382  
     646A      2.265035   647A      2.266596   648A      2.274727  
     649A      2.277064   650A      2.282462   651A      2.288083  
     652A      2.291957   653A      2.304318   654A      2.314085  
     655A      2.317545   656A      2.322532   657A      2.326438  
     658A      2.326903   659A      2.333929   660A      2.341520  
     661A      2.343746   662A      2.349898   663A      2.354012  
     664A      2.355440   665A      2.357837   666A      2.364002  
     667A      2.368466   668A      2.378253   669A      2.380095  
     670A      2.384946   671A      2.402549   672A      2.406030  
     673A      2.412038   674A      2.416653   675A      2.418846  
     676A      2.424173   677A      2.429170   678A      2.430275  
     679A      2.439252   680A      2.441914   681A      2.452544  
     682A      2.453817   683A      2.455627   684A      2.458914  
     685A      2.470457   686A      2.472873   687A      2.478901  
     688A      2.484126   689A      2.486737   690A      2.494529  
     691A      2.500540   692A      2.508691   693A      2.510609  
     694A      2.520420   695A      2.523037   696A      2.531994  
     697A      2.540308   698A      2.543852   699A      2.550349  
     700A      2.554968   701A      2.556101   702A      2.563893  
     703A      2.572905   704A      2.582574   705A      2.584830  
     706A      2.592471   707A      2.601228   708A      2.608697  
     709A      2.615513   710A      2.618915   711A      2.622996  
     712A      2.633677   713A      2.635918   714A      2.655736  
     715A      2.659467   716A      2.663674   717A      2.667338  
     718A      2.674655   719A      2.677925   720A      2.684104  
     721A      2.690690   722A      2.696413   723A      2.701878  
     724A      2.706650   725A      2.710353   726A      2.728631  
     727A      2.732942   728A      2.739307   729A      2.752347  
     730A      2.754599   731A      2.757715   732A      2.765044  
     733A      2.769078   734A      2.773647   735A      2.776916  
     736A      2.780272   737A      2.784810   738A      2.797252  
     739A      2.805117   740A      2.810940   741A      2.815765  
     742A      2.821802   743A      2.829058   744A      2.834350  
     745A      2.842986   746A      2.853786   747A      2.858262  
     748A      2.863866   749A      2.871911   750A      2.872738  
     751A      2.881947   752A      2.892152   753A      2.912970  
     754A      2.915302   755A      2.927736   756A      2.940659  
     757A      2.955823   758A      2.961981   759A      2.979675  
     760A      2.991234   761A      3.008612   762A      3.016291  
     763A      3.021437   764A      3.032639   765A      3.049200  
     766A      3.068282   767A      3.073117   768A      3.078474  
     769A      3.096200   770A      3.108330   771A      3.109762  
     772A      3.111894   773A      3.119150   774A      3.131116  
     775A      3.150697   776A      3.157610   777A      3.163908  
     778A      3.167803   779A      3.176737   780A      3.186587  
     781A      3.232371   782A      3.237570   783A      3.246785  
     784A      3.256104   785A      3.265712   786A      3.281074  
     787A      3.291536   788A      3.301843   789A      3.310341  
     790A      3.313119   791A      3.328311   792A      3.342464  
     793A      3.353788   794A      3.365021   795A      3.370495  
     796A      3.373296   797A      3.400334   798A      3.410251  
     799A      3.420118   800A      3.421331   801A      3.432927  
     802A      3.435382   803A      3.442620   804A      3.455354  
     805A      3.472292   806A      3.482506   807A      3.505953  
     808A      3.515746   809A      3.523753   810A      3.528939  
     811A      3.536130   812A      3.547325   813A      3.561057  
     814A      3.568080   815A      3.573046   816A      3.581719  
     817A      3.598409   818A      3.607041   819A      3.611180  
     820A      3.618275   821A      3.623646   822A      3.630845  
     823A      3.640492   824A      3.646275   825A      3.653235  
     826A      3.656593   827A      3.664389   828A      3.669669  
     829A      3.678760   830A      3.682619   831A      3.703811  
     832A      3.714770   833A      3.717883   834A      3.724171  
     835A      3.727938   836A      3.731279   837A      3.740627  
     838A      3.744114   839A      3.750223   840A      3.755282  
     841A      3.766070   842A      3.775894   843A      3.782427  
     844A      3.798702   845A      3.805095   846A      3.813311  
     847A      3.819817   848A      3.823998   849A      3.825700  
     850A      3.830278   851A      3.846807   852A      3.853213  
     853A      3.861070   854A      3.867369   855A      3.873194  
     856A      3.876748   857A      3.883333   858A      3.889615  
     859A      3.899301   860A      3.901020   861A      3.907547  
     862A      3.912223   863A      3.930208   864A      3.932080  
     865A      3.938789   866A      3.942383   867A      3.951882  
     868A      3.966974   869A      3.974280   870A      3.982685  
     871A      3.994108   872A      3.995536   873A      4.018562  
     874A      4.022244   875A      4.027273   876A      4.033839  
     877A      4.041498   878A      4.043268   879A      4.047375  
     880A      4.054282   881A      4.069093   882A      4.076155  
     883A      4.087199   884A      4.089582   885A      4.097094  
     886A      4.106998   887A      4.113142   888A      4.117000  
     889A      4.118782   890A      4.124927   891A      4.137266  
     892A      4.141028   893A      4.145624   894A      4.152453  
     895A      4.156803   896A      4.171278   897A      4.177151  
     898A      4.179091   899A      4.185933   900A      4.192241  
     901A      4.196223   902A      4.199944   903A      4.205716  
     904A      4.213935   905A      4.216895   906A      4.228273  
     907A      4.231203   908A      4.239410   909A      4.243943  
     910A      4.249845   911A      4.252421   912A      4.253192  
     913A      4.255145   914A      4.263260   915A      4.266660  
     916A      4.273581   917A      4.283350   918A      4.291708  
     919A      4.295501   920A      4.302480   921A      4.316415  
     922A      4.320535   923A      4.328485   924A      4.329849  
     925A      4.337604   926A      4.341197   927A      4.343409  
     928A      4.352311   929A      4.354958   930A      4.361076  
     931A      4.364894   932A      4.368853   933A      4.372600  
     934A      4.379268   935A      4.397468   936A      4.400017  
     937A      4.405863   938A      4.418941   939A      4.420518  
     940A      4.432769   941A      4.440496   942A      4.449811  
     943A      4.455561   944A      4.461539   945A      4.465249  
     946A      4.480894   947A      4.495229   948A      4.502511  
     949A      4.505160   950A      4.508381   951A      4.515736  
     952A      4.521748   953A      4.523321   954A      4.530456  
     955A      4.538399   956A      4.544931   957A      4.564355  
     958A      4.574609   959A      4.576237   960A      4.579224  
     961A      4.590233   962A      4.594815   963A      4.624099  
     964A      4.626344   965A      4.635521   966A      4.653584  
     967A      4.659919   968A      4.674468   969A      4.676022  
     970A      4.687237   971A      4.690751   972A      4.693413  
     973A      4.698551   974A      4.707099   975A      4.725329  
     976A      4.727466   977A      4.741804   978A      4.747243  
     979A      4.779822   980A      4.785776   981A      4.794805  
     982A      4.799873   983A      4.802593   984A      4.808538  
     985A      4.813428   986A      4.817944   987A      4.827126  
     988A      4.832073   989A      4.842188   990A      4.850656  
     991A      4.874690   992A      4.878979   993A      4.891303  
     994A      4.898375   995A      4.907047   996A      4.910458  
     997A      4.922341   998A      4.925266   999A      4.930023  
    1000A      4.930502  1001A      4.956935  1002A      4.961984  
    1003A      4.990754  1004A      4.997042  1005A      5.012043  
    1006A      5.019352  1007A      5.026796  1008A      5.031627  
    1009A      5.039027  1010A      5.047773  1011A      5.055562  
    1012A      5.061982  1013A      5.084560  1014A      5.090403  
    1015A      5.116024  1016A      5.119339  1017A      5.144749  
    1018A      5.149337  1019A      5.165926  1020A      5.171080  
    1021A      5.183257  1022A      5.195359  1023A      5.204246  
    1024A      5.212262  1025A      5.220503  1026A      5.223217  
    1027A      5.236907  1028A      5.239238  1029A      5.263772  
    1030A      5.269488  1031A      5.282343  1032A      5.294249  
    1033A      5.304579  1034A      5.307841  1035A      5.329955  
    1036A      5.334694  1037A      5.343883  1038A      5.347839  
    1039A      5.349552  1040A      5.358317  1041A      5.363123  
    1042A      5.368054  1043A      5.420176  1044A      5.423843  
    1045A      5.438359  1046A      5.442793  1047A      5.469899  
    1048A      5.475018  1049A      5.482822  1050A      5.494172  
    1051A      5.496287  1052A      5.500824  1053A      5.506799  
    1054A      5.514093  1055A      5.523481  1056A      5.526507  
    1057A      5.530901  1058A      5.535168  1059A      5.546502  
    1060A      5.548118  1061A      5.555774  1062A      5.560549  
    1063A      5.563931  1064A      5.569317  1065A      5.578927  
    1066A      5.585171  1067A      5.593797  1068A      5.601171  
    1069A      5.612653  1070A      5.617552  1071A      5.636280  
    1072A      5.641818  1073A      5.646592  1074A      5.647980  
    1075A      5.651777  1076A      5.654528  1077A      5.658033  
    1078A      5.671571  1079A      5.680577  1080A      5.681575  
    1081A      5.697336  1082A      5.707330  1083A      5.712769  
    1084A      5.740724  1085A      5.750232  1086A      5.754496  
    1087A      5.757146  1088A      5.758999  1089A      5.761189  
    1090A      5.777619  1091A      5.798589  1092A      5.801783  
    1093A      5.816926  1094A      5.821454  1095A      5.833818  
    1096A      5.838221  1097A      5.841481  1098A      5.857218  
    1099A      5.876310  1100A      5.879640  1101A      5.881923  
    1102A      5.891771  1103A      5.909417  1104A      5.922717  
    1105A      5.926479  1106A      5.928738  1107A      5.938243  
    1108A      5.940522  1109A      5.945458  1110A      5.950121  
    1111A      5.997289  1112A      6.000534  1113A      6.009567  
    1114A      6.034258  1115A      6.062330  1116A      6.067522  
    1117A      6.071066  1118A      6.076184  1119A      6.084734  
    1120A      6.088052  1121A      6.103031  1122A      6.107121  
    1123A      6.115857  1124A      6.124253  1125A      6.149058  
    1126A      6.156979  1127A      6.172759  1128A      6.175946  
    1129A      6.198655  1130A      6.201386  1131A      6.219402  
    1132A      6.221287  1133A      6.225618  1134A      6.235182  
    1135A      6.246804  1136A      6.248106  1137A      6.284535  
    1138A      6.287918  1139A      6.320538  1140A      6.321537  
    1141A      6.343201  1142A      6.351791  1143A      6.428726  
    1144A      6.432767  1145A      6.485800  1146A      6.491379  
    1147A      6.502615  1148A      6.517473  1149A      6.555583  
    1150A      6.564599  1151A      6.582830  1152A      6.585069  
    1153A      6.610261  1154A      6.615447  1155A      6.637863  
    1156A      6.643430  1157A      6.691422  1158A      6.698714  
    1159A      6.723880  1160A      6.725241  1161A      6.732578  
    1162A      6.736987  1163A      6.762242  1164A      6.763881  
    1165A      6.803247  1166A      6.809778  1167A      6.813686  
    1168A      6.814857  1169A      6.838749  1170A      6.851229  
    1171A      6.875323  1172A      6.878787  1173A      6.924620  
    1174A      6.927338  1175A      7.006082  1176A      7.009646  
    1177A      7.014171  1178A      7.016550  1179A      7.035870  
    1180A      7.040517  1181A      7.043177  1182A      7.058042  
    1183A      7.082143  1184A      7.085581  1185A      7.115128  
    1186A      7.119481  1187A      7.194222  1188A      7.205155  
    1189A      7.240597  1190A      7.246908  1191A      7.253283  
    1192A      7.255985  1193A      7.421974  1194A      7.424756  
    1195A      7.436553  1196A      7.442628  1197A      7.474203  
    1198A      7.477783  1199A      7.479634  1200A      7.489127  
    1201A      7.494759  1202A      7.499044  1203A      7.539361  
    1204A      7.543216  1205A      7.670648  1206A      7.684302  
    1207A      7.761451  1208A      7.766458  1209A      7.793435  
    1210A      7.831447  1211A      7.847765  1212A      7.851488  
    1213A      7.883094  1214A      7.891427  1215A      7.977999  
    1216A      7.981893  1217A      7.998085  1218A      8.004028  
    1219A      8.085737  1220A      8.097721  1221A     16.015799  
    1222A     16.112065  1223A     16.357988  1224A     16.372622  
    1225A     16.574090  1226A     16.611216  1227A     16.837809  
    1228A     16.867536  1229A     17.692787  1230A     17.767942  
    1231A     18.202183  1232A     18.249308  1233A     19.103443  
    1234A     19.134613  1235A     19.360499  1236A     19.369024  
    1237A     20.199148  1238A     20.341207  1239A     20.677028  
    1240A     20.868886  1241A     21.157559  1242A     21.314450  

    Final Occupation by Irrep:
              A 
    DOCC [    78 ]

  @DF-RHF Final Energy: -1079.16028947672748

   => Energetics <=

    Nuclear Repulsion Energy =           1721.4350985575165396
    One-Electron Energy =               -4894.3269326547842866
    Two-Electron Energy =                2093.7315446205402623
    Total Energy =                      -1079.1602894767274847

Computation Completed


Properties will be evaluated at   0.000000,   0.000000,   0.000000 [a0]

Properties computed using the SCF density matrix

  Nuclear Dipole Moment: [e a0]
     X:    -9.7815      Y:    -3.5602      Z:    -0.6184

  Electronic Dipole Moment: [e a0]
     X:     4.7402      Y:     1.6947      Z:     0.3293

  Dipole Moment: [e a0]
     X:    -5.0412      Y:    -1.8654      Z:    -0.2891     Total:     5.3831

  Dipole Moment: [D]
     X:   -12.8136      Y:    -4.7415      Z:    -0.7349     Total:    13.6824


*** tstop() called on node154.bme.utexas.edu at Wed Jan 24 14:08:38 2024
Module time:
	user time   =    1691.41 seconds =      28.19 minutes
	system time =      15.80 seconds =       0.26 minutes
	total time  =        241 seconds =       4.02 minutes
Total time:
	user time   =    1691.41 seconds =      28.19 minutes
	system time =      15.80 seconds =       0.26 minutes
	total time  =        241 seconds =       4.02 minutes

*** tstart() called on node154.bme.utexas.edu
*** at Wed Jan 24 14:08:38 2024


  //>>>>>>>>>>>>>>>>>>>>>>>>>>>>>>>>>>>//
  //               DFMP2               //
  //<<<<<<<<<<<<<<<<<<<<<<<<<<<<<<<<<<<//

   => Loading Basis Set <=

    Name: (AUG-CC-PVTZ AUX)
    Role: RIFIT
    Keyword: DF_BASIS_MP2
    atoms 1, 3, 7, 9, 11, 17, 19, 23, 25, 27 entry N          line   206 file /opt/anaconda/envs/psi4v1.5/share/psi4/basis/aug-cc-pvtz-ri.gbs 
    atoms 2, 4-6, 8, 18, 20-22, 24           entry C          line   148 file /opt/anaconda/envs/psi4v1.5/share/psi4/basis/aug-cc-pvtz-ri.gbs 
    atoms 10, 12-13, 15-16, 26, 28-29, 31-32 entry H          line    30 file /opt/anaconda/envs/psi4v1.5/share/psi4/basis/aug-cc-pvtz-ri.gbs 
    atoms 14, 30                             entry O          line   264 file /opt/anaconda/envs/psi4v1.5/share/psi4/basis/aug-cc-pvtz-ri.gbs 

	 --------------------------------------------------------
	                          DF-MP2                         
	      2nd-Order Density-Fitted Moller-Plesset Theory     
	              RMP2 Wavefunction,   8 Threads             
	                                                         
	        Rob Parrish, Justin Turney, Andy Simmonett,      
	           Ed Hohenstein, and C. David Sherrill          
	 --------------------------------------------------------

   => Auxiliary Basis Set <=

  Basis Set: (AUG-CC-PVTZ AUX)
    Blend: AUG-CC-PVTZ-RI
    Number of shells: 756
    Number of basis functions: 2792
    Number of Cartesian functions: 3542
    Spherical Harmonics?: true
    Max angular momentum: 4

	 --------------------------------------------------------
	                 NBF =  1242, NAUX =  2792
	 --------------------------------------------------------
	   CLASS    FOCC     OCC    AOCC    AVIR     VIR    FVIR
	   PAIRS      22      78      56    1164    1164       0
	 --------------------------------------------------------

	 Will save fitting metric to file 97.

	-----------------------------------------------------------
	 ==================> DF-MP2 Energies <==================== 
	-----------------------------------------------------------
	 Reference Energy          =   -1079.1602894767274847 [Eh]
	 Singles Energy            =      -0.0000000000000000 [Eh]
	 Same-Spin Energy          =      -1.0873032321301503 [Eh]
	 Opposite-Spin Energy      =      -2.9982626007888884 [Eh]
	 Correlation Energy        =      -4.0855658329190385 [Eh]
	 Total Energy              =   -1083.2458553096464584 [Eh]
	-----------------------------------------------------------
	 ================> DF-SCS-MP2 Energies <================== 
	-----------------------------------------------------------
	 SCS Same-Spin Scale       =       0.3333333333333333 [-]
	 SCS Opposite-Spin Scale   =       1.2000000000000000 [-]
	 SCS Same-Spin Energy      =      -0.3624344107100501 [Eh]
	 SCS Opposite-Spin Energy  =      -3.5979151209466660 [Eh]
	 SCS Correlation Energy    =      -3.9603495316567159 [Eh]
	 SCS Total Energy          =   -1083.1206390083841598 [Eh]
	-----------------------------------------------------------


*** tstop() called on node154.bme.utexas.edu at Wed Jan 24 14:09:47 2024
Module time:
	user time   =     412.92 seconds =       6.88 minutes
	system time =       9.04 seconds =       0.15 minutes
	total time  =         69 seconds =       1.15 minutes
Total time:
	user time   =    2104.33 seconds =      35.07 minutes
	system time =      24.84 seconds =       0.41 minutes
	total time  =        310 seconds =       5.17 minutes

  //>>>>>>>>>>>>>>>>>>>>>>>>>>>>>>>>>>>//
  //            Monomer A HF           //
  //<<<<<<<<<<<<<<<<<<<<<<<<<<<<<<<<<<<//


*** tstart() called on node154.bme.utexas.edu
*** at Wed Jan 24 14:09:47 2024

   => Loading Basis Set <=

    Name: AUG-CC-PVTZ
    Role: ORBITAL
    Keyword: BASIS
    atoms 1, 3, 7, 9, 11, 17, 19, 23, 25, 27 entry N          line   285 file /opt/anaconda/envs/psi4v1.5/share/psi4/basis/aug-cc-pvtz.gbs 
    atoms 2, 4-6, 8, 18, 20-22, 24           entry C          line   239 file /opt/anaconda/envs/psi4v1.5/share/psi4/basis/aug-cc-pvtz.gbs 
    atoms 10, 12-13, 15-16, 26, 28-29, 31-32 entry H          line    40 file /opt/anaconda/envs/psi4v1.5/share/psi4/basis/aug-cc-pvtz.gbs 
    atoms 14, 30                             entry O          line   331 file /opt/anaconda/envs/psi4v1.5/share/psi4/basis/aug-cc-pvtz.gbs 


         ---------------------------------------------------------
                                   SCF
               by Justin Turney, Rob Parrish, Andy Simmonett
                          and Daniel G. A. Smith
                              RHF Reference
                        8 Threads,  85830 MiB Core
         ---------------------------------------------------------

  ==> Geometry <==

    Molecular point group: c1
    Full point group: C1

    Geometry (in Angstrom), charge = 0, multiplicity = 1:

       Center              X                  Y                   Z               Mass       
    ------------   -----------------  -----------------  -----------------  -----------------
         N           -0.606213346932     0.560701484493    -1.772237881149    14.003074004430
         C           -1.892398346932     1.048887484493    -1.772198881149    12.000000000000
         N           -2.181689346932     2.344949484493    -1.772137881149    14.003074004430
         C           -1.077111346932     3.119959484493    -1.772118881149    12.000000000000
         C            0.271610653068     2.736294484493    -1.772152881149    12.000000000000
         C            0.566075653068     1.336179484493    -1.772214881149    12.000000000000
         N            1.101784653068     3.847716484493    -1.772116881149    14.003074004430
         C            0.286584653068     4.871350484493    -1.772060881149    12.000000000000
         N           -1.050192346932     4.492883484493    -1.772060881149    14.003074004430
         H           -0.458466346932    -0.465981515507    -1.772282881149     1.007825032230
         N           -2.887004346932     0.133267484493    -1.772222881149    14.003074004430
         H           -2.713124346932    -0.876827515507    -1.772266881149     1.007825032230
         H           -3.830819346932     0.484951484493    -1.772196881149     1.007825032230
         O            1.675634653068     0.775718484493    -1.772245881149    15.994914619570
         H            0.581538653068     5.915811484493    -1.772023881149     1.007825032230
         H           -1.861210346932     5.095270484493    -1.772026881149     1.007825032230
      Gh(N)          -0.580073346932    -0.992474515507     1.697236118851    14.003074004430
      Gh(C)          -1.244658346932    -2.190682515507     1.573863118851    12.000000000000
      Gh(N)          -0.634301346932    -3.369886515507     1.594100118851    14.003074004430
      Gh(C)           0.701409653068    -3.256703515507     1.748365118851    12.000000000000
      Gh(C)           1.480461653068    -2.098592515507     1.882925118851    12.000000000000
      Gh(C)           0.807387653068    -0.836279515507     1.859050118851    12.000000000000
      Gh(N)           2.823154653068    -2.419155515507     2.020266118851    14.003074004430
      Gh(C)           2.859409653068    -3.726302515507     1.970963118851    12.000000000000
      Gh(N)           1.601264653068    -4.292309515507     1.806902118851    14.003074004430
      Gh(H)          -1.125433346932    -0.110510515507     1.672143118851     1.007825032230
      Gh(N)          -2.586874346932    -2.125596515507     1.426143118851    14.003074004430
      Gh(H)          -3.101752346932    -1.239614515507     1.404628118851     1.007825032230
      Gh(H)          -3.078750346932    -2.999829515507     1.335347118851     1.007825032230
      Gh(O)           1.291472653068     0.304220484493     1.959838118851    15.994914619570
      Gh(H)           3.752534653068    -4.338337515507     2.046041118851     1.007825032230
      Gh(H)           1.370875653068    -5.273737515507     1.741026118851     1.007825032230

  Running in c1 symmetry.

  Rotational constants: A =      0.01764  B =      0.00518  C =      0.00445 [cm^-1]
  Rotational constants: A =    528.88030  B =    155.39221  C =    133.39982 [MHz]
  Nuclear repulsion =  593.872086066747329

  Charge       = 0
  Multiplicity = 1
  Electrons    = 78
  Nalpha       = 39
  Nbeta        = 39

  ==> Algorithm <==

  SCF Algorithm Type is DF.
  DIIS enabled.
  MOM disabled.
  Fractional occupation disabled.
  Guess Type is SAD.
  Energy threshold   = 1.00e-08
  Density threshold  = 1.00e-08
  Integral threshold = 1.00e-12

  ==> Primary Basis <==

  Basis Set: AUG-CC-PVTZ
    Blend: AUG-CC-PVTZ
    Number of shells: 398
    Number of basis functions: 1242
    Number of Cartesian functions: 1460
    Spherical Harmonics?: true
    Max angular momentum: 3

   => Loading Basis Set <=

    Name: (AUG-CC-PVTZ AUX)
    Role: JKFIT
    Keyword: DF_BASIS_SCF
    atoms 1, 3, 7, 9, 11, 17, 19, 23, 25, 27 entry N          line   224 file /opt/anaconda/envs/psi4v1.5/share/psi4/basis/aug-cc-pvtz-jkfit.gbs 
    atoms 2, 4-6, 8, 18, 20-22, 24           entry C          line   162 file /opt/anaconda/envs/psi4v1.5/share/psi4/basis/aug-cc-pvtz-jkfit.gbs 
    atoms 10, 12-13, 15-16, 26, 28-29, 31-32 entry H          line    70 file /opt/anaconda/envs/psi4v1.5/share/psi4/basis/aug-cc-pvtz-jkfit.gbs 
    atoms 14, 30                             entry O          line   286 file /opt/anaconda/envs/psi4v1.5/share/psi4/basis/aug-cc-pvtz-jkfit.gbs 

  ==> Integral Setup <==

  ==> DiskDFJK: Density-Fitted J/K Matrices <==

    J tasked:                  Yes
    K tasked:                  Yes
    wK tasked:                  No
    OpenMP threads:              8
    Integrals threads:           8
    Memory [MiB]:            64373
    Algorithm:                Core
    Integral Cache:           LOAD
    Schwarz Cutoff:          1E-12
    Fitting Condition:       1E-10

   => Auxiliary Basis Set <=

  Basis Set: (AUG-CC-PVTZ AUX)
    Blend: AUG-CC-PVTZ-JKFIT
    Number of shells: 800
    Number of basis functions: 2748
    Number of Cartesian functions: 3432
    Spherical Harmonics?: true
    Max angular momentum: 4

  Minimum eigenvalue in the overlap matrix is 1.1818376172E-06.
  Reciprocal condition number of the overlap matrix is 6.0592689057E-08.
    Using symmetric orthogonalization.

  ==> Pre-Iterations <==

  SCF Guess: Superposition of Atomic Densities via on-the-fly atomic UHF (no occupation information).

   -------------------------
    Irrep   Nso     Nmo    
   -------------------------
     A       1242    1242 
   -------------------------
    Total    1242    1242
   -------------------------

  ==> Iterations <==

                           Total Energy        Delta E     RMS |[F,P]|

   @DF-RHF iter SAD:  -539.30121189947624   -5.39301e+02   0.00000e+00 
   @DF-RHF iter   1:  -539.27257296065306    2.86389e-02   6.42049e-04 DIIS
   @DF-RHF iter   2:  -539.49755343244010   -2.24980e-01   3.83047e-04 DIIS
   @DF-RHF iter   3:  -539.57810030471603   -8.05469e-02   8.00402e-05 DIIS
   @DF-RHF iter   4:  -539.58322282525262   -5.12252e-03   3.22701e-05 DIIS
   @DF-RHF iter   5:  -539.58417657417795   -9.53749e-04   6.88300e-06 DIIS
   @DF-RHF iter   6:  -539.58427530931374   -9.87351e-05   3.62521e-06 DIIS
   @DF-RHF iter   7:  -539.58430279309755   -2.74838e-05   1.53421e-06 DIIS
   @DF-RHF iter   8:  -539.58430822603850   -5.43294e-06   5.21674e-07 DIIS
   @DF-RHF iter   9:  -539.58430882336233   -5.97324e-07   2.12913e-07 DIIS
   @DF-RHF iter  10:  -539.58430893236948   -1.09007e-07   9.02935e-08 DIIS
   @DF-RHF iter  11:  -539.58430895038407   -1.80146e-08   3.84206e-08 DIIS
   @DF-RHF iter  12:  -539.58430895322795   -2.84388e-09   1.26178e-08 DIIS
   @DF-RHF iter  13:  -539.58430895359220   -3.64253e-10   5.19998e-09 DIIS
  Energy and wave function converged.


  ==> Post-Iterations <==

    Orbital Energies [Eh]
    ---------------------

    Doubly Occupied:                                                      

       1A    -20.511550     2A    -15.636340     3A    -15.628594  
       4A    -15.621755     5A    -15.567131     6A    -15.561314  
       7A    -11.405361     8A    -11.360809     9A    -11.325987  
      10A    -11.309604    11A    -11.244181    12A     -1.387082  
      13A     -1.348818    14A     -1.332116    15A     -1.226582  
      16A     -1.216784    17A     -1.172433    18A     -1.027617  
      19A     -0.904050    20A     -0.893243    21A     -0.836204  
      22A     -0.803822    23A     -0.744188    24A     -0.739673  
      25A     -0.709727    26A     -0.669783    27A     -0.657886  
      28A     -0.634711    29A     -0.604152    30A     -0.597975  
      31A     -0.595877    32A     -0.544370    33A     -0.493918  
      34A     -0.455059    35A     -0.435119    36A     -0.428771  
      37A     -0.423978    38A     -0.406598    39A     -0.295014  

    Virtual:                                                              

      40A      0.008565    41A      0.021758    42A      0.024801  
      43A      0.030624    44A      0.034443    45A      0.039881  
      46A      0.043587    47A      0.051054    48A      0.054402  
      49A      0.059919    50A      0.061319    51A      0.066726  
      52A      0.072872    53A      0.076925    54A      0.083604  
      55A      0.085917    56A      0.088247    57A      0.092240  
      58A      0.092718    59A      0.096101    60A      0.099903  
      61A      0.103871    62A      0.106519    63A      0.108310  
      64A      0.112159    65A      0.114554    66A      0.117853  
      67A      0.119527    68A      0.122298    69A      0.124621  
      70A      0.126475    71A      0.129444    72A      0.133001  
      73A      0.139043    74A      0.140913    75A      0.145141  
      76A      0.146094    77A      0.147262    78A      0.149399  
      79A      0.152270    80A      0.154474    81A      0.158525  
      82A      0.160452    83A      0.164064    84A      0.165886  
      85A      0.168311    86A      0.172485    87A      0.175534  
      88A      0.178401    89A      0.181378    90A      0.184921  
      91A      0.188610    92A      0.192596    93A      0.195760  
      94A      0.198140    95A      0.200597    96A      0.205039  
      97A      0.206566    98A      0.207952    99A      0.211385  
     100A      0.213334   101A      0.215334   102A      0.219198  
     103A      0.224184   104A      0.226980   105A      0.227974  
     106A      0.231614   107A      0.234628   108A      0.235273  
     109A      0.241566   110A      0.242792   111A      0.244821  
     112A      0.246630   113A      0.249215   114A      0.255911  
     115A      0.258525   116A      0.259624   117A      0.262583  
     118A      0.268057   119A      0.269855   120A      0.272641  
     121A      0.274736   122A      0.280544   123A      0.283560  
     124A      0.286716   125A      0.288928   126A      0.291619  
     127A      0.293246   128A      0.298865   129A      0.300609  
     130A      0.306476   131A      0.307499   132A      0.309398  
     133A      0.317099   134A      0.320254   135A      0.324239  
     136A      0.326686   137A      0.329873   138A      0.333098  
     139A      0.334490   140A      0.337235   141A      0.341153  
     142A      0.345343   143A      0.345571   144A      0.349251  
     145A      0.351738   146A      0.355885   147A      0.361266  
     148A      0.362701   149A      0.366984   150A      0.369440  
     151A      0.372327   152A      0.376496   153A      0.377225  
     154A      0.380817   155A      0.384581   156A      0.386293  
     157A      0.388064   158A      0.389441   159A      0.392147  
     160A      0.399065   161A      0.404408   162A      0.405824  
     163A      0.410727   164A      0.411922   165A      0.413684  
     166A      0.416750   167A      0.420350   168A      0.423052  
     169A      0.426463   170A      0.429849   171A      0.436002  
     172A      0.436755   173A      0.439083   174A      0.441348  
     175A      0.443868   176A      0.446074   177A      0.448381  
     178A      0.451776   179A      0.454080   180A      0.455822  
     181A      0.460085   182A      0.463009   183A      0.464606  
     184A      0.468205   185A      0.471730   186A      0.472633  
     187A      0.476265   188A      0.481495   189A      0.481870  
     190A      0.487570   191A      0.489734   192A      0.491568  
     193A      0.494589   194A      0.495572   195A      0.501160  
     196A      0.503770   197A      0.505905   198A      0.509048  
     199A      0.513549   200A      0.513565   201A      0.518112  
     202A      0.523714   203A      0.525125   204A      0.526083  
     205A      0.527005   206A      0.535289   207A      0.536958  
     208A      0.539499   209A      0.541310   210A      0.547472  
     211A      0.552069   212A      0.552484   213A      0.558818  
     214A      0.560463   215A      0.564443   216A      0.567219  
     217A      0.570025   218A      0.575788   219A      0.579469  
     220A      0.584203   221A      0.587081   222A      0.591135  
     223A      0.594553   224A      0.601345   225A      0.606602  
     226A      0.607117   227A      0.610156   228A      0.616184  
     229A      0.617182   230A      0.622726   231A      0.625304  
     232A      0.627635   233A      0.633554   234A      0.636195  
     235A      0.640307   236A      0.645305   237A      0.650695  
     238A      0.653219   239A      0.656385   240A      0.659561  
     241A      0.663652   242A      0.668716   243A      0.672051  
     244A      0.676633   245A      0.678250   246A      0.681801  
     247A      0.686114   248A      0.690045   249A      0.693636  
     250A      0.699060   251A      0.702286   252A      0.706655  
     253A      0.710995   254A      0.713579   255A      0.720510  
     256A      0.725862   257A      0.730011   258A      0.733756  
     259A      0.738621   260A      0.741228   261A      0.744534  
     262A      0.747465   263A      0.752384   264A      0.754251  
     265A      0.758465   266A      0.763984   267A      0.766340  
     268A      0.770510   269A      0.772918   270A      0.774330  
     271A      0.781920   272A      0.786079   273A      0.791761  
     274A      0.794789   275A      0.797714   276A      0.801755  
     277A      0.802181   278A      0.806333   279A      0.809833  
     280A      0.812278   281A      0.814961   282A      0.818271  
     283A      0.824212   284A      0.825489   285A      0.827180  
     286A      0.831543   287A      0.836723   288A      0.839236  
     289A      0.841179   290A      0.845336   291A      0.850477  
     292A      0.851278   293A      0.856265   294A      0.859154  
     295A      0.863037   296A      0.869257   297A      0.870398  
     298A      0.876381   299A      0.880900   300A      0.886603  
     301A      0.889262   302A      0.891687   303A      0.895664  
     304A      0.896626   305A      0.905119   306A      0.905764  
     307A      0.909515   308A      0.913620   309A      0.917560  
     310A      0.918532   311A      0.922258   312A      0.923872  
     313A      0.931918   314A      0.933558   315A      0.936469  
     316A      0.940847   317A      0.943161   318A      0.948498  
     319A      0.950039   320A      0.953980   321A      0.958729  
     322A      0.961057   323A      0.963839   324A      0.967871  
     325A      0.970729   326A      0.973190   327A      0.977022  
     328A      0.979558   329A      0.984881   330A      0.989229  
     331A      0.993189   332A      0.997760   333A      1.000830  
     334A      1.004730   335A      1.006086   336A      1.009805  
     337A      1.010307   338A      1.016111   339A      1.023812  
     340A      1.024731   341A      1.029087   342A      1.034294  
     343A      1.038803   344A      1.044805   345A      1.046609  
     346A      1.053437   347A      1.056927   348A      1.059577  
     349A      1.060525   350A      1.066412   351A      1.068894  
     352A      1.075048   353A      1.076592   354A      1.077341  
     355A      1.081218   356A      1.085689   357A      1.090221  
     358A      1.092899   359A      1.096288   360A      1.101402  
     361A      1.105038   362A      1.107595   363A      1.110939  
     364A      1.112887   365A      1.117981   366A      1.120680  
     367A      1.127929   368A      1.129054   369A      1.130526  
     370A      1.136272   371A      1.141945   372A      1.144029  
     373A      1.149959   374A      1.155386   375A      1.156491  
     376A      1.160392   377A      1.164690   378A      1.172734  
     379A      1.177710   380A      1.183327   381A      1.185788  
     382A      1.186733   383A      1.192792   384A      1.195853  
     385A      1.202745   386A      1.204486   387A      1.206533  
     388A      1.207914   389A      1.214411   390A      1.219797  
     391A      1.224104   392A      1.224713   393A      1.226837  
     394A      1.237931   395A      1.240364   396A      1.243111  
     397A      1.246080   398A      1.248322   399A      1.252749  
     400A      1.254729   401A      1.259471   402A      1.263885  
     403A      1.272077   404A      1.276644   405A      1.278775  
     406A      1.282476   407A      1.286378   408A      1.290162  
     409A      1.297609   410A      1.306681   411A      1.314547  
     412A      1.316645   413A      1.318289   414A      1.324140  
     415A      1.331722   416A      1.333144   417A      1.335171  
     418A      1.338324   419A      1.345339   420A      1.351842  
     421A      1.355409   422A      1.361623   423A      1.366876  
     424A      1.373239   425A      1.375074   426A      1.377228  
     427A      1.379801   428A      1.386617   429A      1.388613  
     430A      1.393402   431A      1.394835   432A      1.400545  
     433A      1.404577   434A      1.408718   435A      1.417299  
     436A      1.423002   437A      1.427934   438A      1.431689  
     439A      1.434244   440A      1.437433   441A      1.443734  
     442A      1.450146   443A      1.455007   444A      1.461249  
     445A      1.462621   446A      1.470152   447A      1.474597  
     448A      1.481237   449A      1.483441   450A      1.490220  
     451A      1.492850   452A      1.494815   453A      1.501135  
     454A      1.507425   455A      1.512515   456A      1.520999  
     457A      1.527596   458A      1.528071   459A      1.529770  
     460A      1.535545   461A      1.540750   462A      1.548549  
     463A      1.555817   464A      1.557629   465A      1.558453  
     466A      1.561303   467A      1.567088   468A      1.572549  
     469A      1.575772   470A      1.578086   471A      1.583364  
     472A      1.585968   473A      1.593254   474A      1.599628  
     475A      1.605938   476A      1.612806   477A      1.615892  
     478A      1.623180   479A      1.629740   480A      1.631504  
     481A      1.638395   482A      1.641465   483A      1.646180  
     484A      1.652085   485A      1.656825   486A      1.659877  
     487A      1.662628   488A      1.670963   489A      1.674508  
     490A      1.678640   491A      1.680249   492A      1.682975  
     493A      1.689284   494A      1.693695   495A      1.701225  
     496A      1.705976   497A      1.708108   498A      1.714375  
     499A      1.717330   500A      1.721104   501A      1.726860  
     502A      1.731619   503A      1.738055   504A      1.742533  
     505A      1.744057   506A      1.747660   507A      1.751018  
     508A      1.755607   509A      1.759262   510A      1.767497  
     511A      1.770779   512A      1.773641   513A      1.777651  
     514A      1.780804   515A      1.785482   516A      1.794447  
     517A      1.797170   518A      1.797645   519A      1.806084  
     520A      1.808162   521A      1.816069   522A      1.820310  
     523A      1.826514   524A      1.828779   525A      1.831589  
     526A      1.835213   527A      1.847206   528A      1.850559  
     529A      1.855629   530A      1.856424   531A      1.863146  
     532A      1.869380   533A      1.879570   534A      1.881712  
     535A      1.889077   536A      1.894242   537A      1.895787  
     538A      1.901947   539A      1.905059   540A      1.911120  
     541A      1.919327   542A      1.923213   543A      1.930809  
     544A      1.936066   545A      1.944837   546A      1.950391  
     547A      1.957644   548A      1.961407   549A      1.970520  
     550A      1.980780   551A      1.980960   552A      1.988655  
     553A      1.994123   554A      1.996066   555A      2.003122  
     556A      2.008344   557A      2.011636   558A      2.019862  
     559A      2.024342   560A      2.033690   561A      2.036922  
     562A      2.037924   563A      2.042074   564A      2.052305  
     565A      2.053151   566A      2.066020   567A      2.066922  
     568A      2.072834   569A      2.078728   570A      2.083620  
     571A      2.086525   572A      2.094350   573A      2.104605  
     574A      2.106693   575A      2.109570   576A      2.112766  
     577A      2.114622   578A      2.120279   579A      2.130036  
     580A      2.131553   581A      2.138869   582A      2.141237  
     583A      2.149709   584A      2.153817   585A      2.158866  
     586A      2.161614   587A      2.164874   588A      2.171805  
     589A      2.177714   590A      2.182952   591A      2.199252  
     592A      2.204216   593A      2.207234   594A      2.219756  
     595A      2.228091   596A      2.238271   597A      2.241890  
     598A      2.244909   599A      2.253824   600A      2.260281  
     601A      2.271196   602A      2.278085   603A      2.284268  
     604A      2.285653   605A      2.287194   606A      2.298310  
     607A      2.307118   608A      2.312043   609A      2.316632  
     610A      2.322439   611A      2.326103   612A      2.328457  
     613A      2.343051   614A      2.345890   615A      2.347873  
     616A      2.355282   617A      2.358996   618A      2.361877  
     619A      2.366798   620A      2.380158   621A      2.384856  
     622A      2.397238   623A      2.409045   624A      2.411473  
     625A      2.416209   626A      2.419521   627A      2.421486  
     628A      2.427416   629A      2.437287   630A      2.440533  
     631A      2.444233   632A      2.448446   633A      2.453596  
     634A      2.459251   635A      2.467560   636A      2.475927  
     637A      2.482393   638A      2.488153   639A      2.491187  
     640A      2.491342   641A      2.499554   642A      2.501374  
     643A      2.516471   644A      2.521433   645A      2.535177  
     646A      2.536470   647A      2.547727   648A      2.553613  
     649A      2.560749   650A      2.563830   651A      2.572080  
     652A      2.580000   653A      2.583273   654A      2.585640  
     655A      2.602865   656A      2.606673   657A      2.613639  
     658A      2.619044   659A      2.622845   660A      2.627101  
     661A      2.636492   662A      2.648121   663A      2.651691  
     664A      2.660024   665A      2.664740   666A      2.668966  
     667A      2.680287   668A      2.682138   669A      2.693195  
     670A      2.699099   671A      2.703180   672A      2.707900  
     673A      2.715743   674A      2.716720   675A      2.731573  
     676A      2.736841   677A      2.744721   678A      2.752644  
     679A      2.754923   680A      2.760733   681A      2.764409  
     682A      2.766402   683A      2.775306   684A      2.782504  
     685A      2.784386   686A      2.797623   687A      2.801476  
     688A      2.808266   689A      2.812623   690A      2.824800  
     691A      2.826773   692A      2.833601   693A      2.837535  
     694A      2.851010   695A      2.855043   696A      2.870291  
     697A      2.874459   698A      2.877501   699A      2.882067  
     700A      2.887202   701A      2.893628   702A      2.902687  
     703A      2.905500   704A      2.921036   705A      2.924189  
     706A      2.934692   707A      2.949335   708A      2.951840  
     709A      2.959550   710A      2.969853   711A      2.972919  
     712A      2.981325   713A      2.990709   714A      3.000298  
     715A      3.013729   716A      3.019543   717A      3.020926  
     718A      3.035997   719A      3.042437   720A      3.047519  
     721A      3.062625   722A      3.067614   723A      3.071544  
     724A      3.079149   725A      3.089321   726A      3.099113  
     727A      3.100748   728A      3.105828   729A      3.110897  
     730A      3.114061   731A      3.127066   732A      3.135705  
     733A      3.155539   734A      3.158857   735A      3.167523  
     736A      3.172226   737A      3.179373   738A      3.185058  
     739A      3.196742   740A      3.214264   741A      3.223062  
     742A      3.232022   743A      3.235337   744A      3.253382  
     745A      3.258847   746A      3.266850   747A      3.276056  
     748A      3.292772   749A      3.295533   750A      3.310766  
     751A      3.321143   752A      3.329191   753A      3.336919  
     754A      3.361588   755A      3.364076   756A      3.369188  
     757A      3.385281   758A      3.394730   759A      3.403237  
     760A      3.413580   761A      3.416436   762A      3.426692  
     763A      3.436342   764A      3.443902   765A      3.464262  
     766A      3.471235   767A      3.474586   768A      3.491291  
     769A      3.515243   770A      3.518623   771A      3.531591  
     772A      3.538637   773A      3.553264   774A      3.568031  
     775A      3.579407   776A      3.595267   777A      3.599353  
     778A      3.617185   779A      3.627433   780A      3.647489  
     781A      3.655645   782A      3.660265   783A      3.664094  
     784A      3.675746   785A      3.685922   786A      3.710892  
     787A      3.715414   788A      3.722954   789A      3.730940  
     790A      3.741096   791A      3.758014   792A      3.760697  
     793A      3.774325   794A      3.778110   795A      3.793686  
     796A      3.805287   797A      3.806835   798A      3.820241  
     799A      3.830041   800A      3.851932   801A      3.859555  
     802A      3.860036   803A      3.868015   804A      3.877009  
     805A      3.885964   806A      3.895240   807A      3.901259  
     808A      3.915478   809A      3.926701   810A      3.935127  
     811A      3.951775   812A      3.963939   813A      3.978892  
     814A      3.994635   815A      4.004652   816A      4.014968  
     817A      4.022409   818A      4.033615   819A      4.042377  
     820A      4.047736   821A      4.069719   822A      4.076468  
     823A      4.086039   824A      4.098332   825A      4.102688  
     826A      4.115920   827A      4.120532   828A      4.133607  
     829A      4.141698   830A      4.145625   831A      4.151147  
     832A      4.158035   833A      4.166881   834A      4.173533  
     835A      4.182910   836A      4.200112   837A      4.201167  
     838A      4.204300   839A      4.208893   840A      4.219551  
     841A      4.224612   842A      4.231117   843A      4.239848  
     844A      4.242863   845A      4.248183   846A      4.253510  
     847A      4.258889   848A      4.263249   849A      4.281990  
     850A      4.288909   851A      4.298309   852A      4.299376  
     853A      4.310260   854A      4.323271   855A      4.325242  
     856A      4.334992   857A      4.341985   858A      4.349802  
     859A      4.363732   860A      4.370449   861A      4.375238  
     862A      4.390802   863A      4.401892   864A      4.409632  
     865A      4.419976   866A      4.436032   867A      4.446368  
     868A      4.459968   869A      4.461710   870A      4.473505  
     871A      4.491720   872A      4.495848   873A      4.501308  
     874A      4.506509   875A      4.514636   876A      4.521768  
     877A      4.527437   878A      4.530722   879A      4.534912  
     880A      4.542129   881A      4.550695   882A      4.553382  
     883A      4.563842   884A      4.576675   885A      4.587662  
     886A      4.589770   887A      4.605008   888A      4.628776  
     889A      4.630827   890A      4.636161   891A      4.651423  
     892A      4.661464   893A      4.668242   894A      4.673039  
     895A      4.682237   896A      4.683163   897A      4.692175  
     898A      4.700209   899A      4.708885   900A      4.715616  
     901A      4.720229   902A      4.727589   903A      4.733852  
     904A      4.752542   905A      4.762740   906A      4.767785  
     907A      4.777186   908A      4.787288   909A      4.794932  
     910A      4.811073   911A      4.813366   912A      4.820951  
     913A      4.832792   914A      4.834487   915A      4.852625  
     916A      4.861360   917A      4.874387   918A      4.882808  
     919A      4.888975   920A      4.894704   921A      4.907086  
     922A      4.917045   923A      4.920151   924A      4.924976  
     925A      4.925718   926A      4.945491   927A      4.951219  
     928A      4.958307   929A      4.961622   930A      4.969149  
     931A      4.973828   932A      4.991970   933A      4.996206  
     934A      4.999516   935A      5.001908   936A      5.010072  
     937A      5.017388   938A      5.028932   939A      5.031395  
     940A      5.048139   941A      5.051744   942A      5.060786  
     943A      5.073184   944A      5.082553   945A      5.084036  
     946A      5.089888   947A      5.105886   948A      5.115323  
     949A      5.131831   950A      5.141599   951A      5.150741  
     952A      5.163156   953A      5.175830   954A      5.180626  
     955A      5.190217   956A      5.196030   957A      5.199749  
     958A      5.209474   959A      5.218201   960A      5.237135  
     961A      5.250472   962A      5.261346   963A      5.274921  
     964A      5.280957   965A      5.284027   966A      5.291143  
     967A      5.307557   968A      5.314536   969A      5.322518  
     970A      5.330131   971A      5.333696   972A      5.347464  
     973A      5.354436   974A      5.357073   975A      5.363943  
     976A      5.391755   977A      5.395673   978A      5.424032  
     979A      5.429937   980A      5.434130   981A      5.443792  
     982A      5.455483   983A      5.467025   984A      5.477361  
     985A      5.494571   986A      5.502419   987A      5.516159  
     988A      5.517857   989A      5.527057   990A      5.533551  
     991A      5.536679   992A      5.549596   993A      5.552442  
     994A      5.558417   995A      5.564207   996A      5.569785  
     997A      5.578411   998A      5.583723   999A      5.587569  
    1000A      5.601226  1001A      5.612463  1002A      5.615480  
    1003A      5.641704  1004A      5.648554  1005A      5.653982  
    1006A      5.658313  1007A      5.675447  1008A      5.677549  
    1009A      5.699835  1010A      5.718698  1011A      5.726235  
    1012A      5.739433  1013A      5.751266  1014A      5.755534  
    1015A      5.756609  1016A      5.772481  1017A      5.792382  
    1018A      5.798567  1019A      5.805283  1020A      5.815444  
    1021A      5.833902  1022A      5.837461  1023A      5.849258  
    1024A      5.876333  1025A      5.886808  1026A      5.914010  
    1027A      5.920510  1028A      5.927963  1029A      5.933635  
    1030A      5.937691  1031A      5.944311  1032A      5.947404  
    1033A      5.999566  1034A      6.005376  1035A      6.019761  
    1036A      6.037679  1037A      6.065061  1038A      6.072708  
    1039A      6.076376  1040A      6.083287  1041A      6.096129  
    1042A      6.099059  1043A      6.108907  1044A      6.121556  
    1045A      6.146472  1046A      6.151345  1047A      6.171770  
    1048A      6.194793  1049A      6.205154  1050A      6.211370  
    1051A      6.213987  1052A      6.223961  1053A      6.227856  
    1054A      6.245482  1055A      6.266478  1056A      6.277141  
    1057A      6.284497  1058A      6.319396  1059A      6.341234  
    1060A      6.348163  1061A      6.380011  1062A      6.400221  
    1063A      6.413385  1064A      6.430923  1065A      6.452606  
    1066A      6.475868  1067A      6.486948  1068A      6.494540  
    1069A      6.505471  1070A      6.509853  1071A      6.519136  
    1072A      6.527238  1073A      6.538624  1074A      6.550013  
    1075A      6.562307  1076A      6.577048  1077A      6.585635  
    1078A      6.610716  1079A      6.615842  1080A      6.639409  
    1081A      6.656334  1082A      6.661920  1083A      6.690389  
    1084A      6.696928  1085A      6.715674  1086A      6.723011  
    1087A      6.727176  1088A      6.730760  1089A      6.757171  
    1090A      6.775768  1091A      6.783258  1092A      6.798989  
    1093A      6.807152  1094A      6.824113  1095A      6.829242  
    1096A      6.835618  1097A      6.841318  1098A      6.873423  
    1099A      6.877048  1100A      6.895597  1101A      6.924691  
    1102A      6.928101  1103A      6.940742  1104A      6.974287  
    1105A      7.004498  1106A      7.012155  1107A      7.018140  
    1108A      7.036798  1109A      7.039891  1110A      7.042750  
    1111A      7.083526  1112A      7.113496  1113A      7.119099  
    1114A      7.178199  1115A      7.198833  1116A      7.239276  
    1117A      7.246189  1118A      7.253371  1119A      7.267353  
    1120A      7.283068  1121A      7.376215  1122A      7.405273  
    1123A      7.420954  1124A      7.423600  1125A      7.433376  
    1126A      7.440346  1127A      7.452214  1128A      7.474119  
    1129A      7.479686  1130A      7.483437  1131A      7.520730  
    1132A      7.543428  1133A      7.576554  1134A      7.591185  
    1135A      7.612075  1136A      7.631110  1137A      7.645257  
    1138A      7.652117  1139A      7.658339  1140A      7.663810  
    1141A      7.677830  1142A      7.694790  1143A      7.716591  
    1144A      7.733850  1145A      7.755405  1146A      7.766864  
    1147A      7.768446  1148A      7.775177  1149A      7.805255  
    1150A      7.820352  1151A      7.849424  1152A      7.882671  
    1153A      7.893618  1154A      7.903533  1155A      7.927025  
    1156A      7.947933  1157A      7.971877  1158A      7.978955  
    1159A      7.989410  1160A      7.996438  1161A      8.007058  
    1162A      8.025466  1163A      8.071422  1164A      8.084660  
    1165A      8.158242  1166A      8.188993  1167A      8.252633  
    1168A      8.261375  1169A      8.316669  1170A      8.337159  
    1171A      8.405309  1172A      8.489721  1173A      8.571259  
    1174A      8.583460  1175A      8.711729  1176A      8.722938  
    1177A      8.802018  1178A      8.837547  1179A      8.939072  
    1180A      9.020654  1181A      9.058312  1182A      9.155676  
    1183A      9.245245  1184A      9.346841  1185A      9.415170  
    1186A      9.483349  1187A      9.549354  1188A      9.589335  
    1189A      9.646277  1190A      9.758046  1191A      9.777457  
    1192A      9.964965  1193A     10.030880  1194A     10.166396  
    1195A     10.272363  1196A     10.316780  1197A     10.411910  
    1198A     10.465586  1199A     10.564171  1200A     10.728244  
    1201A     11.075030  1202A     11.164706  1203A     11.272253  
    1204A     11.380183  1205A     11.441537  1206A     11.634751  
    1207A     11.713140  1208A     11.971375  1209A     12.020531  
    1210A     12.044588  1211A     12.101429  1212A     12.179266  
    1213A     12.293331  1214A     12.389532  1215A     12.597101  
    1216A     12.797784  1217A     12.934133  1218A     13.339571  
    1219A     13.530931  1220A     14.207822  1221A     16.067173  
    1222A     16.356180  1223A     16.586587  1224A     16.850183  
    1225A     17.742597  1226A     18.216258  1227A     19.112726  
    1228A     19.359190  1229A     20.259157  1230A     20.762804  
    1231A     21.233536  1232A     51.736220  1233A     52.175199  
    1234A     52.862273  1235A     53.867057  1236A     56.376121  
    1237A     60.216655  1238A     61.420058  1239A     61.932367  
    1240A     63.405176  1241A     65.486224  1242A     69.899849  

    Final Occupation by Irrep:
              A 
    DOCC [    39 ]

  @DF-RHF Final Energy:  -539.58430895359220

   => Energetics <=

    Nuclear Repulsion Energy =            593.8720860667473289
    One-Electron Energy =               -1913.3964331610411591
    Two-Electron Energy =                 779.9400381407015175
    Total Energy =                       -539.5843089535921990

Computation Completed


Properties will be evaluated at   0.000000,   0.000000,   0.000000 [a0]

Properties computed using the SCF density matrix

  Nuclear Dipole Moment: [e a0]
     X:   -85.6266      Y:   330.1193      Z:  -261.2143

  Electronic Dipole Moment: [e a0]
     X:    82.5639      Y:  -330.3365      Z:   261.2141

  Dipole Moment: [e a0]
     X:    -3.0627      Y:    -0.2171      Z:    -0.0003     Total:     3.0703

  Dipole Moment: [D]
     X:    -7.7845      Y:    -0.5519      Z:    -0.0006     Total:     7.8040


*** tstop() called on node154.bme.utexas.edu at Wed Jan 24 14:12:39 2024
Module time:
	user time   =    1220.80 seconds =      20.35 minutes
	system time =       6.50 seconds =       0.11 minutes
	total time  =        172 seconds =       2.87 minutes
Total time:
	user time   =    3325.13 seconds =      55.42 minutes
	system time =      31.34 seconds =       0.52 minutes
	total time  =        482 seconds =       8.03 minutes

*** tstart() called on node154.bme.utexas.edu
*** at Wed Jan 24 14:12:39 2024


  //>>>>>>>>>>>>>>>>>>>>>>>>>>>>>>>>>>>//
  //               DFMP2               //
  //<<<<<<<<<<<<<<<<<<<<<<<<<<<<<<<<<<<//

   => Loading Basis Set <=

    Name: (AUG-CC-PVTZ AUX)
    Role: RIFIT
    Keyword: DF_BASIS_MP2
    atoms 1, 3, 7, 9, 11, 17, 19, 23, 25, 27 entry N          line   206 file /opt/anaconda/envs/psi4v1.5/share/psi4/basis/aug-cc-pvtz-ri.gbs 
    atoms 2, 4-6, 8, 18, 20-22, 24           entry C          line   148 file /opt/anaconda/envs/psi4v1.5/share/psi4/basis/aug-cc-pvtz-ri.gbs 
    atoms 10, 12-13, 15-16, 26, 28-29, 31-32 entry H          line    30 file /opt/anaconda/envs/psi4v1.5/share/psi4/basis/aug-cc-pvtz-ri.gbs 
    atoms 14, 30                             entry O          line   264 file /opt/anaconda/envs/psi4v1.5/share/psi4/basis/aug-cc-pvtz-ri.gbs 

	 --------------------------------------------------------
	                          DF-MP2                         
	      2nd-Order Density-Fitted Moller-Plesset Theory     
	              RMP2 Wavefunction,   8 Threads             
	                                                         
	        Rob Parrish, Justin Turney, Andy Simmonett,      
	           Ed Hohenstein, and C. David Sherrill          
	 --------------------------------------------------------

   => Auxiliary Basis Set <=

  Basis Set: (AUG-CC-PVTZ AUX)
    Blend: AUG-CC-PVTZ-RI
    Number of shells: 756
    Number of basis functions: 2792
    Number of Cartesian functions: 3542
    Spherical Harmonics?: true
    Max angular momentum: 4

	 --------------------------------------------------------
	                 NBF =  1242, NAUX =  2792
	 --------------------------------------------------------
	   CLASS    FOCC     OCC    AOCC    AVIR     VIR    FVIR
	   PAIRS      11      39      28    1203    1203       0
	 --------------------------------------------------------

	 Will attempt to load fitting metric from file 97.

	-----------------------------------------------------------
	 ==================> DF-MP2 Energies <==================== 
	-----------------------------------------------------------
	 Reference Energy          =    -539.5843089535921990 [Eh]
	 Singles Energy            =      -0.0000000000000000 [Eh]
	 Same-Spin Energy          =      -0.5419984365023851 [Eh]
	 Opposite-Spin Energy      =      -1.4969368143137129 [Eh]
	 Correlation Energy        =      -2.0389352508160981 [Eh]
	 Total Energy              =    -541.6232442044082518 [Eh]
	-----------------------------------------------------------
	 ================> DF-SCS-MP2 Energies <================== 
	-----------------------------------------------------------
	 SCS Same-Spin Scale       =       0.3333333333333333 [-]
	 SCS Opposite-Spin Scale   =       1.2000000000000000 [-]
	 SCS Same-Spin Energy      =      -0.1806661455007950 [Eh]
	 SCS Opposite-Spin Energy  =      -1.7963241771764555 [Eh]
	 SCS Correlation Energy    =      -1.9769903226772505 [Eh]
	 SCS Total Energy          =    -541.5612992762694375 [Eh]
	-----------------------------------------------------------


*** tstop() called on node154.bme.utexas.edu at Wed Jan 24 14:13:23 2024
Module time:
	user time   =     226.85 seconds =       3.78 minutes
	system time =       7.30 seconds =       0.12 minutes
	total time  =         44 seconds =       0.73 minutes
Total time:
	user time   =    3551.99 seconds =      59.20 minutes
	system time =      38.64 seconds =       0.64 minutes
	total time  =        526 seconds =       8.77 minutes

  //>>>>>>>>>>>>>>>>>>>>>>>>>>>>>>>>>>>//
  //            Monomer B HF           //
  //<<<<<<<<<<<<<<<<<<<<<<<<<<<<<<<<<<<//


*** tstart() called on node154.bme.utexas.edu
*** at Wed Jan 24 14:13:23 2024

   => Loading Basis Set <=

    Name: AUG-CC-PVTZ
    Role: ORBITAL
    Keyword: BASIS
    atoms 1, 3, 7, 9, 11, 17, 19, 23, 25, 27 entry N          line   285 file /opt/anaconda/envs/psi4v1.5/share/psi4/basis/aug-cc-pvtz.gbs 
    atoms 2, 4-6, 8, 18, 20-22, 24           entry C          line   239 file /opt/anaconda/envs/psi4v1.5/share/psi4/basis/aug-cc-pvtz.gbs 
    atoms 10, 12-13, 15-16, 26, 28-29, 31-32 entry H          line    40 file /opt/anaconda/envs/psi4v1.5/share/psi4/basis/aug-cc-pvtz.gbs 
    atoms 14, 30                             entry O          line   331 file /opt/anaconda/envs/psi4v1.5/share/psi4/basis/aug-cc-pvtz.gbs 


         ---------------------------------------------------------
                                   SCF
               by Justin Turney, Rob Parrish, Andy Simmonett
                          and Daniel G. A. Smith
                              RHF Reference
                        8 Threads,  85830 MiB Core
         ---------------------------------------------------------

  ==> Geometry <==

    Molecular point group: c1
    Full point group: C1

    Geometry (in Angstrom), charge = 0, multiplicity = 1:

       Center              X                  Y                   Z               Mass       
    ------------   -----------------  -----------------  -----------------  -----------------
      Gh(N)          -0.606213346932     0.560701484493    -1.772237881149    14.003074004430
      Gh(C)          -1.892398346932     1.048887484493    -1.772198881149    12.000000000000
      Gh(N)          -2.181689346932     2.344949484493    -1.772137881149    14.003074004430
      Gh(C)          -1.077111346932     3.119959484493    -1.772118881149    12.000000000000
      Gh(C)           0.271610653068     2.736294484493    -1.772152881149    12.000000000000
      Gh(C)           0.566075653068     1.336179484493    -1.772214881149    12.000000000000
      Gh(N)           1.101784653068     3.847716484493    -1.772116881149    14.003074004430
      Gh(C)           0.286584653068     4.871350484493    -1.772060881149    12.000000000000
      Gh(N)          -1.050192346932     4.492883484493    -1.772060881149    14.003074004430
      Gh(H)          -0.458466346932    -0.465981515507    -1.772282881149     1.007825032230
      Gh(N)          -2.887004346932     0.133267484493    -1.772222881149    14.003074004430
      Gh(H)          -2.713124346932    -0.876827515507    -1.772266881149     1.007825032230
      Gh(H)          -3.830819346932     0.484951484493    -1.772196881149     1.007825032230
      Gh(O)           1.675634653068     0.775718484493    -1.772245881149    15.994914619570
      Gh(H)           0.581538653068     5.915811484493    -1.772023881149     1.007825032230
      Gh(H)          -1.861210346932     5.095270484493    -1.772026881149     1.007825032230
         N           -0.580073346932    -0.992474515507     1.697236118851    14.003074004430
         C           -1.244658346932    -2.190682515507     1.573863118851    12.000000000000
         N           -0.634301346932    -3.369886515507     1.594100118851    14.003074004430
         C            0.701409653068    -3.256703515507     1.748365118851    12.000000000000
         C            1.480461653068    -2.098592515507     1.882925118851    12.000000000000
         C            0.807387653068    -0.836279515507     1.859050118851    12.000000000000
         N            2.823154653068    -2.419155515507     2.020266118851    14.003074004430
         C            2.859409653068    -3.726302515507     1.970963118851    12.000000000000
         N            1.601264653068    -4.292309515507     1.806902118851    14.003074004430
         H           -1.125433346932    -0.110510515507     1.672143118851     1.007825032230
         N           -2.586874346932    -2.125596515507     1.426143118851    14.003074004430
         H           -3.101752346932    -1.239614515507     1.404628118851     1.007825032230
         H           -3.078750346932    -2.999829515507     1.335347118851     1.007825032230
         O            1.291472653068     0.304220484493     1.959838118851    15.994914619570
         H            3.752534653068    -4.338337515507     2.046041118851     1.007825032230
         H            1.370875653068    -5.273737515507     1.741026118851     1.007825032230

  Running in c1 symmetry.

  Rotational constants: A =      0.01764  B =      0.00518  C =      0.00445 [cm^-1]
  Rotational constants: A =    528.88030  B =    155.39221  C =    133.39982 [MHz]
  Nuclear repulsion =  593.872080269464163

  Charge       = 0
  Multiplicity = 1
  Electrons    = 78
  Nalpha       = 39
  Nbeta        = 39

  ==> Algorithm <==

  SCF Algorithm Type is DF.
  DIIS enabled.
  MOM disabled.
  Fractional occupation disabled.
  Guess Type is SAD.
  Energy threshold   = 1.00e-08
  Density threshold  = 1.00e-08
  Integral threshold = 1.00e-12

  ==> Primary Basis <==

  Basis Set: AUG-CC-PVTZ
    Blend: AUG-CC-PVTZ
    Number of shells: 398
    Number of basis functions: 1242
    Number of Cartesian functions: 1460
    Spherical Harmonics?: true
    Max angular momentum: 3

   => Loading Basis Set <=

    Name: (AUG-CC-PVTZ AUX)
    Role: JKFIT
    Keyword: DF_BASIS_SCF
    atoms 1, 3, 7, 9, 11, 17, 19, 23, 25, 27 entry N          line   224 file /opt/anaconda/envs/psi4v1.5/share/psi4/basis/aug-cc-pvtz-jkfit.gbs 
    atoms 2, 4-6, 8, 18, 20-22, 24           entry C          line   162 file /opt/anaconda/envs/psi4v1.5/share/psi4/basis/aug-cc-pvtz-jkfit.gbs 
    atoms 10, 12-13, 15-16, 26, 28-29, 31-32 entry H          line    70 file /opt/anaconda/envs/psi4v1.5/share/psi4/basis/aug-cc-pvtz-jkfit.gbs 
    atoms 14, 30                             entry O          line   286 file /opt/anaconda/envs/psi4v1.5/share/psi4/basis/aug-cc-pvtz-jkfit.gbs 

  ==> Integral Setup <==

  ==> DiskDFJK: Density-Fitted J/K Matrices <==

    J tasked:                  Yes
    K tasked:                  Yes
    wK tasked:                  No
    OpenMP threads:              8
    Integrals threads:           8
    Memory [MiB]:            64373
    Algorithm:                Core
    Integral Cache:           LOAD
    Schwarz Cutoff:          1E-12
    Fitting Condition:       1E-10

   => Auxiliary Basis Set <=

  Basis Set: (AUG-CC-PVTZ AUX)
    Blend: AUG-CC-PVTZ-JKFIT
    Number of shells: 800
    Number of basis functions: 2748
    Number of Cartesian functions: 3432
    Spherical Harmonics?: true
    Max angular momentum: 4

  Minimum eigenvalue in the overlap matrix is 1.1818376172E-06.
  Reciprocal condition number of the overlap matrix is 6.0592689057E-08.
    Using symmetric orthogonalization.

  ==> Pre-Iterations <==

  SCF Guess: Superposition of Atomic Densities via on-the-fly atomic UHF (no occupation information).

   -------------------------
    Irrep   Nso     Nmo    
   -------------------------
     A       1242    1242 
   -------------------------
    Total    1242    1242
   -------------------------

  ==> Iterations <==

                           Total Energy        Delta E     RMS |[F,P]|

   @DF-RHF iter SAD:  -539.30121186779570   -5.39301e+02   0.00000e+00 
   @DF-RHF iter   1:  -539.27257944596124    2.86324e-02   6.42049e-04 DIIS
   @DF-RHF iter   2:  -539.49756102341428   -2.24982e-01   3.83047e-04 DIIS
   @DF-RHF iter   3:  -539.57810755726882   -8.05465e-02   8.00400e-05 DIIS
   @DF-RHF iter   4:  -539.58323010145455   -5.12254e-03   3.22701e-05 DIIS
   @DF-RHF iter   5:  -539.58418385480854   -9.53753e-04   6.88301e-06 DIIS
   @DF-RHF iter   6:  -539.58428259109871   -9.87363e-05   3.62524e-06 DIIS
   @DF-RHF iter   7:  -539.58431007524723   -2.74841e-05   1.53422e-06 DIIS
   @DF-RHF iter   8:  -539.58431550835041   -5.43310e-06   5.21669e-07 DIIS
   @DF-RHF iter   9:  -539.58431610562752   -5.97277e-07   2.12910e-07 DIIS
   @DF-RHF iter  10:  -539.58431621463660   -1.09009e-07   9.02926e-08 DIIS
   @DF-RHF iter  11:  -539.58431623265051   -1.80139e-08   3.84187e-08 DIIS
   @DF-RHF iter  12:  -539.58431623549620   -2.84570e-09   1.26175e-08 DIIS
   @DF-RHF iter  13:  -539.58431623586637   -3.70164e-10   5.20003e-09 DIIS
  Energy and wave function converged.


  ==> Post-Iterations <==

    Orbital Energies [Eh]
    ---------------------

    Doubly Occupied:                                                      

       1A    -20.511546     2A    -15.636339     3A    -15.628594  
       4A    -15.621758     5A    -15.567131     6A    -15.561312  
       7A    -11.405362     8A    -11.360809     9A    -11.325986  
      10A    -11.309604    11A    -11.244180    12A     -1.387081  
      13A     -1.348817    14A     -1.332116    15A     -1.226583  
      16A     -1.216784    17A     -1.172433    18A     -1.027617  
      19A     -0.904050    20A     -0.893243    21A     -0.836204  
      22A     -0.803823    23A     -0.744189    24A     -0.739674  
      25A     -0.709729    26A     -0.669783    27A     -0.657886  
      28A     -0.634710    29A     -0.604151    30A     -0.597975  
      31A     -0.595876    32A     -0.544370    33A     -0.493917  
      34A     -0.455058    35A     -0.435118    36A     -0.428772  
      37A     -0.423977    38A     -0.406598    39A     -0.295014  

    Virtual:                                                              

      40A      0.009144    41A      0.021894    42A      0.024860  
      43A      0.031443    44A      0.034244    45A      0.041188  
      46A      0.043539    47A      0.050989    48A      0.055054  
      49A      0.060092    50A      0.063036    51A      0.067592  
      52A      0.073521    53A      0.077207    54A      0.083095  
      55A      0.086301    56A      0.089544    57A      0.091730  
      58A      0.092761    59A      0.096702    60A      0.101626  
      61A      0.104762    62A      0.106166    63A      0.109278  
      64A      0.112496    65A      0.115074    66A      0.118187  
      67A      0.119632    68A      0.121955    69A      0.124830  
      70A      0.126655    71A      0.130046    72A      0.132805  
      73A      0.139409    74A      0.141722    75A      0.145762  
      76A      0.146057    77A      0.148527    78A      0.149878  
      79A      0.152863    80A      0.153864    81A      0.158653  
      82A      0.161474    83A      0.165407    84A      0.167072  
      85A      0.169958    86A      0.173172    87A      0.176397  
      88A      0.179114    89A      0.182490    90A      0.184310  
      91A      0.188973    92A      0.193439    93A      0.196140  
      94A      0.199056    95A      0.200456    96A      0.205679  
      97A      0.207084    98A      0.209619    99A      0.211181  
     100A      0.213401   101A      0.216298   102A      0.220700  
     103A      0.225890   104A      0.227005   105A      0.229240  
     106A      0.231968   107A      0.235280   108A      0.235927  
     109A      0.241573   110A      0.243924   111A      0.244958  
     112A      0.247182   113A      0.251803   114A      0.254502  
     115A      0.258421   116A      0.260448   117A      0.263172  
     118A      0.268406   119A      0.270237   120A      0.272773  
     121A      0.277431   122A      0.279061   123A      0.280989  
     124A      0.287016   125A      0.287804   126A      0.291450  
     127A      0.296007   128A      0.298987   129A      0.305473  
     130A      0.307142   131A      0.309087   132A      0.312069  
     133A      0.317348   134A      0.320752   135A      0.323711  
     136A      0.326636   137A      0.330861   138A      0.333017  
     139A      0.335499   140A      0.336776   141A      0.340822  
     142A      0.344359   143A      0.345565   144A      0.349096  
     145A      0.352244   146A      0.357624   147A      0.361057  
     148A      0.362258   149A      0.368711   150A      0.370109  
     151A      0.372919   152A      0.377240   153A      0.379701  
     154A      0.382241   155A      0.384593   156A      0.387146  
     157A      0.389700   158A      0.390540   159A      0.396056  
     160A      0.399253   161A      0.404455   162A      0.406906  
     163A      0.411031   164A      0.413470   165A      0.416247  
     166A      0.418039   167A      0.418662   168A      0.423876  
     169A      0.428583   170A      0.431163   171A      0.433247  
     172A      0.438707   173A      0.439532   174A      0.440829  
     175A      0.444746   176A      0.448338   177A      0.448568  
     178A      0.452348   179A      0.453935   180A      0.456514  
     181A      0.459796   182A      0.465072   183A      0.467798  
     184A      0.469718   185A      0.475422   186A      0.476308  
     187A      0.479814   188A      0.480366   189A      0.484948  
     190A      0.486467   191A      0.488165   192A      0.489562  
     193A      0.493741   194A      0.495842   195A      0.499986  
     196A      0.505229   197A      0.505920   198A      0.509443  
     199A      0.511933   200A      0.512866   201A      0.519002  
     202A      0.521831   203A      0.524932   204A      0.527497  
     205A      0.528908   206A      0.534611   207A      0.539938  
     208A      0.541635   209A      0.544292   210A      0.550267  
     211A      0.553049   212A      0.553563   213A      0.559560  
     214A      0.561975   215A      0.564780   216A      0.568166  
     217A      0.571963   218A      0.577783   219A      0.579879  
     220A      0.586061   221A      0.587902   222A      0.593358  
     223A      0.595751   224A      0.600435   225A      0.602661  
     226A      0.610343   227A      0.614176   228A      0.614344  
     229A      0.617166   230A      0.620941   231A      0.627526  
     232A      0.632191   233A      0.635833   234A      0.639750  
     235A      0.642924   236A      0.648243   237A      0.648978  
     238A      0.652851   239A      0.657341   240A      0.662772  
     241A      0.664165   242A      0.668031   243A      0.673937  
     244A      0.675435   245A      0.679847   246A      0.682374  
     247A      0.687818   248A      0.689610   249A      0.693518  
     250A      0.698358   251A      0.704012   252A      0.707643  
     253A      0.715473   254A      0.719017   255A      0.721022  
     256A      0.724178   257A      0.731999   258A      0.734282  
     259A      0.736604   260A      0.739195   261A      0.746428  
     262A      0.751303   263A      0.753736   264A      0.757133  
     265A      0.761550   266A      0.766252   267A      0.770973  
     268A      0.773358   269A      0.775679   270A      0.780061  
     271A      0.780986   272A      0.787143   273A      0.787909  
     274A      0.789124   275A      0.795727   276A      0.801787  
     277A      0.805781   278A      0.807558   279A      0.811505  
     280A      0.817049   281A      0.818832   282A      0.821346  
     283A      0.822947   284A      0.826643   285A      0.829502  
     286A      0.834508   287A      0.838238   288A      0.839667  
     289A      0.843523   290A      0.847670   291A      0.850035  
     292A      0.852154   293A      0.856560   294A      0.860480  
     295A      0.862641   296A      0.869478   297A      0.871503  
     298A      0.873861   299A      0.879488   300A      0.885019  
     301A      0.888746   302A      0.891692   303A      0.897795  
     304A      0.898831   305A      0.903568   306A      0.906072  
     307A      0.911660   308A      0.914596   309A      0.918238  
     310A      0.919972   311A      0.924435   312A      0.925249  
     313A      0.930689   314A      0.933349   315A      0.937100  
     316A      0.939972   317A      0.941775   318A      0.949669  
     319A      0.950524   320A      0.956894   321A      0.957605  
     322A      0.960764   323A      0.964601   324A      0.968588  
     325A      0.972718   326A      0.977256   327A      0.978120  
     328A      0.981842   329A      0.987196   330A      0.995437  
     331A      0.998681   332A      0.999281   333A      1.001240  
     334A      1.001461   335A      1.006356   336A      1.010169  
     337A      1.012132   338A      1.020360   339A      1.024735  
     340A      1.025946   341A      1.034608   342A      1.037738  
     343A      1.041299   344A      1.044710   345A      1.046154  
     346A      1.051169   347A      1.053898   348A      1.061143  
     349A      1.062277   350A      1.065716   351A      1.070467  
     352A      1.073930   353A      1.076068   354A      1.079279  
     355A      1.081533   356A      1.085024   357A      1.088533  
     358A      1.094267   359A      1.096334   360A      1.100842  
     361A      1.104103   362A      1.111364   363A      1.111911  
     364A      1.115027   365A      1.118065   366A      1.122993  
     367A      1.128504   368A      1.132114   369A      1.133308  
     370A      1.136922   371A      1.144084   372A      1.145544  
     373A      1.149411   374A      1.151663   375A      1.157044  
     376A      1.160263   377A      1.165009   378A      1.170981  
     379A      1.175430   380A      1.179633   381A      1.182428  
     382A      1.188720   383A      1.193903   384A      1.194991  
     385A      1.198178   386A      1.205153   387A      1.212258  
     388A      1.214596   389A      1.216371   390A      1.220669  
     391A      1.222202   392A      1.224243   393A      1.232002  
     394A      1.234341   395A      1.236632   396A      1.243479  
     397A      1.247141   398A      1.251193   399A      1.255028  
     400A      1.260063   401A      1.265496   402A      1.269339  
     403A      1.274761   404A      1.278090   405A      1.284851  
     406A      1.289778   407A      1.293136   408A      1.297881  
     409A      1.301159   410A      1.303046   411A      1.313675  
     412A      1.318169   413A      1.320327   414A      1.327542  
     415A      1.328822   416A      1.333154   417A      1.337392  
     418A      1.338744   419A      1.349165   420A      1.350671  
     421A      1.354267   422A      1.356045   423A      1.366775  
     424A      1.369015   425A      1.371127   426A      1.376944  
     427A      1.381639   428A      1.384065   429A      1.390584  
     430A      1.393526   431A      1.396840   432A      1.397002  
     433A      1.405125   434A      1.410544   435A      1.415735  
     436A      1.423166   437A      1.427005   438A      1.431532  
     439A      1.433194   440A      1.443207   441A      1.448048  
     442A      1.450207   443A      1.452641   444A      1.467104  
     445A      1.468011   446A      1.473881   447A      1.479089  
     448A      1.481559   449A      1.488607   450A      1.490765  
     451A      1.494251   452A      1.498397   453A      1.500606  
     454A      1.505544   455A      1.508285   456A      1.521786  
     457A      1.524645   458A      1.528319   459A      1.530622  
     460A      1.537062   461A      1.546692   462A      1.552524  
     463A      1.556114   464A      1.558281   465A      1.561717  
     466A      1.566944   467A      1.567142   468A      1.572840  
     469A      1.575038   470A      1.579300   471A      1.586357  
     472A      1.593203   473A      1.600546   474A      1.605708  
     475A      1.607996   476A      1.609571   477A      1.619256  
     478A      1.625513   479A      1.629924   480A      1.632625  
     481A      1.638300   482A      1.642571   483A      1.646229  
     484A      1.652972   485A      1.659165   486A      1.661591  
     487A      1.664022   488A      1.669175   489A      1.674499  
     490A      1.676669   491A      1.680319   492A      1.686707  
     493A      1.691558   494A      1.695349   495A      1.704694  
     496A      1.708333   497A      1.716960   498A      1.719135  
     499A      1.721275   500A      1.724503   501A      1.731255  
     502A      1.733917   503A      1.736317   504A      1.739223  
     505A      1.746903   506A      1.747097   507A      1.752490  
     508A      1.764225   509A      1.767002   510A      1.769248  
     511A      1.774188   512A      1.776156   513A      1.779169  
     514A      1.782019   515A      1.785545   516A      1.789564  
     517A      1.800274   518A      1.803051   519A      1.805094  
     520A      1.807253   521A      1.814548   522A      1.818078  
     523A      1.823341   524A      1.827442   525A      1.832874  
     526A      1.841863   527A      1.852494   528A      1.856915  
     529A      1.857735   530A      1.867099   531A      1.874367  
     532A      1.876723   533A      1.878229   534A      1.884413  
     535A      1.887938   536A      1.889559   537A      1.896100  
     538A      1.901146   539A      1.909492   540A      1.911538  
     541A      1.914068   542A      1.929099   543A      1.933283  
     544A      1.937022   545A      1.940262   546A      1.951616  
     547A      1.954213   548A      1.961442   549A      1.967330  
     550A      1.980269   551A      1.981085   552A      1.984331  
     553A      1.994562   554A      1.998891   555A      2.003921  
     556A      2.009261   557A      2.014122   558A      2.023886  
     559A      2.033085   560A      2.035882   561A      2.038087  
     562A      2.041393   563A      2.045648   564A      2.047306  
     565A      2.051553   566A      2.061934   567A      2.069598  
     568A      2.074687   569A      2.079126   570A      2.084501  
     571A      2.087877   572A      2.096119   573A      2.100169  
     574A      2.106784   575A      2.111481   576A      2.114881  
     577A      2.118766   578A      2.122934   579A      2.128129  
     580A      2.138992   581A      2.141152   582A      2.145359  
     583A      2.147133   584A      2.154377   585A      2.160924  
     586A      2.168829   587A      2.170442   588A      2.176214  
     589A      2.180601   590A      2.185105   591A      2.195381  
     592A      2.203552   593A      2.214579   594A      2.220092  
     595A      2.230923   596A      2.235753   597A      2.241271  
     598A      2.244862   599A      2.253985   600A      2.258379  
     601A      2.270905   602A      2.274858   603A      2.280654  
     604A      2.284891   605A      2.292950   606A      2.300173  
     607A      2.303466   608A      2.311197   609A      2.313611  
     610A      2.320517   611A      2.329914   612A      2.330115  
     613A      2.336627   614A      2.346665   615A      2.352462  
     616A      2.358467   617A      2.362392   618A      2.363567  
     619A      2.372959   620A      2.374509   621A      2.382726  
     622A      2.395052   623A      2.402950   624A      2.414388  
     625A      2.419826   626A      2.422832   627A      2.426975  
     628A      2.430283   629A      2.435983   630A      2.437696  
     631A      2.450967   632A      2.452029   633A      2.455037  
     634A      2.462780   635A      2.469690   636A      2.481758  
     637A      2.483246   638A      2.485711   639A      2.487693  
     640A      2.496283   641A      2.503717   642A      2.509064  
     643A      2.512850   644A      2.520825   645A      2.535544  
     646A      2.536336   647A      2.546444   648A      2.552403  
     649A      2.557816   650A      2.562657   651A      2.576657  
     652A      2.579408   653A      2.583320   654A      2.589727  
     655A      2.600179   656A      2.608560   657A      2.615714  
     658A      2.619171   659A      2.628640   660A      2.633010  
     661A      2.635627   662A      2.641789   663A      2.652865  
     664A      2.661057   665A      2.665997   666A      2.671326  
     667A      2.679289   668A      2.682069   669A      2.693522  
     670A      2.703386   671A      2.706284   672A      2.711365  
     673A      2.718130   674A      2.719642   675A      2.728804  
     676A      2.741911   677A      2.745837   678A      2.750344  
     679A      2.758667   680A      2.763480   681A      2.766965  
     682A      2.770052   683A      2.777664   684A      2.789858  
     685A      2.793026   686A      2.800131   687A      2.802640  
     688A      2.808261   689A      2.812749   690A      2.824207  
     691A      2.827150   692A      2.834121   693A      2.840077  
     694A      2.851504   695A      2.860521   696A      2.861627  
     697A      2.870098   698A      2.880031   699A      2.884594  
     700A      2.891620   701A      2.899730   702A      2.910816  
     703A      2.912830   704A      2.923234   705A      2.927210  
     706A      2.935805   707A      2.946872   708A      2.960700  
     709A      2.961604   710A      2.962987   711A      2.974877  
     712A      2.980087   713A      3.002736   714A      3.005084  
     715A      3.010851   716A      3.016875   717A      3.020085  
     718A      3.032129   719A      3.038062   720A      3.052446  
     721A      3.063598   722A      3.069307   723A      3.072981  
     724A      3.075429   725A      3.086988   726A      3.102261  
     727A      3.107335   728A      3.108756   729A      3.115952  
     730A      3.119584   731A      3.128852   732A      3.130618  
     733A      3.155473   734A      3.160965   735A      3.167503  
     736A      3.177164   737A      3.181860   738A      3.191312  
     739A      3.201032   740A      3.220956   741A      3.225596  
     742A      3.231203   743A      3.238685   744A      3.253876  
     745A      3.260490   746A      3.265266   747A      3.276748  
     748A      3.294158   749A      3.298695   750A      3.305267  
     751A      3.315645   752A      3.337209   753A      3.346219  
     754A      3.361874   755A      3.366977   756A      3.370102  
     757A      3.387648   758A      3.397995   759A      3.410271  
     760A      3.415677   761A      3.418824   762A      3.426029  
     763A      3.436563   764A      3.446183   765A      3.462803  
     766A      3.473601   767A      3.481949   768A      3.493648  
     769A      3.513667   770A      3.520281   771A      3.531983  
     772A      3.543388   773A      3.553803   774A      3.568077  
     775A      3.579818   776A      3.598263   777A      3.600096  
     778A      3.622605   779A      3.629104   780A      3.641670  
     781A      3.654468   782A      3.659498   783A      3.666013  
     784A      3.675582   785A      3.684529   786A      3.710147  
     787A      3.723555   788A      3.724986   789A      3.733248  
     790A      3.743730   791A      3.759716   792A      3.763429  
     793A      3.776327   794A      3.777713   795A      3.787524  
     796A      3.802020   797A      3.815819   798A      3.820124  
     799A      3.829930   800A      3.851445   801A      3.860924  
     802A      3.861118   803A      3.871410   804A      3.877984  
     805A      3.883519   806A      3.897068   807A      3.903086  
     808A      3.914096   809A      3.928202   810A      3.935738  
     811A      3.953143   812A      3.962538   813A      3.980640  
     814A      3.997953   815A      4.001783   816A      4.014098  
     817A      4.021886   818A      4.031845   819A      4.042583  
     820A      4.048360   821A      4.070608   822A      4.076580  
     823A      4.085190   824A      4.098110   825A      4.106232  
     826A      4.115567   827A      4.121522   828A      4.133384  
     829A      4.135643   830A      4.146396   831A      4.153153  
     832A      4.160406   833A      4.168110   834A      4.173259  
     835A      4.183829   836A      4.197548   837A      4.200219  
     838A      4.203915   839A      4.212119   840A      4.221500  
     841A      4.224221   842A      4.228872   843A      4.237963  
     844A      4.247468   845A      4.249016   846A      4.253665  
     847A      4.260499   848A      4.261424   849A      4.285085  
     850A      4.294868   851A      4.299715   852A      4.307292  
     853A      4.309983   854A      4.321077   855A      4.332792  
     856A      4.336171   857A      4.341150   858A      4.349001  
     859A      4.365615   860A      4.367160   861A      4.375064  
     862A      4.388919   863A      4.402901   864A      4.407387  
     865A      4.419352   866A      4.436700   867A      4.446299  
     868A      4.460100   869A      4.465898   870A      4.473175  
     871A      4.492355   872A      4.494421   873A      4.504129  
     874A      4.504484   875A      4.513138   876A      4.524864  
     877A      4.527875   878A      4.532558   879A      4.539424  
     880A      4.545174   881A      4.551633   882A      4.555520  
     883A      4.566177   884A      4.577794   885A      4.586580  
     886A      4.598018   887A      4.602636   888A      4.627085  
     889A      4.634178   890A      4.638563   891A      4.656722  
     892A      4.661892   893A      4.669190   894A      4.673520  
     895A      4.681725   896A      4.691875   897A      4.694862  
     898A      4.699794   899A      4.711269   900A      4.716732  
     901A      4.723738   902A      4.728740   903A      4.738287  
     904A      4.746040   905A      4.762383   906A      4.767568  
     907A      4.778181   908A      4.784197   909A      4.794899  
     910A      4.808563   911A      4.816735   912A      4.819927  
     913A      4.831822   914A      4.839899   915A      4.856930  
     916A      4.860212   917A      4.873762   918A      4.882229  
     919A      4.892871   920A      4.902299   921A      4.907431  
     922A      4.918991   923A      4.921606   924A      4.927643  
     925A      4.930582   926A      4.947326   927A      4.952306  
     928A      4.958275   929A      4.967001   930A      4.973624  
     931A      4.976464   932A      4.991388   933A      4.998551  
     934A      5.002261   935A      5.003374   936A      5.014333  
     937A      5.017499   938A      5.030568   939A      5.034001  
     940A      5.043641   941A      5.056754   942A      5.058858  
     943A      5.073203   944A      5.085787   945A      5.089148  
     946A      5.096209   947A      5.113204   948A      5.115723  
     949A      5.137495   950A      5.146004   951A      5.150241  
     952A      5.161384   953A      5.177939   954A      5.180116  
     955A      5.182823   956A      5.197664   957A      5.203049  
     958A      5.214542   959A      5.219702   960A      5.236800  
     961A      5.253196   962A      5.262082   963A      5.271879  
     964A      5.280479   965A      5.291366   966A      5.295526  
     967A      5.307298   968A      5.315654   969A      5.329720  
     970A      5.332238   971A      5.335530   972A      5.346335  
     973A      5.356615   974A      5.359348   975A      5.363429  
     976A      5.388139   977A      5.397057   978A      5.425756  
     979A      5.430169   980A      5.436925   981A      5.442392  
     982A      5.461583   983A      5.468433   984A      5.475922  
     985A      5.493445   986A      5.502010   987A      5.516460  
     988A      5.519015   989A      5.527314   990A      5.535676  
     991A      5.538368   992A      5.550190   993A      5.555562  
     994A      5.557787   995A      5.563185   996A      5.568656  
     997A      5.582307   998A      5.586126   999A      5.587406  
    1000A      5.600663  1001A      5.611929  1002A      5.615665  
    1003A      5.642800  1004A      5.647545  1005A      5.655840  
    1006A      5.662543  1007A      5.677675  1008A      5.681872  
    1009A      5.701728  1010A      5.722510  1011A      5.725940  
    1012A      5.740723  1013A      5.749345  1014A      5.755978  
    1015A      5.757601  1016A      5.771682  1017A      5.794531  
    1018A      5.800778  1019A      5.806818  1020A      5.817945  
    1021A      5.829310  1022A      5.845950  1023A      5.849981  
    1024A      5.875397  1025A      5.886676  1026A      5.913362  
    1027A      5.922175  1028A      5.926419  1029A      5.934860  
    1030A      5.937428  1031A      5.945522  1032A      5.950839  
    1033A      5.998576  1034A      6.007990  1035A      6.019844  
    1036A      6.040723  1037A      6.068060  1038A      6.071474  
    1039A      6.072674  1040A      6.083575  1041A      6.094936  
    1042A      6.100675  1043A      6.106521  1044A      6.118940  
    1045A      6.147424  1046A      6.151445  1047A      6.171855  
    1048A      6.198770  1049A      6.202590  1050A      6.211409  
    1051A      6.214867  1052A      6.223191  1053A      6.227725  
    1054A      6.246913  1055A      6.270846  1056A      6.279780  
    1057A      6.284571  1058A      6.320345  1059A      6.343799  
    1060A      6.348787  1061A      6.385621  1062A      6.403317  
    1063A      6.420498  1064A      6.431660  1065A      6.453520  
    1066A      6.477840  1067A      6.488009  1068A      6.495193  
    1069A      6.507096  1070A      6.510787  1071A      6.522036  
    1072A      6.528190  1073A      6.541598  1074A      6.554139  
    1075A      6.562296  1076A      6.579372  1077A      6.584560  
    1078A      6.609033  1079A      6.619996  1080A      6.638987  
    1081A      6.656940  1082A      6.664914  1083A      6.692890  
    1084A      6.695729  1085A      6.716717  1086A      6.722638  
    1087A      6.729742  1088A      6.736016  1089A      6.760260  
    1090A      6.773650  1091A      6.785123  1092A      6.803408  
    1093A      6.804405  1094A      6.828197  1095A      6.832326  
    1096A      6.837095  1097A      6.845629  1098A      6.876474  
    1099A      6.879561  1100A      6.898878  1101A      6.925181  
    1102A      6.928544  1103A      6.944462  1104A      6.976130  
    1105A      7.007650  1106A      7.011289  1107A      7.020979  
    1108A      7.037908  1109A      7.039019  1110A      7.045516  
    1111A      7.083823  1112A      7.116029  1113A      7.120343  
    1114A      7.179981  1115A      7.197220  1116A      7.241729  
    1117A      7.241948  1118A      7.259007  1119A      7.270242  
    1120A      7.285733  1121A      7.377119  1122A      7.407346  
    1123A      7.422051  1124A      7.425735  1125A      7.429649  
    1126A      7.440117  1127A      7.454580  1128A      7.477871  
    1129A      7.485694  1130A      7.488535  1131A      7.524579  
    1132A      7.543224  1133A      7.575832  1134A      7.593084  
    1135A      7.615579  1136A      7.636308  1137A      7.649595  
    1138A      7.655388  1139A      7.659744  1140A      7.668018  
    1141A      7.673411  1142A      7.708772  1143A      7.720036  
    1144A      7.737605  1145A      7.759664  1146A      7.765112  
    1147A      7.770920  1148A      7.779282  1149A      7.802444  
    1150A      7.827799  1151A      7.848716  1152A      7.882542  
    1153A      7.897024  1154A      7.904295  1155A      7.930379  
    1156A      7.948947  1157A      7.976128  1158A      7.980651  
    1159A      7.993720  1160A      7.997709  1161A      8.009531  
    1162A      8.028518  1163A      8.068309  1164A      8.087362  
    1165A      8.160411  1166A      8.192455  1167A      8.249364  
    1168A      8.264476  1169A      8.319018  1170A      8.338685  
    1171A      8.406458  1172A      8.491805  1173A      8.574059  
    1174A      8.584906  1175A      8.712666  1176A      8.724953  
    1177A      8.804044  1178A      8.840239  1179A      8.941796  
    1180A      9.023130  1181A      9.062783  1182A      9.160879  
    1183A      9.247388  1184A      9.346881  1185A      9.418353  
    1186A      9.487959  1187A      9.549254  1188A      9.590525  
    1189A      9.649817  1190A      9.760937  1191A      9.779754  
    1192A      9.956247  1193A     10.029910  1194A     10.168149  
    1195A     10.269373  1196A     10.317308  1197A     10.412652  
    1198A     10.463401  1199A     10.568614  1200A     10.731866  
    1201A     11.081474  1202A     11.171681  1203A     11.273504  
    1204A     11.382720  1205A     11.445741  1206A     11.637219  
    1207A     11.718854  1208A     11.973082  1209A     12.023035  
    1210A     12.043767  1211A     12.105135  1212A     12.178683  
    1213A     12.297716  1214A     12.389903  1215A     12.601432  
    1216A     12.800986  1217A     12.935434  1218A     13.346088  
    1219A     13.523905  1220A     14.207349  1221A     16.076182  
    1222A     16.370091  1223A     16.599761  1224A     16.853490  
    1225A     17.725333  1226A     18.226685  1227A     19.122489  
    1228A     19.364194  1229A     20.294993  1230A     20.772685  
    1231A     21.221984  1232A     51.724088  1233A     52.165345  
    1234A     52.833405  1235A     53.893396  1236A     56.353138  
    1237A     60.191803  1238A     61.398809  1239A     61.931258  
    1240A     63.419661  1241A     65.513538  1242A     69.805727  

    Final Occupation by Irrep:
              A 
    DOCC [    39 ]

  @DF-RHF Final Energy:  -539.58431623586637

   => Energetics <=

    Nuclear Repulsion Energy =            593.8720802694641634
    One-Electron Energy =               -1913.3964509282895960
    Two-Electron Energy =                 779.9400544229589514
    Total Energy =                       -539.5843162358663676

Computation Completed


Properties will be evaluated at   0.000000,   0.000000,   0.000000 [a0]

Properties computed using the SCF density matrix

  Nuclear Dipole Moment: [e a0]
     X:    75.8451      Y:  -333.6795      Z:   260.5959

  Electronic Dipole Moment: [e a0]
     X:   -78.3113      Y:   331.8843      Z:  -260.9451

  Dipole Moment: [e a0]
     X:    -2.4661      Y:    -1.7952      Z:    -0.3492     Total:     3.0703

  Dipole Moment: [D]
     X:    -6.2683      Y:    -4.5630      Z:    -0.8876     Total:     7.8039


*** tstop() called on node154.bme.utexas.edu at Wed Jan 24 14:16:11 2024
Module time:
	user time   =    1201.82 seconds =      20.03 minutes
	system time =       6.25 seconds =       0.10 minutes
	total time  =        168 seconds =       2.80 minutes
Total time:
	user time   =    4753.83 seconds =      79.23 minutes
	system time =      44.89 seconds =       0.75 minutes
	total time  =        694 seconds =      11.57 minutes

*** tstart() called on node154.bme.utexas.edu
*** at Wed Jan 24 14:16:11 2024


  //>>>>>>>>>>>>>>>>>>>>>>>>>>>>>>>>>>>//
  //               DFMP2               //
  //<<<<<<<<<<<<<<<<<<<<<<<<<<<<<<<<<<<//

   => Loading Basis Set <=

    Name: (AUG-CC-PVTZ AUX)
    Role: RIFIT
    Keyword: DF_BASIS_MP2
    atoms 1, 3, 7, 9, 11, 17, 19, 23, 25, 27 entry N          line   206 file /opt/anaconda/envs/psi4v1.5/share/psi4/basis/aug-cc-pvtz-ri.gbs 
    atoms 2, 4-6, 8, 18, 20-22, 24           entry C          line   148 file /opt/anaconda/envs/psi4v1.5/share/psi4/basis/aug-cc-pvtz-ri.gbs 
    atoms 10, 12-13, 15-16, 26, 28-29, 31-32 entry H          line    30 file /opt/anaconda/envs/psi4v1.5/share/psi4/basis/aug-cc-pvtz-ri.gbs 
    atoms 14, 30                             entry O          line   264 file /opt/anaconda/envs/psi4v1.5/share/psi4/basis/aug-cc-pvtz-ri.gbs 

	 --------------------------------------------------------
	                          DF-MP2                         
	      2nd-Order Density-Fitted Moller-Plesset Theory     
	              RMP2 Wavefunction,   8 Threads             
	                                                         
	        Rob Parrish, Justin Turney, Andy Simmonett,      
	           Ed Hohenstein, and C. David Sherrill          
	 --------------------------------------------------------

   => Auxiliary Basis Set <=

  Basis Set: (AUG-CC-PVTZ AUX)
    Blend: AUG-CC-PVTZ-RI
    Number of shells: 756
    Number of basis functions: 2792
    Number of Cartesian functions: 3542
    Spherical Harmonics?: true
    Max angular momentum: 4

	 --------------------------------------------------------
	                 NBF =  1242, NAUX =  2792
	 --------------------------------------------------------
	   CLASS    FOCC     OCC    AOCC    AVIR     VIR    FVIR
	   PAIRS      11      39      28    1203    1203       0
	 --------------------------------------------------------

	 Will attempt to load fitting metric from file 97.

	-----------------------------------------------------------
	 ==================> DF-MP2 Energies <==================== 
	-----------------------------------------------------------
	 Reference Energy          =    -539.5843162358663676 [Eh]
	 Singles Energy            =      -0.0000000000000000 [Eh]
	 Same-Spin Energy          =      -0.5419999128845459 [Eh]
	 Opposite-Spin Energy      =      -1.4969481710504096 [Eh]
	 Correlation Energy        =      -2.0389480839349554 [Eh]
	 Total Energy              =    -541.6232643198013648 [Eh]
	-----------------------------------------------------------
	 ================> DF-SCS-MP2 Energies <================== 
	-----------------------------------------------------------
	 SCS Same-Spin Scale       =       0.3333333333333333 [-]
	 SCS Opposite-Spin Scale   =       1.2000000000000000 [-]
	 SCS Same-Spin Energy      =      -0.1806666376281819 [Eh]
	 SCS Opposite-Spin Energy  =      -1.7963378052604915 [Eh]
	 SCS Correlation Energy    =      -1.9770044428886735 [Eh]
	 SCS Total Energy          =    -541.5613206787550098 [Eh]
	-----------------------------------------------------------


*** tstop() called on node154.bme.utexas.edu at Wed Jan 24 14:16:55 2024
Module time:
	user time   =     228.45 seconds =       3.81 minutes
	system time =       7.31 seconds =       0.12 minutes
	total time  =         44 seconds =       0.73 minutes
Total time:
	user time   =    4982.29 seconds =      83.04 minutes
	system time =      52.20 seconds =       0.87 minutes
	total time  =        738 seconds =      12.30 minutes
  Constructing Basis Sets for SAPT...

   => Loading Basis Set <=

    Name: (AUG-CC-PVTZ AUX)
    Role: RIFIT
    Keyword: DF_BASIS_SAPT
    atoms 1, 3, 7, 9, 11, 17, 19, 23, 25, 27 entry N          line   206 file /opt/anaconda/envs/psi4v1.5/share/psi4/basis/aug-cc-pvtz-ri.gbs 
    atoms 2, 4-6, 8, 18, 20-22, 24           entry C          line   148 file /opt/anaconda/envs/psi4v1.5/share/psi4/basis/aug-cc-pvtz-ri.gbs 
    atoms 10, 12-13, 15-16, 26, 28-29, 31-32 entry H          line    30 file /opt/anaconda/envs/psi4v1.5/share/psi4/basis/aug-cc-pvtz-ri.gbs 
    atoms 14, 30                             entry O          line   264 file /opt/anaconda/envs/psi4v1.5/share/psi4/basis/aug-cc-pvtz-ri.gbs 


  //>>>>>>>>>>>>>>>>>>>>>>>>>>>>>>>>>>>//
  //           SAPT2+(3)DMP2           //
  //<<<<<<<<<<<<<<<<<<<<<<<<<<<<<<<<<<<//


*** tstart() called on node154.bme.utexas.edu
*** at Wed Jan 24 14:16:55 2024

      SAPT2+(3)  
    Ed Hohenstein
     6 June 2009

      Orbital Information
  --------------------------
    NSO        =      1242
    NMO        =      1242
    NRI        =      2792
    NOCC A     =        39
    NOCC B     =        39
    FOCC A     =        11
    FOCC B     =        11
    NVIR A     =      1203
    NVIR B     =      1203

    Estimated memory usage: 85153.8 MB

    Natural Orbital Cutoff:   1.000E-06
    Disp(T3) Truncation:            Yes
    CCD (vv|vv) Truncation:         Yes
    MBPT T2 Truncation:             Yes

    Monomer A: 674 virtual orbitals dropped
    Monomer B: 673 virtual orbitals dropped

    Elst10,r            =     0.008456193407 [Eh]
    Exch10 (S^2)        =     0.001279903556 [Eh]
    Exch10              =     0.001280196571 [Eh]
    Ind20,r (A<-B)      =    -0.000974289428 [Eh]
    Ind20,r (B<-A)      =    -0.000906105078 [Eh]
    Ind20,r             =    -0.001880394507 [Eh]
    Exch-Ind20,r (A<-B) =     0.000195326528 [Eh]
    Exch-Ind20,r (B<-A) =     0.000189947763 [Eh]
    Exch-Ind20,r        =     0.000385274291 [Eh]
    Disp20              =    -0.005318233096 [Eh]
    Disp20 (NO)         =    -0.005034649901 [Eh]
    Exch-Disp20         =     0.000200282759 [Eh]
    Elst12,r            =    -0.003068234368 [Eh]
    Exch11              =    -0.000009315511 [Eh]
    Exch12              =     0.000297095063 [Eh]
    Ind22               =    -0.000053929782 [Eh]
    Disp21              =     0.001372306197 [Eh]
    Disp22 (SDQ)        =    -0.000247598966 [Eh]

    (i =   1 of  28)       2851 seconds
    (i =   2 of  28)       6077 seconds
    (i =   3 of  28)       9028 seconds
    (i =   4 of  28)      11902 seconds
    (i =   5 of  28)      14755 seconds
    (i =   6 of  28)      17608 seconds
    (i =   7 of  28)      20505 seconds
    (i =   8 of  28)      23368 seconds
    (i =   9 of  28)      26746 seconds
    (i =  10 of  28)      29790 seconds
    (i =  11 of  28)      32808 seconds
    (i =  12 of  28)      36232 seconds
    (i =  13 of  28)      39341 seconds
    (i =  14 of  28)      42373 seconds
    (i =  15 of  28)      45656 seconds
    (i =  16 of  28)      48962 seconds
    (i =  17 of  28)      52000 seconds
    (i =  18 of  28)      55093 seconds
    (i =  19 of  28)      58634 seconds
    (i =  20 of  28)      61713 seconds
    (i =  21 of  28)      65159 seconds
    (i =  22 of  28)      68225 seconds
    (i =  23 of  28)      71304 seconds
    (i =  24 of  28)      74703 seconds
    (i =  25 of  28)      77803 seconds
    (i =  26 of  28)      80896 seconds
    (i =  27 of  28)      84246 seconds
    (i =  28 of  28)      87348 seconds

    Disp220 (T)         =    -0.000645240242 [Eh]

    (i =   1 of  28)       3791 seconds
    (i =   2 of  28)       7707 seconds
    (i =   3 of  28)      11369 seconds
    (i =   4 of  28)      15297 seconds
    (i =   5 of  28)      18903 seconds
    (i =   6 of  28)      22728 seconds
    (i =   7 of  28)      26350 seconds
    (i =   8 of  28)      30058 seconds
    (i =   9 of  28)      33827 seconds
    (i =  10 of  28)      37456 seconds
    (i =  11 of  28)      41302 seconds
    (i =  12 of  28)      44910 seconds
    (i =  13 of  28)      48755 seconds
    (i =  14 of  28)      52405 seconds
    (i =  15 of  28)      56227 seconds
    (i =  16 of  28)      59839 seconds
    (i =  17 of  28)      63621 seconds
    (i =  18 of  28)      67241 seconds
    (i =  19 of  28)      71019 seconds
    (i =  20 of  28)      74637 seconds
    (i =  21 of  28)      78359 seconds
    (i =  22 of  28)      82045 seconds
    (i =  23 of  28)      85665 seconds
    (i =  24 of  28)      89469 seconds
    (i =  25 of  28)      93050 seconds
    (i =  26 of  28)      96719 seconds
    (i =  27 of  28)      99655 seconds
    (i =  28 of  28)     102790 seconds

    Disp202 (T)         =    -0.000650925115 [Eh]

    Disp22 (T)          =    -0.001296165357 [Eh]

    Est. Disp220 (T)    =    -0.000681584237 [Eh]
    Est. Disp202 (T)    =    -0.000687589317 [Eh]

    Est. Disp22 (T)     =    -0.001369173554 [Eh]
    Elst13,r            =     0.001138727582 [Eh]
    Disp30              =     0.000068937905 [Eh]

    SAPT Results 
  --------------------------------------------------------------------------------------------------------
    Electrostatics                  6.52668662 [mEh]       4.09555769 [kcal/mol]      17.13581336 [kJ/mol]
      Elst10,r                      8.45619341 [mEh]       5.30634147 [kcal/mol]      22.20173273 [kJ/mol]
      Elst12,r                     -3.06823437 [mEh]      -1.92534613 [kcal/mol]      -8.05564822 [kJ/mol]
      Elst13,r                      1.13872758 [mEh]       0.71456235 [kcal/mol]       2.98972886 [kJ/mol]

    Exchange                        1.56797612 [mEh]       0.98391987 [kcal/mol]       4.11672075 [kJ/mol]
      Exch10                        1.28019657 [mEh]       0.80333548 [kcal/mol]       3.36115564 [kJ/mol]
      Exch10(S^2)                   1.27990356 [mEh]       0.80315161 [kcal/mol]       3.36038632 [kJ/mol]
      Exch11(S^2)                  -0.00931551 [mEh]      -0.00584557 [kcal/mol]      -0.02445787 [kJ/mol]
      Exch12(S^2)                   0.29709506 [mEh]       0.18642997 [kcal/mol]       0.78002298 [kJ/mol]

    Induction                      -1.18477026 [mEh]      -0.74345456 [kcal/mol]      -3.11061389 [kJ/mol]
      Ind20,r                      -1.88039451 [mEh]      -1.17996537 [kcal/mol]      -4.93697510 [kJ/mol]
      Ind22                        -0.05392978 [mEh]      -0.03384145 [kcal/mol]      -0.14159262 [kJ/mol]
      Exch-Ind20,r                  0.38527429 [mEh]       0.24176327 [kcal/mol]       1.01153751 [kJ/mol]
      Exch-Ind22                    0.01104968 [mEh]       0.00693378 [kcal/mol]       0.02901093 [kJ/mol]
      delta HF,r (2)                0.09444297 [mEh]       0.05926386 [kcal/mol]       0.24795998 [kJ/mol]
      delta MP2,r (2)               0.25878709 [mEh]       0.16239135 [kcal/mol]       0.67944540 [kJ/mol]

    Dispersion                     -5.29347876 [mEh]      -3.32170807 [kcal/mol]     -13.89802656 [kJ/mol]
      Disp20                       -5.31823310 [mEh]      -3.33724165 [kcal/mol]     -13.96301907 [kJ/mol]
      Disp30                        0.06893791 [mEh]       0.04325919 [kcal/mol]       0.18099645 [kJ/mol]
      Disp21                        1.37230620 [mEh]       0.86113514 [kcal/mol]       3.60298942 [kJ/mol]
      Disp22 (SDQ)                 -0.24759897 [mEh]      -0.15537070 [kcal/mol]      -0.65007100 [kJ/mol]
      Disp22 (T)                   -1.29616536 [mEh]      -0.81335604 [kcal/mol]      -3.40308168 [kJ/mol]
      Est. Disp22 (T)              -1.36917355 [mEh]      -0.85916938 [kcal/mol]      -3.59476467 [kJ/mol]
      Exch-Disp20                   0.20028276 [mEh]       0.12567933 [kcal/mol]       0.52584231 [kJ/mol]

  Total HF                          8.33571273 [mEh]       5.23073871 [kcal/mol]      21.88541076 [kJ/mol]
  Total SAPT0                       3.21776239 [mEh]       2.01917639 [kcal/mol]       8.44823400 [kJ/mol]
  Total SAPT2                       0.39442748 [mEh]       0.24750698 [kcal/mol]       1.03556920 [kJ/mol]
  Total SAPT2+                      0.14996115 [mEh]       0.09410204 [kcal/mol]       0.39372295 [kJ/mol]
  Total SAPT2+(3)                   1.35762664 [mEh]       0.85192358 [kcal/mol]       3.56444825 [kJ/mol]
  Total SAPT2+dMP2                  0.40874824 [mEh]       0.25649339 [kcal/mol]       1.07316835 [kJ/mol]
  Total SAPT2+(3)dMP2               1.61641373 [mEh]       1.01431493 [kcal/mol]       4.24389366 [kJ/mol]

  Special recipe for scaled SAPT0 (see Manual):
    Electrostatics sSAPT0           8.45619341 [mEh]       5.30634147 [kcal/mol]      22.20173273 [kJ/mol]
    Exchange sSAPT0                 1.28019657 [mEh]       0.80333548 [kcal/mol]       3.36115564 [kJ/mol]
    Induction sSAPT0               -1.40041258 [mEh]      -0.87877216 [kcal/mol]      -3.67678272 [kJ/mol]
    Dispersion sSAPT0              -5.11781275 [mEh]      -3.21147599 [kcal/mol]     -13.43681552 [kJ/mol]
  Total sSAPT0                      3.21816465 [mEh]       2.01942881 [kcal/mol]       8.44929013 [kJ/mol]
  --------------------------------------------------------------------------------------------------------

*** tstop() called on node154.bme.utexas.edu at Sat Jan 27 02:24:52 2024
Module time:
	user time   = 1469963.48 seconds =   24499.39 minutes
	system time =    2658.53 seconds =      44.31 minutes
	total time  =     216477 seconds =    3607.95 minutes
Total time:
	user time   = 1474946.38 seconds =   24582.44 minutes
	system time =    2710.73 seconds =      45.18 minutes
	total time  =     217215 seconds =    3620.25 minutes

    Psi4 stopped on: Saturday, 27 January 2024 02:24AM
    Psi4 wall time for execution: 2 days, 12:20:15.51

*** Psi4 exiting successfully. Buy a developer a beer!
