
    -----------------------------------------------------------------------
          Psi4: An Open-Source Ab Initio Electronic Structure Package
                               Psi4 1.5 release

                         Git: Rev {HEAD} e9f4d6d 


    D. G. A. Smith, L. A. Burns, A. C. Simmonett, R. M. Parrish,
    M. C. Schieber, R. Galvelis, P. Kraus, H. Kruse, R. Di Remigio,
    A. Alenaizan, A. M. James, S. Lehtola, J. P. Misiewicz, M. Scheurer,
    R. A. Shaw, J. B. Schriber, Y. Xie, Z. L. Glick, D. A. Sirianni,
    J. S. O'Brien, J. M. Waldrop, A. Kumar, E. G. Hohenstein,
    B. P. Pritchard, B. R. Brooks, H. F. Schaefer III, A. Yu. Sokolov,
    K. Patkowski, A. E. DePrince III, U. Bozkaya, R. A. King,
    F. A. Evangelista, J. M. Turney, T. D. Crawford, C. D. Sherrill,
    J. Chem. Phys. 152(18) 184108 (2020). https://doi.org/10.1063/5.0006002

                            Additional Code Authors
    E. T. Seidl, C. L. Janssen, E. F. Valeev, M. L. Leininger,
    J. F. Gonthier, R. M. Richard, H. R. McAlexander, M. Saitow, X. Wang,
    P. Verma, M. H. Lechner, and A. Jiang

             Previous Authors, Complete List of Code Contributors,
                       and Citations for Specific Modules
    https://github.com/psi4/psi4/blob/master/codemeta.json
    https://github.com/psi4/psi4/graphs/contributors
    http://psicode.org/psi4manual/master/introduction.html#citing-psifour

    -----------------------------------------------------------------------


    Psi4 started on: Monday, 22 January 2024 03:26PM

    Process ID: 92648
    Host:       node158.bme.utexas.edu
    PSIDATADIR: /opt/anaconda/envs/psi4v1.5/share/psi4
    Memory:     500.0 MiB
    Threads:    8
    
  ==> Input File <==

--------------------------------------------------------------------------
memory 80GB

molecule {
0 1
N -1.252617 -4.415339 1e-06
C -1.48122 -3.025044 -5.3e-05
N -0.395947 -2.209109 -0.0001
C 0.847406 -2.714237 -0.0001
C 1.088893 -4.139708 -4.7e-05
C 0.0 -4.951862 0.0
H -2.078756 -4.999035 4.1e-05
O -2.652372 -2.623116 -6e-05
N 1.866869 -1.849375 -0.000149
H 1.692519 -0.821507 -0.000207
H 2.81458 -2.192942 -0.000155
H 2.096261 -4.547306 -4.3e-05
H 0.068633 -6.038934 4.4e-05
--
0 1
N -1.018123 0.316785 3.46775
C -2.348709 -0.020009 3.561067
N -3.327676 0.876213 3.604398
C -2.869242 2.143986 3.546748
C -1.547448 2.602244 3.45131
C -0.504634 1.62373 3.405686
N -1.505968 3.988467 3.417942
C -2.758533 4.360204 3.490539
N -3.63389 3.284327 3.570842
H -0.30915 -0.439802 3.438752
N -2.636726 -1.339994 3.608879
H -1.915905 -2.068019 3.578485
H -3.609369 -1.592505 3.67723
O 0.723052 1.800123 3.322568
H -3.115986 5.384959 3.490913
H -4.641677 3.313306 3.635228
 units angstrom
 no_reorient
 symmetry c1}
set  {scf_type DF
 basis aug-cc-pvtz
 freeze_core True
 guess SAD}
energy('sapt2+(3)dmp2')
--------------------------------------------------------------------------

  Memory set to  74.506 GiB by Python driver.

Scratch directory: /tmp/
   => Loading Basis Set <=

    Name: AUG-CC-PVTZ
    Role: ORBITAL
    Keyword: BASIS
    atoms 1, 3, 9, 14, 16, 20, 22, 24 entry N          line   285 file /opt/anaconda/envs/psi4v1.5/share/psi4/basis/aug-cc-pvtz.gbs 
    atoms 2, 4-6, 15, 17-19, 21       entry C          line   239 file /opt/anaconda/envs/psi4v1.5/share/psi4/basis/aug-cc-pvtz.gbs 
    atoms 7, 10-13, 23, 25-26, 28-29  entry H          line    40 file /opt/anaconda/envs/psi4v1.5/share/psi4/basis/aug-cc-pvtz.gbs 
    atoms 8, 27                       entry O          line   331 file /opt/anaconda/envs/psi4v1.5/share/psi4/basis/aug-cc-pvtz.gbs 

   => Loading Basis Set <=

    Name: AUG-CC-PVTZ
    Role: ORBITAL
    Keyword: BASIS
    atoms 1, 3, 9, 14, 16, 20, 22, 24 entry N          line   285 file /opt/anaconda/envs/psi4v1.5/share/psi4/basis/aug-cc-pvtz.gbs 
    atoms 2, 4-6, 15, 17-19, 21       entry C          line   239 file /opt/anaconda/envs/psi4v1.5/share/psi4/basis/aug-cc-pvtz.gbs 
    atoms 7, 10-13, 23, 25-26, 28-29  entry H          line    40 file /opt/anaconda/envs/psi4v1.5/share/psi4/basis/aug-cc-pvtz.gbs 
    atoms 8, 27                       entry O          line   331 file /opt/anaconda/envs/psi4v1.5/share/psi4/basis/aug-cc-pvtz.gbs 


  //>>>>>>>>>>>>>>>>>>>>>>>>>>>>>>>>>>>//
  //              Dimer HF             //
  //<<<<<<<<<<<<<<<<<<<<<<<<<<<<<<<<<<<//


*** tstart() called on node158.bme.utexas.edu
*** at Mon Jan 22 15:26:48 2024

   => Loading Basis Set <=

    Name: AUG-CC-PVTZ
    Role: ORBITAL
    Keyword: BASIS
    atoms 1, 3, 9, 14, 16, 20, 22, 24 entry N          line   285 file /opt/anaconda/envs/psi4v1.5/share/psi4/basis/aug-cc-pvtz.gbs 
    atoms 2, 4-6, 15, 17-19, 21       entry C          line   239 file /opt/anaconda/envs/psi4v1.5/share/psi4/basis/aug-cc-pvtz.gbs 
    atoms 7, 10-13, 23, 25-26, 28-29  entry H          line    40 file /opt/anaconda/envs/psi4v1.5/share/psi4/basis/aug-cc-pvtz.gbs 
    atoms 8, 27                       entry O          line   331 file /opt/anaconda/envs/psi4v1.5/share/psi4/basis/aug-cc-pvtz.gbs 


         ---------------------------------------------------------
                                   SCF
               by Justin Turney, Rob Parrish, Andy Simmonett
                          and Daniel G. A. Smith
                              RHF Reference
                        8 Threads,  76293 MiB Core
         ---------------------------------------------------------

  ==> Geometry <==

    Molecular point group: c1
    Full point group: C1

    Geometry (in Angstrom), charge = 0, multiplicity = 1:

       Center              X                  Y                   Z               Mass       
    ------------   -----------------  -----------------  -----------------  -----------------
         N           -0.025935986011    -4.050582910336    -2.014526759242    14.003074004430
         C           -0.254538986011    -2.660287910336    -2.014580759242    12.000000000000
         N            0.830734013989    -1.844352910336    -2.014627759242    14.003074004430
         C            2.074087013989    -2.349480910336    -2.014627759242    12.000000000000
         C            2.315574013989    -3.774951910336    -2.014574759242    12.000000000000
         C            1.226681013989    -4.587105910336    -2.014527759242    12.000000000000
         H           -0.852074986011    -4.634278910336    -2.014486759242     1.007825032230
         O           -1.425690986011    -2.258359910336    -2.014587759242    15.994914619570
         N            3.093550013989    -1.484618910336    -2.014676759242    14.003074004430
         H            2.919200013989    -0.456750910336    -2.014734759242     1.007825032230
         H            4.041261013989    -1.828185910336    -2.014682759242     1.007825032230
         H            3.322942013989    -4.182549910336    -2.014570759242     1.007825032230
         H            1.295314013989    -5.674177910336    -2.014483759242     1.007825032230
         N            0.208558013989     0.681541089664     1.453222240758    14.003074004430
         C           -1.122027986011     0.344747089664     1.546539240758    12.000000000000
         N           -2.100994986011     1.240969089664     1.589870240758    14.003074004430
         C           -1.642560986011     2.508742089664     1.532220240758    12.000000000000
         C           -0.320766986011     2.967000089664     1.436782240758    12.000000000000
         C            0.722047013989     1.988486089664     1.391158240758    12.000000000000
         N           -0.279286986011     4.353223089664     1.403414240758    14.003074004430
         C           -1.531851986011     4.724960089664     1.476011240758    12.000000000000
         N           -2.407208986011     3.649083089664     1.556314240758    14.003074004430
         H            0.917531013989    -0.075045910336     1.424224240758     1.007825032230
         N           -1.410044986011    -0.975237910336     1.594351240758    14.003074004430
         H           -0.689223986011    -1.703262910336     1.563957240758     1.007825032230
         H           -2.382687986011    -1.227748910336     1.662702240758     1.007825032230
         O            1.949733013989     2.164879089664     1.308040240758    15.994914619570
         H           -1.889304986011     5.749715089664     1.476385240758     1.007825032230
         H           -3.414995986011     3.678062089664     1.620700240758     1.007825032230

  Running in c1 symmetry.

  Rotational constants: A =      0.02489  B =      0.00543  C =      0.00485 [cm^-1]
  Rotational constants: A =    746.14974  B =    162.72303  C =    145.43596 [MHz]
  Nuclear repulsion = 1323.486058115515561

  Charge       = 0
  Multiplicity = 1
  Electrons    = 136
  Nalpha       = 68
  Nbeta        = 68

  ==> Algorithm <==

  SCF Algorithm Type is DF.
  DIIS enabled.
  MOM disabled.
  Fractional occupation disabled.
  Guess Type is SAD.
  Energy threshold   = 1.00e-08
  Density threshold  = 1.00e-08
  Integral threshold = 1.00e-12

  ==> Primary Basis <==

  Basis Set: AUG-CC-PVTZ
    Blend: AUG-CC-PVTZ
    Number of shells: 356
    Number of basis functions: 1104
    Number of Cartesian functions: 1295
    Spherical Harmonics?: true
    Max angular momentum: 3

   => Loading Basis Set <=

    Name: (AUG-CC-PVTZ AUX)
    Role: JKFIT
    Keyword: DF_BASIS_SCF
    atoms 1, 3, 9, 14, 16, 20, 22, 24 entry N          line   224 file /opt/anaconda/envs/psi4v1.5/share/psi4/basis/aug-cc-pvtz-jkfit.gbs 
    atoms 2, 4-6, 15, 17-19, 21       entry C          line   162 file /opt/anaconda/envs/psi4v1.5/share/psi4/basis/aug-cc-pvtz-jkfit.gbs 
    atoms 7, 10-13, 23, 25-26, 28-29  entry H          line    70 file /opt/anaconda/envs/psi4v1.5/share/psi4/basis/aug-cc-pvtz-jkfit.gbs 
    atoms 8, 27                       entry O          line   286 file /opt/anaconda/envs/psi4v1.5/share/psi4/basis/aug-cc-pvtz-jkfit.gbs 

  ==> Integral Setup <==

  ==> DiskDFJK: Density-Fitted J/K Matrices <==

    J tasked:                  Yes
    K tasked:                  Yes
    wK tasked:                  No
    OpenMP threads:              8
    Integrals threads:           8
    Memory [MiB]:            57220
    Algorithm:                Core
    Integral Cache:           SAVE
    Schwarz Cutoff:          1E-12
    Fitting Condition:       1E-10

   => Auxiliary Basis Set <=

  Basis Set: (AUG-CC-PVTZ AUX)
    Blend: AUG-CC-PVTZ-JKFIT
    Number of shells: 710
    Number of basis functions: 2436
    Number of Cartesian functions: 3039
    Spherical Harmonics?: true
    Max angular momentum: 4

  Minimum eigenvalue in the overlap matrix is 1.3584471470E-06.
  Reciprocal condition number of the overlap matrix is 7.7009686250E-08.
    Using symmetric orthogonalization.

  ==> Pre-Iterations <==

  SCF Guess: Superposition of Atomic Densities via on-the-fly atomic UHF (no occupation information).

   -------------------------
    Irrep   Nso     Nmo    
   -------------------------
     A       1104    1104 
   -------------------------
    Total    1104    1104
   -------------------------

  ==> Iterations <==

                           Total Energy        Delta E     RMS |[F,P]|

   @DF-RHF iter SAD:  -931.39547241498167   -9.31395e+02   0.00000e+00 
   @DF-RHF iter   1:  -931.78810471857923   -3.92632e-01   9.76787e-04 DIIS
   @DF-RHF iter   2:  -932.20072077881809   -4.12616e-01   5.67309e-04 DIIS
   @DF-RHF iter   3:  -932.33758170745705   -1.36861e-01   1.13265e-04 DIIS
   @DF-RHF iter   4:  -932.34585538696865   -8.27368e-03   4.82697e-05 DIIS
   @DF-RHF iter   5:  -932.34750098523000   -1.64560e-03   1.00167e-05 DIIS
   @DF-RHF iter   6:  -932.34766834899926   -1.67364e-04   5.31589e-06 DIIS
   @DF-RHF iter   7:  -932.34771357243119   -4.52234e-05   2.13204e-06 DIIS
   @DF-RHF iter   8:  -932.34772233543868   -8.76301e-06   7.41888e-07 DIIS
   @DF-RHF iter   9:  -932.34772326356983   -9.28131e-07   3.15795e-07 DIIS
   @DF-RHF iter  10:  -932.34772343140878   -1.67839e-07   1.25960e-07 DIIS
   @DF-RHF iter  11:  -932.34772346035720   -2.89484e-08   5.54342e-08 DIIS
   @DF-RHF iter  12:  -932.34772346480088   -4.44368e-09   1.80518e-08 DIIS
   @DF-RHF iter  13:  -932.34772346541001   -6.09134e-10   6.58894e-09 DIIS
  Energy and wave function converged.


  ==> Post-Iterations <==

    Orbital Energies [Eh]
    ---------------------

    Doubly Occupied:                                                      

       1A    -20.503267     2A    -20.501418     3A    -15.632372  
       4A    -15.621488     5A    -15.617038     6A    -15.613635  
       7A    -15.601742     8A    -15.551078     9A    -15.551037  
      10A    -15.547770    11A    -11.389161    12A    -11.375424  
      13A    -11.368182    14A    -11.349814    15A    -11.343002  
      16A    -11.313939    17A    -11.299050    18A    -11.260022  
      19A    -11.231725    20A     -1.384168    21A     -1.373867  
      22A     -1.337811    23A     -1.317858    24A     -1.303021  
      25A     -1.272609    26A     -1.208907    27A     -1.202709  
      28A     -1.178568    29A     -1.160682    30A     -1.074605  
      31A     -1.014807    32A     -0.911547    33A     -0.891100  
      34A     -0.886353    35A     -0.877821    36A     -0.824868  
      37A     -0.788685    38A     -0.772818    39A     -0.768248  
      40A     -0.735346    41A     -0.728579    42A     -0.725857  
      43A     -0.692819    44A     -0.685116    45A     -0.657326  
      46A     -0.643103    47A     -0.633544    48A     -0.631908  
      49A     -0.621456    50A     -0.621145    51A     -0.593564  
      52A     -0.593356    53A     -0.585729    54A     -0.584502  
      55A     -0.549817    56A     -0.530962    57A     -0.494739  
      58A     -0.480439    59A     -0.443123    60A     -0.438426  
      61A     -0.426783    62A     -0.424002    63A     -0.415825  
      64A     -0.413182    65A     -0.395214    66A     -0.391276  
      67A     -0.353289    68A     -0.282489  

    Virtual:                                                              

      69A      0.009915    70A      0.020653    71A      0.026498  
      72A      0.030845    73A      0.037445    74A      0.044141  
      75A      0.050033    76A      0.054441    77A      0.058684  
      78A      0.062692    79A      0.069681    80A      0.076609  
      81A      0.081058    82A      0.085302    83A      0.090735  
      84A      0.092223    85A      0.094690    86A      0.097725  
      87A      0.099586    88A      0.101785    89A      0.104017  
      90A      0.107122    91A      0.109000    92A      0.112841  
      93A      0.118003    94A      0.121263    95A      0.125729  
      96A      0.129489    97A      0.131672    98A      0.132996  
      99A      0.136824   100A      0.138236   101A      0.139743  
     102A      0.147966   103A      0.149016   104A      0.150252  
     105A      0.153276   106A      0.156671   107A      0.159604  
     108A      0.160935   109A      0.163207   110A      0.165976  
     111A      0.168020   112A      0.173243   113A      0.176366  
     114A      0.182269   115A      0.184690   116A      0.191445  
     117A      0.194450   118A      0.194487   119A      0.199859  
     120A      0.201971   121A      0.205569   122A      0.208722  
     123A      0.215091   124A      0.218953   125A      0.220562  
     126A      0.226929   127A      0.227485   128A      0.229620  
     129A      0.230426   130A      0.232027   131A      0.238596  
     132A      0.239011   133A      0.244295   134A      0.247047  
     135A      0.251647   136A      0.255370   137A      0.260519  
     138A      0.266604   139A      0.271325   140A      0.271649  
     141A      0.274920   142A      0.276750   143A      0.280332  
     144A      0.281520   145A      0.283842   146A      0.289959  
     147A      0.292419   148A      0.296797   149A      0.299071  
     150A      0.304897   151A      0.308340   152A      0.310733  
     153A      0.312820   154A      0.314989   155A      0.318656  
     156A      0.324648   157A      0.326000   158A      0.327286  
     159A      0.328780   160A      0.335871   161A      0.338767  
     162A      0.339823   163A      0.341951   164A      0.349889  
     165A      0.351375   166A      0.352980   167A      0.353658  
     168A      0.357901   169A      0.361993   170A      0.362805  
     171A      0.366037   172A      0.369932   173A      0.372313  
     174A      0.377562   175A      0.379477   176A      0.381384  
     177A      0.385685   178A      0.389743   179A      0.390915  
     180A      0.394936   181A      0.395708   182A      0.400785  
     183A      0.404617   184A      0.407369   185A      0.409594  
     186A      0.413877   187A      0.416598   188A      0.425105  
     189A      0.427981   190A      0.428484   191A      0.431244  
     192A      0.436215   193A      0.438789   194A      0.445157  
     195A      0.450201   196A      0.451811   197A      0.454652  
     198A      0.457054   199A      0.459497   200A      0.461803  
     201A      0.463124   202A      0.468180   203A      0.469237  
     204A      0.475047   205A      0.476550   206A      0.479417  
     207A      0.483216   208A      0.487552   209A      0.490342  
     210A      0.493627   211A      0.496029   212A      0.499046  
     213A      0.500894   214A      0.503295   215A      0.510002  
     216A      0.512265   217A      0.513310   218A      0.514359  
     219A      0.517253   220A      0.518885   221A      0.523450  
     222A      0.526483   223A      0.529119   224A      0.531499  
     225A      0.536882   226A      0.537374   227A      0.544357  
     228A      0.546999   229A      0.551907   230A      0.556466  
     231A      0.558040   232A      0.559944   233A      0.563571  
     234A      0.567087   235A      0.579523   236A      0.583823  
     237A      0.586611   238A      0.591263   239A      0.597349  
     240A      0.599824   241A      0.605216   242A      0.610348  
     243A      0.612978   244A      0.617594   245A      0.619025  
     246A      0.627772   247A      0.633258   248A      0.635441  
     249A      0.643558   250A      0.646137   251A      0.647764  
     252A      0.654675   253A      0.657984   254A      0.661655  
     255A      0.665457   256A      0.671335   257A      0.673591  
     258A      0.676589   259A      0.677358   260A      0.681615  
     261A      0.687468   262A      0.691585   263A      0.694135  
     264A      0.696993   265A      0.699064   266A      0.699608  
     267A      0.705927   268A      0.708914   269A      0.713533  
     270A      0.717267   271A      0.720088   272A      0.722831  
     273A      0.725860   274A      0.731462   275A      0.738584  
     276A      0.741689   277A      0.745858   278A      0.750856  
     279A      0.752385   280A      0.758096   281A      0.759619  
     282A      0.762430   283A      0.767613   284A      0.771484  
     285A      0.775514   286A      0.781565   287A      0.784429  
     288A      0.786009   289A      0.792780   290A      0.795995  
     291A      0.797022   292A      0.799661   293A      0.805678  
     294A      0.806871   295A      0.816106   296A      0.821344  
     297A      0.829905   298A      0.834252   299A      0.837128  
     300A      0.839573   301A      0.845799   302A      0.851447  
     303A      0.852376   304A      0.856447   305A      0.857569  
     306A      0.862719   307A      0.867222   308A      0.871430  
     309A      0.877952   310A      0.880726   311A      0.891640  
     312A      0.895449   313A      0.900184   314A      0.902956  
     315A      0.906792   316A      0.912086   317A      0.914374  
     318A      0.914929   319A      0.919742   320A      0.924124  
     321A      0.924294   322A      0.934541   323A      0.935906  
     324A      0.938482   325A      0.941380   326A      0.945453  
     327A      0.951808   328A      0.953038   329A      0.959761  
     330A      0.962371   331A      0.966698   332A      0.972820  
     333A      0.974225   334A      0.977127   335A      0.979510  
     336A      0.983940   337A      0.986762   338A      0.993663  
     339A      0.994494   340A      0.999902   341A      1.002125  
     342A      1.006808   343A      1.012123   344A      1.016874  
     345A      1.020502   346A      1.023985   347A      1.031366  
     348A      1.033770   349A      1.037012   350A      1.043513  
     351A      1.044717   352A      1.048367   353A      1.052111  
     354A      1.057419   355A      1.062039   356A      1.062880  
     357A      1.070872   358A      1.071959   359A      1.073830  
     360A      1.077559   361A      1.079092   362A      1.084310  
     363A      1.088197   364A      1.088493   365A      1.096739  
     366A      1.099689   367A      1.102907   368A      1.107765  
     369A      1.113127   370A      1.114173   371A      1.119780  
     372A      1.123755   373A      1.125492   374A      1.132426  
     375A      1.138224   376A      1.140726   377A      1.142154  
     378A      1.144917   379A      1.150428   380A      1.151767  
     381A      1.156125   382A      1.164228   383A      1.164565  
     384A      1.167614   385A      1.172635   386A      1.174235  
     387A      1.178518   388A      1.182377   389A      1.188323  
     390A      1.189356   391A      1.195026   392A      1.195568  
     393A      1.204837   394A      1.207482   395A      1.212222  
     396A      1.216736   397A      1.221145   398A      1.224908  
     399A      1.226116   400A      1.230174   401A      1.238876  
     402A      1.242900   403A      1.245519   404A      1.249208  
     405A      1.264205   406A      1.265436   407A      1.271518  
     408A      1.272458   409A      1.277564   410A      1.277707  
     411A      1.281564   412A      1.287431   413A      1.295989  
     414A      1.297526   415A      1.304463   416A      1.308644  
     417A      1.314962   418A      1.320934   419A      1.326146  
     420A      1.326689   421A      1.336670   422A      1.341691  
     423A      1.342185   424A      1.348478   425A      1.352515  
     426A      1.358507   427A      1.364843   428A      1.367123  
     429A      1.369066   430A      1.375242   431A      1.379633  
     432A      1.380794   433A      1.386693   434A      1.392213  
     435A      1.393136   436A      1.398608   437A      1.401814  
     438A      1.402118   439A      1.410279   440A      1.414657  
     441A      1.423053   442A      1.430075   443A      1.433363  
     444A      1.438556   445A      1.441273   446A      1.443507  
     447A      1.446043   448A      1.448861   449A      1.453701  
     450A      1.457822   451A      1.461944   452A      1.477126  
     453A      1.481021   454A      1.485699   455A      1.488309  
     456A      1.489905   457A      1.497495   458A      1.498705  
     459A      1.503332   460A      1.506086   461A      1.511997  
     462A      1.518282   463A      1.525331   464A      1.532223  
     465A      1.536718   466A      1.539728   467A      1.549276  
     468A      1.555106   469A      1.561302   470A      1.567158  
     471A      1.571467   472A      1.573192   473A      1.579059  
     474A      1.583759   475A      1.585477   476A      1.595813  
     477A      1.596180   478A      1.604553   479A      1.607305  
     480A      1.617719   481A      1.620758   482A      1.627221  
     483A      1.632441   484A      1.634132   485A      1.645618  
     486A      1.650605   487A      1.655376   488A      1.657260  
     489A      1.667037   490A      1.668516   491A      1.675723  
     492A      1.685056   493A      1.688457   494A      1.693521  
     495A      1.696143   496A      1.705051   497A      1.719451  
     498A      1.721535   499A      1.729353   500A      1.736079  
     501A      1.741944   502A      1.746933   503A      1.749712  
     504A      1.752330   505A      1.757304   506A      1.765570  
     507A      1.767704   508A      1.778768   509A      1.786148  
     510A      1.789615   511A      1.796986   512A      1.806564  
     513A      1.809871   514A      1.816585   515A      1.824357  
     516A      1.824897   517A      1.835077   518A      1.837668  
     519A      1.845045   520A      1.851650   521A      1.858778  
     522A      1.864579   523A      1.872976   524A      1.873577  
     525A      1.880511   526A      1.881703   527A      1.891688  
     528A      1.898367   529A      1.905910   530A      1.913487  
     531A      1.924150   532A      1.932930   533A      1.937960  
     534A      1.950935   535A      1.960465   536A      1.967748  
     537A      1.972910   538A      1.980744   539A      1.981429  
     540A      1.986875   541A      2.004422   542A      2.011135  
     543A      2.015429   544A      2.023248   545A      2.031551  
     546A      2.035579   547A      2.040189   548A      2.054890  
     549A      2.065023   550A      2.066647   551A      2.073061  
     552A      2.085068   553A      2.087568   554A      2.091906  
     555A      2.096621   556A      2.110653   557A      2.112252  
     558A      2.117446   559A      2.117900   560A      2.123075  
     561A      2.128409   562A      2.130218   563A      2.140736  
     564A      2.152530   565A      2.157934   566A      2.159083  
     567A      2.169954   568A      2.172589   569A      2.175118  
     570A      2.183597   571A      2.187316   572A      2.202800  
     573A      2.205810   574A      2.210723   575A      2.218821  
     576A      2.229908   577A      2.237972   578A      2.242411  
     579A      2.246373   580A      2.249801   581A      2.266430  
     582A      2.273665   583A      2.285088   584A      2.288217  
     585A      2.297935   586A      2.299796   587A      2.318303  
     588A      2.318760   589A      2.321812   590A      2.326765  
     591A      2.334587   592A      2.338937   593A      2.343469  
     594A      2.348173   595A      2.354759   596A      2.358588  
     597A      2.360848   598A      2.366905   599A      2.377522  
     600A      2.379090   601A      2.389667   602A      2.397190  
     603A      2.397815   604A      2.401193   605A      2.416537  
     606A      2.425371   607A      2.431437   608A      2.435097  
     609A      2.439757   610A      2.449029   611A      2.455904  
     612A      2.458934   613A      2.464167   614A      2.475058  
     615A      2.479704   616A      2.486048   617A      2.494854  
     618A      2.498577   619A      2.512652   620A      2.519662  
     621A      2.525798   622A      2.528290   623A      2.533712  
     624A      2.541917   625A      2.545931   626A      2.551747  
     627A      2.555219   628A      2.564425   629A      2.575061  
     630A      2.577480   631A      2.590006   632A      2.595254  
     633A      2.604595   634A      2.606062   635A      2.609332  
     636A      2.619913   637A      2.630030   638A      2.635689  
     639A      2.645805   640A      2.655219   641A      2.658835  
     642A      2.668106   643A      2.674212   644A      2.686227  
     645A      2.693413   646A      2.701004   647A      2.707354  
     648A      2.712304   649A      2.717386   650A      2.724326  
     651A      2.730629   652A      2.748095   653A      2.750008  
     654A      2.754903   655A      2.760163   656A      2.768151  
     657A      2.778880   658A      2.784359   659A      2.790064  
     660A      2.795202   661A      2.801346   662A      2.807624  
     663A      2.822040   664A      2.825107   665A      2.833322  
     666A      2.839653   667A      2.846302   668A      2.856417  
     669A      2.865279   670A      2.879831   671A      2.885479  
     672A      2.895801   673A      2.919877   674A      2.934863  
     675A      2.959033   676A      2.964866   677A      2.984105  
     678A      2.988765   679A      2.992905   680A      3.010884  
     681A      3.021549   682A      3.032815   683A      3.043765  
     684A      3.064470   685A      3.077428   686A      3.089910  
     687A      3.103401   688A      3.104982   689A      3.115843  
     690A      3.124529   691A      3.148340   692A      3.151972  
     693A      3.158430   694A      3.163396   695A      3.175693  
     696A      3.186526   697A      3.206972   698A      3.229110  
     699A      3.234468   700A      3.260914   701A      3.274655  
     702A      3.275067   703A      3.296046   704A      3.305280  
     705A      3.312893   706A      3.324648   707A      3.345162  
     708A      3.354739   709A      3.365838   710A      3.369342  
     711A      3.375702   712A      3.382214   713A      3.392438  
     714A      3.404716   715A      3.425867   716A      3.431832  
     717A      3.440252   718A      3.445491   719A      3.468311  
     720A      3.481098   721A      3.494252   722A      3.500108  
     723A      3.512628   724A      3.520669   725A      3.527953  
     726A      3.534080   727A      3.542137   728A      3.562470  
     729A      3.569924   730A      3.581391   731A      3.597797  
     732A      3.602556   733A      3.615467   734A      3.617263  
     735A      3.621521   736A      3.631271   737A      3.644114  
     738A      3.650181   739A      3.658116   740A      3.659471  
     741A      3.670101   742A      3.681605   743A      3.689804  
     744A      3.697543   745A      3.707444   746A      3.710737  
     747A      3.729472   748A      3.731229   749A      3.748280  
     750A      3.756882   751A      3.763142   752A      3.766160  
     753A      3.771206   754A      3.793210   755A      3.797853  
     756A      3.809200   757A      3.811569   758A      3.816525  
     759A      3.819435   760A      3.827797   761A      3.843055  
     762A      3.856408   763A      3.862734   764A      3.870300  
     765A      3.876270   766A      3.887388   767A      3.893616  
     768A      3.906198   769A      3.908878   770A      3.919547  
     771A      3.922023   772A      3.936163   773A      3.938696  
     774A      3.955598   775A      3.959136   776A      3.970600  
     777A      3.972661   778A      3.984725   779A      3.998722  
     780A      4.003679   781A      4.013830   782A      4.016839  
     783A      4.026162   784A      4.035342   785A      4.051231  
     786A      4.054466   787A      4.069693   788A      4.078071  
     789A      4.081037   790A      4.087453   791A      4.101498  
     792A      4.112900   793A      4.117595   794A      4.123113  
     795A      4.128502   796A      4.129363   797A      4.132708  
     798A      4.144426   799A      4.148935   800A      4.154053  
     801A      4.155407   802A      4.162447   803A      4.167077  
     804A      4.174939   805A      4.185205   806A      4.201537  
     807A      4.207040   808A      4.211317   809A      4.222534  
     810A      4.224766   811A      4.231723   812A      4.240116  
     813A      4.244702   814A      4.254053   815A      4.258171  
     816A      4.262650   817A      4.264084   818A      4.273162  
     819A      4.281749   820A      4.296078   821A      4.301071  
     822A      4.313914   823A      4.317635   824A      4.326205  
     825A      4.333184   826A      4.334496   827A      4.344821  
     828A      4.347124   829A      4.355168   830A      4.359427  
     831A      4.363279   832A      4.372695   833A      4.375820  
     834A      4.387660   835A      4.393046   836A      4.404015  
     837A      4.408447   838A      4.417161   839A      4.426752  
     840A      4.434467   841A      4.450940   842A      4.455219  
     843A      4.462608   844A      4.466981   845A      4.483069  
     846A      4.485544   847A      4.503623   848A      4.509904  
     849A      4.517188   850A      4.525289   851A      4.528583  
     852A      4.533788   853A      4.543708   854A      4.559618  
     855A      4.578859   856A      4.590749   857A      4.598943  
     858A      4.601744   859A      4.623150   860A      4.631875  
     861A      4.653897   862A      4.657359   863A      4.664542  
     864A      4.668817   865A      4.681214   866A      4.687815  
     867A      4.694533   868A      4.708391   869A      4.711888  
     870A      4.731350   871A      4.734501   872A      4.743056  
     873A      4.751169   874A      4.789501   875A      4.793082  
     876A      4.800663   877A      4.803027   878A      4.808810  
     879A      4.819480   880A      4.826638   881A      4.838328  
     882A      4.844972   883A      4.846862   884A      4.855959  
     885A      4.870571   886A      4.887629   887A      4.894323  
     888A      4.901072   889A      4.914115   890A      4.917395  
     891A      4.931444   892A      4.941492   893A      4.949241  
     894A      4.952224   895A      4.967970   896A      4.987437  
     897A      5.001870   898A      5.004885   899A      5.012531  
     900A      5.029449   901A      5.036335   902A      5.036774  
     903A      5.051908   904A      5.067714   905A      5.082950  
     906A      5.087740   907A      5.092679   908A      5.121913  
     909A      5.128683   910A      5.141036   911A      5.161118  
     912A      5.175563   913A      5.189673   914A      5.194002  
     915A      5.200180   916A      5.210275   917A      5.221607  
     918A      5.229478   919A      5.245061   920A      5.250095  
     921A      5.265176   922A      5.270798   923A      5.298661  
     924A      5.313584   925A      5.326575   926A      5.340646  
     927A      5.351850   928A      5.359998   929A      5.364136  
     930A      5.366612   931A      5.373626   932A      5.401465  
     933A      5.439327   934A      5.441824   935A      5.445042  
     936A      5.447819   937A      5.456342   938A      5.473419  
     939A      5.484302   940A      5.498582   941A      5.507107  
     942A      5.519560   943A      5.521556   944A      5.529098  
     945A      5.531599   946A      5.534303   947A      5.551844  
     948A      5.553667   949A      5.559067   950A      5.564842  
     951A      5.566993   952A      5.571943   953A      5.581116  
     954A      5.596969   955A      5.609880   956A      5.615685  
     957A      5.627072   958A      5.648358   959A      5.651883  
     960A      5.656644   961A      5.663511   962A      5.667029  
     963A      5.676593   964A      5.701316   965A      5.706832  
     966A      5.724702   967A      5.734505   968A      5.748990  
     969A      5.759365   970A      5.760796   971A      5.765286  
     972A      5.773955   973A      5.785701   974A      5.805159  
     975A      5.810494   976A      5.822609   977A      5.837301  
     978A      5.846921   979A      5.850709   980A      5.869388  
     981A      5.878637   982A      5.890769   983A      5.894120  
     984A      5.918391   985A      5.930154   986A      5.930918  
     987A      5.933123   988A      5.946797   989A      5.953567  
     990A      5.992160   991A      6.007525   992A      6.014516  
     993A      6.021108   994A      6.059109   995A      6.071821  
     996A      6.082814   997A      6.087046   998A      6.114625  
     999A      6.118028  1000A      6.122254  1001A      6.126446  
    1002A      6.131752  1003A      6.158225  1004A      6.160521  
    1005A      6.180126  1006A      6.187167  1007A      6.214694  
    1008A      6.222518  1009A      6.233589  1010A      6.236294  
    1011A      6.251290  1012A      6.258541  1013A      6.294629  
    1014A      6.319803  1015A      6.353636  1016A      6.364914  
    1017A      6.388505  1018A      6.439694  1019A      6.491911  
    1020A      6.497120  1021A      6.520015  1022A      6.565827  
    1023A      6.570825  1024A      6.592980  1025A      6.614974  
    1026A      6.619451  1027A      6.649431  1028A      6.652756  
    1029A      6.694986  1030A      6.701612  1031A      6.712496  
    1032A      6.720077  1033A      6.731889  1034A      6.734086  
    1035A      6.768442  1036A      6.785364  1037A      6.799862  
    1038A      6.804477  1039A      6.811384  1040A      6.848073  
    1041A      6.857468  1042A      6.870870  1043A      6.885977  
    1044A      6.938254  1045A      6.985301  1046A      7.013704  
    1047A      7.018863  1048A      7.023053  1049A      7.023763  
    1050A      7.030724  1051A      7.039341  1052A      7.045998  
    1053A      7.093457  1054A      7.117552  1055A      7.119627  
    1056A      7.202290  1057A      7.208971  1058A      7.231749  
    1059A      7.248472  1060A      7.338573  1061A      7.405077  
    1062A      7.420290  1063A      7.430329  1064A      7.441817  
    1065A      7.449815  1066A      7.459390  1067A      7.472975  
    1068A      7.489105  1069A      7.556793  1070A      7.568850  
    1071A      7.639794  1072A      7.676973  1073A      7.728826  
    1074A      7.734883  1075A      7.754138  1076A      7.777421  
    1077A      7.856304  1078A      7.863592  1079A      7.882954  
    1080A      7.941896  1081A      7.963011  1082A      7.967014  
    1083A      7.998047  1084A      8.054113  1085A      8.075679  
    1086A     15.582522  1087A     15.836758  1088A     16.026542  
    1089A     16.320993  1090A     16.360281  1091A     16.563817  
    1092A     16.819565  1093A     17.601262  1094A     17.718607  
    1095A     18.108283  1096A     18.183627  1097A     19.097711  
    1098A     19.317420  1099A     19.362472  1100A     20.068550  
    1101A     20.231457  1102A     20.526745  1103A     20.630792  
    1104A     21.153953  

    Final Occupation by Irrep:
              A 
    DOCC [    68 ]

  @DF-RHF Final Energy:  -932.34772346541001

   => Energetics <=

    Nuclear Repulsion Energy =           1323.4860581155155614
    One-Electron Energy =               -3901.6773002102900136
    Two-Electron Energy =                1645.8435186293645529
    Total Energy =                       -932.3477234654101267

Computation Completed


Properties will be evaluated at   0.000000,   0.000000,   0.000000 [a0]

Properties computed using the SCF density matrix

  Nuclear Dipole Moment: [e a0]
     X:     3.0722      Y:    -9.7118      Z:    -2.1875

  Electronic Dipole Moment: [e a0]
     X:    -2.8741      Y:     6.0246      Z:     2.1712

  Dipole Moment: [e a0]
     X:     0.1981      Y:    -3.6872      Z:    -0.0163     Total:     3.6925

  Dipole Moment: [D]
     X:     0.5036      Y:    -9.3719      Z:    -0.0414     Total:     9.3855


*** tstop() called on node158.bme.utexas.edu at Mon Jan 22 15:30:03 2024
Module time:
	user time   =    1174.64 seconds =      19.58 minutes
	system time =      17.41 seconds =       0.29 minutes
	total time  =        195 seconds =       3.25 minutes
Total time:
	user time   =    1174.64 seconds =      19.58 minutes
	system time =      17.41 seconds =       0.29 minutes
	total time  =        195 seconds =       3.25 minutes

*** tstart() called on node158.bme.utexas.edu
*** at Mon Jan 22 15:30:03 2024


  //>>>>>>>>>>>>>>>>>>>>>>>>>>>>>>>>>>>//
  //               DFMP2               //
  //<<<<<<<<<<<<<<<<<<<<<<<<<<<<<<<<<<<//

   => Loading Basis Set <=

    Name: (AUG-CC-PVTZ AUX)
    Role: RIFIT
    Keyword: DF_BASIS_MP2
    atoms 1, 3, 9, 14, 16, 20, 22, 24 entry N          line   206 file /opt/anaconda/envs/psi4v1.5/share/psi4/basis/aug-cc-pvtz-ri.gbs 
    atoms 2, 4-6, 15, 17-19, 21       entry C          line   148 file /opt/anaconda/envs/psi4v1.5/share/psi4/basis/aug-cc-pvtz-ri.gbs 
    atoms 7, 10-13, 23, 25-26, 28-29  entry H          line    30 file /opt/anaconda/envs/psi4v1.5/share/psi4/basis/aug-cc-pvtz-ri.gbs 
    atoms 8, 27                       entry O          line   264 file /opt/anaconda/envs/psi4v1.5/share/psi4/basis/aug-cc-pvtz-ri.gbs 

	 --------------------------------------------------------
	                          DF-MP2                         
	      2nd-Order Density-Fitted Moller-Plesset Theory     
	              RMP2 Wavefunction,   8 Threads             
	                                                         
	        Rob Parrish, Justin Turney, Andy Simmonett,      
	           Ed Hohenstein, and C. David Sherrill          
	 --------------------------------------------------------

   => Auxiliary Basis Set <=

  Basis Set: (AUG-CC-PVTZ AUX)
    Blend: AUG-CC-PVTZ-RI
    Number of shells: 672
    Number of basis functions: 2474
    Number of Cartesian functions: 3134
    Spherical Harmonics?: true
    Max angular momentum: 4

	 --------------------------------------------------------
	                 NBF =  1104, NAUX =  2474
	 --------------------------------------------------------
	   CLASS    FOCC     OCC    AOCC    AVIR     VIR    FVIR
	   PAIRS      19      68      49    1036    1036       0
	 --------------------------------------------------------

	 Will save fitting metric to file 97.

	-----------------------------------------------------------
	 ==================> DF-MP2 Energies <==================== 
	-----------------------------------------------------------
	 Reference Energy          =    -932.3477234654100130 [Eh]
	 Singles Energy            =      -0.0000000000000000 [Eh]
	 Same-Spin Energy          =      -0.9276274951707599 [Eh]
	 Opposite-Spin Energy      =      -2.5936579615921382 [Eh]
	 Correlation Energy        =      -3.5212854567628984 [Eh]
	 Total Energy              =    -935.8690089221729522 [Eh]
	-----------------------------------------------------------
	 ================> DF-SCS-MP2 Energies <================== 
	-----------------------------------------------------------
	 SCS Same-Spin Scale       =       0.3333333333333333 [-]
	 SCS Opposite-Spin Scale   =       1.2000000000000000 [-]
	 SCS Same-Spin Energy      =      -0.3092091650569200 [Eh]
	 SCS Opposite-Spin Energy  =      -3.1123895539105657 [Eh]
	 SCS Correlation Energy    =      -3.4215987189674859 [Eh]
	 SCS Total Energy          =    -935.7693221843775291 [Eh]
	-----------------------------------------------------------


*** tstop() called on node158.bme.utexas.edu at Mon Jan 22 15:31:12 2024
Module time:
	user time   =     370.41 seconds =       6.17 minutes
	system time =      10.71 seconds =       0.18 minutes
	total time  =         69 seconds =       1.15 minutes
Total time:
	user time   =    1545.05 seconds =      25.75 minutes
	system time =      28.12 seconds =       0.47 minutes
	total time  =        264 seconds =       4.40 minutes

  //>>>>>>>>>>>>>>>>>>>>>>>>>>>>>>>>>>>//
  //            Monomer A HF           //
  //<<<<<<<<<<<<<<<<<<<<<<<<<<<<<<<<<<<//


*** tstart() called on node158.bme.utexas.edu
*** at Mon Jan 22 15:31:12 2024

   => Loading Basis Set <=

    Name: AUG-CC-PVTZ
    Role: ORBITAL
    Keyword: BASIS
    atoms 1, 3, 9, 14, 16, 20, 22, 24 entry N          line   285 file /opt/anaconda/envs/psi4v1.5/share/psi4/basis/aug-cc-pvtz.gbs 
    atoms 2, 4-6, 15, 17-19, 21       entry C          line   239 file /opt/anaconda/envs/psi4v1.5/share/psi4/basis/aug-cc-pvtz.gbs 
    atoms 7, 10-13, 23, 25-26, 28-29  entry H          line    40 file /opt/anaconda/envs/psi4v1.5/share/psi4/basis/aug-cc-pvtz.gbs 
    atoms 8, 27                       entry O          line   331 file /opt/anaconda/envs/psi4v1.5/share/psi4/basis/aug-cc-pvtz.gbs 


         ---------------------------------------------------------
                                   SCF
               by Justin Turney, Rob Parrish, Andy Simmonett
                          and Daniel G. A. Smith
                              RHF Reference
                        8 Threads,  76293 MiB Core
         ---------------------------------------------------------

  ==> Geometry <==

    Molecular point group: c1
    Full point group: C1

    Geometry (in Angstrom), charge = 0, multiplicity = 1:

       Center              X                  Y                   Z               Mass       
    ------------   -----------------  -----------------  -----------------  -----------------
         N           -0.025935986011    -4.050582910336    -2.014526759242    14.003074004430
         C           -0.254538986011    -2.660287910336    -2.014580759242    12.000000000000
         N            0.830734013989    -1.844352910336    -2.014627759242    14.003074004430
         C            2.074087013989    -2.349480910336    -2.014627759242    12.000000000000
         C            2.315574013989    -3.774951910336    -2.014574759242    12.000000000000
         C            1.226681013989    -4.587105910336    -2.014527759242    12.000000000000
         H           -0.852074986011    -4.634278910336    -2.014486759242     1.007825032230
         O           -1.425690986011    -2.258359910336    -2.014587759242    15.994914619570
         N            3.093550013989    -1.484618910336    -2.014676759242    14.003074004430
         H            2.919200013989    -0.456750910336    -2.014734759242     1.007825032230
         H            4.041261013989    -1.828185910336    -2.014682759242     1.007825032230
         H            3.322942013989    -4.182549910336    -2.014570759242     1.007825032230
         H            1.295314013989    -5.674177910336    -2.014483759242     1.007825032230
      Gh(N)           0.208558013989     0.681541089664     1.453222240758    14.003074004430
      Gh(C)          -1.122027986011     0.344747089664     1.546539240758    12.000000000000
      Gh(N)          -2.100994986011     1.240969089664     1.589870240758    14.003074004430
      Gh(C)          -1.642560986011     2.508742089664     1.532220240758    12.000000000000
      Gh(C)          -0.320766986011     2.967000089664     1.436782240758    12.000000000000
      Gh(C)           0.722047013989     1.988486089664     1.391158240758    12.000000000000
      Gh(N)          -0.279286986011     4.353223089664     1.403414240758    14.003074004430
      Gh(C)          -1.531851986011     4.724960089664     1.476011240758    12.000000000000
      Gh(N)          -2.407208986011     3.649083089664     1.556314240758    14.003074004430
      Gh(H)           0.917531013989    -0.075045910336     1.424224240758     1.007825032230
      Gh(N)          -1.410044986011    -0.975237910336     1.594351240758    14.003074004430
      Gh(H)          -0.689223986011    -1.703262910336     1.563957240758     1.007825032230
      Gh(H)          -2.382687986011    -1.227748910336     1.662702240758     1.007825032230
      Gh(O)           1.949733013989     2.164879089664     1.308040240758    15.994914619570
      Gh(H)          -1.889304986011     5.749715089664     1.476385240758     1.007825032230
      Gh(H)          -3.414995986011     3.678062089664     1.620700240758     1.007825032230

  Running in c1 symmetry.

  Rotational constants: A =      0.02489  B =      0.00543  C =      0.00485 [cm^-1]
  Rotational constants: A =    746.14974  B =    162.72303  C =    145.43596 [MHz]
  Nuclear repulsion =  355.312363002821201

  Charge       = 0
  Multiplicity = 1
  Electrons    = 58
  Nalpha       = 29
  Nbeta        = 29

  ==> Algorithm <==

  SCF Algorithm Type is DF.
  DIIS enabled.
  MOM disabled.
  Fractional occupation disabled.
  Guess Type is SAD.
  Energy threshold   = 1.00e-08
  Density threshold  = 1.00e-08
  Integral threshold = 1.00e-12

  ==> Primary Basis <==

  Basis Set: AUG-CC-PVTZ
    Blend: AUG-CC-PVTZ
    Number of shells: 356
    Number of basis functions: 1104
    Number of Cartesian functions: 1295
    Spherical Harmonics?: true
    Max angular momentum: 3

   => Loading Basis Set <=

    Name: (AUG-CC-PVTZ AUX)
    Role: JKFIT
    Keyword: DF_BASIS_SCF
    atoms 1, 3, 9, 14, 16, 20, 22, 24 entry N          line   224 file /opt/anaconda/envs/psi4v1.5/share/psi4/basis/aug-cc-pvtz-jkfit.gbs 
    atoms 2, 4-6, 15, 17-19, 21       entry C          line   162 file /opt/anaconda/envs/psi4v1.5/share/psi4/basis/aug-cc-pvtz-jkfit.gbs 
    atoms 7, 10-13, 23, 25-26, 28-29  entry H          line    70 file /opt/anaconda/envs/psi4v1.5/share/psi4/basis/aug-cc-pvtz-jkfit.gbs 
    atoms 8, 27                       entry O          line   286 file /opt/anaconda/envs/psi4v1.5/share/psi4/basis/aug-cc-pvtz-jkfit.gbs 

  ==> Integral Setup <==

  ==> DiskDFJK: Density-Fitted J/K Matrices <==

    J tasked:                  Yes
    K tasked:                  Yes
    wK tasked:                  No
    OpenMP threads:              8
    Integrals threads:           8
    Memory [MiB]:            57220
    Algorithm:                Core
    Integral Cache:           LOAD
    Schwarz Cutoff:          1E-12
    Fitting Condition:       1E-10

   => Auxiliary Basis Set <=

  Basis Set: (AUG-CC-PVTZ AUX)
    Blend: AUG-CC-PVTZ-JKFIT
    Number of shells: 710
    Number of basis functions: 2436
    Number of Cartesian functions: 3039
    Spherical Harmonics?: true
    Max angular momentum: 4

  Minimum eigenvalue in the overlap matrix is 1.3584471470E-06.
  Reciprocal condition number of the overlap matrix is 7.7009686250E-08.
    Using symmetric orthogonalization.

  ==> Pre-Iterations <==

  SCF Guess: Superposition of Atomic Densities via on-the-fly atomic UHF (no occupation information).

   -------------------------
    Irrep   Nso     Nmo    
   -------------------------
     A       1104    1104 
   -------------------------
    Total    1104    1104
   -------------------------

  ==> Iterations <==

                           Total Energy        Delta E     RMS |[F,P]|

   @DF-RHF iter SAD:  -392.07842108952383   -3.92078e+02   0.00000e+00 
   @DF-RHF iter   1:  -392.50564139464893   -4.27220e-01   6.61544e-04 DIIS
   @DF-RHF iter   2:  -392.69622278750978   -1.90581e-01   3.76908e-04 DIIS
   @DF-RHF iter   3:  -392.75522178744041   -5.89990e-02   7.05979e-05 DIIS
   @DF-RHF iter   4:  -392.75852646412795   -3.30468e-03   3.15328e-05 DIIS
   @DF-RHF iter   5:  -392.75922052199883   -6.94058e-04   6.41786e-06 DIIS
   @DF-RHF iter   6:  -392.75928978824498   -6.92662e-05   3.38258e-06 DIIS
   @DF-RHF iter   7:  -392.75930720041072   -1.74122e-05   1.26469e-06 DIIS
   @DF-RHF iter   8:  -392.75931053451296   -3.33410e-06   4.34080e-07 DIIS
   @DF-RHF iter   9:  -392.75931085584864   -3.21336e-07   1.76923e-07 DIIS
   @DF-RHF iter  10:  -392.75931090815612   -5.23075e-08   6.29308e-08 DIIS
   @DF-RHF iter  11:  -392.75931091651103   -8.35490e-09   1.70113e-08 DIIS
   @DF-RHF iter  12:  -392.75931091707224   -5.61215e-10   5.40481e-09 DIIS
  Energy and wave function converged.


  ==> Post-Iterations <==

    Orbital Energies [Eh]
    ---------------------

    Doubly Occupied:                                                      

       1A    -20.491925     2A    -15.622100     3A    -15.608851  
       4A    -15.538226     5A    -11.364585     6A    -11.359742  
       7A    -11.334069     8A    -11.251152     9A     -1.373030  
      10A     -1.294667    11A     -1.263403    12A     -1.169907  
      13A     -1.065477    14A     -0.903053    15A     -0.877413  
      16A     -0.763388    17A     -0.760507    18A     -0.728069  
      19A     -0.678062    20A     -0.622950    21A     -0.622940  
      22A     -0.612993    23A     -0.582813    24A     -0.542240  
      25A     -0.483497    26A     -0.432678    27A     -0.416292  
      28A     -0.383541    29A     -0.342703  

    Virtual:                                                              

      30A      0.014209    31A      0.021841    32A      0.025775  
      33A      0.034574    34A      0.038588    35A      0.044172  
      36A      0.050902    37A      0.055548    38A      0.058108  
      39A      0.063870    40A      0.067216    41A      0.072608  
      42A      0.075233    43A      0.082559    44A      0.084325  
      45A      0.087035    46A      0.090027    47A      0.095564  
      48A      0.097045    49A      0.098562    50A      0.103459  
      51A      0.106455    52A      0.107732    53A      0.109924  
      54A      0.112052    55A      0.115207    56A      0.118876  
      57A      0.122065    58A      0.125832    59A      0.132315  
      60A      0.134986    61A      0.135961    62A      0.143598  
      63A      0.147102    64A      0.150105    65A      0.152216  
      66A      0.154272    67A      0.157002    68A      0.159195  
      69A      0.163799    70A      0.165785    71A      0.170765  
      72A      0.172549    73A      0.173299    74A      0.177388  
      75A      0.183414    76A      0.185706    77A      0.186465  
      78A      0.193586    79A      0.196704    80A      0.197670  
      81A      0.200315    82A      0.208054    83A      0.209085  
      84A      0.213363    85A      0.215939    86A      0.218852  
      87A      0.220810    88A      0.221206    89A      0.224815  
      90A      0.231286    91A      0.234351    92A      0.239292  
      93A      0.241783    94A      0.245585    95A      0.247470  
      96A      0.249344    97A      0.259085    98A      0.261449  
      99A      0.263810   100A      0.268132   101A      0.269937  
     102A      0.276661   103A      0.279631   104A      0.280829  
     105A      0.285268   106A      0.285428   107A      0.290803  
     108A      0.291968   109A      0.294440   110A      0.299434  
     111A      0.302166   112A      0.305805   113A      0.309407  
     114A      0.312004   115A      0.314702   116A      0.315860  
     117A      0.320796   118A      0.324951   119A      0.327751  
     120A      0.331881   121A      0.336587   122A      0.339875  
     123A      0.342633   124A      0.350341   125A      0.353589  
     126A      0.357636   127A      0.360486   128A      0.366047  
     129A      0.368068   130A      0.370552   131A      0.371042  
     132A      0.375222   133A      0.377053   134A      0.383213  
     135A      0.383592   136A      0.386557   137A      0.393740  
     138A      0.397667   139A      0.401960   140A      0.402146  
     141A      0.406181   142A      0.411548   143A      0.411939  
     144A      0.417065   145A      0.419357   146A      0.421696  
     147A      0.427872   148A      0.429297   149A      0.432829  
     150A      0.434714   151A      0.436630   152A      0.440514  
     153A      0.441156   154A      0.446245   155A      0.448868  
     156A      0.451028   157A      0.454081   158A      0.459825  
     159A      0.461612   160A      0.464834   161A      0.465096  
     162A      0.466982   163A      0.474229   164A      0.474984  
     165A      0.478176   166A      0.480116   167A      0.483137  
     168A      0.485308   169A      0.494117   170A      0.497772  
     171A      0.498728   172A      0.501499   173A      0.506095  
     174A      0.506700   175A      0.509550   176A      0.513171  
     177A      0.513994   178A      0.519122   179A      0.521509  
     180A      0.523897   181A      0.528499   182A      0.530514  
     183A      0.533826   184A      0.540163   185A      0.546965  
     186A      0.551045   187A      0.553340   188A      0.555056  
     189A      0.565040   190A      0.567803   191A      0.571516  
     192A      0.573447   193A      0.580411   194A      0.587872  
     195A      0.595078   196A      0.597804   197A      0.601710  
     198A      0.608455   199A      0.611831   200A      0.614516  
     201A      0.621136   202A      0.628488   203A      0.631876  
     204A      0.637573   205A      0.642022   206A      0.646688  
     207A      0.647785   208A      0.650367   209A      0.652697  
     210A      0.656649   211A      0.662752   212A      0.668502  
     213A      0.672355   214A      0.674628   215A      0.685861  
     216A      0.688201   217A      0.689286   218A      0.694850  
     219A      0.700320   220A      0.702744   221A      0.707103  
     222A      0.708076   223A      0.712316   224A      0.716760  
     225A      0.718058   226A      0.723791   227A      0.729822  
     228A      0.733266   229A      0.735647   230A      0.743708  
     231A      0.749663   232A      0.757322   233A      0.761302  
     234A      0.765182   235A      0.767891   236A      0.773241  
     237A      0.777040   238A      0.778756   239A      0.785706  
     240A      0.789715   241A      0.791284   242A      0.795422  
     243A      0.798660   244A      0.805455   245A      0.808615  
     246A      0.814110   247A      0.818081   248A      0.820327  
     249A      0.825962   250A      0.827491   251A      0.835363  
     252A      0.843860   253A      0.846006   254A      0.848387  
     255A      0.851846   256A      0.852783   257A      0.855666  
     258A      0.860914   259A      0.861739   260A      0.864583  
     261A      0.871041   262A      0.875295   263A      0.878619  
     264A      0.880408   265A      0.887363   266A      0.890376  
     267A      0.891619   268A      0.896535   269A      0.899803  
     270A      0.903756   271A      0.906419   272A      0.908207  
     273A      0.915069   274A      0.917901   275A      0.920235  
     276A      0.921320   277A      0.927219   278A      0.937266  
     279A      0.939943   280A      0.944709   281A      0.946794  
     282A      0.949180   283A      0.953152   284A      0.955855  
     285A      0.964190   286A      0.965564   287A      0.968191  
     288A      0.974016   289A      0.975628   290A      0.977625  
     291A      0.979055   292A      0.985087   293A      0.990146  
     294A      0.990316   295A      0.994507   296A      0.996196  
     297A      1.002707   298A      1.004752   299A      1.012033  
     300A      1.012805   301A      1.017298   302A      1.022427  
     303A      1.029018   304A      1.035142   305A      1.037310  
     306A      1.040513   307A      1.047117   308A      1.053152  
     309A      1.056063   310A      1.060947   311A      1.064290  
     312A      1.068938   313A      1.071596   314A      1.076604  
     315A      1.081790   316A      1.084032   317A      1.090163  
     318A      1.094004   319A      1.097055   320A      1.101657  
     321A      1.104610   322A      1.109766   323A      1.112533  
     324A      1.117024   325A      1.119030   326A      1.123863  
     327A      1.131849   328A      1.134171   329A      1.139938  
     330A      1.144786   331A      1.148982   332A      1.154625  
     333A      1.156081   334A      1.162297   335A      1.163553  
     336A      1.168775   337A      1.172413   338A      1.177695  
     339A      1.178852   340A      1.181295   341A      1.185444  
     342A      1.194336   343A      1.197931   344A      1.198503  
     345A      1.206402   346A      1.206799   347A      1.210578  
     348A      1.212545   349A      1.219676   350A      1.227545  
     351A      1.230619   352A      1.234031   353A      1.239740  
     354A      1.242413   355A      1.243664   356A      1.252306  
     357A      1.259525   358A      1.266095   359A      1.267971  
     360A      1.274361   361A      1.276575   362A      1.283434  
     363A      1.292014   364A      1.297184   365A      1.304700  
     366A      1.311579   367A      1.314236   368A      1.320784  
     369A      1.323863   370A      1.327816   371A      1.332487  
     372A      1.337638   373A      1.341244   374A      1.344608  
     375A      1.348011   376A      1.354996   377A      1.356173  
     378A      1.370470   379A      1.374074   380A      1.377810  
     381A      1.386183   382A      1.387584   383A      1.389439  
     384A      1.394772   385A      1.400620   386A      1.404665  
     387A      1.410891   388A      1.418282   389A      1.422028  
     390A      1.428599   391A      1.434461   392A      1.443574  
     393A      1.448767   394A      1.451197   395A      1.462376  
     396A      1.471076   397A      1.474328   398A      1.477869  
     399A      1.483505   400A      1.485370   401A      1.489835  
     402A      1.491934   403A      1.500382   404A      1.505029  
     405A      1.513148   406A      1.514680   407A      1.523740  
     408A      1.527577   409A      1.533741   410A      1.542317  
     411A      1.548694   412A      1.551075   413A      1.555320  
     414A      1.561648   415A      1.562891   416A      1.576125  
     417A      1.580112   418A      1.589604   419A      1.594139  
     420A      1.600441   421A      1.603774   422A      1.606182  
     423A      1.617659   424A      1.618509   425A      1.626943  
     426A      1.635234   427A      1.638819   428A      1.644881  
     429A      1.647444   430A      1.652832   431A      1.659112  
     432A      1.661780   433A      1.666391   434A      1.667626  
     435A      1.676877   436A      1.682080   437A      1.688912  
     438A      1.692928   439A      1.697953   440A      1.707057  
     441A      1.709558   442A      1.714346   443A      1.721725  
     444A      1.727527   445A      1.732261   446A      1.736215  
     447A      1.742584   448A      1.745283   449A      1.747768  
     450A      1.752078   451A      1.761415   452A      1.764040  
     453A      1.768037   454A      1.772350   455A      1.777828  
     456A      1.780041   457A      1.785533   458A      1.791144  
     459A      1.793545   460A      1.800992   461A      1.803316  
     462A      1.807680   463A      1.810422   464A      1.813633  
     465A      1.827012   466A      1.834853   467A      1.837558  
     468A      1.843820   469A      1.846764   470A      1.852087  
     471A      1.852441   472A      1.865138   473A      1.866616  
     474A      1.871478   475A      1.878520   476A      1.883567  
     477A      1.888008   478A      1.894069   479A      1.898276  
     480A      1.909050   481A      1.925003   482A      1.931232  
     483A      1.933296   484A      1.939719   485A      1.945089  
     486A      1.954439   487A      1.960391   488A      1.960874  
     489A      1.966839   490A      1.970513   491A      1.981428  
     492A      1.992036   493A      1.996301   494A      2.006120  
     495A      2.010315   496A      2.011822   497A      2.023510  
     498A      2.027497   499A      2.029456   500A      2.040341  
     501A      2.042888   502A      2.051484   503A      2.055816  
     504A      2.065790   505A      2.070392   506A      2.078959  
     507A      2.080434   508A      2.083816   509A      2.094686  
     510A      2.099529   511A      2.105438   512A      2.110732  
     513A      2.119358   514A      2.125721   515A      2.129917  
     516A      2.134707   517A      2.135416   518A      2.141016  
     519A      2.146848   520A      2.156507   521A      2.162132  
     522A      2.168255   523A      2.176288   524A      2.178040  
     525A      2.187180   526A      2.191496   527A      2.200805  
     528A      2.205853   529A      2.212969   530A      2.217614  
     531A      2.223381   532A      2.235617   533A      2.253047  
     534A      2.262090   535A      2.270404   536A      2.278260  
     537A      2.279494   538A      2.288549   539A      2.303103  
     540A      2.306552   541A      2.308986   542A      2.324727  
     543A      2.329421   544A      2.339049   545A      2.344261  
     546A      2.350277   547A      2.356940   548A      2.357848  
     549A      2.365383   550A      2.370383   551A      2.372388  
     552A      2.394188   553A      2.404721   554A      2.408228  
     555A      2.417773   556A      2.423983   557A      2.427279  
     558A      2.434703   559A      2.436635   560A      2.441784  
     561A      2.456980   562A      2.463249   563A      2.471038  
     564A      2.483894   565A      2.492607   566A      2.494748  
     567A      2.501614   568A      2.513376   569A      2.521509  
     570A      2.523011   571A      2.533052   572A      2.544196  
     573A      2.549872   574A      2.555785   575A      2.559614  
     576A      2.561031   577A      2.569144   578A      2.571132  
     579A      2.578627   580A      2.593273   581A      2.606916  
     582A      2.614626   583A      2.621438   584A      2.625520  
     585A      2.628699   586A      2.635518   587A      2.643844  
     588A      2.648015   589A      2.656443   590A      2.665416  
     591A      2.679079   592A      2.693726   593A      2.695214  
     594A      2.699884   595A      2.704297   596A      2.710135  
     597A      2.713337   598A      2.722477   599A      2.726141  
     600A      2.733152   601A      2.751138   602A      2.753300  
     603A      2.760437   604A      2.766259   605A      2.780066  
     606A      2.785301   607A      2.791734   608A      2.800015  
     609A      2.813742   610A      2.814387   611A      2.822735  
     612A      2.825825   613A      2.835060   614A      2.846949  
     615A      2.855077   616A      2.862844   617A      2.867036  
     618A      2.874003   619A      2.880649   620A      2.890140  
     621A      2.897947   622A      2.911270   623A      2.916702  
     624A      2.921611   625A      2.940539   626A      2.946538  
     627A      2.958523   628A      2.972441   629A      2.975233  
     630A      2.978591   631A      2.992181   632A      2.999719  
     633A      3.012944   634A      3.017751   635A      3.024602  
     636A      3.030471   637A      3.048558   638A      3.055283  
     639A      3.061566   640A      3.073140   641A      3.074798  
     642A      3.088940   643A      3.101240   644A      3.105806  
     645A      3.110305   646A      3.117697   647A      3.125131  
     648A      3.143340   649A      3.160471   650A      3.164079  
     651A      3.172846   652A      3.175943   653A      3.183380  
     654A      3.200190   655A      3.202622   656A      3.207119  
     657A      3.226394   658A      3.229923   659A      3.235831  
     660A      3.256164   661A      3.264549   662A      3.279551  
     663A      3.287328   664A      3.295611   665A      3.306798  
     666A      3.332831   667A      3.341292   668A      3.355308  
     669A      3.363694   670A      3.368941   671A      3.371999  
     672A      3.379532   673A      3.400451   674A      3.408873  
     675A      3.412068   676A      3.433914   677A      3.448940  
     678A      3.451051   679A      3.465765   680A      3.475718  
     681A      3.490868   682A      3.498668   683A      3.507408  
     684A      3.521772   685A      3.535589   686A      3.538111  
     687A      3.561797   688A      3.576761   689A      3.588291  
     690A      3.599406   691A      3.609855   692A      3.631859  
     693A      3.652131   694A      3.664138   695A      3.665587  
     696A      3.671756   697A      3.684585   698A      3.694810  
     699A      3.708471   700A      3.731111   701A      3.733001  
     702A      3.743996   703A      3.771830   704A      3.784898  
     705A      3.788224   706A      3.803344   707A      3.809592  
     708A      3.823668   709A      3.833299   710A      3.843411  
     711A      3.861608   712A      3.867148   713A      3.881140  
     714A      3.897014   715A      3.904267   716A      3.919662  
     717A      3.942480   718A      3.960587   719A      3.968829  
     720A      3.976149   721A      3.982863   722A      3.996575  
     723A      4.011586   724A      4.025797   725A      4.028832  
     726A      4.035479   727A      4.071318   728A      4.082650  
     729A      4.092066   730A      4.098280   731A      4.117862  
     732A      4.130262   733A      4.134031   734A      4.137357  
     735A      4.145008   736A      4.154451   737A      4.156823  
     738A      4.161171   739A      4.166450   740A      4.171058  
     741A      4.193845   742A      4.198750   743A      4.213830  
     744A      4.220363   745A      4.223700   746A      4.229801  
     747A      4.235187   748A      4.248878   749A      4.253778  
     750A      4.279991   751A      4.285119   752A      4.288116  
     753A      4.306337   754A      4.312145   755A      4.318927  
     756A      4.337054   757A      4.348964   758A      4.355592  
     759A      4.360991   760A      4.370269   761A      4.382490  
     762A      4.395812   763A      4.400840   764A      4.423588  
     765A      4.434764   766A      4.442035   767A      4.447113  
     768A      4.463365   769A      4.473765   770A      4.491457  
     771A      4.497728   772A      4.519546   773A      4.527419  
     774A      4.531106   775A      4.538259   776A      4.539670  
     777A      4.547567   778A      4.548294   779A      4.554456  
     780A      4.585273   781A      4.608207   782A      4.628970  
     783A      4.631749   784A      4.644770   785A      4.655626  
     786A      4.659363   787A      4.660864   788A      4.670265  
     789A      4.674615   790A      4.687240   791A      4.687960  
     792A      4.695957   793A      4.709284   794A      4.714174  
     795A      4.722753   796A      4.736303   797A      4.743484  
     798A      4.750296   799A      4.754485   800A      4.769887  
     801A      4.776296   802A      4.795091   803A      4.798666  
     804A      4.813328   805A      4.826795   806A      4.837175  
     807A      4.848499   808A      4.851828   809A      4.856455  
     810A      4.861638   811A      4.863978   812A      4.878731  
     813A      4.894326   814A      4.897472   815A      4.919062  
     816A      4.932912   817A      4.948278   818A      4.948457  
     819A      4.952657   820A      4.953391   821A      4.958041  
     822A      4.969468   823A      4.972576   824A      4.975548  
     825A      4.994516   826A      4.998970   827A      5.003869  
     828A      5.013512   829A      5.019073   830A      5.027011  
     831A      5.039596   832A      5.042382   833A      5.049118  
     834A      5.050909   835A      5.074949   836A      5.080569  
     837A      5.090572   838A      5.093677   839A      5.099941  
     840A      5.104744   841A      5.116179   842A      5.129364  
     843A      5.145203   844A      5.147131   845A      5.154241  
     846A      5.177733   847A      5.181414   848A      5.192961  
     849A      5.204785   850A      5.207462   851A      5.237690  
     852A      5.249076   853A      5.254317   854A      5.264713  
     855A      5.281690   856A      5.288208   857A      5.315881  
     858A      5.321285   859A      5.331947   860A      5.338504  
     861A      5.345117   862A      5.361404   863A      5.371334  
     864A      5.377715   865A      5.393335   866A      5.406366  
     867A      5.413475   868A      5.437260   869A      5.452192  
     870A      5.453590   871A      5.456045   872A      5.457313  
     873A      5.465122   874A      5.478489   875A      5.488816  
     876A      5.525425   877A      5.528712   878A      5.535946  
     879A      5.540409   880A      5.560239   881A      5.565771  
     882A      5.568930   883A      5.572443   884A      5.578189  
     885A      5.592821   886A      5.597445   887A      5.608767  
     888A      5.611113   889A      5.624877   890A      5.670782  
     891A      5.683010   892A      5.707771   893A      5.734703  
     894A      5.741561   895A      5.746763   896A      5.757254  
     897A      5.765275   898A      5.777779   899A      5.792384  
     900A      5.797766   901A      5.815144   902A      5.819263  
     903A      5.845334   904A      5.847228   905A      5.878861  
     906A      5.899358   907A      5.928225   908A      5.932894  
     909A      5.939802   910A      5.940279   911A      5.968030  
     912A      6.000761   913A      6.016913   914A      6.026667  
     915A      6.049417   916A      6.064554   917A      6.083031  
     918A      6.102654   919A      6.116704   920A      6.121472  
     921A      6.135167   922A      6.136298   923A      6.156437  
     924A      6.165454   925A      6.194305   926A      6.204567  
     927A      6.208894   928A      6.225077   929A      6.227076  
     930A      6.264288   931A      6.275557   932A      6.288711  
     933A      6.348056   934A      6.371173   935A      6.383736  
     936A      6.395945   937A      6.412629   938A      6.439342  
     939A      6.452210   940A      6.475793   941A      6.497996  
     942A      6.498847   943A      6.509482   944A      6.515956  
     945A      6.524543   946A      6.548093   947A      6.550293  
     948A      6.576908   949A      6.586518   950A      6.617169  
     951A      6.622911   952A      6.654646   953A      6.668417  
     954A      6.679436   955A      6.693682   956A      6.705157  
     957A      6.719591   958A      6.728787   959A      6.740414  
     960A      6.745244   961A      6.780435   962A      6.783039  
     963A      6.797018   964A      6.813257   965A      6.820520  
     966A      6.829909   967A      6.839596   968A      6.866696  
     969A      6.878520   970A      6.886373   971A      6.899721  
     972A      6.935169   973A      6.951587   974A      6.984549  
     975A      6.995176   976A      7.008992   977A      7.030629  
     978A      7.041328   979A      7.042954   980A      7.047580  
     981A      7.126558   982A      7.129527   983A      7.184863  
     984A      7.220661   985A      7.240407   986A      7.269183  
     987A      7.292704   988A      7.348367   989A      7.388066  
     990A      7.411686   991A      7.417069   992A      7.421151  
     993A      7.422280   994A      7.431771   995A      7.453892  
     996A      7.476873   997A      7.518547   998A      7.561574  
     999A      7.571562  1000A      7.580893  1001A      7.620835  
    1002A      7.632134  1003A      7.638137  1004A      7.649118  
    1005A      7.658383  1006A      7.658815  1007A      7.683183  
    1008A      7.704735  1009A      7.725598  1010A      7.732834  
    1011A      7.736459  1012A      7.749926  1013A      7.765981  
    1014A      7.772144  1015A      7.778806  1016A      7.820149  
    1017A      7.873175  1018A      7.895577  1019A      7.910703  
    1020A      7.928223  1021A      7.944141  1022A      7.952544  
    1023A      7.967571  1024A      7.973877  1025A      7.978076  
    1026A      8.016789  1027A      8.043403  1028A      8.058193  
    1029A      8.078303  1030A      8.165704  1031A      8.199772  
    1032A      8.209522  1033A      8.272476  1034A      8.313843  
    1035A      8.341210  1036A      8.408164  1037A      8.493846  
    1038A      8.574159  1039A      8.585480  1040A      8.700816  
    1041A      8.725803  1042A      8.805148  1043A      8.841248  
    1044A      8.963022  1045A      9.023127  1046A      9.070605  
    1047A      9.174432  1048A      9.254262  1049A      9.344272  
    1050A      9.440459  1051A      9.503997  1052A      9.528271  
    1053A      9.594204  1054A      9.644973  1055A      9.727261  
    1056A      9.787852  1057A      9.914962  1058A      9.987046  
    1059A     10.169239  1060A     10.187316  1061A     10.300318  
    1062A     10.404653  1063A     10.450019  1064A     10.550179  
    1065A     10.728740  1066A     11.085705  1067A     11.180077  
    1068A     11.270767  1069A     11.375815  1070A     11.444760  
    1071A     11.643055  1072A     11.743149  1073A     11.970093  
    1074A     12.002091  1075A     12.032714  1076A     12.107305  
    1077A     12.169103  1078A     12.312243  1079A     12.382838  
    1080A     12.604445  1081A     12.783924  1082A     12.936343  
    1083A     13.336002  1084A     13.470364  1085A     14.179746  
    1086A     15.594370  1087A     15.847464  1088A     16.370245  
    1089A     17.607936  1090A     18.117742  1091A     19.371237  
    1092A     20.233484  1093A     20.537370  1094A     51.675015  
    1095A     52.105298  1096A     52.678675  1097A     53.820885  
    1098A     56.178239  1099A     59.969758  1100A     61.284100  
    1101A     61.873371  1102A     63.339952  1103A     65.287297  
    1104A     69.527136  

    Final Occupation by Irrep:
              A 
    DOCC [    29 ]

  @DF-RHF Final Energy:  -392.75931091707224

   => Energetics <=

    Nuclear Repulsion Energy =            355.3123630028212006
    One-Electron Energy =               -1239.1627893332658914
    Two-Electron Energy =                 491.0911154133723926
    Total Energy =                       -392.7593109170722414

Computation Completed


Properties will be evaluated at   0.000000,   0.000000,   0.000000 [a0]

Properties computed using the SCF density matrix

  Nuclear Dipole Moment: [e a0]
     X:   111.0788      Y:  -315.0753      Z:  -220.8076

  Electronic Dipole Moment: [e a0]
     X:  -108.5079      Y:   313.4416      Z:   220.8073

  Dipole Moment: [e a0]
     X:     2.5709      Y:    -1.6337      Z:    -0.0003     Total:     3.0461

  Dipole Moment: [D]
     X:     6.5347      Y:    -4.1524      Z:    -0.0007     Total:     7.7424


*** tstop() called on node158.bme.utexas.edu at Mon Jan 22 15:33:20 2024
Module time:
	user time   =     799.35 seconds =      13.32 minutes
	system time =       6.87 seconds =       0.11 minutes
	total time  =        128 seconds =       2.13 minutes
Total time:
	user time   =    2344.40 seconds =      39.07 minutes
	system time =      34.99 seconds =       0.58 minutes
	total time  =        392 seconds =       6.53 minutes

*** tstart() called on node158.bme.utexas.edu
*** at Mon Jan 22 15:33:20 2024


  //>>>>>>>>>>>>>>>>>>>>>>>>>>>>>>>>>>>//
  //               DFMP2               //
  //<<<<<<<<<<<<<<<<<<<<<<<<<<<<<<<<<<<//

   => Loading Basis Set <=

    Name: (AUG-CC-PVTZ AUX)
    Role: RIFIT
    Keyword: DF_BASIS_MP2
    atoms 1, 3, 9, 14, 16, 20, 22, 24 entry N          line   206 file /opt/anaconda/envs/psi4v1.5/share/psi4/basis/aug-cc-pvtz-ri.gbs 
    atoms 2, 4-6, 15, 17-19, 21       entry C          line   148 file /opt/anaconda/envs/psi4v1.5/share/psi4/basis/aug-cc-pvtz-ri.gbs 
    atoms 7, 10-13, 23, 25-26, 28-29  entry H          line    30 file /opt/anaconda/envs/psi4v1.5/share/psi4/basis/aug-cc-pvtz-ri.gbs 
    atoms 8, 27                       entry O          line   264 file /opt/anaconda/envs/psi4v1.5/share/psi4/basis/aug-cc-pvtz-ri.gbs 

	 --------------------------------------------------------
	                          DF-MP2                         
	      2nd-Order Density-Fitted Moller-Plesset Theory     
	              RMP2 Wavefunction,   8 Threads             
	                                                         
	        Rob Parrish, Justin Turney, Andy Simmonett,      
	           Ed Hohenstein, and C. David Sherrill          
	 --------------------------------------------------------

   => Auxiliary Basis Set <=

  Basis Set: (AUG-CC-PVTZ AUX)
    Blend: AUG-CC-PVTZ-RI
    Number of shells: 672
    Number of basis functions: 2474
    Number of Cartesian functions: 3134
    Spherical Harmonics?: true
    Max angular momentum: 4

	 --------------------------------------------------------
	                 NBF =  1104, NAUX =  2474
	 --------------------------------------------------------
	   CLASS    FOCC     OCC    AOCC    AVIR     VIR    FVIR
	   PAIRS       8      29      21    1075    1075       0
	 --------------------------------------------------------

	 Will attempt to load fitting metric from file 97.

	-----------------------------------------------------------
	 ==================> DF-MP2 Energies <==================== 
	-----------------------------------------------------------
	 Reference Energy          =    -392.7593109170722414 [Eh]
	 Singles Energy            =      -0.0000000000000000 [Eh]
	 Same-Spin Energy          =      -0.3847812454882180 [Eh]
	 Opposite-Spin Energy      =      -1.0965224968882348 [Eh]
	 Correlation Energy        =      -1.4813037423764528 [Eh]
	 Total Energy              =    -394.2406146594486813 [Eh]
	-----------------------------------------------------------
	 ================> DF-SCS-MP2 Energies <================== 
	-----------------------------------------------------------
	 SCS Same-Spin Scale       =       0.3333333333333333 [-]
	 SCS Opposite-Spin Scale   =       1.2000000000000000 [-]
	 SCS Same-Spin Energy      =      -0.1282604151627393 [Eh]
	 SCS Opposite-Spin Energy  =      -1.3158269962658817 [Eh]
	 SCS Correlation Energy    =      -1.4440874114286211 [Eh]
	 SCS Total Energy          =    -394.2033983285008389 [Eh]
	-----------------------------------------------------------


*** tstop() called on node158.bme.utexas.edu at Mon Jan 22 15:33:52 2024
Module time:
	user time   =     187.78 seconds =       3.13 minutes
	system time =       3.46 seconds =       0.06 minutes
	total time  =         32 seconds =       0.53 minutes
Total time:
	user time   =    2532.19 seconds =      42.20 minutes
	system time =      38.45 seconds =       0.64 minutes
	total time  =        424 seconds =       7.07 minutes

  //>>>>>>>>>>>>>>>>>>>>>>>>>>>>>>>>>>>//
  //            Monomer B HF           //
  //<<<<<<<<<<<<<<<<<<<<<<<<<<<<<<<<<<<//


*** tstart() called on node158.bme.utexas.edu
*** at Mon Jan 22 15:33:52 2024

   => Loading Basis Set <=

    Name: AUG-CC-PVTZ
    Role: ORBITAL
    Keyword: BASIS
    atoms 1, 3, 9, 14, 16, 20, 22, 24 entry N          line   285 file /opt/anaconda/envs/psi4v1.5/share/psi4/basis/aug-cc-pvtz.gbs 
    atoms 2, 4-6, 15, 17-19, 21       entry C          line   239 file /opt/anaconda/envs/psi4v1.5/share/psi4/basis/aug-cc-pvtz.gbs 
    atoms 7, 10-13, 23, 25-26, 28-29  entry H          line    40 file /opt/anaconda/envs/psi4v1.5/share/psi4/basis/aug-cc-pvtz.gbs 
    atoms 8, 27                       entry O          line   331 file /opt/anaconda/envs/psi4v1.5/share/psi4/basis/aug-cc-pvtz.gbs 


         ---------------------------------------------------------
                                   SCF
               by Justin Turney, Rob Parrish, Andy Simmonett
                          and Daniel G. A. Smith
                              RHF Reference
                        8 Threads,  76293 MiB Core
         ---------------------------------------------------------

  ==> Geometry <==

    Molecular point group: c1
    Full point group: C1

    Geometry (in Angstrom), charge = 0, multiplicity = 1:

       Center              X                  Y                   Z               Mass       
    ------------   -----------------  -----------------  -----------------  -----------------
      Gh(N)          -0.025935986011    -4.050582910336    -2.014526759242    14.003074004430
      Gh(C)          -0.254538986011    -2.660287910336    -2.014580759242    12.000000000000
      Gh(N)           0.830734013989    -1.844352910336    -2.014627759242    14.003074004430
      Gh(C)           2.074087013989    -2.349480910336    -2.014627759242    12.000000000000
      Gh(C)           2.315574013989    -3.774951910336    -2.014574759242    12.000000000000
      Gh(C)           1.226681013989    -4.587105910336    -2.014527759242    12.000000000000
      Gh(H)          -0.852074986011    -4.634278910336    -2.014486759242     1.007825032230
      Gh(O)          -1.425690986011    -2.258359910336    -2.014587759242    15.994914619570
      Gh(N)           3.093550013989    -1.484618910336    -2.014676759242    14.003074004430
      Gh(H)           2.919200013989    -0.456750910336    -2.014734759242     1.007825032230
      Gh(H)           4.041261013989    -1.828185910336    -2.014682759242     1.007825032230
      Gh(H)           3.322942013989    -4.182549910336    -2.014570759242     1.007825032230
      Gh(H)           1.295314013989    -5.674177910336    -2.014483759242     1.007825032230
         N            0.208558013989     0.681541089664     1.453222240758    14.003074004430
         C           -1.122027986011     0.344747089664     1.546539240758    12.000000000000
         N           -2.100994986011     1.240969089664     1.589870240758    14.003074004430
         C           -1.642560986011     2.508742089664     1.532220240758    12.000000000000
         C           -0.320766986011     2.967000089664     1.436782240758    12.000000000000
         C            0.722047013989     1.988486089664     1.391158240758    12.000000000000
         N           -0.279286986011     4.353223089664     1.403414240758    14.003074004430
         C           -1.531851986011     4.724960089664     1.476011240758    12.000000000000
         N           -2.407208986011     3.649083089664     1.556314240758    14.003074004430
         H            0.917531013989    -0.075045910336     1.424224240758     1.007825032230
         N           -1.410044986011    -0.975237910336     1.594351240758    14.003074004430
         H           -0.689223986011    -1.703262910336     1.563957240758     1.007825032230
         H           -2.382687986011    -1.227748910336     1.662702240758     1.007825032230
         O            1.949733013989     2.164879089664     1.308040240758    15.994914619570
         H           -1.889304986011     5.749715089664     1.476385240758     1.007825032230
         H           -3.414995986011     3.678062089664     1.620700240758     1.007825032230

  Running in c1 symmetry.

  Rotational constants: A =      0.02489  B =      0.00543  C =      0.00485 [cm^-1]
  Rotational constants: A =    746.14974  B =    162.72303  C =    145.43596 [MHz]
  Nuclear repulsion =  593.872093725379045

  Charge       = 0
  Multiplicity = 1
  Electrons    = 78
  Nalpha       = 39
  Nbeta        = 39

  ==> Algorithm <==

  SCF Algorithm Type is DF.
  DIIS enabled.
  MOM disabled.
  Fractional occupation disabled.
  Guess Type is SAD.
  Energy threshold   = 1.00e-08
  Density threshold  = 1.00e-08
  Integral threshold = 1.00e-12

  ==> Primary Basis <==

  Basis Set: AUG-CC-PVTZ
    Blend: AUG-CC-PVTZ
    Number of shells: 356
    Number of basis functions: 1104
    Number of Cartesian functions: 1295
    Spherical Harmonics?: true
    Max angular momentum: 3

   => Loading Basis Set <=

    Name: (AUG-CC-PVTZ AUX)
    Role: JKFIT
    Keyword: DF_BASIS_SCF
    atoms 1, 3, 9, 14, 16, 20, 22, 24 entry N          line   224 file /opt/anaconda/envs/psi4v1.5/share/psi4/basis/aug-cc-pvtz-jkfit.gbs 
    atoms 2, 4-6, 15, 17-19, 21       entry C          line   162 file /opt/anaconda/envs/psi4v1.5/share/psi4/basis/aug-cc-pvtz-jkfit.gbs 
    atoms 7, 10-13, 23, 25-26, 28-29  entry H          line    70 file /opt/anaconda/envs/psi4v1.5/share/psi4/basis/aug-cc-pvtz-jkfit.gbs 
    atoms 8, 27                       entry O          line   286 file /opt/anaconda/envs/psi4v1.5/share/psi4/basis/aug-cc-pvtz-jkfit.gbs 

  ==> Integral Setup <==

  ==> DiskDFJK: Density-Fitted J/K Matrices <==

    J tasked:                  Yes
    K tasked:                  Yes
    wK tasked:                  No
    OpenMP threads:              8
    Integrals threads:           8
    Memory [MiB]:            57220
    Algorithm:                Core
    Integral Cache:           LOAD
    Schwarz Cutoff:          1E-12
    Fitting Condition:       1E-10

   => Auxiliary Basis Set <=

  Basis Set: (AUG-CC-PVTZ AUX)
    Blend: AUG-CC-PVTZ-JKFIT
    Number of shells: 710
    Number of basis functions: 2436
    Number of Cartesian functions: 3039
    Spherical Harmonics?: true
    Max angular momentum: 4

  Minimum eigenvalue in the overlap matrix is 1.3584471470E-06.
  Reciprocal condition number of the overlap matrix is 7.7009686250E-08.
    Using symmetric orthogonalization.

  ==> Pre-Iterations <==

  SCF Guess: Superposition of Atomic Densities via on-the-fly atomic UHF (no occupation information).

   -------------------------
    Irrep   Nso     Nmo    
   -------------------------
     A       1104    1104 
   -------------------------
    Total    1104    1104
   -------------------------

  ==> Iterations <==

                           Total Energy        Delta E     RMS |[F,P]|

   @DF-RHF iter SAD:  -539.30121186745771   -5.39301e+02   0.00000e+00 
   @DF-RHF iter   1:  -539.27250145141420    2.87104e-02   7.22297e-04 DIIS
   @DF-RHF iter   2:  -539.49747743716921   -2.24976e-01   4.30927e-04 DIIS
   @DF-RHF iter   3:  -539.57802521322799   -8.05478e-02   9.00432e-05 DIIS
   @DF-RHF iter   4:  -539.58314740002982   -5.12219e-03   3.63020e-05 DIIS
   @DF-RHF iter   5:  -539.58410103305255   -9.53633e-04   7.74280e-06 DIIS
   @DF-RHF iter   6:  -539.58419974624394   -9.87132e-05   4.07804e-06 DIIS
   @DF-RHF iter   7:  -539.58422722561636   -2.74794e-05   1.72583e-06 DIIS
   @DF-RHF iter   8:  -539.58423265705892   -5.43144e-06   5.86814e-07 DIIS
   @DF-RHF iter   9:  -539.58423325418414   -5.97125e-07   2.39518e-07 DIIS
   @DF-RHF iter  10:  -539.58423336317992   -1.08996e-07   1.01579e-07 DIIS
   @DF-RHF iter  11:  -539.58423338119417   -1.80142e-08   4.32238e-08 DIIS
   @DF-RHF iter  12:  -539.58423338403804   -2.84388e-09   1.41937e-08 DIIS
   @DF-RHF iter  13:  -539.58423338440730   -3.69255e-10   5.85036e-09 DIIS
  Energy and wave function converged.


  ==> Post-Iterations <==

    Orbital Energies [Eh]
    ---------------------

    Doubly Occupied:                                                      

       1A    -20.511585     2A    -15.636357     3A    -15.628605  
       4A    -15.621773     5A    -15.567146     6A    -15.561324  
       7A    -11.405373     8A    -11.360824     9A    -11.325999  
      10A    -11.309613    11A    -11.244198    12A     -1.387096  
      13A     -1.348832    14A     -1.332132    15A     -1.226597  
      16A     -1.216798    17A     -1.172444    18A     -1.027629  
      19A     -0.904063    20A     -0.893256    21A     -0.836214  
      22A     -0.803835    23A     -0.744203    24A     -0.739686  
      25A     -0.709741    26A     -0.669796    27A     -0.657893  
      28A     -0.634723    29A     -0.604164    30A     -0.597983  
      31A     -0.595893    32A     -0.544381    33A     -0.493928  
      34A     -0.455066    35A     -0.435133    36A     -0.428780  
      37A     -0.423992    38A     -0.406606    39A     -0.295018  

    Virtual:                                                              

      40A      0.007595    41A      0.021676    42A      0.025680  
      43A      0.029148    44A      0.035858    45A      0.040093  
      46A      0.046222    47A      0.054096    48A      0.055838  
      49A      0.058586    50A      0.063288    51A      0.065504  
      52A      0.076368    53A      0.078808    54A      0.082953  
      55A      0.088801    56A      0.089868    57A      0.093562  
      58A      0.096993    59A      0.099225    60A      0.101545  
      61A      0.104531    62A      0.107057    63A      0.113505  
      64A      0.116145    65A      0.117315    66A      0.120904  
      67A      0.125443    68A      0.125822    69A      0.129848  
      70A      0.131435    71A      0.133743    72A      0.136443  
      73A      0.138808    74A      0.143525    75A      0.146615  
      76A      0.151235    77A      0.152943    78A      0.155396  
      79A      0.159262    80A      0.162338    81A      0.163549  
      82A      0.168230    83A      0.171218    84A      0.176445  
      85A      0.179168    86A      0.179944    87A      0.182994  
      88A      0.186540    89A      0.189657    90A      0.191859  
      91A      0.194603    92A      0.196123    93A      0.200477  
      94A      0.209142    95A      0.211473    96A      0.213922  
      97A      0.216734    98A      0.218441    99A      0.220874  
     100A      0.225835   101A      0.227830   102A      0.230998  
     103A      0.235626   104A      0.236901   105A      0.240640  
     106A      0.241945   107A      0.247640   108A      0.251000  
     109A      0.258061   110A      0.259768   111A      0.263388  
     112A      0.268307   113A      0.270776   114A      0.274023  
     115A      0.278088   116A      0.283206   117A      0.287070  
     118A      0.287899   119A      0.294155   120A      0.297494  
     121A      0.300892   122A      0.301830   123A      0.307553  
     124A      0.308672   125A      0.313416   126A      0.316885  
     127A      0.318393   128A      0.326484   129A      0.327873  
     130A      0.333113   131A      0.333627   132A      0.337173  
     133A      0.339409   134A      0.341777   135A      0.345524  
     136A      0.347559   137A      0.350426   138A      0.353338  
     139A      0.358710   140A      0.361516   141A      0.367390  
     142A      0.368883   143A      0.371335   144A      0.373275  
     145A      0.376017   146A      0.379973   147A      0.383529  
     148A      0.387203   149A      0.389625   150A      0.392752  
     151A      0.396263   152A      0.398351   153A      0.399545  
     154A      0.401545   155A      0.406864   156A      0.413831  
     157A      0.415758   158A      0.420642   159A      0.422052  
     160A      0.423460   161A      0.428031   162A      0.432202  
     163A      0.434786   164A      0.435071   165A      0.437973  
     166A      0.439933   167A      0.446675   168A      0.446976  
     169A      0.448721   170A      0.455010   171A      0.458780  
     172A      0.462314   173A      0.465042   174A      0.468640  
     175A      0.470777   176A      0.474359   177A      0.478257  
     178A      0.479540   179A      0.485952   180A      0.490334  
     181A      0.493295   182A      0.496495   183A      0.499748  
     184A      0.500810   185A      0.502619   186A      0.504616  
     187A      0.507288   188A      0.512694   189A      0.513171  
     190A      0.516886   191A      0.523761   192A      0.526001  
     193A      0.528808   194A      0.533729   195A      0.540082  
     196A      0.542319   197A      0.544286   198A      0.548994  
     199A      0.552996   200A      0.555018   201A      0.556728  
     202A      0.562102   203A      0.567440   204A      0.571406  
     205A      0.575006   206A      0.579382   207A      0.587044  
     208A      0.592214   209A      0.596637   210A      0.602364  
     211A      0.604878   212A      0.606730   213A      0.611625  
     214A      0.616887   215A      0.621517   216A      0.623408  
     217A      0.634226   218A      0.635350   219A      0.640394  
     220A      0.644287   221A      0.646632   222A      0.649674  
     223A      0.661484   224A      0.663356   225A      0.665004  
     226A      0.667306   227A      0.671683   228A      0.678159  
     229A      0.679819   230A      0.684235   231A      0.688565  
     232A      0.693130   233A      0.698002   234A      0.706521  
     235A      0.706943   236A      0.709755   237A      0.710985  
     238A      0.717926   239A      0.723199   240A      0.730810  
     241A      0.733258   242A      0.740140   243A      0.744084  
     244A      0.748269   245A      0.753415   246A      0.755812  
     247A      0.759152   248A      0.761133   249A      0.766038  
     250A      0.770931   251A      0.773589   252A      0.774780  
     253A      0.776795   254A      0.785863   255A      0.790478  
     256A      0.795116   257A      0.802644   258A      0.807577  
     259A      0.808589   260A      0.811273   261A      0.816421  
     262A      0.817443   263A      0.822012   264A      0.825393  
     265A      0.827005   266A      0.836392   267A      0.840201  
     268A      0.841561   269A      0.843747   270A      0.844764  
     271A      0.848948   272A      0.853778   273A      0.857138  
     274A      0.865887   275A      0.868215   276A      0.869306  
     277A      0.871148   278A      0.880497   279A      0.883044  
     280A      0.890360   281A      0.890957   282A      0.897645  
     283A      0.901501   284A      0.903548   285A      0.906526  
     286A      0.912314   287A      0.913608   288A      0.919266  
     289A      0.924726   290A      0.926829   291A      0.929776  
     292A      0.935051   293A      0.937818   294A      0.942866  
     295A      0.952409   296A      0.955488   297A      0.957989  
     298A      0.963784   299A      0.968634   300A      0.970236  
     301A      0.972756   302A      0.977999   303A      0.979217  
     304A      0.985021   305A      0.988844   306A      0.992511  
     307A      0.997518   308A      1.002674   309A      1.006143  
     310A      1.008421   311A      1.015670   312A      1.020012  
     313A      1.024393   314A      1.029546   315A      1.034652  
     316A      1.037503   317A      1.038496   318A      1.046652  
     319A      1.050038   320A      1.053123   321A      1.056612  
     322A      1.058989   323A      1.061715   324A      1.063448  
     325A      1.069320   326A      1.077317   327A      1.080167  
     328A      1.085001   329A      1.086674   330A      1.087686  
     331A      1.096927   332A      1.097999   333A      1.102112  
     334A      1.105059   335A      1.108348   336A      1.113398  
     337A      1.119348   338A      1.122855   339A      1.126261  
     340A      1.131552   341A      1.133933   342A      1.137901  
     343A      1.142918   344A      1.151646   345A      1.151761  
     346A      1.158762   347A      1.161790   348A      1.168195  
     349A      1.172459   350A      1.175172   351A      1.178732  
     352A      1.183152   353A      1.187165   354A      1.188365  
     355A      1.191005   356A      1.194217   357A      1.201610  
     358A      1.206045   359A      1.209563   360A      1.216232  
     361A      1.217973   362A      1.221571   363A      1.223462  
     364A      1.226456   365A      1.231727   366A      1.237340  
     367A      1.241710   368A      1.251230   369A      1.252911  
     370A      1.255908   371A      1.262056   372A      1.264942  
     373A      1.273355   374A      1.275960   375A      1.280137  
     376A      1.284169   377A      1.291726   378A      1.296386  
     379A      1.298472   380A      1.304845   381A      1.314946  
     382A      1.320412   383A      1.322085   384A      1.328860  
     385A      1.332792   386A      1.336207   387A      1.340307  
     388A      1.344261   389A      1.347101   390A      1.353496  
     391A      1.357056   392A      1.359195   393A      1.361885  
     394A      1.363890   395A      1.369742   396A      1.373091  
     397A      1.375368   398A      1.381874   399A      1.388538  
     400A      1.398060   401A      1.404343   402A      1.407849  
     403A      1.410320   404A      1.418646   405A      1.421109  
     406A      1.423550   407A      1.432508   408A      1.433578  
     409A      1.438015   410A      1.444711   411A      1.452583  
     412A      1.456281   413A      1.469742   414A      1.469996  
     415A      1.474930   416A      1.479494   417A      1.485126  
     418A      1.487760   419A      1.492753   420A      1.501534  
     421A      1.515751   422A      1.517858   423A      1.520343  
     424A      1.523992   425A      1.527044   426A      1.533543  
     427A      1.542528   428A      1.546127   429A      1.549940  
     430A      1.554361   431A      1.559652   432A      1.564325  
     433A      1.567677   434A      1.577342   435A      1.581574  
     436A      1.588152   437A      1.593307   438A      1.601001  
     439A      1.602511   440A      1.609400   441A      1.612972  
     442A      1.619084   443A      1.623100   444A      1.626610  
     445A      1.633800   446A      1.639424   447A      1.643099  
     448A      1.651812   449A      1.660666   450A      1.666116  
     451A      1.667809   452A      1.674785   453A      1.679111  
     454A      1.684604   455A      1.686373   456A      1.693873  
     457A      1.703482   458A      1.708279   459A      1.711837  
     460A      1.717473   461A      1.720061   462A      1.727926  
     463A      1.728992   464A      1.735502   465A      1.741662  
     466A      1.749816   467A      1.751947   468A      1.755972  
     469A      1.758994   470A      1.767328   471A      1.769023  
     472A      1.771222   473A      1.776209   474A      1.782682  
     475A      1.785202   476A      1.799930   477A      1.806075  
     478A      1.814166   479A      1.816417   480A      1.823503  
     481A      1.826193   482A      1.827014   483A      1.839545  
     484A      1.846128   485A      1.853770   486A      1.856551  
     487A      1.863987   488A      1.865597   489A      1.872817  
     490A      1.875508   491A      1.882531   492A      1.882794  
     493A      1.889562   494A      1.904495   495A      1.915613  
     496A      1.920791   497A      1.923128   498A      1.934557  
     499A      1.939558   500A      1.943658   501A      1.961836  
     502A      1.967627   503A      1.971508   504A      1.974846  
     505A      1.978830   506A      1.982814   507A      1.994304  
     508A      1.998418   509A      2.008640   510A      2.011104  
     511A      2.018734   512A      2.026124   513A      2.029615  
     514A      2.045688   515A      2.050113   516A      2.058141  
     517A      2.071690   518A      2.073492   519A      2.079896  
     520A      2.085479   521A      2.089165   522A      2.097586  
     523A      2.103923   524A      2.108183   525A      2.117537  
     526A      2.118202   527A      2.129040   528A      2.130252  
     529A      2.143576   530A      2.149099   531A      2.154092  
     532A      2.157347   533A      2.166588   534A      2.170457  
     535A      2.185275   536A      2.191519   537A      2.207451  
     538A      2.212989   539A      2.219229   540A      2.223411  
     541A      2.228514   542A      2.232891   543A      2.242248  
     544A      2.247426   545A      2.260383   546A      2.269130  
     547A      2.271252   548A      2.282331   549A      2.282828  
     550A      2.288256   551A      2.303389   552A      2.305094  
     553A      2.309358   554A      2.313829   555A      2.315609  
     556A      2.323494   557A      2.330424   558A      2.337440  
     559A      2.338647   560A      2.347727   561A      2.353127  
     562A      2.357471   563A      2.367912   564A      2.373249  
     565A      2.380138   566A      2.384372   567A      2.396646  
     568A      2.400827   569A      2.408908   570A      2.414467  
     571A      2.418293   572A      2.419663   573A      2.423499  
     574A      2.429481   575A      2.444720   576A      2.454907  
     577A      2.460520   578A      2.465217   579A      2.469786  
     580A      2.476674   581A      2.483543   582A      2.494698  
     583A      2.501463   584A      2.516520   585A      2.518867  
     586A      2.523937   587A      2.539725   588A      2.542679  
     589A      2.544794   590A      2.560874   591A      2.566111  
     592A      2.575459   593A      2.585461   594A      2.588417  
     595A      2.596901   596A      2.602839   597A      2.610569  
     598A      2.616370   599A      2.622407   600A      2.623823  
     601A      2.640322   602A      2.646334   603A      2.651697  
     604A      2.654928   605A      2.667524   606A      2.674669  
     607A      2.680935   608A      2.685416   609A      2.697048  
     610A      2.701716   611A      2.714103   612A      2.718880  
     613A      2.721993   614A      2.732030   615A      2.738747  
     616A      2.745119   617A      2.751166   618A      2.758306  
     619A      2.767002   620A      2.771621   621A      2.776233  
     622A      2.779235   623A      2.781511   624A      2.787363  
     625A      2.792910   626A      2.805324   627A      2.808166  
     628A      2.810475   629A      2.818207   630A      2.827161  
     631A      2.837047   632A      2.853228   633A      2.864360  
     634A      2.868756   635A      2.871509   636A      2.878912  
     637A      2.884123   638A      2.891564   639A      2.898389  
     640A      2.913055   641A      2.915660   642A      2.934047  
     643A      2.953096   644A      2.968781   645A      2.970332  
     646A      2.991781   647A      2.993907   648A      2.999847  
     649A      3.010051   650A      3.019656   651A      3.034103  
     652A      3.044974   653A      3.048275   654A      3.061972  
     655A      3.076878   656A      3.092045   657A      3.094054  
     658A      3.102558   659A      3.113373   660A      3.134923  
     661A      3.138000   662A      3.143501   663A      3.149659  
     664A      3.162040   665A      3.174350   666A      3.193264  
     667A      3.215913   668A      3.217783   669A      3.237509  
     670A      3.249935   671A      3.259504   672A      3.272125  
     673A      3.280044   674A      3.289347   675A      3.297150  
     676A      3.304815   677A      3.308455   678A      3.352644  
     679A      3.360551   680A      3.364883   681A      3.371335  
     682A      3.371518   683A      3.392318   684A      3.413283  
     685A      3.419095   686A      3.422080   687A      3.429011  
     688A      3.457411   689A      3.469187   690A      3.486055  
     691A      3.514518   692A      3.519724   693A      3.531580  
     694A      3.553460   695A      3.564323   696A      3.585339  
     697A      3.592958   698A      3.600362   699A      3.603604  
     700A      3.607887   701A      3.620917   702A      3.638641  
     703A      3.650833   704A      3.660117   705A      3.664514  
     706A      3.685047   707A      3.699653   708A      3.705208  
     709A      3.717501   710A      3.721433   711A      3.737406  
     712A      3.744991   713A      3.749633   714A      3.756118  
     715A      3.759954   716A      3.796600   717A      3.808503  
     718A      3.823398   719A      3.840556   720A      3.844579  
     721A      3.847388   722A      3.863226   723A      3.874721  
     724A      3.891485   725A      3.893657   726A      3.905464  
     727A      3.910765   728A      3.914346   729A      3.926553  
     730A      3.931449   731A      3.935334   732A      3.971675  
     733A      3.986652   734A      3.997783   735A      4.005689  
     736A      4.007590   737A      4.024956   738A      4.036859  
     739A      4.041528   740A      4.051850   741A      4.067520  
     742A      4.068172   743A      4.078968   744A      4.086736  
     745A      4.094139   746A      4.106747   747A      4.112730  
     748A      4.115826   749A      4.124697   750A      4.136826  
     751A      4.141586   752A      4.161008   753A      4.166404  
     754A      4.173674   755A      4.183005   756A      4.188309  
     757A      4.194604   758A      4.212561   759A      4.220863  
     760A      4.223517   761A      4.236245   762A      4.242841  
     763A      4.245546   764A      4.247932   765A      4.252853  
     766A      4.258299   767A      4.271346   768A      4.282508  
     769A      4.301667   770A      4.306986   771A      4.312179  
     772A      4.319382   773A      4.325691   774A      4.335045  
     775A      4.342061   776A      4.357044   777A      4.360253  
     778A      4.361803   779A      4.382568   780A      4.385225  
     781A      4.396292   782A      4.404853   783A      4.411992  
     784A      4.427405   785A      4.441439   786A      4.452219  
     787A      4.454451   788A      4.480735   789A      4.487158  
     790A      4.495034   791A      4.497183   792A      4.510397  
     793A      4.512432   794A      4.518240   795A      4.525028  
     796A      4.542714   797A      4.554473   798A      4.567291  
     799A      4.579905   800A      4.582988   801A      4.585046  
     802A      4.602282   803A      4.608985   804A      4.616432  
     805A      4.623177   806A      4.628797   807A      4.650393  
     808A      4.651910   809A      4.656480   810A      4.664583  
     811A      4.674001   812A      4.684035   813A      4.695421  
     814A      4.718794   815A      4.729050   816A      4.735555  
     817A      4.753540   818A      4.775508   819A      4.779788  
     820A      4.784595   821A      4.787867   822A      4.790755  
     823A      4.804453   824A      4.811244   825A      4.812220  
     826A      4.830724   827A      4.841873   828A      4.852159  
     829A      4.874894   830A      4.877624   831A      4.883504  
     832A      4.893120   833A      4.902022   834A      4.906584  
     835A      4.916032   836A      4.926367   837A      4.939065  
     838A      4.954104   839A      4.955346   840A      4.966706  
     841A      4.977769   842A      4.982713   843A      4.990183  
     844A      4.990509   845A      5.004666   846A      5.016482  
     847A      5.018971   848A      5.025312   849A      5.032704  
     850A      5.042560   851A      5.053879   852A      5.058884  
     853A      5.080724   854A      5.092623   855A      5.111414  
     856A      5.124674   857A      5.140875   858A      5.149361  
     859A      5.152648   860A      5.161989   861A      5.170940  
     862A      5.175771   863A      5.186387   864A      5.198171  
     865A      5.211742   866A      5.232673   867A      5.244652  
     868A      5.252620   869A      5.259158   870A      5.270956  
     871A      5.276736   872A      5.289218   873A      5.307223  
     874A      5.308603   875A      5.327333   876A      5.336297  
     877A      5.337584   878A      5.352004   879A      5.354878  
     880A      5.370946   881A      5.383097   882A      5.424676  
     883A      5.430748   884A      5.438490   885A      5.441359  
     886A      5.464347   887A      5.469802   888A      5.476975  
     889A      5.482774   890A      5.484910   891A      5.492872  
     892A      5.508908   893A      5.516565   894A      5.520841  
     895A      5.538310   896A      5.546217   897A      5.549318  
     898A      5.555397   899A      5.570423   900A      5.587992  
     901A      5.591831   902A      5.601110   903A      5.608826  
     904A      5.624123   905A      5.627333   906A      5.633178  
     907A      5.640097   908A      5.643539   909A      5.653076  
     910A      5.664448   911A      5.688221   912A      5.691825  
     913A      5.703342   914A      5.711263   915A      5.744111  
     916A      5.747900   917A      5.753900   918A      5.789429  
     919A      5.790884   920A      5.794559   921A      5.810408  
     922A      5.832131   923A      5.836191   924A      5.855115  
     925A      5.864627   926A      5.866651   927A      5.877533  
     928A      5.884384   929A      5.905197   930A      5.918821  
     931A      5.934573   932A      5.941063   933A      5.956501  
     934A      5.990046   935A      5.997060   936A      6.003111  
     937A      6.017887   938A      6.027115   939A      6.047213  
     940A      6.060910   941A      6.069528   942A      6.081115  
     943A      6.086319   944A      6.103934   945A      6.111022  
     946A      6.121776   947A      6.144338   948A      6.169086  
     949A      6.191422   950A      6.195834   951A      6.208757  
     952A      6.218732   953A      6.220341   954A      6.238801  
     955A      6.280693   956A      6.305293   957A      6.308679  
     958A      6.323036   959A      6.340799   960A      6.368216  
     961A      6.402811   962A      6.409236   963A      6.421092  
     964A      6.425942   965A      6.482873   966A      6.505211  
     967A      6.527192   968A      6.542053   969A      6.553822  
     970A      6.564350   971A      6.575955   972A      6.578859  
     973A      6.599907   974A      6.607092   975A      6.639994  
     976A      6.663516   977A      6.688433   978A      6.703672  
     979A      6.707860   980A      6.715751   981A      6.720490  
     982A      6.737265   983A      6.753368   984A      6.781412  
     985A      6.789644   986A      6.798879   987A      6.829574  
     988A      6.837404   989A      6.845954   990A      6.870937  
     991A      6.886848   992A      6.892310   993A      6.924302  
     994A      6.961918   995A      6.976355   996A      7.003080  
     997A      7.007061   998A      7.008680   999A      7.015140  
    1000A      7.033386  1001A      7.079589  1002A      7.103752  
    1003A      7.111614  1004A      7.188988  1005A      7.222270  
    1006A      7.235187  1007A      7.241542  1008A      7.334662  
    1009A      7.350804  1010A      7.410320  1011A      7.418727  
    1012A      7.432750  1013A      7.442768  1014A      7.448579  
    1015A      7.460327  1016A      7.474577  1017A      7.487679  
    1018A      7.529553  1019A      7.537109  1020A      7.545646  
    1021A      7.588115  1022A      7.609889  1023A      7.616440  
    1024A      7.639460  1025A      7.654842  1026A      7.666564  
    1027A      7.693185  1028A      7.709171  1029A      7.737444  
    1030A      7.744282  1031A      7.759799  1032A      7.775566  
    1033A      7.827456  1034A      7.843948  1035A      7.848254  
    1036A      7.870553  1037A      7.895272  1038A      7.935362  
    1039A      7.952579  1040A      7.976686  1041A      7.987887  
    1042A      7.998349  1043A      8.024476  1044A      8.064768  
    1045A      8.067156  1046A      8.148536  1047A      8.185267  
    1048A      8.252740  1049A      8.332018  1050A      8.413798  
    1051A      8.580764  1052A      8.643235  1053A      8.695803  
    1054A      8.813509  1055A      8.875965  1056A      8.991660  
    1057A      9.135019  1058A      9.188359  1059A      9.387171  
    1060A      9.483843  1061A      9.529813  1062A      9.559115  
    1063A      9.603250  1064A      9.782577  1065A      9.948843  
    1066A     10.046389  1067A     10.135773  1068A     10.190366  
    1069A     10.302854  1070A     10.439670  1071A     10.779683  
    1072A     10.972566  1073A     11.124165  1074A     11.298107  
    1075A     11.395957  1076A     11.713320  1077A     11.799410  
    1078A     11.953909  1079A     11.977547  1080A     12.198883  
    1081A     12.445166  1082A     12.722885  1083A     12.967270  
    1084A     13.448212  1085A     14.071145  1086A     16.014949  
    1087A     16.310328  1088A     16.551222  1089A     16.805652  
    1090A     17.702377  1091A     18.172739  1092A     19.087026  
    1093A     19.305494  1094A     20.064212  1095A     20.614384  
    1096A     21.137477  1097A     51.211816  1098A     51.279699  
    1099A     53.530318  1100A     55.145439  1101A     59.881534  
    1102A     60.589196  1103A     63.604974  1104A     68.961497  

    Final Occupation by Irrep:
              A 
    DOCC [    39 ]

  @DF-RHF Final Energy:  -539.58423338440730

   => Energetics <=

    Nuclear Repulsion Energy =            593.8720937253790453
    One-Electron Energy =               -1913.3952908813530485
    Two-Electron Energy =                 779.9389637715667050
    Total Energy =                       -539.5842333844072982

Computation Completed


Properties will be evaluated at   0.000000,   0.000000,   0.000000 [a0]

Properties computed using the SCF density matrix

  Nuclear Dipole Moment: [e a0]
     X:  -108.0066      Y:   305.3635      Z:   218.6201

  Electronic Dipole Moment: [e a0]
     X:   105.6285      Y:  -307.2958      Z:  -218.4237

  Dipole Moment: [e a0]
     X:    -2.3781      Y:    -1.9323      Z:     0.1964     Total:     3.0705

  Dipole Moment: [D]
     X:    -6.0446      Y:    -4.9113      Z:     0.4991     Total:     7.8043


*** tstop() called on node158.bme.utexas.edu at Mon Jan 22 15:36:47 2024
Module time:
	user time   =    1100.35 seconds =      18.34 minutes
	system time =       7.14 seconds =       0.12 minutes
	total time  =        175 seconds =       2.92 minutes
Total time:
	user time   =    3632.56 seconds =      60.54 minutes
	system time =      45.59 seconds =       0.76 minutes
	total time  =        599 seconds =       9.98 minutes

*** tstart() called on node158.bme.utexas.edu
*** at Mon Jan 22 15:36:47 2024


  //>>>>>>>>>>>>>>>>>>>>>>>>>>>>>>>>>>>//
  //               DFMP2               //
  //<<<<<<<<<<<<<<<<<<<<<<<<<<<<<<<<<<<//

   => Loading Basis Set <=

    Name: (AUG-CC-PVTZ AUX)
    Role: RIFIT
    Keyword: DF_BASIS_MP2
    atoms 1, 3, 9, 14, 16, 20, 22, 24 entry N          line   206 file /opt/anaconda/envs/psi4v1.5/share/psi4/basis/aug-cc-pvtz-ri.gbs 
    atoms 2, 4-6, 15, 17-19, 21       entry C          line   148 file /opt/anaconda/envs/psi4v1.5/share/psi4/basis/aug-cc-pvtz-ri.gbs 
    atoms 7, 10-13, 23, 25-26, 28-29  entry H          line    30 file /opt/anaconda/envs/psi4v1.5/share/psi4/basis/aug-cc-pvtz-ri.gbs 
    atoms 8, 27                       entry O          line   264 file /opt/anaconda/envs/psi4v1.5/share/psi4/basis/aug-cc-pvtz-ri.gbs 

	 --------------------------------------------------------
	                          DF-MP2                         
	      2nd-Order Density-Fitted Moller-Plesset Theory     
	              RMP2 Wavefunction,   8 Threads             
	                                                         
	        Rob Parrish, Justin Turney, Andy Simmonett,      
	           Ed Hohenstein, and C. David Sherrill          
	 --------------------------------------------------------

   => Auxiliary Basis Set <=

  Basis Set: (AUG-CC-PVTZ AUX)
    Blend: AUG-CC-PVTZ-RI
    Number of shells: 672
    Number of basis functions: 2474
    Number of Cartesian functions: 3134
    Spherical Harmonics?: true
    Max angular momentum: 4

	 --------------------------------------------------------
	                 NBF =  1104, NAUX =  2474
	 --------------------------------------------------------
	   CLASS    FOCC     OCC    AOCC    AVIR     VIR    FVIR
	   PAIRS      11      39      28    1065    1065       0
	 --------------------------------------------------------

	 Will attempt to load fitting metric from file 97.

	-----------------------------------------------------------
	 ==================> DF-MP2 Energies <==================== 
	-----------------------------------------------------------
	 Reference Energy          =    -539.5842333844072982 [Eh]
	 Singles Energy            =      -0.0000000000000000 [Eh]
	 Same-Spin Energy          =      -0.5419538556911687 [Eh]
	 Opposite-Spin Energy      =      -1.4966395065426532 [Eh]
	 Correlation Energy        =      -2.0385933622338221 [Eh]
	 Total Energy              =    -541.6228267466410671 [Eh]
	-----------------------------------------------------------
	 ================> DF-SCS-MP2 Energies <================== 
	-----------------------------------------------------------
	 SCS Same-Spin Scale       =       0.3333333333333333 [-]
	 SCS Opposite-Spin Scale   =       1.2000000000000000 [-]
	 SCS Same-Spin Energy      =      -0.1806512852303896 [Eh]
	 SCS Opposite-Spin Energy  =      -1.7959674078511838 [Eh]
	 SCS Correlation Energy    =      -1.9766186930815735 [Eh]
	 SCS Total Energy          =    -541.5608520774889030 [Eh]
	-----------------------------------------------------------


*** tstop() called on node158.bme.utexas.edu at Mon Jan 22 15:37:22 2024
Module time:
	user time   =     189.04 seconds =       3.15 minutes
	system time =       4.46 seconds =       0.07 minutes
	total time  =         35 seconds =       0.58 minutes
Total time:
	user time   =    3821.61 seconds =      63.69 minutes
	system time =      50.05 seconds =       0.83 minutes
	total time  =        634 seconds =      10.57 minutes
  Constructing Basis Sets for SAPT...

   => Loading Basis Set <=

    Name: (AUG-CC-PVTZ AUX)
    Role: RIFIT
    Keyword: DF_BASIS_SAPT
    atoms 1, 3, 9, 14, 16, 20, 22, 24 entry N          line   206 file /opt/anaconda/envs/psi4v1.5/share/psi4/basis/aug-cc-pvtz-ri.gbs 
    atoms 2, 4-6, 15, 17-19, 21       entry C          line   148 file /opt/anaconda/envs/psi4v1.5/share/psi4/basis/aug-cc-pvtz-ri.gbs 
    atoms 7, 10-13, 23, 25-26, 28-29  entry H          line    30 file /opt/anaconda/envs/psi4v1.5/share/psi4/basis/aug-cc-pvtz-ri.gbs 
    atoms 8, 27                       entry O          line   264 file /opt/anaconda/envs/psi4v1.5/share/psi4/basis/aug-cc-pvtz-ri.gbs 


  //>>>>>>>>>>>>>>>>>>>>>>>>>>>>>>>>>>>//
  //           SAPT2+(3)DMP2           //
  //<<<<<<<<<<<<<<<<<<<<<<<<<<<<<<<<<<<//


*** tstart() called on node158.bme.utexas.edu
*** at Mon Jan 22 15:37:22 2024

      SAPT2+(3)  
    Ed Hohenstein
     6 June 2009

      Orbital Information
  --------------------------
    NSO        =      1104
    NMO        =      1104
    NRI        =      2474
    NOCC A     =        29
    NOCC B     =        39
    FOCC A     =         8
    FOCC B     =        11
    NVIR A     =      1075
    NVIR B     =      1065

    Estimated memory usage: 65057.1 MB

    Natural Orbital Cutoff:   1.000E-06
    Disp(T3) Truncation:            Yes
    CCD (vv|vv) Truncation:         Yes
    MBPT T2 Truncation:             Yes

    Monomer A: 666 virtual orbitals dropped
    Monomer B: 539 virtual orbitals dropped

    Elst10,r            =    -0.003729597084 [Eh]
    Exch10 (S^2)        =     0.000466048544 [Eh]
    Exch10              =     0.000466161634 [Eh]
    Ind20,r (A<-B)      =    -0.000365491750 [Eh]
    Ind20,r (B<-A)      =    -0.000609008348 [Eh]
    Ind20,r             =    -0.000974500098 [Eh]
    Exch-Ind20,r (A<-B) =     0.000064303995 [Eh]
    Exch-Ind20,r (B<-A) =     0.000075475941 [Eh]
    Exch-Ind20,r        =     0.000139779935 [Eh]
    Disp20              =    -0.002676437792 [Eh]
    Disp20 (NO)         =    -0.002532166612 [Eh]
    Exch-Disp20         =     0.000085542759 [Eh]
    Elst12,r            =     0.000949115093 [Eh]
    Exch11              =    -0.000011475741 [Eh]
    Exch12              =     0.000132743333 [Eh]
    Ind22               =     0.000013089652 [Eh]
    Disp21              =     0.000610693986 [Eh]
    Disp22 (SDQ)        =    -0.000085487016 [Eh]

    (i =   1 of  28)       1598 seconds
    (i =   2 of  28)       3235 seconds
    (i =   3 of  28)       5118 seconds
    (i =   4 of  28)       7061 seconds
    (i =   5 of  28)       9037 seconds
    (i =   6 of  28)      11017 seconds
    (i =   7 of  28)      13008 seconds
    (i =   8 of  28)      15014 seconds
    (i =   9 of  28)      17019 seconds
    (i =  10 of  28)      19023 seconds
    (i =  11 of  28)      21029 seconds
    (i =  12 of  28)      23032 seconds
    (i =  13 of  28)      25037 seconds
    (i =  14 of  28)      27041 seconds
    (i =  15 of  28)      29042 seconds
    (i =  16 of  28)      31042 seconds
    (i =  17 of  28)      33043 seconds
    (i =  18 of  28)      35043 seconds
    (i =  19 of  28)      37057 seconds
    (i =  20 of  28)      39070 seconds
    (i =  21 of  28)      41083 seconds
    (i =  22 of  28)      43093 seconds
    (i =  23 of  28)      45106 seconds
    (i =  24 of  28)      47119 seconds
    (i =  25 of  28)      49131 seconds
    (i =  26 of  28)      51143 seconds
    (i =  27 of  28)      53155 seconds
    (i =  28 of  28)      55166 seconds

    Disp220 (T)         =    -0.000332948576 [Eh]

    (i =   1 of  21)       3741 seconds
    (i =   2 of  21)       7511 seconds
    (i =   3 of  21)      11277 seconds
    (i =   4 of  21)      15051 seconds
    (i =   5 of  21)      18851 seconds
    (i =   6 of  21)      22688 seconds
    (i =   7 of  21)      26514 seconds
    (i =   8 of  21)      30349 seconds
    (i =   9 of  21)      34159 seconds
    (i =  10 of  21)      37973 seconds
    (i =  11 of  21)      41793 seconds
    (i =  12 of  21)      45599 seconds
    (i =  13 of  21)      49421 seconds
    (i =  14 of  21)      53252 seconds
    (i =  15 of  21)      57079 seconds
    (i =  16 of  21)      60906 seconds
    (i =  17 of  21)      64734 seconds
    (i =  18 of  21)      68555 seconds
    (i =  19 of  21)      72374 seconds
    (i =  20 of  21)      76198 seconds
    (i =  21 of  21)      80032 seconds

    Disp202 (T)         =    -0.000318983121 [Eh]

    Disp22 (T)          =    -0.000651931697 [Eh]

    Est. Disp220 (T)    =    -0.000351918451 [Eh]
    Est. Disp202 (T)    =    -0.000337157309 [Eh]

    Est. Disp22 (T)     =    -0.000689075760 [Eh]
    Elst13,r            =    -0.000367972115 [Eh]
    Disp30              =     0.000027027962 [Eh]

    SAPT Results 
  --------------------------------------------------------------------------------------------------------
    Electrostatics                 -3.14845411 [mEh]      -1.97568478 [kcal/mol]      -8.26626512 [kJ/mol]
      Elst10,r                     -3.72959708 [mEh]      -2.34035750 [kcal/mol]      -9.79205580 [kJ/mol]
      Elst12,r                      0.94911509 [mEh]       0.59557871 [kcal/mol]       2.49190133 [kJ/mol]
      Elst13,r                     -0.36797212 [mEh]      -0.23090599 [kcal/mol]      -0.96611066 [kJ/mol]

    Exchange                        0.58742923 [mEh]       0.36861740 [kcal/mol]       1.54229522 [kJ/mol]
      Exch10                        0.46616163 [mEh]       0.29252084 [kcal/mol]       1.22390720 [kJ/mol]
      Exch10(S^2)                   0.46604854 [mEh]       0.29244988 [kcal/mol]       1.22361028 [kJ/mol]
      Exch11(S^2)                  -0.01147574 [mEh]      -0.00720114 [kcal/mol]      -0.03012955 [kJ/mol]
      Exch12(S^2)                   0.13274333 [mEh]       0.08329770 [kcal/mol]       0.34851757 [kJ/mol]

    Induction                      -0.78356828 [mEh]      -0.49169652 [kcal/mol]      -2.05725825 [kJ/mol]
      Ind20,r                      -0.97450010 [mEh]      -0.61150804 [kcal/mol]      -2.55854966 [kJ/mol]
      Ind22                         0.01308965 [mEh]       0.00821388 [kcal/mol]       0.03436688 [kJ/mol]
      Exch-Ind20,r                  0.13977994 [mEh]       0.08771323 [kcal/mol]       0.36699217 [kJ/mol]
      Exch-Ind22                   -0.00187755 [mEh]      -0.00117818 [kcal/mol]      -0.00492950 [kJ/mol]
      delta HF,r (2)               -0.08100832 [mEh]      -0.05083349 [kcal/mol]      -0.21268731 [kJ/mol]
      delta MP2,r (2)               0.12094809 [mEh]       0.07589607 [kcal/mol]       0.31754917 [kJ/mol]

    Dispersion                     -2.72773586 [mEh]      -1.71168009 [kcal/mol]      -7.16166952 [kJ/mol]
      Disp20                       -2.67643779 [mEh]      -1.67949007 [kcal/mol]      -7.02698645 [kJ/mol]
      Disp30                        0.02702796 [mEh]       0.01696030 [kcal/mol]       0.07096190 [kJ/mol]
      Disp21                        0.61069399 [mEh]       0.38321626 [kcal/mol]       1.60337684 [kJ/mol]
      Disp22 (SDQ)                 -0.08548702 [mEh]      -0.05364391 [kcal/mol]      -0.22444613 [kJ/mol]
      Disp22 (T)                   -0.65193170 [mEh]      -0.40909332 [kcal/mol]      -1.71164644 [kJ/mol]
      Est. Disp22 (T)              -0.68907576 [mEh]      -0.43240157 [kcal/mol]      -1.80916816 [kJ/mol]
      Exch-Disp20                   0.08554276 [mEh]       0.05367889 [kcal/mol]       0.22459248 [kJ/mol]

  Total HF                         -4.17916393 [mEh]      -2.62246496 [kcal/mol]     -10.97239339 [kJ/mol]
  Total SAPT0                      -6.77005896 [mEh]      -4.24827614 [kcal/mol]     -17.77478736 [kJ/mol]
  Total SAPT2                      -5.68846417 [mEh]      -3.56956516 [kcal/mol]     -14.93506063 [kJ/mol]
  Total SAPT2+                     -5.85233297 [mEh]      -3.67239438 [kcal/mol]     -15.36529808 [kJ/mol]
  Total SAPT2+(3)                  -6.19327712 [mEh]      -3.88634007 [kcal/mol]     -16.26044683 [kJ/mol]
  Total SAPT2+dMP2                 -5.73138487 [mEh]      -3.59649831 [kcal/mol]     -15.04774891 [kJ/mol]
  Total SAPT2+(3)dMP2              -6.07232903 [mEh]      -3.81044399 [kcal/mol]     -15.94289766 [kJ/mol]

  Special recipe for scaled SAPT0 (see Manual):
    Electrostatics sSAPT0          -3.72959708 [mEh]      -2.34035750 [kcal/mol]      -9.79205580 [kJ/mol]
    Exchange sSAPT0                 0.46616163 [mEh]       0.29252084 [kcal/mol]       1.22390720 [kJ/mol]
    Induction sSAPT0               -0.91562670 [mEh]      -0.57456443 [kcal/mol]      -2.40397757 [kJ/mol]
    Dispersion sSAPT0              -2.59083274 [mEh]      -1.62577209 [kcal/mol]      -6.80223043 [kJ/mol]
  Total sSAPT0                     -6.76989489 [mEh]      -4.24817318 [kcal/mol]     -17.77435660 [kJ/mol]
  --------------------------------------------------------------------------------------------------------

*** tstop() called on node158.bme.utexas.edu at Wed Jan 24 13:15:34 2024
Module time:
	user time   =  853119.64 seconds =   14218.66 minutes
	system time =    3422.89 seconds =      57.05 minutes
	total time  =     164292 seconds =    2738.20 minutes
Total time:
	user time   =  856941.96 seconds =   14282.37 minutes
	system time =    3472.94 seconds =      57.88 minutes
	total time  =     164926 seconds =    2748.77 minutes

    Psi4 stopped on: Wednesday, 24 January 2024 01:15PM
    Psi4 wall time for execution: 1 day, 21:48:46.02

*** Psi4 exiting successfully. Buy a developer a beer!
