
    -----------------------------------------------------------------------
          Psi4: An Open-Source Ab Initio Electronic Structure Package
                               Psi4 1.5 release

                         Git: Rev {HEAD} e9f4d6d 


    D. G. A. Smith, L. A. Burns, A. C. Simmonett, R. M. Parrish,
    M. C. Schieber, R. Galvelis, P. Kraus, H. Kruse, R. Di Remigio,
    A. Alenaizan, A. M. James, S. Lehtola, J. P. Misiewicz, M. Scheurer,
    R. A. Shaw, J. B. Schriber, Y. Xie, Z. L. Glick, D. A. Sirianni,
    J. S. O'Brien, J. M. Waldrop, A. Kumar, E. G. Hohenstein,
    B. P. Pritchard, B. R. Brooks, H. F. Schaefer III, A. Yu. Sokolov,
    K. Patkowski, A. E. DePrince III, U. Bozkaya, R. A. King,
    F. A. Evangelista, J. M. Turney, T. D. Crawford, C. D. Sherrill,
    J. Chem. Phys. 152(18) 184108 (2020). https://doi.org/10.1063/5.0006002

                            Additional Code Authors
    E. T. Seidl, C. L. Janssen, E. F. Valeev, M. L. Leininger,
    J. F. Gonthier, R. M. Richard, H. R. McAlexander, M. Saitow, X. Wang,
    P. Verma, M. H. Lechner, and A. Jiang

             Previous Authors, Complete List of Code Contributors,
                       and Citations for Specific Modules
    https://github.com/psi4/psi4/blob/master/codemeta.json
    https://github.com/psi4/psi4/graphs/contributors
    http://psicode.org/psi4manual/master/introduction.html#citing-psifour

    -----------------------------------------------------------------------


    Psi4 started on: Sunday, 12 May 2024 11:43PM

    Process ID: 1575489
    Host:       node45.bme.utexas.edu
    PSIDATADIR: /opt/anaconda/envs/psi4v1.5/share/psi4
    Memory:     500.0 MiB
    Threads:    8
    
  ==> Input File <==

--------------------------------------------------------------------------
memory 90GB

molecule {
0 1
N -0.892798 0.641213 -0.000177
C -2.178983 1.129399 -0.000138
N -2.468274 2.425461 -7.7e-05
C -1.363696 3.200471 -5.8e-05
C -0.014974 2.816806 -9.2e-05
C 0.279491 1.416691 -0.000154
N 0.8152 3.928228 -5.6e-05
C -0.0 4.951862 0.0
N -1.336777 4.573395 -0.0
H -0.745051 -0.38547 -0.000222
N -3.173589 0.213779 -0.000162
H -2.999709 -0.796316 -0.000206
H -4.117404 0.565463 -0.000136
O 1.38905 0.85623 -0.000185
H 0.294954 5.996323 3.7e-05
H -2.147795 5.175782 3.4e-05
--
0 1
N -1.018123 0.316785 3.46775
C -2.348709 -0.020009 3.561067
N -3.327676 0.876213 3.604398
C -2.869242 2.143986 3.546748
C -1.547448 2.602244 3.45131
C -0.504634 1.62373 3.405686
N -1.505968 3.988467 3.417942
C -2.758533 4.360204 3.490539
N -3.63389 3.284327 3.570842
H -0.30915 -0.439802 3.438752
N -2.636726 -1.339994 3.608879
H -1.915905 -2.068019 3.578485
H -3.609369 -1.592505 3.67723
O 0.723052 1.800123 3.322568
H -3.115986 5.384959 3.490913
H -4.641677 3.313306 3.635228
 units angstrom
 no_reorient
 symmetry c1}
set  {scf_type DF
 basis aug-cc-pvdz
 freeze_core True
 guess SAD}
energy('sapt2+(3)dmp2')
--------------------------------------------------------------------------

  Memory set to  83.819 GiB by Python driver.

Scratch directory: /tmp/
   => Loading Basis Set <=

    Name: AUG-CC-PVDZ
    Role: ORBITAL
    Keyword: BASIS
    atoms 1, 3, 7, 9, 11, 17, 19, 23, 25, 27 entry N          line   218 file /opt/anaconda/envs/psi4v1.5/share/psi4/basis/aug-cc-pvdz.gbs 
    atoms 2, 4-6, 8, 18, 20-22, 24           entry C          line   182 file /opt/anaconda/envs/psi4v1.5/share/psi4/basis/aug-cc-pvdz.gbs 
    atoms 10, 12-13, 15-16, 26, 28-29, 31-32 entry H          line    40 file /opt/anaconda/envs/psi4v1.5/share/psi4/basis/aug-cc-pvdz.gbs 
    atoms 14, 30                             entry O          line   254 file /opt/anaconda/envs/psi4v1.5/share/psi4/basis/aug-cc-pvdz.gbs 

   => Loading Basis Set <=

    Name: AUG-CC-PVDZ
    Role: ORBITAL
    Keyword: BASIS
    atoms 1, 3, 7, 9, 11, 17, 19, 23, 25, 27 entry N          line   218 file /opt/anaconda/envs/psi4v1.5/share/psi4/basis/aug-cc-pvdz.gbs 
    atoms 2, 4-6, 8, 18, 20-22, 24           entry C          line   182 file /opt/anaconda/envs/psi4v1.5/share/psi4/basis/aug-cc-pvdz.gbs 
    atoms 10, 12-13, 15-16, 26, 28-29, 31-32 entry H          line    40 file /opt/anaconda/envs/psi4v1.5/share/psi4/basis/aug-cc-pvdz.gbs 
    atoms 14, 30                             entry O          line   254 file /opt/anaconda/envs/psi4v1.5/share/psi4/basis/aug-cc-pvdz.gbs 


  //>>>>>>>>>>>>>>>>>>>>>>>>>>>>>>>>>>>//
  //              Dimer HF             //
  //<<<<<<<<<<<<<<<<<<<<<<<<<<<<<<<<<<<//


*** tstart() called on node45.bme.utexas.edu
*** at Sun May 12 23:43:01 2024

   => Loading Basis Set <=

    Name: AUG-CC-PVDZ
    Role: ORBITAL
    Keyword: BASIS
    atoms 1, 3, 7, 9, 11, 17, 19, 23, 25, 27 entry N          line   218 file /opt/anaconda/envs/psi4v1.5/share/psi4/basis/aug-cc-pvdz.gbs 
    atoms 2, 4-6, 8, 18, 20-22, 24           entry C          line   182 file /opt/anaconda/envs/psi4v1.5/share/psi4/basis/aug-cc-pvdz.gbs 
    atoms 10, 12-13, 15-16, 26, 28-29, 31-32 entry H          line    40 file /opt/anaconda/envs/psi4v1.5/share/psi4/basis/aug-cc-pvdz.gbs 
    atoms 14, 30                             entry O          line   254 file /opt/anaconda/envs/psi4v1.5/share/psi4/basis/aug-cc-pvdz.gbs 


         ---------------------------------------------------------
                                   SCF
               by Justin Turney, Rob Parrish, Andy Simmonett
                          and Daniel G. A. Smith
                              RHF Reference
                        8 Threads,  85830 MiB Core
         ---------------------------------------------------------

  ==> Geometry <==

    Molecular point group: c1
    Full point group: C1

    Geometry (in Angstrom), charge = 0, multiplicity = 1:

       Center              X                  Y                   Z               Mass       
    ------------   -----------------  -----------------  -----------------  -----------------
         N            0.490679649134    -1.388696969454    -1.747898982854    14.003074004430
         C           -0.795505350866    -0.900510969454    -1.747859982854    12.000000000000
         N           -1.084796350866     0.395551030546    -1.747798982854    14.003074004430
         C            0.019781649134     1.170561030546    -1.747779982854    12.000000000000
         C            1.368503649134     0.786896030546    -1.747813982854    12.000000000000
         C            1.662968649134    -0.613218969454    -1.747875982854    12.000000000000
         N            2.198677649134     1.898318030546    -1.747777982854    14.003074004430
         C            1.383477649134     2.921952030546    -1.747721982854    12.000000000000
         N            0.046700649134     2.543485030546    -1.747721982854    14.003074004430
         H            0.638426649134    -2.415379969454    -1.747943982854     1.007825032230
         N           -1.790111350866    -1.816130969454    -1.747883982854    14.003074004430
         H           -1.616231350866    -2.826225969454    -1.747927982854     1.007825032230
         H           -2.733926350866    -1.464446969454    -1.747857982854     1.007825032230
         O            2.772527649134    -1.173679969454    -1.747906982854    15.994914619570
         H            1.678431649134     3.966413030546    -1.747684982854     1.007825032230
         H           -0.764317350866     3.145872030546    -1.747687982854     1.007825032230
         N            0.365354649134    -1.713124969454     1.720028017146    14.003074004430
         C           -0.965231350866    -2.049918969454     1.813345017146    12.000000000000
         N           -1.944198350866    -1.153696969454     1.856676017146    14.003074004430
         C           -1.485764350866     0.114076030546     1.799026017146    12.000000000000
         C           -0.163970350866     0.572334030546     1.703588017146    12.000000000000
         C            0.878843649134    -0.406179969454     1.657964017146    12.000000000000
         N           -0.122490350866     1.958557030546     1.670220017146    14.003074004430
         C           -1.375055350866     2.330294030546     1.742817017146    12.000000000000
         N           -2.250412350866     1.254417030546     1.823120017146    14.003074004430
         H            1.074327649134    -2.469711969454     1.691030017146     1.007825032230
         N           -1.253248350866    -3.369903969454     1.861157017146    14.003074004430
         H           -0.532427350866    -4.097928969454     1.830763017146     1.007825032230
         H           -2.225891350866    -3.622414969454     1.929508017146     1.007825032230
         O            2.106529649134    -0.229786969454     1.574846017146    15.994914619570
         H           -1.732508350866     3.355049030546     1.743191017146     1.007825032230
         H           -3.258199350866     1.283396030546     1.887506017146     1.007825032230

  Running in c1 symmetry.

  Rotational constants: A =      0.01366  B =      0.00990  C =      0.00836 [cm^-1]
  Rotational constants: A =    409.60923  B =    296.80008  C =    250.74160 [MHz]
  Nuclear repulsion = 1888.611738045665788

  Charge       = 0
  Multiplicity = 1
  Electrons    = 156
  Nalpha       = 78
  Nbeta        = 78

  ==> Algorithm <==

  SCF Algorithm Type is DF.
  DIIS enabled.
  MOM disabled.
  Fractional occupation disabled.
  Guess Type is SAD.
  Energy threshold   = 1.00e-08
  Density threshold  = 1.00e-08
  Integral threshold = 1.00e-12

  ==> Primary Basis <==

  Basis Set: AUG-CC-PVDZ
    Blend: AUG-CC-PVDZ
    Number of shells: 248
    Number of basis functions: 596
    Number of Cartesian functions: 640
    Spherical Harmonics?: true
    Max angular momentum: 2

   => Loading Basis Set <=

    Name: (AUG-CC-PVDZ AUX)
    Role: JKFIT
    Keyword: DF_BASIS_SCF
    atoms 1, 3, 7, 9, 11, 17, 19, 23, 25, 27 entry N          line   212 file /opt/anaconda/envs/psi4v1.5/share/psi4/basis/aug-cc-pvdz-jkfit.gbs 
    atoms 2, 4-6, 8, 18, 20-22, 24           entry C          line   154 file /opt/anaconda/envs/psi4v1.5/share/psi4/basis/aug-cc-pvdz-jkfit.gbs 
    atoms 10, 12-13, 15-16, 26, 28-29, 31-32 entry H          line    70 file /opt/anaconda/envs/psi4v1.5/share/psi4/basis/aug-cc-pvdz-jkfit.gbs 
    atoms 14, 30                             entry O          line   270 file /opt/anaconda/envs/psi4v1.5/share/psi4/basis/aug-cc-pvdz-jkfit.gbs 

  ==> Integral Setup <==

  ==> DiskDFJK: Density-Fitted J/K Matrices <==

    J tasked:                  Yes
    K tasked:                  Yes
    wK tasked:                  No
    OpenMP threads:              8
    Integrals threads:           8
    Memory [MiB]:            64373
    Algorithm:                Core
    Integral Cache:           SAVE
    Schwarz Cutoff:          1E-12
    Fitting Condition:       1E-10

   => Auxiliary Basis Set <=

  Basis Set: (AUG-CC-PVDZ AUX)
    Blend: AUG-CC-PVDZ-JKFIT
    Number of shells: 736
    Number of basis functions: 2212
    Number of Cartesian functions: 2572
    Spherical Harmonics?: true
    Max angular momentum: 3

  Minimum eigenvalue in the overlap matrix is 2.1936685264E-06.
  Reciprocal condition number of the overlap matrix is 1.1123886333E-07.
    Using symmetric orthogonalization.

  ==> Pre-Iterations <==

  SCF Guess: Superposition of Atomic Densities via on-the-fly atomic UHF (no occupation information).

   -------------------------
    Irrep   Nso     Nmo    
   -------------------------
     A        596     596 
   -------------------------
    Total     596     596
   -------------------------

  ==> Iterations <==

                           Total Energy        Delta E     RMS |[F,P]|

   @DF-RHF iter SAD: -1078.60915704438139   -1.07861e+03   0.00000e+00 
   @DF-RHF iter   1: -1078.28870456600475    3.20452e-01   1.84600e-03 DIIS
   @DF-RHF iter   2: -1078.73557443966024   -4.46870e-01   1.11903e-03 DIIS
   @DF-RHF iter   3: -1078.91044482646157   -1.74870e-01   2.44396e-04 DIIS
   @DF-RHF iter   4: -1078.92170146768126   -1.12566e-02   9.52522e-05 DIIS
   @DF-RHF iter   5: -1078.92371165297504   -2.01019e-03   2.14128e-05 DIIS
   @DF-RHF iter   6: -1078.92390989595333   -1.98243e-04   1.15400e-05 DIIS
   @DF-RHF iter   7: -1078.92397363279088   -6.37368e-05   4.58689e-06 DIIS
   @DF-RHF iter   8: -1078.92398484499950   -1.12122e-05   1.63981e-06 DIIS
   @DF-RHF iter   9: -1078.92398615091429   -1.30591e-06   6.21938e-07 DIIS
   @DF-RHF iter  10: -1078.92398637054839   -2.19634e-07   2.79164e-07 DIIS
   @DF-RHF iter  11: -1078.92398640799615   -3.74478e-08   1.17685e-07 DIIS
   @DF-RHF iter  12: -1078.92398641459567   -6.59952e-09   3.53076e-08 DIIS
   @DF-RHF iter  13: -1078.92398641529371   -6.98037e-10   1.57376e-08 DIIS
   @DF-RHF iter  14: -1078.92398641541945   -1.25738e-10   5.59171e-09 DIIS
  Energy and wave function converged.


  ==> Post-Iterations <==

    Orbital Energies [Eh]
    ---------------------

    Doubly Occupied:                                                      

       1A    -20.519476     2A    -20.509599     3A    -15.644301  
       4A    -15.637422     5A    -15.636687     6A    -15.635307  
       7A    -15.623954     8A    -15.619578     9A    -15.578931  
      10A    -15.571804    11A    -15.566424    12A    -15.552073  
      13A    -11.416051    14A    -11.403605    15A    -11.366097  
      16A    -11.355658    17A    -11.332789    18A    -11.318396  
      19A    -11.316783    20A    -11.299891    21A    -11.250459  
      22A    -11.234973    23A     -1.391944    24A     -1.380120  
      25A     -1.352817    26A     -1.337888    27A     -1.337505  
      28A     -1.324709    29A     -1.234083    30A     -1.222483  
      31A     -1.221415    32A     -1.209361    33A     -1.177254  
      34A     -1.159682    35A     -1.032238    36A     -1.016799  
      37A     -0.908009    38A     -0.898653    39A     -0.894114  
      40A     -0.886215    41A     -0.839848    42A     -0.822561  
      43A     -0.808898    44A     -0.795727    45A     -0.749395  
      46A     -0.743463    47A     -0.736949    48A     -0.729629  
      49A     -0.715551    50A     -0.702775    51A     -0.671631  
      52A     -0.667395    53A     -0.657582    54A     -0.640536  
      55A     -0.637845    56A     -0.623211    57A     -0.605943  
      58A     -0.602072    59A     -0.594519    60A     -0.590471  
      61A     -0.582989    62A     -0.581718    63A     -0.549252  
      64A     -0.528252    65A     -0.496966    66A     -0.482013  
      67A     -0.458557    68A     -0.444840    69A     -0.435485  
      70A     -0.430814    71A     -0.421602    72A     -0.420839  
      73A     -0.413977    74A     -0.409348    75A     -0.405986  
      76A     -0.388254    77A     -0.295192    78A     -0.279747  

    Virtual:                                                              

      79A      0.006154    80A      0.021239    81A      0.028154  
      82A      0.032280    83A      0.040689    84A      0.046261  
      85A      0.056410    86A      0.059097    87A      0.064779  
      88A      0.072264    89A      0.073894    90A      0.086824  
      91A      0.095275    92A      0.100434    93A      0.105698  
      94A      0.109630    95A      0.114446    96A      0.119474  
      97A      0.120821    98A      0.125779    99A      0.126661  
     100A      0.128238   101A      0.134183   102A      0.136328  
     103A      0.138931   104A      0.141251   105A      0.143845  
     106A      0.144556   107A      0.149126   108A      0.155801  
     109A      0.156480   110A      0.158302   111A      0.160208  
     112A      0.167019   113A      0.169290   114A      0.174036  
     115A      0.174349   116A      0.177823   117A      0.181511  
     118A      0.182792   119A      0.188351   120A      0.191532  
     121A      0.199735   122A      0.205884   123A      0.207354  
     124A      0.209448   125A      0.213588   126A      0.215767  
     127A      0.217329   128A      0.224275   129A      0.227900  
     130A      0.233816   131A      0.236519   132A      0.238724  
     133A      0.244230   134A      0.251664   135A      0.261143  
     136A      0.264207   137A      0.264961   138A      0.270408  
     139A      0.273699   140A      0.275947   141A      0.278769  
     142A      0.282189   143A      0.287598   144A      0.289902  
     145A      0.292033   146A      0.297591   147A      0.298689  
     148A      0.303100   149A      0.309374   150A      0.310786  
     151A      0.313652   152A      0.320459   153A      0.322821  
     154A      0.327145   155A      0.330638   156A      0.331764  
     157A      0.338024   158A      0.343891   159A      0.347290  
     160A      0.349175   161A      0.352620   162A      0.356366  
     163A      0.359712   164A      0.364450   165A      0.365730  
     166A      0.372353   167A      0.373621   168A      0.375065  
     169A      0.380007   170A      0.382932   171A      0.389421  
     172A      0.391063   173A      0.395928   174A      0.396772  
     175A      0.400083   176A      0.405466   177A      0.409555  
     178A      0.413251   179A      0.417143   180A      0.420905  
     181A      0.421764   182A      0.429475   183A      0.431390  
     184A      0.434410   185A      0.437275   186A      0.442949  
     187A      0.447895   188A      0.453669   189A      0.455540  
     190A      0.457044   191A      0.459077   192A      0.460751  
     193A      0.463148   194A      0.472870   195A      0.475198  
     196A      0.479805   197A      0.484041   198A      0.488791  
     199A      0.492179   200A      0.497888   201A      0.500434  
     202A      0.506898   203A      0.510682   204A      0.512324  
     205A      0.523704   206A      0.527874   207A      0.529736  
     208A      0.534238   209A      0.538182   210A      0.541843  
     211A      0.544223   212A      0.553942   213A      0.555769  
     214A      0.561934   215A      0.567034   216A      0.570577  
     217A      0.573151   218A      0.579155   219A      0.584752  
     220A      0.589836   221A      0.594022   222A      0.597193  
     223A      0.607381   224A      0.611154   225A      0.612148  
     226A      0.616098   227A      0.626424   228A      0.627841  
     229A      0.636919   230A      0.639041   231A      0.642816  
     232A      0.646929   233A      0.652670   234A      0.659123  
     235A      0.663187   236A      0.667180   237A      0.669899  
     238A      0.679845   239A      0.683046   240A      0.685217  
     241A      0.693261   242A      0.693591   243A      0.696106  
     244A      0.701802   245A      0.710310   246A      0.711783  
     247A      0.713342   248A      0.718693   249A      0.725736  
     250A      0.731753   251A      0.734558   252A      0.735478  
     253A      0.739696   254A      0.743181   255A      0.749343  
     256A      0.752523   257A      0.758947   258A      0.762694  
     259A      0.767223   260A      0.774489   261A      0.781960  
     262A      0.783162   263A      0.793511   264A      0.796125  
     265A      0.800790   266A      0.806361   267A      0.808056  
     268A      0.811388   269A      0.819008   270A      0.823937  
     271A      0.833260   272A      0.838816   273A      0.839775  
     274A      0.847873   275A      0.855809   276A      0.866347  
     277A      0.869699   278A      0.874263   279A      0.877995  
     280A      0.881259   281A      0.890992   282A      0.891189  
     283A      0.895016   284A      0.898678   285A      0.902930  
     286A      0.912980   287A      0.917504   288A      0.919629  
     289A      0.930010   290A      0.939827   291A      0.942676  
     292A      0.943530   293A      0.947967   294A      0.955211  
     295A      0.961089   296A      0.969282   297A      0.976551  
     298A      0.983339   299A      0.986106   300A      0.991076  
     301A      0.997398   302A      1.000743   303A      1.005067  
     304A      1.006303   305A      1.013862   306A      1.018142  
     307A      1.025919   308A      1.029154   309A      1.033284  
     310A      1.043131   311A      1.050966   312A      1.053943  
     313A      1.055621   314A      1.060708   315A      1.069488  
     316A      1.071572   317A      1.080962   318A      1.085810  
     319A      1.093569   320A      1.097653   321A      1.101519  
     322A      1.106281   323A      1.112253   324A      1.121019  
     325A      1.126410   326A      1.130302   327A      1.130621  
     328A      1.139919   329A      1.145250   330A      1.160757  
     331A      1.165748   332A      1.170531   333A      1.178248  
     334A      1.181600   335A      1.184481   336A      1.195257  
     337A      1.203382   338A      1.208204   339A      1.213008  
     340A      1.227675   341A      1.236705   342A      1.238687  
     343A      1.240685   344A      1.248805   345A      1.265068  
     346A      1.276540   347A      1.284699   348A      1.285808  
     349A      1.293733   350A      1.300585   351A      1.307818  
     352A      1.313065   353A      1.317964   354A      1.328162  
     355A      1.337234   356A      1.345229   357A      1.352706  
     358A      1.357687   359A      1.360744   360A      1.372775  
     361A      1.387107   362A      1.387839   363A      1.395308  
     364A      1.405029   365A      1.411424   366A      1.422025  
     367A      1.433709   368A      1.445159   369A      1.452372  
     370A      1.457702   371A      1.471399   372A      1.482670  
     373A      1.500123   374A      1.511357   375A      1.516756  
     376A      1.538232   377A      1.539615   378A      1.546152  
     379A      1.555963   380A      1.557034   381A      1.572681  
     382A      1.579241   383A      1.591884   384A      1.596029  
     385A      1.609198   386A      1.617132   387A      1.628753  
     388A      1.633461   389A      1.649928   390A      1.657514  
     391A      1.672067   392A      1.687242   393A      1.688782  
     394A      1.700548   395A      1.711359   396A      1.719397  
     397A      1.726129   398A      1.738188   399A      1.744777  
     400A      1.748893   401A      1.758795   402A      1.771130  
     403A      1.785794   404A      1.789394   405A      1.794980  
     406A      1.805130   407A      1.812726   408A      1.821281  
     409A      1.828802   410A      1.831440   411A      1.842015  
     412A      1.844340   413A      1.853884   414A      1.874315  
     415A      1.883850   416A      1.893613   417A      1.901808  
     418A      1.908853   419A      1.917365   420A      1.921831  
     421A      1.926463   422A      1.928814   423A      1.943013  
     424A      1.944115   425A      1.954969   426A      1.958314  
     427A      1.976247   428A      1.979000   429A      1.981776  
     430A      1.999745   431A      2.011329   432A      2.017876  
     433A      2.028806   434A      2.040130   435A      2.053429  
     436A      2.062930   437A      2.074638   438A      2.080263  
     439A      2.085546   440A      2.095212   441A      2.103497  
     442A      2.116252   443A      2.128566   444A      2.131115  
     445A      2.136186   446A      2.142320   447A      2.157584  
     448A      2.164233   449A      2.179490   450A      2.189789  
     451A      2.199622   452A      2.209433   453A      2.214846  
     454A      2.216425   455A      2.228095   456A      2.242070  
     457A      2.248724   458A      2.255336   459A      2.261464  
     460A      2.265643   461A      2.276702   462A      2.280116  
     463A      2.288594   464A      2.292732   465A      2.302457  
     466A      2.309063   467A      2.314948   468A      2.319955  
     469A      2.331893   470A      2.346161   471A      2.350403  
     472A      2.360808   473A      2.364754   474A      2.374411  
     475A      2.395118   476A      2.401042   477A      2.406397  
     478A      2.416387   479A      2.422324   480A      2.433463  
     481A      2.438697   482A      2.444882   483A      2.451661  
     484A      2.455560   485A      2.462583   486A      2.465176  
     487A      2.473575   488A      2.490512   489A      2.510736  
     490A      2.512724   491A      2.538304   492A      2.554419  
     493A      2.561987   494A      2.576320   495A      2.583030  
     496A      2.597947   497A      2.609261   498A      2.625793  
     499A      2.639662   500A      2.650827   501A      2.666215  
     502A      2.673578   503A      2.687453   504A      2.690402  
     505A      2.699951   506A      2.717125   507A      2.724299  
     508A      2.728372   509A      2.745090   510A      2.748715  
     511A      2.752446   512A      2.762912   513A      2.772495  
     514A      2.782557   515A      2.790769   516A      2.796251  
     517A      2.798868   518A      2.807024   519A      2.814731  
     520A      2.824261   521A      2.836209   522A      2.840123  
     523A      2.847712   524A      2.851518   525A      2.861220  
     526A      2.875450   527A      2.883687   528A      2.888258  
     529A      2.900854   530A      2.906286   531A      2.920970  
     532A      2.929919   533A      2.934812   534A      2.941375  
     535A      2.960278   536A      2.970601   537A      2.976060  
     538A      3.002084   539A      3.010128   540A      3.020045  
     541A      3.026108   542A      3.040106   543A      3.045339  
     544A      3.059191   545A      3.080629   546A      3.088084  
     547A      3.102766   548A      3.125729   549A      3.152456  
     550A      3.180306   551A      3.204124   552A      3.212202  
     553A      3.221752   554A      3.243003   555A      3.250539  
     556A      3.274088   557A      3.293699   558A      3.296992  
     559A      3.319160   560A      3.344143   561A      3.352020  
     562A      3.381267   563A      3.398354   564A      3.416259  
     565A      3.421146   566A      3.449014   567A      3.488247  
     568A      3.497438   569A      3.527644   570A      3.553883  
     571A      3.588125   572A      3.603314   573A      3.637246  
     574A      3.650437   575A      3.768861   576A      3.795298  
     577A      3.822285   578A      3.831916   579A      3.849460  
     580A      3.859312   581A      3.871044   582A      3.900409  
     583A      3.914415   584A      3.922213   585A      3.945167  
     586A      3.954093   587A      4.031092   588A      4.044335  
     589A      4.141736   590A      4.149709   591A      4.294438  
     592A      4.314013   593A      4.347328   594A      4.369395  
     595A      4.650310   596A      4.727282  

    Final Occupation by Irrep:
              A 
    DOCC [    78 ]

  @DF-RHF Final Energy: -1078.92398641541945

   => Energetics <=

    Nuclear Repulsion Energy =           1888.6117380456657884
    One-Electron Energy =               -5228.3966844398328249
    Two-Electron Energy =                2260.8609599787473599
    Total Energy =                      -1078.9239864154196766

Computation Completed


Properties will be evaluated at   0.000000,   0.000000,   0.000000 [a0]

Properties computed using the SCF density matrix

  Nuclear Dipole Moment: [e a0]
     X:    -8.8410      Y:    -4.8263      Z:     0.3201

  Electronic Dipole Moment: [e a0]
     X:     3.7756      Y:     2.9056      Z:     0.0454

  Dipole Moment: [e a0]
     X:    -5.0655      Y:    -1.9207      Z:     0.3655     Total:     5.4297

  Dipole Moment: [D]
     X:   -12.8751      Y:    -4.8820      Z:     0.9290     Total:    13.8009


*** tstop() called on node45.bme.utexas.edu at Sun May 12 23:44:29 2024
Module time:
	user time   =     629.83 seconds =      10.50 minutes
	system time =       9.08 seconds =       0.15 minutes
	total time  =         88 seconds =       1.47 minutes
Total time:
	user time   =     629.83 seconds =      10.50 minutes
	system time =       9.08 seconds =       0.15 minutes
	total time  =         88 seconds =       1.47 minutes

*** tstart() called on node45.bme.utexas.edu
*** at Sun May 12 23:44:29 2024


  //>>>>>>>>>>>>>>>>>>>>>>>>>>>>>>>>>>>//
  //               DFMP2               //
  //<<<<<<<<<<<<<<<<<<<<<<<<<<<<<<<<<<<//

   => Loading Basis Set <=

    Name: (AUG-CC-PVDZ AUX)
    Role: RIFIT
    Keyword: DF_BASIS_MP2
    atoms 1, 3, 7, 9, 11, 17, 19, 23, 25, 27 entry N          line   158 file /opt/anaconda/envs/psi4v1.5/share/psi4/basis/aug-cc-pvdz-ri.gbs 
    atoms 2, 4-6, 8, 18, 20-22, 24           entry C          line   112 file /opt/anaconda/envs/psi4v1.5/share/psi4/basis/aug-cc-pvdz-ri.gbs 
    atoms 10, 12-13, 15-16, 26, 28-29, 31-32 entry H          line    30 file /opt/anaconda/envs/psi4v1.5/share/psi4/basis/aug-cc-pvdz-ri.gbs 
    atoms 14, 30                             entry O          line   204 file /opt/anaconda/envs/psi4v1.5/share/psi4/basis/aug-cc-pvdz-ri.gbs 

	 --------------------------------------------------------
	                          DF-MP2                         
	      2nd-Order Density-Fitted Moller-Plesset Theory     
	              RMP2 Wavefunction,   8 Threads             
	                                                         
	        Rob Parrish, Justin Turney, Andy Simmonett,      
	           Ed Hohenstein, and C. David Sherrill          
	 --------------------------------------------------------

   => Auxiliary Basis Set <=

  Basis Set: (AUG-CC-PVDZ AUX)
    Blend: AUG-CC-PVDZ-RI
    Number of shells: 574
    Number of basis functions: 1814
    Number of Cartesian functions: 2142
    Spherical Harmonics?: true
    Max angular momentum: 3

	 --------------------------------------------------------
	                 NBF =   596, NAUX =  1814
	 --------------------------------------------------------
	   CLASS    FOCC     OCC    AOCC    AVIR     VIR    FVIR
	   PAIRS      22      78      56     518     518       0
	 --------------------------------------------------------

	 Will save fitting metric to file 97.

	-----------------------------------------------------------
	 ==================> DF-MP2 Energies <==================== 
	-----------------------------------------------------------
	 Reference Energy          =   -1078.9239864154194493 [Eh]
	 Singles Energy            =      -0.0000000000000000 [Eh]
	 Same-Spin Energy          =      -0.9630337941662593 [Eh]
	 Opposite-Spin Energy      =      -2.4722145465900969 [Eh]
	 Correlation Energy        =      -3.4352483407563561 [Eh]
	 Total Energy              =   -1082.3592347561757379 [Eh]
	-----------------------------------------------------------
	 ================> DF-SCS-MP2 Energies <================== 
	-----------------------------------------------------------
	 SCS Same-Spin Scale       =       0.3333333333333333 [-]
	 SCS Opposite-Spin Scale   =       1.2000000000000000 [-]
	 SCS Same-Spin Energy      =      -0.3210112647220864 [Eh]
	 SCS Opposite-Spin Energy  =      -2.9666574559081162 [Eh]
	 SCS Correlation Energy    =      -3.2876687206302027 [Eh]
	 SCS Total Energy          =   -1082.2116551360495578 [Eh]
	-----------------------------------------------------------


*** tstop() called on node45.bme.utexas.edu at Sun May 12 23:44:57 2024
Module time:
	user time   =     171.94 seconds =       2.87 minutes
	system time =       2.83 seconds =       0.05 minutes
	total time  =         28 seconds =       0.47 minutes
Total time:
	user time   =     801.78 seconds =      13.36 minutes
	system time =      11.92 seconds =       0.20 minutes
	total time  =        116 seconds =       1.93 minutes

  //>>>>>>>>>>>>>>>>>>>>>>>>>>>>>>>>>>>//
  //            Monomer A HF           //
  //<<<<<<<<<<<<<<<<<<<<<<<<<<<<<<<<<<<//


*** tstart() called on node45.bme.utexas.edu
*** at Sun May 12 23:44:57 2024

   => Loading Basis Set <=

    Name: AUG-CC-PVDZ
    Role: ORBITAL
    Keyword: BASIS
    atoms 1, 3, 7, 9, 11, 17, 19, 23, 25, 27 entry N          line   218 file /opt/anaconda/envs/psi4v1.5/share/psi4/basis/aug-cc-pvdz.gbs 
    atoms 2, 4-6, 8, 18, 20-22, 24           entry C          line   182 file /opt/anaconda/envs/psi4v1.5/share/psi4/basis/aug-cc-pvdz.gbs 
    atoms 10, 12-13, 15-16, 26, 28-29, 31-32 entry H          line    40 file /opt/anaconda/envs/psi4v1.5/share/psi4/basis/aug-cc-pvdz.gbs 
    atoms 14, 30                             entry O          line   254 file /opt/anaconda/envs/psi4v1.5/share/psi4/basis/aug-cc-pvdz.gbs 


         ---------------------------------------------------------
                                   SCF
               by Justin Turney, Rob Parrish, Andy Simmonett
                          and Daniel G. A. Smith
                              RHF Reference
                        8 Threads,  85830 MiB Core
         ---------------------------------------------------------

  ==> Geometry <==

    Molecular point group: c1
    Full point group: C1

    Geometry (in Angstrom), charge = 0, multiplicity = 1:

       Center              X                  Y                   Z               Mass       
    ------------   -----------------  -----------------  -----------------  -----------------
         N            0.490679649134    -1.388696969454    -1.747898982854    14.003074004430
         C           -0.795505350866    -0.900510969454    -1.747859982854    12.000000000000
         N           -1.084796350866     0.395551030546    -1.747798982854    14.003074004430
         C            0.019781649134     1.170561030546    -1.747779982854    12.000000000000
         C            1.368503649134     0.786896030546    -1.747813982854    12.000000000000
         C            1.662968649134    -0.613218969454    -1.747875982854    12.000000000000
         N            2.198677649134     1.898318030546    -1.747777982854    14.003074004430
         C            1.383477649134     2.921952030546    -1.747721982854    12.000000000000
         N            0.046700649134     2.543485030546    -1.747721982854    14.003074004430
         H            0.638426649134    -2.415379969454    -1.747943982854     1.007825032230
         N           -1.790111350866    -1.816130969454    -1.747883982854    14.003074004430
         H           -1.616231350866    -2.826225969454    -1.747927982854     1.007825032230
         H           -2.733926350866    -1.464446969454    -1.747857982854     1.007825032230
         O            2.772527649134    -1.173679969454    -1.747906982854    15.994914619570
         H            1.678431649134     3.966413030546    -1.747684982854     1.007825032230
         H           -0.764317350866     3.145872030546    -1.747687982854     1.007825032230
      Gh(N)           0.365354649134    -1.713124969454     1.720028017146    14.003074004430
      Gh(C)          -0.965231350866    -2.049918969454     1.813345017146    12.000000000000
      Gh(N)          -1.944198350866    -1.153696969454     1.856676017146    14.003074004430
      Gh(C)          -1.485764350866     0.114076030546     1.799026017146    12.000000000000
      Gh(C)          -0.163970350866     0.572334030546     1.703588017146    12.000000000000
      Gh(C)           0.878843649134    -0.406179969454     1.657964017146    12.000000000000
      Gh(N)          -0.122490350866     1.958557030546     1.670220017146    14.003074004430
      Gh(C)          -1.375055350866     2.330294030546     1.742817017146    12.000000000000
      Gh(N)          -2.250412350866     1.254417030546     1.823120017146    14.003074004430
      Gh(H)           1.074327649134    -2.469711969454     1.691030017146     1.007825032230
      Gh(N)          -1.253248350866    -3.369903969454     1.861157017146    14.003074004430
      Gh(H)          -0.532427350866    -4.097928969454     1.830763017146     1.007825032230
      Gh(H)          -2.225891350866    -3.622414969454     1.929508017146     1.007825032230
      Gh(O)           2.106529649134    -0.229786969454     1.574846017146    15.994914619570
      Gh(H)          -1.732508350866     3.355049030546     1.743191017146     1.007825032230
      Gh(H)          -3.258199350866     1.283396030546     1.887506017146     1.007825032230

  Running in c1 symmetry.

  Rotational constants: A =      0.01366  B =      0.00990  C =      0.00836 [cm^-1]
  Rotational constants: A =    409.60923  B =    296.80008  C =    250.74160 [MHz]
  Nuclear repulsion =  593.872086066747443

  Charge       = 0
  Multiplicity = 1
  Electrons    = 78
  Nalpha       = 39
  Nbeta        = 39

  ==> Algorithm <==

  SCF Algorithm Type is DF.
  DIIS enabled.
  MOM disabled.
  Fractional occupation disabled.
  Guess Type is SAD.
  Energy threshold   = 1.00e-08
  Density threshold  = 1.00e-08
  Integral threshold = 1.00e-12

  ==> Primary Basis <==

  Basis Set: AUG-CC-PVDZ
    Blend: AUG-CC-PVDZ
    Number of shells: 248
    Number of basis functions: 596
    Number of Cartesian functions: 640
    Spherical Harmonics?: true
    Max angular momentum: 2

   => Loading Basis Set <=

    Name: (AUG-CC-PVDZ AUX)
    Role: JKFIT
    Keyword: DF_BASIS_SCF
    atoms 1, 3, 7, 9, 11, 17, 19, 23, 25, 27 entry N          line   212 file /opt/anaconda/envs/psi4v1.5/share/psi4/basis/aug-cc-pvdz-jkfit.gbs 
    atoms 2, 4-6, 8, 18, 20-22, 24           entry C          line   154 file /opt/anaconda/envs/psi4v1.5/share/psi4/basis/aug-cc-pvdz-jkfit.gbs 
    atoms 10, 12-13, 15-16, 26, 28-29, 31-32 entry H          line    70 file /opt/anaconda/envs/psi4v1.5/share/psi4/basis/aug-cc-pvdz-jkfit.gbs 
    atoms 14, 30                             entry O          line   270 file /opt/anaconda/envs/psi4v1.5/share/psi4/basis/aug-cc-pvdz-jkfit.gbs 

  ==> Integral Setup <==

  ==> DiskDFJK: Density-Fitted J/K Matrices <==

    J tasked:                  Yes
    K tasked:                  Yes
    wK tasked:                  No
    OpenMP threads:              8
    Integrals threads:           8
    Memory [MiB]:            64373
    Algorithm:                Core
    Integral Cache:           LOAD
    Schwarz Cutoff:          1E-12
    Fitting Condition:       1E-10

   => Auxiliary Basis Set <=

  Basis Set: (AUG-CC-PVDZ AUX)
    Blend: AUG-CC-PVDZ-JKFIT
    Number of shells: 736
    Number of basis functions: 2212
    Number of Cartesian functions: 2572
    Spherical Harmonics?: true
    Max angular momentum: 3

  Minimum eigenvalue in the overlap matrix is 2.1936685264E-06.
  Reciprocal condition number of the overlap matrix is 1.1123886333E-07.
    Using symmetric orthogonalization.

  ==> Pre-Iterations <==

  SCF Guess: Superposition of Atomic Densities via on-the-fly atomic UHF (no occupation information).

   -------------------------
    Irrep   Nso     Nmo    
   -------------------------
     A        596     596 
   -------------------------
    Total     596     596
   -------------------------

  ==> Iterations <==

                           Total Energy        Delta E     RMS |[F,P]|

   @DF-RHF iter SAD:  -539.20062944521089   -5.39201e+02   0.00000e+00 
   @DF-RHF iter   1:  -539.15954687758483    4.10826e-02   1.29405e-03 DIIS
   @DF-RHF iter   2:  -539.38424035301250   -2.24693e-01   7.55522e-04 DIIS
   @DF-RHF iter   3:  -539.46259741976849   -7.83571e-02   1.62911e-04 DIIS
   @DF-RHF iter   4:  -539.46771630963087   -5.11889e-03   6.36027e-05 DIIS
   @DF-RHF iter   5:  -539.46862027634734   -9.03967e-04   1.36140e-05 DIIS
   @DF-RHF iter   6:  -539.46871244610963   -9.21698e-05   7.22607e-06 DIIS
   @DF-RHF iter   7:  -539.46873875081758   -2.63047e-05   2.98023e-06 DIIS
   @DF-RHF iter   8:  -539.46874353530052   -4.78448e-06   1.02174e-06 DIIS
   @DF-RHF iter   9:  -539.46874405344579   -5.18145e-07   4.06350e-07 DIIS
   @DF-RHF iter  10:  -539.46874414947342   -9.60276e-08   1.72568e-07 DIIS
   @DF-RHF iter  11:  -539.46874416430762   -1.48342e-08   7.28571e-08 DIIS
   @DF-RHF iter  12:  -539.46874416672847   -2.42085e-09   2.27098e-08 DIIS
   @DF-RHF iter  13:  -539.46874416699643   -2.67960e-10   9.99322e-09 DIIS
  Energy and wave function converged.


  ==> Post-Iterations <==

    Orbital Energies [Eh]
    ---------------------

    Doubly Occupied:                                                      

       1A    -20.522939     2A    -15.643241     3A    -15.635857  
       4A    -15.629695     5A    -15.575759     6A    -15.570022  
       7A    -11.412612     8A    -11.368831     9A    -11.332119  
      10A    -11.316583    11A    -11.249832    12A     -1.391149  
      13A     -1.353067    14A     -1.336105    15A     -1.229422  
      16A     -1.220183    17A     -1.175556    18A     -1.030582  
      19A     -0.906571    20A     -0.895626    21A     -0.838137  
      22A     -0.805657    23A     -0.745619    24A     -0.741333  
      25A     -0.710746    26A     -0.671073    27A     -0.657395  
      28A     -0.635682    29A     -0.605205    30A     -0.597393  
      31A     -0.597298    32A     -0.544171    33A     -0.494300  
      34A     -0.454071    35A     -0.435116    36A     -0.427776  
      37A     -0.423766    38A     -0.405549    39A     -0.294509  

    Virtual:                                                              

      40A      0.012157    41A      0.022191    42A      0.032637  
      43A      0.034941    44A      0.043736    45A      0.050307  
      46A      0.051535    47A      0.058200    48A      0.064462  
      49A      0.073046    50A      0.076858    51A      0.079032  
      52A      0.081967    53A      0.088106    54A      0.096133  
      55A      0.097033    56A      0.103684    57A      0.110563  
      58A      0.113275    59A      0.116221    60A      0.119725  
      61A      0.123138    62A      0.127274    63A      0.129672  
      64A      0.133173    65A      0.135511    66A      0.137185  
      67A      0.143559    68A      0.145980    69A      0.150782  
      70A      0.155892    71A      0.159198    72A      0.161239  
      73A      0.166229    74A      0.167775    75A      0.171652  
      76A      0.172909    77A      0.174922    78A      0.180362  
      79A      0.183836    80A      0.189433    81A      0.193702  
      82A      0.194367    83A      0.196691    84A      0.201967  
      85A      0.205379    86A      0.207359    87A      0.213269  
      88A      0.216330    89A      0.224730    90A      0.226196  
      91A      0.231014    92A      0.234557    93A      0.239024  
      94A      0.242845    95A      0.245619    96A      0.249163  
      97A      0.251170    98A      0.257451    99A      0.259700  
     100A      0.263941   101A      0.267534   102A      0.274498  
     103A      0.277018   104A      0.280148   105A      0.283341  
     106A      0.286282   107A      0.290902   108A      0.295692  
     109A      0.296254   110A      0.302877   111A      0.306129  
     112A      0.312453   113A      0.315114   114A      0.317410  
     115A      0.321438   116A      0.325020   117A      0.330247  
     118A      0.333968   119A      0.336522   120A      0.339382  
     121A      0.341677   122A      0.345196   123A      0.349630  
     124A      0.353223   125A      0.356504   126A      0.362460  
     127A      0.368217   128A      0.371593   129A      0.375135  
     130A      0.377831   131A      0.380620   132A      0.385339  
     133A      0.392561   134A      0.394579   135A      0.400215  
     136A      0.406346   137A      0.409141   138A      0.412178  
     139A      0.415463   140A      0.419728   141A      0.424827  
     142A      0.429568   143A      0.433241   144A      0.434813  
     145A      0.445950   146A      0.448830   147A      0.453058  
     148A      0.455816   149A      0.464888   150A      0.469831  
     151A      0.470431   152A      0.477378   153A      0.481075  
     154A      0.486028   155A      0.487893   156A      0.491425  
     157A      0.500552   158A      0.502662   159A      0.507871  
     160A      0.514962   161A      0.521041   162A      0.526179  
     163A      0.530160   164A      0.535599   165A      0.538415  
     166A      0.541111   167A      0.542655   168A      0.545355  
     169A      0.552221   170A      0.557247   171A      0.559975  
     172A      0.564111   173A      0.567408   174A      0.576098  
     175A      0.580083   176A      0.587171   177A      0.589358  
     178A      0.592840   179A      0.595473   180A      0.600484  
     181A      0.607140   182A      0.610317   183A      0.614716  
     184A      0.617316   185A      0.620394   186A      0.623153  
     187A      0.632717   188A      0.636689   189A      0.637672  
     190A      0.642258   191A      0.649263   192A      0.649983  
     193A      0.658379   194A      0.664417   195A      0.664919  
     196A      0.670170   197A      0.676896   198A      0.682987  
     199A      0.689429   200A      0.691607   201A      0.692878  
     202A      0.700976   203A      0.704447   204A      0.709017  
     205A      0.712852   206A      0.716156   207A      0.717216  
     208A      0.726658   209A      0.729127   210A      0.735535  
     211A      0.742149   212A      0.747930   213A      0.750206  
     214A      0.755511   215A      0.760354   216A      0.767791  
     217A      0.768864   218A      0.778369   219A      0.790839  
     220A      0.793523   221A      0.798481   222A      0.803605  
     223A      0.807606   224A      0.818623   225A      0.821721  
     226A      0.825366   227A      0.828445   228A      0.837814  
     229A      0.850145   230A      0.854515   231A      0.858465  
     232A      0.864574   233A      0.867295   234A      0.872004  
     235A      0.874355   236A      0.880487   237A      0.886915  
     238A      0.893238   239A      0.899937   240A      0.900943  
     241A      0.918069   242A      0.919734   243A      0.925683  
     244A      0.927334   245A      0.938453   246A      0.943018  
     247A      0.948570   248A      0.952088   249A      0.960273  
     250A      0.965589   251A      0.972118   252A      0.975779  
     253A      0.981563   254A      0.991241   255A      0.993494  
     256A      0.996490   257A      1.007882   258A      1.013585  
     259A      1.020382   260A      1.026564   261A      1.032071  
     262A      1.036912   263A      1.040152   264A      1.051597  
     265A      1.059406   266A      1.060741   267A      1.070377  
     268A      1.071382   269A      1.078555   270A      1.081242  
     271A      1.087821   272A      1.091282   273A      1.096356  
     274A      1.107476   275A      1.115456   276A      1.120098  
     277A      1.128286   278A      1.131951   279A      1.138011  
     280A      1.141936   281A      1.144951   282A      1.152362  
     283A      1.157467   284A      1.165283   285A      1.168498  
     286A      1.174195   287A      1.176495   288A      1.186077  
     289A      1.191257   290A      1.195000   291A      1.202445  
     292A      1.217837   293A      1.225764   294A      1.228495  
     295A      1.233980   296A      1.238719   297A      1.245489  
     298A      1.254224   299A      1.259672   300A      1.261253  
     301A      1.268475   302A      1.274462   303A      1.279775  
     304A      1.291058   305A      1.297392   306A      1.298701  
     307A      1.305816   308A      1.308815   309A      1.320301  
     310A      1.330035   311A      1.334484   312A      1.340168  
     313A      1.352401   314A      1.361544   315A      1.364708  
     316A      1.367710   317A      1.375927   318A      1.386168  
     319A      1.393478   320A      1.395997   321A      1.404995  
     322A      1.410271   323A      1.422817   324A      1.426320  
     325A      1.440658   326A      1.445181   327A      1.448373  
     328A      1.455322   329A      1.461451   330A      1.482136  
     331A      1.485723   332A      1.490191   333A      1.497320  
     334A      1.513205   335A      1.520117   336A      1.527404  
     337A      1.528402   338A      1.539492   339A      1.540287  
     340A      1.557546   341A      1.566468   342A      1.568691  
     343A      1.580586   344A      1.585504   345A      1.589229  
     346A      1.604215   347A      1.610816   348A      1.619046  
     349A      1.641306   350A      1.646142   351A      1.651221  
     352A      1.674028   353A      1.684456   354A      1.689226  
     355A      1.707976   356A      1.716550   357A      1.724471  
     358A      1.729689   359A      1.740545   360A      1.744811  
     361A      1.747558   362A      1.758353   363A      1.766866  
     364A      1.774992   365A      1.794385   366A      1.800528  
     367A      1.829603   368A      1.835061   369A      1.837324  
     370A      1.845943   371A      1.858249   372A      1.884333  
     373A      1.895638   374A      1.905198   375A      1.909371  
     376A      1.910692   377A      1.922067   378A      1.929134  
     379A      1.949151   380A      1.960666   381A      1.977433  
     382A      1.988461   383A      2.004899   384A      2.007866  
     385A      2.058358   386A      2.062754   387A      2.075419  
     388A      2.079127   389A      2.102724   390A      2.119485  
     391A      2.127253   392A      2.144524   393A      2.160613  
     394A      2.166273   395A      2.197550   396A      2.212993  
     397A      2.216429   398A      2.234001   399A      2.250358  
     400A      2.260062   401A      2.270676   402A      2.271954  
     403A      2.277055   404A      2.284235   405A      2.298098  
     406A      2.317390   407A      2.333046   408A      2.334097  
     409A      2.349780   410A      2.355124   411A      2.367431  
     412A      2.372821   413A      2.385240   414A      2.395289  
     415A      2.399119   416A      2.406341   417A      2.414788  
     418A      2.428340   419A      2.440350   420A      2.451765  
     421A      2.457546   422A      2.473092   423A      2.486488  
     424A      2.488349   425A      2.507097   426A      2.516208  
     427A      2.520872   428A      2.527247   429A      2.540518  
     430A      2.542734   431A      2.557714   432A      2.570037  
     433A      2.578276   434A      2.587520   435A      2.599074  
     436A      2.612740   437A      2.623567   438A      2.633890  
     439A      2.638237   440A      2.657359   441A      2.664797  
     442A      2.673988   443A      2.687917   444A      2.710168  
     445A      2.713648   446A      2.727187   447A      2.736657  
     448A      2.747537   449A      2.763238   450A      2.769528  
     451A      2.771491   452A      2.780123   453A      2.791919  
     454A      2.796967   455A      2.811770   456A      2.816887  
     457A      2.829812   458A      2.839572   459A      2.847086  
     460A      2.859244   461A      2.865011   462A      2.875624  
     463A      2.880896   464A      2.893029   465A      2.916415  
     466A      2.924571   467A      2.949568   468A      2.950625  
     469A      2.954804   470A      2.968741   471A      2.982216  
     472A      3.005326   473A      3.006430   474A      3.028676  
     475A      3.038365   476A      3.051169   477A      3.065379  
     478A      3.087093   479A      3.101150   480A      3.140334  
     481A      3.150099   482A      3.169688   483A      3.194525  
     484A      3.201850   485A      3.233994   486A      3.255325  
     487A      3.268421   488A      3.283995   489A      3.303211  
     490A      3.310923   491A      3.314095   492A      3.344131  
     493A      3.349476   494A      3.361211   495A      3.401466  
     496A      3.405786   497A      3.433972   498A      3.454972  
     499A      3.463062   500A      3.472999   501A      3.485887  
     502A      3.494757   503A      3.500092   504A      3.513817  
     505A      3.554953   506A      3.561268   507A      3.585122  
     508A      3.593650   509A      3.609396   510A      3.624276  
     511A      3.635543   512A      3.655266   513A      3.661485  
     514A      3.698149   515A      3.717312   516A      3.721990  
     517A      3.742457   518A      3.763226   519A      3.773666  
     520A      3.798279   521A      3.812148   522A      3.813936  
     523A      3.826197   524A      3.847953   525A      3.855264  
     526A      3.858244   527A      3.876413   528A      3.877655  
     529A      3.891320   530A      3.918096   531A      3.930268  
     532A      3.944309   533A      3.968986   534A      4.003252  
     535A      4.008484   536A      4.029312   537A      4.054799  
     538A      4.116001   539A      4.137067   540A      4.184351  
     541A      4.248655   542A      4.309616   543A      4.342001  
     544A      4.348635   545A      4.404504   546A      4.506454  
     547A      4.512795   548A      4.576027   549A      4.620727  
     550A      4.729550   551A      4.758757   552A      4.780746  
     553A      4.816376   554A      4.844613   555A      4.895159  
     556A      4.963930   557A      4.993405   558A      5.074447  
     559A      5.103095   560A      5.121836   561A      5.129461  
     562A      5.167252   563A      5.240788   564A      5.263545  
     565A      5.345781   566A      5.397414   567A      5.423830  
     568A      5.565435   569A      5.619109   570A      5.638785  
     571A      5.748560   572A      5.799014   573A      5.886244  
     574A      5.908059   575A      5.948173   576A      5.998263  
     577A      6.116540   578A      6.134903   579A      6.236135  
     580A      6.294345   581A      6.393639   582A      6.400204  
     583A      6.428547   584A      6.597690   585A      7.173521  
     586A     18.313144   587A     18.627797   588A     19.129607  
     589A     19.190381   590A     20.240172   591A     25.349001  
     592A     25.374284   593A     25.477461   594A     25.516594  
     595A     25.542637   596A     33.566521  

    Final Occupation by Irrep:
              A 
    DOCC [    39 ]

  @DF-RHF Final Energy:  -539.46874416699643

   => Energetics <=

    Nuclear Repulsion Energy =            593.8720860667474426
    One-Electron Energy =               -1912.9205620106561128
    Two-Electron Energy =                 779.5797317769122401
    Total Energy =                       -539.4687441669964301

Computation Completed


Properties will be evaluated at   0.000000,   0.000000,   0.000000 [a0]

Properties computed using the SCF density matrix

  Nuclear Dipole Moment: [e a0]
     X:    76.0539      Y:    42.7807      Z:  -257.6268

  Electronic Dipole Moment: [e a0]
     X:   -79.1184      Y:   -42.9934      Z:   257.6253

  Dipole Moment: [e a0]
     X:    -3.0645      Y:    -0.2127      Z:    -0.0015     Total:     3.0718

  Dipole Moment: [D]
     X:    -7.7891      Y:    -0.5407      Z:    -0.0038     Total:     7.8078


*** tstop() called on node45.bme.utexas.edu at Sun May 12 23:45:56 2024
Module time:
	user time   =     423.38 seconds =       7.06 minutes
	system time =       6.08 seconds =       0.10 minutes
	total time  =         59 seconds =       0.98 minutes
Total time:
	user time   =    1225.20 seconds =      20.42 minutes
	system time =      18.00 seconds =       0.30 minutes
	total time  =        175 seconds =       2.92 minutes

*** tstart() called on node45.bme.utexas.edu
*** at Sun May 12 23:45:56 2024


  //>>>>>>>>>>>>>>>>>>>>>>>>>>>>>>>>>>>//
  //               DFMP2               //
  //<<<<<<<<<<<<<<<<<<<<<<<<<<<<<<<<<<<//

   => Loading Basis Set <=

    Name: (AUG-CC-PVDZ AUX)
    Role: RIFIT
    Keyword: DF_BASIS_MP2
    atoms 1, 3, 7, 9, 11, 17, 19, 23, 25, 27 entry N          line   158 file /opt/anaconda/envs/psi4v1.5/share/psi4/basis/aug-cc-pvdz-ri.gbs 
    atoms 2, 4-6, 8, 18, 20-22, 24           entry C          line   112 file /opt/anaconda/envs/psi4v1.5/share/psi4/basis/aug-cc-pvdz-ri.gbs 
    atoms 10, 12-13, 15-16, 26, 28-29, 31-32 entry H          line    30 file /opt/anaconda/envs/psi4v1.5/share/psi4/basis/aug-cc-pvdz-ri.gbs 
    atoms 14, 30                             entry O          line   204 file /opt/anaconda/envs/psi4v1.5/share/psi4/basis/aug-cc-pvdz-ri.gbs 

	 --------------------------------------------------------
	                          DF-MP2                         
	      2nd-Order Density-Fitted Moller-Plesset Theory     
	              RMP2 Wavefunction,   8 Threads             
	                                                         
	        Rob Parrish, Justin Turney, Andy Simmonett,      
	           Ed Hohenstein, and C. David Sherrill          
	 --------------------------------------------------------

   => Auxiliary Basis Set <=

  Basis Set: (AUG-CC-PVDZ AUX)
    Blend: AUG-CC-PVDZ-RI
    Number of shells: 574
    Number of basis functions: 1814
    Number of Cartesian functions: 2142
    Spherical Harmonics?: true
    Max angular momentum: 3

	 --------------------------------------------------------
	                 NBF =   596, NAUX =  1814
	 --------------------------------------------------------
	   CLASS    FOCC     OCC    AOCC    AVIR     VIR    FVIR
	   PAIRS      11      39      28     557     557       0
	 --------------------------------------------------------

	 Will attempt to load fitting metric from file 97.

	-----------------------------------------------------------
	 ==================> DF-MP2 Energies <==================== 
	-----------------------------------------------------------
	 Reference Energy          =    -539.4687441669964301 [Eh]
	 Singles Energy            =      -0.0000000000000000 [Eh]
	 Same-Spin Energy          =      -0.4765788376906108 [Eh]
	 Opposite-Spin Energy      =      -1.2304883353543512 [Eh]
	 Correlation Energy        =      -1.7070671730449620 [Eh]
	 Total Energy              =    -541.1758113400413777 [Eh]
	-----------------------------------------------------------
	 ================> DF-SCS-MP2 Energies <================== 
	-----------------------------------------------------------
	 SCS Same-Spin Scale       =       0.3333333333333333 [-]
	 SCS Opposite-Spin Scale   =       1.2000000000000000 [-]
	 SCS Same-Spin Energy      =      -0.1588596125635369 [Eh]
	 SCS Opposite-Spin Energy  =      -1.4765860024252213 [Eh]
	 SCS Correlation Energy    =      -1.6354456149887582 [Eh]
	 SCS Total Energy          =    -541.1041897819851556 [Eh]
	-----------------------------------------------------------


*** tstop() called on node45.bme.utexas.edu at Sun May 12 23:46:16 2024
Module time:
	user time   =     112.70 seconds =       1.88 minutes
	system time =       2.27 seconds =       0.04 minutes
	total time  =         20 seconds =       0.33 minutes
Total time:
	user time   =    1337.91 seconds =      22.30 minutes
	system time =      20.27 seconds =       0.34 minutes
	total time  =        195 seconds =       3.25 minutes

  //>>>>>>>>>>>>>>>>>>>>>>>>>>>>>>>>>>>//
  //            Monomer B HF           //
  //<<<<<<<<<<<<<<<<<<<<<<<<<<<<<<<<<<<//


*** tstart() called on node45.bme.utexas.edu
*** at Sun May 12 23:46:16 2024

   => Loading Basis Set <=

    Name: AUG-CC-PVDZ
    Role: ORBITAL
    Keyword: BASIS
    atoms 1, 3, 7, 9, 11, 17, 19, 23, 25, 27 entry N          line   218 file /opt/anaconda/envs/psi4v1.5/share/psi4/basis/aug-cc-pvdz.gbs 
    atoms 2, 4-6, 8, 18, 20-22, 24           entry C          line   182 file /opt/anaconda/envs/psi4v1.5/share/psi4/basis/aug-cc-pvdz.gbs 
    atoms 10, 12-13, 15-16, 26, 28-29, 31-32 entry H          line    40 file /opt/anaconda/envs/psi4v1.5/share/psi4/basis/aug-cc-pvdz.gbs 
    atoms 14, 30                             entry O          line   254 file /opt/anaconda/envs/psi4v1.5/share/psi4/basis/aug-cc-pvdz.gbs 


         ---------------------------------------------------------
                                   SCF
               by Justin Turney, Rob Parrish, Andy Simmonett
                          and Daniel G. A. Smith
                              RHF Reference
                        8 Threads,  85830 MiB Core
         ---------------------------------------------------------

  ==> Geometry <==

    Molecular point group: c1
    Full point group: C1

    Geometry (in Angstrom), charge = 0, multiplicity = 1:

       Center              X                  Y                   Z               Mass       
    ------------   -----------------  -----------------  -----------------  -----------------
      Gh(N)           0.490679649134    -1.388696969454    -1.747898982854    14.003074004430
      Gh(C)          -0.795505350866    -0.900510969454    -1.747859982854    12.000000000000
      Gh(N)          -1.084796350866     0.395551030546    -1.747798982854    14.003074004430
      Gh(C)           0.019781649134     1.170561030546    -1.747779982854    12.000000000000
      Gh(C)           1.368503649134     0.786896030546    -1.747813982854    12.000000000000
      Gh(C)           1.662968649134    -0.613218969454    -1.747875982854    12.000000000000
      Gh(N)           2.198677649134     1.898318030546    -1.747777982854    14.003074004430
      Gh(C)           1.383477649134     2.921952030546    -1.747721982854    12.000000000000
      Gh(N)           0.046700649134     2.543485030546    -1.747721982854    14.003074004430
      Gh(H)           0.638426649134    -2.415379969454    -1.747943982854     1.007825032230
      Gh(N)          -1.790111350866    -1.816130969454    -1.747883982854    14.003074004430
      Gh(H)          -1.616231350866    -2.826225969454    -1.747927982854     1.007825032230
      Gh(H)          -2.733926350866    -1.464446969454    -1.747857982854     1.007825032230
      Gh(O)           2.772527649134    -1.173679969454    -1.747906982854    15.994914619570
      Gh(H)           1.678431649134     3.966413030546    -1.747684982854     1.007825032230
      Gh(H)          -0.764317350866     3.145872030546    -1.747687982854     1.007825032230
         N            0.365354649134    -1.713124969454     1.720028017146    14.003074004430
         C           -0.965231350866    -2.049918969454     1.813345017146    12.000000000000
         N           -1.944198350866    -1.153696969454     1.856676017146    14.003074004430
         C           -1.485764350866     0.114076030546     1.799026017146    12.000000000000
         C           -0.163970350866     0.572334030546     1.703588017146    12.000000000000
         C            0.878843649134    -0.406179969454     1.657964017146    12.000000000000
         N           -0.122490350866     1.958557030546     1.670220017146    14.003074004430
         C           -1.375055350866     2.330294030546     1.742817017146    12.000000000000
         N           -2.250412350866     1.254417030546     1.823120017146    14.003074004430
         H            1.074327649134    -2.469711969454     1.691030017146     1.007825032230
         N           -1.253248350866    -3.369903969454     1.861157017146    14.003074004430
         H           -0.532427350866    -4.097928969454     1.830763017146     1.007825032230
         H           -2.225891350866    -3.622414969454     1.929508017146     1.007825032230
         O            2.106529649134    -0.229786969454     1.574846017146    15.994914619570
         H           -1.732508350866     3.355049030546     1.743191017146     1.007825032230
         H           -3.258199350866     1.283396030546     1.887506017146     1.007825032230

  Running in c1 symmetry.

  Rotational constants: A =      0.01366  B =      0.00990  C =      0.00836 [cm^-1]
  Rotational constants: A =    409.60923  B =    296.80008  C =    250.74160 [MHz]
  Nuclear repulsion =  593.872093725379159

  Charge       = 0
  Multiplicity = 1
  Electrons    = 78
  Nalpha       = 39
  Nbeta        = 39

  ==> Algorithm <==

  SCF Algorithm Type is DF.
  DIIS enabled.
  MOM disabled.
  Fractional occupation disabled.
  Guess Type is SAD.
  Energy threshold   = 1.00e-08
  Density threshold  = 1.00e-08
  Integral threshold = 1.00e-12

  ==> Primary Basis <==

  Basis Set: AUG-CC-PVDZ
    Blend: AUG-CC-PVDZ
    Number of shells: 248
    Number of basis functions: 596
    Number of Cartesian functions: 640
    Spherical Harmonics?: true
    Max angular momentum: 2

   => Loading Basis Set <=

    Name: (AUG-CC-PVDZ AUX)
    Role: JKFIT
    Keyword: DF_BASIS_SCF
    atoms 1, 3, 7, 9, 11, 17, 19, 23, 25, 27 entry N          line   212 file /opt/anaconda/envs/psi4v1.5/share/psi4/basis/aug-cc-pvdz-jkfit.gbs 
    atoms 2, 4-6, 8, 18, 20-22, 24           entry C          line   154 file /opt/anaconda/envs/psi4v1.5/share/psi4/basis/aug-cc-pvdz-jkfit.gbs 
    atoms 10, 12-13, 15-16, 26, 28-29, 31-32 entry H          line    70 file /opt/anaconda/envs/psi4v1.5/share/psi4/basis/aug-cc-pvdz-jkfit.gbs 
    atoms 14, 30                             entry O          line   270 file /opt/anaconda/envs/psi4v1.5/share/psi4/basis/aug-cc-pvdz-jkfit.gbs 

  ==> Integral Setup <==

  ==> DiskDFJK: Density-Fitted J/K Matrices <==

    J tasked:                  Yes
    K tasked:                  Yes
    wK tasked:                  No
    OpenMP threads:              8
    Integrals threads:           8
    Memory [MiB]:            64373
    Algorithm:                Core
    Integral Cache:           LOAD
    Schwarz Cutoff:          1E-12
    Fitting Condition:       1E-10

   => Auxiliary Basis Set <=

  Basis Set: (AUG-CC-PVDZ AUX)
    Blend: AUG-CC-PVDZ-JKFIT
    Number of shells: 736
    Number of basis functions: 2212
    Number of Cartesian functions: 2572
    Spherical Harmonics?: true
    Max angular momentum: 3

  Minimum eigenvalue in the overlap matrix is 2.1936685264E-06.
  Reciprocal condition number of the overlap matrix is 1.1123886333E-07.
    Using symmetric orthogonalization.

  ==> Pre-Iterations <==

  SCF Guess: Superposition of Atomic Densities via on-the-fly atomic UHF (no occupation information).

   -------------------------
    Irrep   Nso     Nmo    
   -------------------------
     A        596     596 
   -------------------------
    Total     596     596
   -------------------------

  ==> Iterations <==

                           Total Energy        Delta E     RMS |[F,P]|

   @DF-RHF iter SAD:  -539.20063013295010   -5.39201e+02   0.00000e+00 
   @DF-RHF iter   1:  -539.15963001102011    4.10001e-02   1.29412e-03 DIIS
   @DF-RHF iter   2:  -539.38433776677107   -2.24708e-01   7.55625e-04 DIIS
   @DF-RHF iter   3:  -539.46268719102420   -7.83494e-02   1.62900e-04 DIIS
   @DF-RHF iter   4:  -539.46780472500120   -5.11753e-03   6.35959e-05 DIIS
   @DF-RHF iter   5:  -539.46870850852201   -9.03784e-04   1.36174e-05 DIIS
   @DF-RHF iter   6:  -539.46880076223863   -9.22537e-05   7.22742e-06 DIIS
   @DF-RHF iter   7:  -539.46882708580711   -2.63236e-05   2.98131e-06 DIIS
   @DF-RHF iter   8:  -539.46883187366041   -4.78785e-06   1.02184e-06 DIIS
   @DF-RHF iter   9:  -539.46883239223166   -5.18571e-07   4.06163e-07 DIIS
   @DF-RHF iter  10:  -539.46883248834183   -9.61102e-08   1.72446e-07 DIIS
   @DF-RHF iter  11:  -539.46883250316523   -1.48234e-08   7.27770e-08 DIIS
   @DF-RHF iter  12:  -539.46883250558130   -2.41607e-09   2.27276e-08 DIIS
   @DF-RHF iter  13:  -539.46883250584779   -2.66482e-10   9.99750e-09 DIIS
  Energy and wave function converged.


  ==> Post-Iterations <==

    Orbital Energies [Eh]
    ---------------------

    Doubly Occupied:                                                      

       1A    -20.523107     2A    -15.643256     3A    -15.635813  
       4A    -15.629655     5A    -15.575751     6A    -15.570117  
       7A    -11.412607     8A    -11.368882     9A    -11.332085  
      10A    -11.316580    11A    -11.249922    12A     -1.391139  
      13A     -1.353042    14A     -1.336100    15A     -1.229436  
      16A     -1.220192    17A     -1.175549    18A     -1.030583  
      19A     -0.906566    20A     -0.895630    21A     -0.838123  
      22A     -0.805664    23A     -0.745633    24A     -0.741328  
      25A     -0.710750    26A     -0.671061    27A     -0.657399  
      28A     -0.635678    29A     -0.605181    30A     -0.597365  
      31A     -0.597290    32A     -0.544168    33A     -0.494310  
      34A     -0.454074    35A     -0.435104    36A     -0.427775  
      37A     -0.423750    38A     -0.405557    39A     -0.294511  

    Virtual:                                                              

      40A      0.015012    41A      0.026567    42A      0.033842  
      43A      0.037571    44A      0.044415    45A      0.052181  
      46A      0.054271    47A      0.062855    48A      0.064490  
      49A      0.072701    50A      0.074679    51A      0.086929  
      52A      0.089611    53A      0.092876    54A      0.097122  
      55A      0.104122    56A      0.107873    57A      0.110963  
      58A      0.117655    59A      0.118899    60A      0.123265  
      61A      0.126687    62A      0.128953    63A      0.130591  
      64A      0.134722    65A      0.138428    66A      0.140524  
      67A      0.147357    68A      0.151751    69A      0.153692  
      70A      0.157032    71A      0.159893    72A      0.162092  
      73A      0.164625    74A      0.168377    75A      0.172413  
      76A      0.178527    77A      0.181595    78A      0.182822  
      79A      0.187132    80A      0.190896    81A      0.195109  
      82A      0.198883    83A      0.205363    84A      0.208038  
      85A      0.210200    86A      0.214305    87A      0.217026  
      88A      0.220630    89A      0.222435    90A      0.229193  
      91A      0.230291    92A      0.237948    93A      0.244358  
      94A      0.245742    95A      0.249780    96A      0.253671  
      97A      0.257998    98A      0.263618    99A      0.266586  
     100A      0.268213   101A      0.274210   102A      0.277337  
     103A      0.281476   104A      0.283397   105A      0.288217  
     106A      0.293868   107A      0.295915   108A      0.297606  
     109A      0.298269   110A      0.303658   111A      0.313087  
     112A      0.313584   113A      0.318001   114A      0.322060  
     115A      0.324099   116A      0.329094   117A      0.330855  
     118A      0.334645   119A      0.337785   120A      0.339862  
     121A      0.346483   122A      0.347129   123A      0.353454  
     124A      0.358636   125A      0.361198   126A      0.366313  
     127A      0.368887   128A      0.372532   129A      0.376787  
     130A      0.380807   131A      0.385129   132A      0.389373  
     133A      0.393860   134A      0.399844   135A      0.402728  
     136A      0.406810   137A      0.412074   138A      0.413709  
     139A      0.415507   140A      0.422913   141A      0.426248  
     142A      0.429186   143A      0.434246   144A      0.442477  
     145A      0.447088   146A      0.450018   147A      0.454729  
     148A      0.456590   149A      0.459967   150A      0.467024  
     151A      0.476995   152A      0.480652   153A      0.484604  
     154A      0.488987   155A      0.496155   156A      0.503572  
     157A      0.508716   158A      0.515569   159A      0.517054  
     160A      0.523388   161A      0.529638   162A      0.535369  
     163A      0.538962   164A      0.541663   165A      0.547562  
     166A      0.554719   167A      0.558474   168A      0.561254  
     169A      0.564029   170A      0.564667   171A      0.570485  
     172A      0.573805   173A      0.576545   174A      0.579199  
     175A      0.584563   176A      0.591588   177A      0.597696  
     178A      0.600674   179A      0.602711   180A      0.604762  
     181A      0.611902   182A      0.612789   183A      0.622859  
     184A      0.626068   185A      0.626427   186A      0.635734  
     187A      0.636710   188A      0.638532   189A      0.644862  
     190A      0.650268   191A      0.654465   192A      0.657693  
     193A      0.662420   194A      0.665768   195A      0.666224  
     196A      0.676895   197A      0.679598   198A      0.684823  
     199A      0.690790   200A      0.694706   201A      0.698717  
     202A      0.704393   203A      0.706162   204A      0.710587  
     205A      0.718327   206A      0.725414   207A      0.726447  
     208A      0.732528   209A      0.735604   210A      0.738896  
     211A      0.742567   212A      0.757669   213A      0.763587  
     214A      0.768825   215A      0.772017   216A      0.775544  
     217A      0.778555   218A      0.779312   219A      0.782728  
     220A      0.788590   221A      0.797141   222A      0.804943  
     223A      0.810223   224A      0.822712   225A      0.825556  
     226A      0.830252   227A      0.840597   228A      0.840906  
     229A      0.850190   230A      0.851334   231A      0.862161  
     232A      0.875825   233A      0.877256   234A      0.879171  
     235A      0.886027   236A      0.887986   237A      0.895632  
     238A      0.902528   239A      0.907825   240A      0.916821  
     241A      0.921130   242A      0.923815   243A      0.933223  
     244A      0.940292   245A      0.947800   246A      0.950772  
     247A      0.957542   248A      0.960096   249A      0.965459  
     250A      0.972449   251A      0.975517   252A      0.984432  
     253A      0.993566   254A      0.995173   255A      1.003625  
     256A      1.003831   257A      1.006056   258A      1.022381  
     259A      1.022861   260A      1.024233   261A      1.033596  
     262A      1.039118   263A      1.042425   264A      1.047521  
     265A      1.054771   266A      1.064706   267A      1.069402  
     268A      1.075802   269A      1.082291   270A      1.085196  
     271A      1.093093   272A      1.097536   273A      1.106672  
     274A      1.110896   275A      1.118453   276A      1.123177  
     277A      1.131472   278A      1.134960   279A      1.144231  
     280A      1.144557   281A      1.153410   282A      1.161927  
     283A      1.166813   284A      1.171706   285A      1.178751  
     286A      1.181500   287A      1.190554   288A      1.194589  
     289A      1.211200   290A      1.213251   291A      1.223633  
     292A      1.230118   293A      1.232343   294A      1.241081  
     295A      1.243838   296A      1.253221   297A      1.259697  
     298A      1.265058   299A      1.269434   300A      1.274574  
     301A      1.281751   302A      1.284244   303A      1.294061  
     304A      1.297421   305A      1.313033   306A      1.315242  
     307A      1.321771   308A      1.324243   309A      1.330371  
     310A      1.340486   311A      1.348229   312A      1.352455  
     313A      1.355946   314A      1.366420   315A      1.370786  
     316A      1.376467   317A      1.385260   318A      1.391630  
     319A      1.393329   320A      1.398994   321A      1.413579  
     322A      1.419961   323A      1.422846   324A      1.435435  
     325A      1.444608   326A      1.451486   327A      1.456159  
     328A      1.467849   329A      1.470273   330A      1.482064  
     331A      1.489611   332A      1.493993   333A      1.512902  
     334A      1.518954   335A      1.527472   336A      1.539334  
     337A      1.550970   338A      1.552994   339A      1.565420  
     340A      1.566487   341A      1.572739   342A      1.575917  
     343A      1.590208   344A      1.594995   345A      1.600222  
     346A      1.605813   347A      1.615001   348A      1.616767  
     349A      1.629994   350A      1.638569   351A      1.650995  
     352A      1.674373   353A      1.680684   354A      1.692408  
     355A      1.706548   356A      1.715200   357A      1.727918  
     358A      1.733304   359A      1.743399   360A      1.757858  
     361A      1.766014   362A      1.784472   363A      1.789841  
     364A      1.799125   365A      1.800490   366A      1.804903  
     367A      1.816158   368A      1.825628   369A      1.841893  
     370A      1.855112   371A      1.865879   372A      1.882526  
     373A      1.899481   374A      1.909192   375A      1.914975  
     376A      1.925140   377A      1.929198   378A      1.948149  
     379A      1.952910   380A      1.960858   381A      1.965835  
     382A      1.974382   383A      1.981345   384A      1.997039  
     385A      2.044731   386A      2.063241   387A      2.075181  
     388A      2.081856   389A      2.102468   390A      2.109568  
     391A      2.128821   392A      2.142339   393A      2.149068  
     394A      2.167795   395A      2.193561   396A      2.214480  
     397A      2.218502   398A      2.226340   399A      2.241993  
     400A      2.256953   401A      2.260589   402A      2.278796  
     403A      2.287003   404A      2.295577   405A      2.300946  
     406A      2.316729   407A      2.336406   408A      2.357161  
     409A      2.357961   410A      2.363730   411A      2.376642  
     412A      2.386431   413A      2.390530   414A      2.393468  
     415A      2.411571   416A      2.417105   417A      2.427641  
     418A      2.449494   419A      2.452905   420A      2.466736  
     421A      2.481749   422A      2.491569   423A      2.496579  
     424A      2.503977   425A      2.515889   426A      2.519837  
     427A      2.525908   428A      2.535687   429A      2.538744  
     430A      2.561100   431A      2.578180   432A      2.582227  
     433A      2.589999   434A      2.596221   435A      2.604378  
     436A      2.625499   437A      2.630883   438A      2.641678  
     439A      2.655077   440A      2.661369   441A      2.665028  
     442A      2.685082   443A      2.688555   444A      2.707291  
     445A      2.718884   446A      2.728879   447A      2.738010  
     448A      2.747326   449A      2.768511   450A      2.780434  
     451A      2.788803   452A      2.793797   453A      2.799299  
     454A      2.810746   455A      2.814680   456A      2.822791  
     457A      2.836992   458A      2.848888   459A      2.852685  
     460A      2.855059   461A      2.871272   462A      2.888743  
     463A      2.904181   464A      2.912468   465A      2.919683  
     466A      2.927069   467A      2.947590   468A      2.952365  
     469A      2.963865   470A      2.976244   471A      2.999864  
     472A      3.006870   473A      3.018185   474A      3.027090  
     475A      3.032824   476A      3.045860   477A      3.073422  
     478A      3.091145   479A      3.119275   480A      3.152484  
     481A      3.161812   482A      3.190043   483A      3.206857  
     484A      3.214810   485A      3.248934   486A      3.252401  
     487A      3.269788   488A      3.288688   489A      3.312004  
     490A      3.322678   491A      3.333280   492A      3.370705  
     493A      3.380578   494A      3.391484   495A      3.401325  
     496A      3.418869   497A      3.451701   498A      3.470325  
     499A      3.477199   500A      3.491603   501A      3.493615  
     502A      3.517147   503A      3.531129   504A      3.539336  
     505A      3.550674   506A      3.564270   507A      3.586174  
     508A      3.603848   509A      3.613395   510A      3.637555  
     511A      3.659894   512A      3.667594   513A      3.687747  
     514A      3.704128   515A      3.708227   516A      3.738147  
     517A      3.748488   518A      3.791675   519A      3.796213  
     520A      3.808250   521A      3.819869   522A      3.825245  
     523A      3.840376   524A      3.849758   525A      3.856028  
     526A      3.863293   527A      3.893942   528A      3.900724  
     529A      3.916958   530A      3.942729   531A      3.945275  
     532A      3.968148   533A      3.985548   534A      4.010337  
     535A      4.042793   536A      4.059119   537A      4.076376  
     538A      4.107645   539A      4.136396   540A      4.163853  
     541A      4.253618   542A      4.297618   543A      4.313706  
     544A      4.356580   545A      4.400869   546A      4.511904  
     547A      4.528782   548A      4.564576   549A      4.697367  
     550A      4.742589   551A      4.789626   552A      4.816681  
     553A      4.836990   554A      4.859251   555A      4.947157  
     556A      4.970020   557A      4.992386   558A      5.068768  
     559A      5.083038   560A      5.100713   561A      5.104758  
     562A      5.178737   563A      5.228574   564A      5.268104  
     565A      5.357881   566A      5.407229   567A      5.459680  
     568A      5.567720   569A      5.620727   570A      5.656503  
     571A      5.746701   572A      5.823570   573A      5.898142  
     574A      5.920483   575A      5.969653   576A      6.000583  
     577A      6.125227   578A      6.150710   579A      6.233748  
     580A      6.269349   581A      6.291501   582A      6.422478  
     583A      6.465460   584A      6.563852   585A      7.171105  
     586A     18.321102   587A     18.641048   588A     19.156594  
     589A     19.189795   590A     20.125360   591A     25.366462  
     592A     25.395130   593A     25.483931   594A     25.531668  
     595A     25.564514   596A     33.563284  

    Final Occupation by Irrep:
              A 
    DOCC [    39 ]

  @DF-RHF Final Energy:  -539.46883250584779

   => Energetics <=

    Nuclear Repulsion Energy =            593.8720937253791590
    One-Electron Energy =               -1912.9203837028999260
    Two-Electron Energy =                 779.5794574716728675
    Total Energy =                       -539.4688325058477858

Computation Completed


Properties will be evaluated at   0.000000,   0.000000,   0.000000 [a0]

Properties computed using the SCF density matrix

  Nuclear Dipole Moment: [e a0]
     X:   -84.8950      Y:   -47.6070      Z:   257.9469

  Electronic Dipole Moment: [e a0]
     X:    82.5151      Y:    45.6781      Z:  -257.7489

  Dipole Moment: [e a0]
     X:    -2.3799      Y:    -1.9289      Z:     0.1980     Total:     3.0698

  Dipole Moment: [D]
     X:    -6.0490      Y:    -4.9027      Z:     0.5033     Total:     7.8026


*** tstop() called on node45.bme.utexas.edu at Sun May 12 23:47:15 2024
Module time:
	user time   =     417.97 seconds =       6.97 minutes
	system time =       5.73 seconds =       0.10 minutes
	total time  =         59 seconds =       0.98 minutes
Total time:
	user time   =    1755.93 seconds =      29.27 minutes
	system time =      26.01 seconds =       0.43 minutes
	total time  =        254 seconds =       4.23 minutes

*** tstart() called on node45.bme.utexas.edu
*** at Sun May 12 23:47:15 2024


  //>>>>>>>>>>>>>>>>>>>>>>>>>>>>>>>>>>>//
  //               DFMP2               //
  //<<<<<<<<<<<<<<<<<<<<<<<<<<<<<<<<<<<//

   => Loading Basis Set <=

    Name: (AUG-CC-PVDZ AUX)
    Role: RIFIT
    Keyword: DF_BASIS_MP2
    atoms 1, 3, 7, 9, 11, 17, 19, 23, 25, 27 entry N          line   158 file /opt/anaconda/envs/psi4v1.5/share/psi4/basis/aug-cc-pvdz-ri.gbs 
    atoms 2, 4-6, 8, 18, 20-22, 24           entry C          line   112 file /opt/anaconda/envs/psi4v1.5/share/psi4/basis/aug-cc-pvdz-ri.gbs 
    atoms 10, 12-13, 15-16, 26, 28-29, 31-32 entry H          line    30 file /opt/anaconda/envs/psi4v1.5/share/psi4/basis/aug-cc-pvdz-ri.gbs 
    atoms 14, 30                             entry O          line   204 file /opt/anaconda/envs/psi4v1.5/share/psi4/basis/aug-cc-pvdz-ri.gbs 

	 --------------------------------------------------------
	                          DF-MP2                         
	      2nd-Order Density-Fitted Moller-Plesset Theory     
	              RMP2 Wavefunction,   8 Threads             
	                                                         
	        Rob Parrish, Justin Turney, Andy Simmonett,      
	           Ed Hohenstein, and C. David Sherrill          
	 --------------------------------------------------------

   => Auxiliary Basis Set <=

  Basis Set: (AUG-CC-PVDZ AUX)
    Blend: AUG-CC-PVDZ-RI
    Number of shells: 574
    Number of basis functions: 1814
    Number of Cartesian functions: 2142
    Spherical Harmonics?: true
    Max angular momentum: 3

	 --------------------------------------------------------
	                 NBF =   596, NAUX =  1814
	 --------------------------------------------------------
	   CLASS    FOCC     OCC    AOCC    AVIR     VIR    FVIR
	   PAIRS      11      39      28     557     557       0
	 --------------------------------------------------------

	 Will attempt to load fitting metric from file 97.

	-----------------------------------------------------------
	 ==================> DF-MP2 Energies <==================== 
	-----------------------------------------------------------
	 Reference Energy          =    -539.4688325058477858 [Eh]
	 Singles Energy            =      -0.0000000000000000 [Eh]
	 Same-Spin Energy          =      -0.4766104400227579 [Eh]
	 Opposite-Spin Energy      =      -1.2306444749437822 [Eh]
	 Correlation Energy        =      -1.7072549149665401 [Eh]
	 Total Energy              =    -541.1760874208142695 [Eh]
	-----------------------------------------------------------
	 ================> DF-SCS-MP2 Energies <================== 
	-----------------------------------------------------------
	 SCS Same-Spin Scale       =       0.3333333333333333 [-]
	 SCS Opposite-Spin Scale   =       1.2000000000000000 [-]
	 SCS Same-Spin Energy      =      -0.1588701466742526 [Eh]
	 SCS Opposite-Spin Energy  =      -1.4767733699325385 [Eh]
	 SCS Correlation Energy    =      -1.6356435166067911 [Eh]
	 SCS Total Energy          =    -541.1044760224546053 [Eh]
	-----------------------------------------------------------


*** tstop() called on node45.bme.utexas.edu at Sun May 12 23:47:35 2024
Module time:
	user time   =     107.80 seconds =       1.80 minutes
	system time =       2.04 seconds =       0.03 minutes
	total time  =         20 seconds =       0.33 minutes
Total time:
	user time   =    1863.74 seconds =      31.06 minutes
	system time =      28.05 seconds =       0.47 minutes
	total time  =        274 seconds =       4.57 minutes
  Constructing Basis Sets for SAPT...

   => Loading Basis Set <=

    Name: (AUG-CC-PVDZ AUX)
    Role: RIFIT
    Keyword: DF_BASIS_SAPT
    atoms 1, 3, 7, 9, 11, 17, 19, 23, 25, 27 entry N          line   158 file /opt/anaconda/envs/psi4v1.5/share/psi4/basis/aug-cc-pvdz-ri.gbs 
    atoms 2, 4-6, 8, 18, 20-22, 24           entry C          line   112 file /opt/anaconda/envs/psi4v1.5/share/psi4/basis/aug-cc-pvdz-ri.gbs 
    atoms 10, 12-13, 15-16, 26, 28-29, 31-32 entry H          line    30 file /opt/anaconda/envs/psi4v1.5/share/psi4/basis/aug-cc-pvdz-ri.gbs 
    atoms 14, 30                             entry O          line   204 file /opt/anaconda/envs/psi4v1.5/share/psi4/basis/aug-cc-pvdz-ri.gbs 


  //>>>>>>>>>>>>>>>>>>>>>>>>>>>>>>>>>>>//
  //           SAPT2+(3)DMP2           //
  //<<<<<<<<<<<<<<<<<<<<<<<<<<<<<<<<<<<//


*** tstart() called on node45.bme.utexas.edu
*** at Sun May 12 23:47:35 2024

      SAPT2+(3)  
    Ed Hohenstein
     6 June 2009

      Orbital Information
  --------------------------
    NSO        =       596
    NMO        =       596
    NRI        =      1814
    NOCC A     =        39
    NOCC B     =        39
    FOCC A     =        11
    FOCC B     =        11
    NVIR A     =       557
    NVIR B     =       557

    Estimated memory usage: 15827.7 MB

    Natural Orbital Cutoff:   1.000E-06
    Disp(T3) Truncation:            Yes
    CCD (vv|vv) Truncation:         Yes
    MBPT T2 Truncation:             Yes

    Monomer A: 289 virtual orbitals dropped
    Monomer B: 289 virtual orbitals dropped

    Elst10,r            =     0.005854597173 [Eh]
    Exch10 (S^2)        =     0.009751707531 [Eh]
    Exch10              =     0.009753815010 [Eh]
    Ind20,r (A<-B)      =    -0.002745966291 [Eh]
    Ind20,r (B<-A)      =    -0.002644228846 [Eh]
    Ind20,r             =    -0.005390195137 [Eh]
    Exch-Ind20,r (A<-B) =     0.001629839017 [Eh]
    Exch-Ind20,r (B<-A) =     0.001973669466 [Eh]
    Exch-Ind20,r        =     0.003603508482 [Eh]
    Disp20              =    -0.020908760170 [Eh]
    Disp20 (NO)         =    -0.019972641039 [Eh]
    Exch-Disp20         =     0.001651309657 [Eh]
    Elst12,r            =    -0.003377099651 [Eh]
    Exch11              =     0.000073872740 [Eh]
    Exch12              =     0.001320737023 [Eh]
    Ind22               =    -0.000415036942 [Eh]
    Disp21              =     0.007629406076 [Eh]
    Disp22 (SDQ)        =    -0.002291478526 [Eh]

    (i =   1 of  28)        986 seconds
    (i =   2 of  28)       1943 seconds
    (i =   3 of  28)       2895 seconds
    (i =   4 of  28)       3841 seconds
    (i =   5 of  28)       4809 seconds
    (i =   6 of  28)       5430 seconds
    (i =   7 of  28)       6009 seconds
    (i =   8 of  28)       6566 seconds
    (i =   9 of  28)       7128 seconds
    (i =  10 of  28)       7689 seconds
    (i =  11 of  28)       8247 seconds
    (i =  12 of  28)       8811 seconds
    (i =  13 of  28)       9393 seconds
    (i =  14 of  28)       9988 seconds
    (i =  15 of  28)      10591 seconds
    (i =  16 of  28)      11203 seconds
    (i =  17 of  28)      11821 seconds
    (i =  18 of  28)      12670 seconds
    (i =  19 of  28)      13306 seconds
    (i =  20 of  28)      13878 seconds
    (i =  21 of  28)      14464 seconds
    (i =  22 of  28)      15055 seconds
    (i =  23 of  28)      15634 seconds
    (i =  24 of  28)      16198 seconds
    (i =  25 of  28)      16788 seconds
    (i =  26 of  28)      17364 seconds
    (i =  27 of  28)      17915 seconds
    (i =  28 of  28)      18468 seconds

    Disp220 (T)         =    -0.002333172365 [Eh]

    (i =   1 of  28)        559 seconds
    (i =   2 of  28)       1114 seconds
    (i =   3 of  28)       1670 seconds
    (i =   4 of  28)       2226 seconds
    (i =   5 of  28)       2789 seconds
    (i =   6 of  28)       3347 seconds
    (i =   7 of  28)       3899 seconds
    (i =   8 of  28)       4470 seconds
    (i =   9 of  28)       5106 seconds
    (i =  10 of  28)       5843 seconds
    (i =  11 of  28)       6432 seconds
    (i =  12 of  28)       6990 seconds
    (i =  13 of  28)       7545 seconds
    (i =  14 of  28)       8102 seconds
    (i =  15 of  28)       8658 seconds
    (i =  16 of  28)       9215 seconds
    (i =  17 of  28)       9809 seconds
    (i =  18 of  28)      10684 seconds
    (i =  19 of  28)      11322 seconds
    (i =  20 of  28)      11884 seconds
    (i =  21 of  28)      12478 seconds
    (i =  22 of  28)      13073 seconds
    (i =  23 of  28)      13633 seconds
    (i =  24 of  28)      14190 seconds
    (i =  25 of  28)      14749 seconds
    (i =  26 of  28)      15317 seconds
    (i =  27 of  28)      15879 seconds
    (i =  28 of  28)      16441 seconds

    Disp202 (T)         =    -0.002370487541 [Eh]

    Disp22 (T)          =    -0.004703659906 [Eh]

    Est. Disp220 (T)    =    -0.002442528322 [Eh]
    Est. Disp202 (T)    =    -0.002481592463 [Eh]

    Est. Disp22 (T)     =    -0.004924120786 [Eh]
    Elst13,r            =     0.001169998106 [Eh]
    Disp30              =     0.000297097661 [Eh]

    SAPT Results 
  --------------------------------------------------------------------------------------------------------
    Electrostatics                  3.64749563 [mEh]       2.28883806 [kcal/mol]       9.57649845 [kJ/mol]
      Elst10,r                      5.85459717 [mEh]       3.67381519 [kcal/mol]      15.37124276 [kJ/mol]
      Elst12,r                     -3.37709965 [mEh]      -2.11916202 [kcal/mol]      -8.86657391 [kJ/mol]
      Elst13,r                      1.16999811 [mEh]       0.73418490 [kcal/mol]       3.07182960 [kJ/mol]

    Exchange                       11.14842477 [mEh]       6.99574216 [kcal/mol]      29.27018521 [kJ/mol]
      Exch10                        9.75381501 [mEh]       6.12061132 [kcal/mol]      25.60863778 [kJ/mol]
      Exch10(S^2)                   9.75170753 [mEh]       6.11928886 [kcal/mol]      25.60310460 [kJ/mol]
      Exch11(S^2)                   0.07387274 [mEh]       0.04635584 [kcal/mol]       0.19395285 [kJ/mol]
      Exch12(S^2)                   1.32073702 [mEh]       0.82877499 [kcal/mol]       3.46759458 [kJ/mol]

    Induction                      -1.70446710 [mEh]      -1.06956925 [kcal/mol]      -4.47507776 [kJ/mol]
      Ind20,r                      -5.39019514 [mEh]      -3.38239851 [kcal/mol]     -14.15195538 [kJ/mol]
      Ind22                        -0.41503694 [mEh]      -0.26043961 [kcal/mol]      -1.08967934 [kJ/mol]
      Exch-Ind20,r                  3.60350848 [mEh]       2.26123571 [kcal/mol]       9.46101022 [kJ/mol]
      Exch-Ind22                    0.27746475 [mEh]       0.17411176 [kcal/mol]       0.72848360 [kJ/mol]
      delta HF,r (2)               -0.23146810 [mEh]      -0.14524843 [kcal/mol]      -0.60771942 [kJ/mol]
      delta MP2,r (2)               0.45125985 [mEh]       0.28316983 [kcal/mol]       1.18478257 [kJ/mol]

    Dispersion                    -18.54654609 [mEh]     -11.63813338 [kcal/mol]     -48.69395005 [kJ/mol]
      Disp20                      -20.90876017 [mEh]     -13.12044509 [kcal/mol]     -54.89594226 [kJ/mol]
      Disp30                        0.29709766 [mEh]       0.18643160 [kcal/mol]       0.78002980 [kJ/mol]
      Disp21                        7.62940608 [mEh]       4.78752459 [kcal/mol]      20.03100289 [kJ/mol]
      Disp22 (SDQ)                 -2.29147853 [mEh]      -1.43792448 [kcal/mol]      -6.01627604 [kJ/mol]
      Disp22 (T)                   -4.70365991 [mEh]      -2.95159115 [kcal/mol]     -12.34945738 [kJ/mol]
      Est. Disp22 (T)              -4.92412079 [mEh]      -3.08993244 [kcal/mol]     -12.92827734 [kJ/mol]
      Exch-Disp20                   1.65130966 [mEh]       1.03621245 [kcal/mol]       4.33551291 [kJ/mol]

  Total HF                         13.59025742 [mEh]       8.52801529 [kcal/mol]      35.68121595 [kJ/mol]
  Total SAPT0                      -5.66719309 [mEh]      -3.55621735 [kcal/mol]     -14.87921341 [kJ/mol]
  Total SAPT2                      -7.78725517 [mEh]      -4.88657639 [kcal/mol]     -20.44543563 [kJ/mol]
  Total SAPT2+                     -7.37344841 [mEh]      -4.62690873 [kcal/mol]     -19.35898612 [kJ/mol]
  Total SAPT2+(3)                  -5.90635264 [mEh]      -3.70629224 [kcal/mol]     -15.50712672 [kJ/mol]
  Total SAPT2+dMP2                 -6.92218856 [mEh]      -4.34373890 [kcal/mol]     -18.17420355 [kJ/mol]
  Total SAPT2+(3)dMP2              -5.45509279 [mEh]      -3.42312241 [kcal/mol]     -14.32234414 [kJ/mol]

  Special recipe for scaled SAPT0 (see Manual):
    Electrostatics sSAPT0           5.85459717 [mEh]       3.67381519 [kcal/mol]      15.37124276 [kJ/mol]
    Exchange sSAPT0                 9.75381501 [mEh]       6.12061132 [kcal/mol]      25.60863778 [kJ/mol]
    Induction sSAPT0               -2.01581795 [mEh]      -1.26494486 [kcal/mol]      -5.29252930 [kJ/mol]
    Dispersion sSAPT0             -19.25637967 [mEh]     -12.08356067 [kcal/mol]     -50.55761786 [kJ/mol]
  Total sSAPT0                     -5.66378544 [mEh]      -3.55407902 [kcal/mol]     -14.87026661 [kJ/mol]
  --------------------------------------------------------------------------------------------------------

*** tstop() called on node45.bme.utexas.edu at Mon May 13 11:10:16 2024
Module time:
	user time   =  281031.02 seconds =    4683.85 minutes
	system time =    2460.09 seconds =      41.00 minutes
	total time  =      40961 seconds =     682.68 minutes
Total time:
	user time   =  282895.87 seconds =    4714.93 minutes
	system time =    2488.20 seconds =      41.47 minutes
	total time  =      41235 seconds =     687.25 minutes

    Psi4 stopped on: Monday, 13 May 2024 11:10AM
    Psi4 wall time for execution: 11:27:15.79

*** Psi4 exiting successfully. Buy a developer a beer!
