
    -----------------------------------------------------------------------
          Psi4: An Open-Source Ab Initio Electronic Structure Package
                               Psi4 1.5 release

                         Git: Rev {HEAD} e9f4d6d 


    D. G. A. Smith, L. A. Burns, A. C. Simmonett, R. M. Parrish,
    M. C. Schieber, R. Galvelis, P. Kraus, H. Kruse, R. Di Remigio,
    A. Alenaizan, A. M. James, S. Lehtola, J. P. Misiewicz, M. Scheurer,
    R. A. Shaw, J. B. Schriber, Y. Xie, Z. L. Glick, D. A. Sirianni,
    J. S. O'Brien, J. M. Waldrop, A. Kumar, E. G. Hohenstein,
    B. P. Pritchard, B. R. Brooks, H. F. Schaefer III, A. Yu. Sokolov,
    K. Patkowski, A. E. DePrince III, U. Bozkaya, R. A. King,
    F. A. Evangelista, J. M. Turney, T. D. Crawford, C. D. Sherrill,
    J. Chem. Phys. 152(18) 184108 (2020). https://doi.org/10.1063/5.0006002

                            Additional Code Authors
    E. T. Seidl, C. L. Janssen, E. F. Valeev, M. L. Leininger,
    J. F. Gonthier, R. M. Richard, H. R. McAlexander, M. Saitow, X. Wang,
    P. Verma, M. H. Lechner, and A. Jiang

             Previous Authors, Complete List of Code Contributors,
                       and Citations for Specific Modules
    https://github.com/psi4/psi4/blob/master/codemeta.json
    https://github.com/psi4/psi4/graphs/contributors
    http://psicode.org/psi4manual/master/introduction.html#citing-psifour

    -----------------------------------------------------------------------


    Psi4 started on: Sunday, 12 May 2024 11:37PM

    Process ID: 3990914
    Host:       node102.bme.utexas.edu
    PSIDATADIR: /opt/anaconda/envs/psi4v1.5/share/psi4
    Memory:     500.0 MiB
    Threads:    8
    
  ==> Input File <==

--------------------------------------------------------------------------
memory 80GB

molecule {
0 1
N -1.252617 -4.415339 1e-06
C -1.48122 -3.025044 -5.3e-05
N -0.395947 -2.209109 -0.0001
C 0.847406 -2.714237 -0.0001
C 1.088893 -4.139708 -4.7e-05
C 0.0 -4.951862 0.0
H -2.078756 -4.999035 4.1e-05
O -2.652372 -2.623116 -6e-05
N 1.866869 -1.849375 -0.000149
H 1.692519 -0.821507 -0.000207
H 2.81458 -2.192942 -0.000155
H 2.096261 -4.547306 -4.3e-05
H 0.068633 -6.038934 4.4e-05
--
0 1
N -1.018123 0.316785 3.46775
C -2.348709 -0.020009 3.561067
N -3.327676 0.876213 3.604398
C -2.869242 2.143986 3.546748
C -1.547448 2.602244 3.45131
C -0.504634 1.62373 3.405686
N -1.505968 3.988467 3.417942
C -2.758533 4.360204 3.490539
N -3.63389 3.284327 3.570842
H -0.30915 -0.439802 3.438752
N -2.636726 -1.339994 3.608879
H -1.915905 -2.068019 3.578485
H -3.609369 -1.592505 3.67723
O 0.723052 1.800123 3.322568
H -3.115986 5.384959 3.490913
H -4.641677 3.313306 3.635228
 units angstrom
 no_reorient
 symmetry c1}
set  {scf_type DF
 basis jun-cc-pvdz
 freeze_core True
 guess SAD}
energy('sapt2+(3)dmp2')
--------------------------------------------------------------------------

  Memory set to  74.506 GiB by Python driver.

Scratch directory: /tmp/
   => Loading Basis Set <=

    Name: JUN-CC-PVDZ
    Role: ORBITAL
    Keyword: BASIS
    atoms 1, 3, 9, 14, 16, 20, 22, 24 entry N          line   198 file /opt/anaconda/envs/psi4v1.5/share/psi4/basis/jun-cc-pvdz.gbs 
    atoms 2, 4-6, 15, 17-19, 21       entry C          line   164 file /opt/anaconda/envs/psi4v1.5/share/psi4/basis/jun-cc-pvdz.gbs 
    atoms 7, 10-13, 23, 25-26, 28-29  entry H          line    36 file /opt/anaconda/envs/psi4v1.5/share/psi4/basis/jun-cc-pvdz.gbs 
    atoms 8, 27                       entry O          line   232 file /opt/anaconda/envs/psi4v1.5/share/psi4/basis/jun-cc-pvdz.gbs 

   => Loading Basis Set <=

    Name: JUN-CC-PVDZ
    Role: ORBITAL
    Keyword: BASIS
    atoms 1, 3, 9, 14, 16, 20, 22, 24 entry N          line   198 file /opt/anaconda/envs/psi4v1.5/share/psi4/basis/jun-cc-pvdz.gbs 
    atoms 2, 4-6, 15, 17-19, 21       entry C          line   164 file /opt/anaconda/envs/psi4v1.5/share/psi4/basis/jun-cc-pvdz.gbs 
    atoms 7, 10-13, 23, 25-26, 28-29  entry H          line    36 file /opt/anaconda/envs/psi4v1.5/share/psi4/basis/jun-cc-pvdz.gbs 
    atoms 8, 27                       entry O          line   232 file /opt/anaconda/envs/psi4v1.5/share/psi4/basis/jun-cc-pvdz.gbs 


  //>>>>>>>>>>>>>>>>>>>>>>>>>>>>>>>>>>>//
  //              Dimer HF             //
  //<<<<<<<<<<<<<<<<<<<<<<<<<<<<<<<<<<<//


*** tstart() called on node102.bme.utexas.edu
*** at Sun May 12 23:37:11 2024

   => Loading Basis Set <=

    Name: JUN-CC-PVDZ
    Role: ORBITAL
    Keyword: BASIS
    atoms 1, 3, 9, 14, 16, 20, 22, 24 entry N          line   198 file /opt/anaconda/envs/psi4v1.5/share/psi4/basis/jun-cc-pvdz.gbs 
    atoms 2, 4-6, 15, 17-19, 21       entry C          line   164 file /opt/anaconda/envs/psi4v1.5/share/psi4/basis/jun-cc-pvdz.gbs 
    atoms 7, 10-13, 23, 25-26, 28-29  entry H          line    36 file /opt/anaconda/envs/psi4v1.5/share/psi4/basis/jun-cc-pvdz.gbs 
    atoms 8, 27                       entry O          line   232 file /opt/anaconda/envs/psi4v1.5/share/psi4/basis/jun-cc-pvdz.gbs 


         ---------------------------------------------------------
                                   SCF
               by Justin Turney, Rob Parrish, Andy Simmonett
                          and Daniel G. A. Smith
                              RHF Reference
                        8 Threads,  76293 MiB Core
         ---------------------------------------------------------

  ==> Geometry <==

    Molecular point group: c1
    Full point group: C1

    Geometry (in Angstrom), charge = 0, multiplicity = 1:

       Center              X                  Y                   Z               Mass       
    ------------   -----------------  -----------------  -----------------  -----------------
         N           -0.025935986011    -4.050582910336    -2.014526759242    14.003074004430
         C           -0.254538986011    -2.660287910336    -2.014580759242    12.000000000000
         N            0.830734013989    -1.844352910336    -2.014627759242    14.003074004430
         C            2.074087013989    -2.349480910336    -2.014627759242    12.000000000000
         C            2.315574013989    -3.774951910336    -2.014574759242    12.000000000000
         C            1.226681013989    -4.587105910336    -2.014527759242    12.000000000000
         H           -0.852074986011    -4.634278910336    -2.014486759242     1.007825032230
         O           -1.425690986011    -2.258359910336    -2.014587759242    15.994914619570
         N            3.093550013989    -1.484618910336    -2.014676759242    14.003074004430
         H            2.919200013989    -0.456750910336    -2.014734759242     1.007825032230
         H            4.041261013989    -1.828185910336    -2.014682759242     1.007825032230
         H            3.322942013989    -4.182549910336    -2.014570759242     1.007825032230
         H            1.295314013989    -5.674177910336    -2.014483759242     1.007825032230
         N            0.208558013989     0.681541089664     1.453222240758    14.003074004430
         C           -1.122027986011     0.344747089664     1.546539240758    12.000000000000
         N           -2.100994986011     1.240969089664     1.589870240758    14.003074004430
         C           -1.642560986011     2.508742089664     1.532220240758    12.000000000000
         C           -0.320766986011     2.967000089664     1.436782240758    12.000000000000
         C            0.722047013989     1.988486089664     1.391158240758    12.000000000000
         N           -0.279286986011     4.353223089664     1.403414240758    14.003074004430
         C           -1.531851986011     4.724960089664     1.476011240758    12.000000000000
         N           -2.407208986011     3.649083089664     1.556314240758    14.003074004430
         H            0.917531013989    -0.075045910336     1.424224240758     1.007825032230
         N           -1.410044986011    -0.975237910336     1.594351240758    14.003074004430
         H           -0.689223986011    -1.703262910336     1.563957240758     1.007825032230
         H           -2.382687986011    -1.227748910336     1.662702240758     1.007825032230
         O            1.949733013989     2.164879089664     1.308040240758    15.994914619570
         H           -1.889304986011     5.749715089664     1.476385240758     1.007825032230
         H           -3.414995986011     3.678062089664     1.620700240758     1.007825032230

  Running in c1 symmetry.

  Rotational constants: A =      0.02489  B =      0.00543  C =      0.00485 [cm^-1]
  Rotational constants: A =    746.14974  B =    162.72303  C =    145.43596 [MHz]
  Nuclear repulsion = 1323.486058115515561

  Charge       = 0
  Multiplicity = 1
  Electrons    = 136
  Nalpha       = 68
  Nbeta        = 68

  ==> Algorithm <==

  SCF Algorithm Type is DF.
  DIIS enabled.
  MOM disabled.
  Fractional occupation disabled.
  Guess Type is SAD.
  Energy threshold   = 1.00e-08
  Density threshold  = 1.00e-08
  Integral threshold = 1.00e-12

  ==> Primary Basis <==

  Basis Set: JUN-CC-PVDZ
    Blend: JUN-CC-PVDZ
    Number of shells: 182
    Number of basis functions: 392
    Number of Cartesian functions: 411
    Spherical Harmonics?: true
    Max angular momentum: 2

   => Loading Basis Set <=

    Name: (JUN-CC-PVDZ AUX)
    Role: JKFIT
    Keyword: DF_BASIS_SCF
    atoms 1, 3, 9, 14, 16, 20, 22, 24 entry N          line   202 file /opt/anaconda/envs/psi4v1.5/share/psi4/basis/jun-cc-pvdz-jkfit.gbs 
    atoms 2, 4-6, 15, 17-19, 21       entry C          line   146 file /opt/anaconda/envs/psi4v1.5/share/psi4/basis/jun-cc-pvdz-jkfit.gbs 
    atoms 7, 10-13, 23, 25-26, 28-29  entry H          line    70 file /opt/anaconda/envs/psi4v1.5/share/psi4/basis/jun-cc-pvdz-jkfit.gbs 
    atoms 8, 27                       entry O          line   258 file /opt/anaconda/envs/psi4v1.5/share/psi4/basis/jun-cc-pvdz-jkfit.gbs 

  ==> Integral Setup <==

  ==> DiskDFJK: Density-Fitted J/K Matrices <==

    J tasked:                  Yes
    K tasked:                  Yes
    wK tasked:                  No
    OpenMP threads:              8
    Integrals threads:           8
    Memory [MiB]:            57220
    Algorithm:                Core
    Integral Cache:           SAVE
    Schwarz Cutoff:          1E-12
    Fitting Condition:       1E-10

   => Auxiliary Basis Set <=

  Basis Set: (JUN-CC-PVDZ AUX)
    Blend: JUN-CC-PVDZ-JKFIT
    Number of shells: 603
    Number of basis functions: 1731
    Number of Cartesian functions: 1979
    Spherical Harmonics?: true
    Max angular momentum: 3

  Minimum eigenvalue in the overlap matrix is 1.1652423164E-05.
  Reciprocal condition number of the overlap matrix is 8.8876775158E-07.
    Using symmetric orthogonalization.

  ==> Pre-Iterations <==

  SCF Guess: Superposition of Atomic Densities via on-the-fly atomic UHF (no occupation information).

   -------------------------
    Irrep   Nso     Nmo    
   -------------------------
     A        392     392 
   -------------------------
    Total     392     392
   -------------------------

  ==> Iterations <==

                           Total Energy        Delta E     RMS |[F,P]|

   @DF-RHF iter SAD:  -931.25681653020092   -9.31257e+02   0.00000e+00 
   @DF-RHF iter   1:  -931.56530633599368   -3.08490e-01   2.63165e-03 DIIS
   @DF-RHF iter   2:  -931.97186199249916   -4.06556e-01   1.51902e-03 DIIS
   @DF-RHF iter   3:  -932.10871606309433   -1.36854e-01   3.06505e-04 DIIS
   @DF-RHF iter   4:  -932.11678773389735   -8.07167e-03   1.25323e-04 DIIS
   @DF-RHF iter   5:  -932.11828421105997   -1.49648e-03   2.69830e-05 DIIS
   @DF-RHF iter   6:  -932.11844219533737   -1.57984e-04   1.46661e-05 DIIS
   @DF-RHF iter   7:  -932.11848767256424   -4.54772e-05   5.54500e-06 DIIS
   @DF-RHF iter   8:  -932.11849517974360   -7.50718e-06   1.93631e-06 DIIS
   @DF-RHF iter   9:  -932.11849593848979   -7.58746e-07   7.89378e-07 DIIS
   @DF-RHF iter  10:  -932.11849607921545   -1.40726e-07   3.15888e-07 DIIS
   @DF-RHF iter  11:  -932.11849610091508   -2.16996e-08   1.36814e-07 DIIS
   @DF-RHF iter  12:  -932.11849610417755   -3.26247e-09   3.96639e-08 DIIS
   @DF-RHF iter  13:  -932.11849610453578   -3.58227e-10   1.62114e-08 DIIS
   @DF-RHF iter  14:  -932.11849610459501   -5.92308e-11   6.18030e-09 DIIS
  Energy and wave function converged.


  ==> Post-Iterations <==

    Orbital Energies [Eh]
    ---------------------

    Doubly Occupied:                                                      

       1A    -20.512881     2A    -20.511432     3A    -15.641668  
       4A    -15.630235     5A    -15.624554     6A    -15.622308  
       7A    -15.611072     8A    -15.559673     9A    -15.558422  
      10A    -15.555445    11A    -11.398041    12A    -11.385569  
      13A    -11.376046    14A    -11.359139    15A    -11.353118  
      16A    -11.320863    17A    -11.306649    18A    -11.269076  
      19A    -11.237439    20A     -1.390739    21A     -1.380170  
      22A     -1.343688    23A     -1.323649    24A     -1.308276  
      25A     -1.278162    26A     -1.213398    27A     -1.208180  
      28A     -1.183266    29A     -1.165196    30A     -1.080063  
      31A     -1.019812    32A     -0.915851    33A     -0.895537  
      34A     -0.890837    35A     -0.882121    36A     -0.827816  
      37A     -0.792097    38A     -0.776758    39A     -0.771439  
      40A     -0.738268    41A     -0.732116    42A     -0.728985  
      43A     -0.695148    44A     -0.687530    45A     -0.660144  
      46A     -0.643945    47A     -0.635144    48A     -0.634622  
      49A     -0.624385    50A     -0.623784    51A     -0.595532  
      52A     -0.595481    53A     -0.588075    54A     -0.585094  
      55A     -0.550489    56A     -0.531762    57A     -0.496136  
      58A     -0.481577    59A     -0.442914    60A     -0.438400  
      61A     -0.427297    62A     -0.424781    63A     -0.416460  
      64A     -0.413775    65A     -0.395218    66A     -0.391026  
      67A     -0.354094    68A     -0.283216  

    Virtual:                                                              

      69A      0.031735    70A      0.047026    71A      0.052335  
      72A      0.057702    73A      0.067366    74A      0.072377  
      75A      0.079283    76A      0.084977    77A      0.093248  
      78A      0.096108    79A      0.097999    80A      0.101587  
      81A      0.109577    82A      0.112583    83A      0.115733  
      84A      0.119362    85A      0.130688    86A      0.132265  
      87A      0.134046    88A      0.138117    89A      0.141283  
      90A      0.146959    91A      0.151849    92A      0.160078  
      93A      0.161479    94A      0.167304    95A      0.171183  
      96A      0.180225    97A      0.184665    98A      0.186635  
      99A      0.190743   100A      0.191313   101A      0.196300  
     102A      0.204934   103A      0.210641   104A      0.212211  
     105A      0.217245   106A      0.222924   107A      0.226391  
     108A      0.231281   109A      0.233988   110A      0.242238  
     111A      0.243914   112A      0.249915   113A      0.255309  
     114A      0.258494   115A      0.261400   116A      0.265387  
     117A      0.271676   118A      0.277408   119A      0.279754  
     120A      0.280945   121A      0.290023   122A      0.292539  
     123A      0.297659   124A      0.300300   125A      0.303506  
     126A      0.311968   127A      0.314113   128A      0.320983  
     129A      0.325696   130A      0.328929   131A      0.336096  
     132A      0.336929   133A      0.343277   134A      0.346980  
     135A      0.351752   136A      0.356217   137A      0.360556  
     138A      0.363632   139A      0.373076   140A      0.374019  
     141A      0.375349   142A      0.377360   143A      0.384713  
     144A      0.387392   145A      0.392834   146A      0.395629  
     147A      0.404292   148A      0.408763   149A      0.415485  
     150A      0.419905   151A      0.424528   152A      0.432509  
     153A      0.434048   154A      0.439215   155A      0.443486  
     156A      0.449933   157A      0.453673   158A      0.464157  
     159A      0.479546   160A      0.484090   161A      0.496799  
     162A      0.501369   163A      0.513151   164A      0.516973  
     165A      0.525159   166A      0.532494   167A      0.542134  
     168A      0.552092   169A      0.574844   170A      0.587861  
     171A      0.594785   172A      0.611052   173A      0.630028  
     174A      0.636630   175A      0.665955   176A      0.680217  
     177A      0.689679   178A      0.745982   179A      0.756580  
     180A      0.786746   181A      0.793265   182A      0.800570  
     183A      0.826038   184A      0.832368   185A      0.833630  
     186A      0.839519   187A      0.859713   188A      0.868919  
     189A      0.883962   190A      0.886483   191A      0.892733  
     192A      0.898353   193A      0.905100   194A      0.920712  
     195A      0.931793   196A      0.933451   197A      0.945410  
     198A      0.955705   199A      0.957748   200A      0.973543  
     201A      0.979283   202A      0.987905   203A      1.004933  
     204A      1.018122   205A      1.031667   206A      1.037480  
     207A      1.050567   208A      1.059657   209A      1.071978  
     210A      1.076734   211A      1.086255   212A      1.093421  
     213A      1.109814   214A      1.120919   215A      1.126245  
     216A      1.130705   217A      1.132061   218A      1.146496  
     219A      1.153429   220A      1.155194   221A      1.159833  
     222A      1.162786   223A      1.180705   224A      1.184634  
     225A      1.193619   226A      1.205621   227A      1.215730  
     228A      1.221850   229A      1.226006   230A      1.232931  
     231A      1.244910   232A      1.255058   233A      1.260764  
     234A      1.265907   235A      1.268930   236A      1.279488  
     237A      1.289744   238A      1.293958   239A      1.309412  
     240A      1.315516   241A      1.317486   242A      1.323045  
     243A      1.325644   244A      1.330937   245A      1.340178  
     246A      1.341981   247A      1.351285   248A      1.360185  
     249A      1.377010   250A      1.389128   251A      1.403896  
     252A      1.406906   253A      1.422590   254A      1.432030  
     255A      1.437943   256A      1.442367   257A      1.449124  
     258A      1.469663   259A      1.496710   260A      1.499252  
     261A      1.512194   262A      1.531312   263A      1.536863  
     264A      1.562481   265A      1.579348   266A      1.587697  
     267A      1.593029   268A      1.595216   269A      1.603810  
     270A      1.613527   271A      1.636524   272A      1.645383  
     273A      1.689123   274A      1.695568   275A      1.740986  
     276A      1.743997   277A      1.757890   278A      1.789373  
     279A      1.811939   280A      1.813877   281A      1.818215  
     282A      1.844980   283A      1.851941   284A      1.857619  
     285A      1.862702   286A      1.882028   287A      1.887486  
     288A      1.892214   289A      1.901163   290A      1.910644  
     291A      1.921537   292A      1.924402   293A      1.933724  
     294A      1.951135   295A      1.955901   296A      1.970137  
     297A      1.982133   298A      1.986436   299A      2.027933  
     300A      2.029587   301A      2.032819   302A      2.053053  
     303A      2.068270   304A      2.084383   305A      2.085897  
     306A      2.089859   307A      2.102324   308A      2.117927  
     309A      2.124162   310A      2.130190   311A      2.158511  
     312A      2.166490   313A      2.180786   314A      2.191593  
     315A      2.202588   316A      2.214687   317A      2.238306  
     318A      2.267338   319A      2.276214   320A      2.292677  
     321A      2.330713   322A      2.335921   323A      2.344797  
     324A      2.357431   325A      2.360104   326A      2.388349  
     327A      2.410040   328A      2.412855   329A      2.449680  
     330A      2.461006   331A      2.470744   332A      2.482434  
     333A      2.493831   334A      2.497300   335A      2.508926  
     336A      2.545530   337A      2.553657   338A      2.569238  
     339A      2.572942   340A      2.587149   341A      2.636176  
     342A      2.654718   343A      2.687417   344A      2.689632  
     345A      2.724335   346A      2.727505   347A      2.731263  
     348A      2.740879   349A      2.750438   350A      2.764230  
     351A      2.804152   352A      2.827254   353A      2.846825  
     354A      2.873688   355A      2.890326   356A      2.907092  
     357A      2.933036   358A      2.944270   359A      2.962840  
     360A      2.984573   361A      2.994082   362A      3.023605  
     363A      3.047078   364A      3.064538   365A      3.076890  
     366A      3.104654   367A      3.114573   368A      3.116311  
     369A      3.127874   370A      3.143723   371A      3.162103  
     372A      3.163199   373A      3.208908   374A      3.244248  
     375A      3.257684   376A      3.293473   377A      3.311891  
     378A      3.315259   379A      3.378348   380A      3.394916  
     381A      3.416461   382A      3.494099   383A      3.511308  
     384A      3.686836   385A      3.707710   386A      3.764446  
     387A      3.822089   388A      3.858788   389A      3.864311  
     390A      3.909794   391A      4.070042   392A      4.077303  

    Final Occupation by Irrep:
              A 
    DOCC [    68 ]

  @DF-RHF Final Energy:  -932.11849610459501

   => Energetics <=

    Nuclear Repulsion Energy =           1323.4860581155155614
    One-Electron Energy =               -3900.6169518294273075
    Two-Electron Energy =                1645.0123976093168494
    Total Energy =                       -932.1184961045951241

Computation Completed


Properties will be evaluated at   0.000000,   0.000000,   0.000000 [a0]

Properties computed using the SCF density matrix

  Nuclear Dipole Moment: [e a0]
     X:     3.0722      Y:    -9.7118      Z:    -2.1875

  Electronic Dipole Moment: [e a0]
     X:    -2.8538      Y:     5.8804      Z:     2.1800

  Dipole Moment: [e a0]
     X:     0.2184      Y:    -3.8314      Z:    -0.0075     Total:     3.8376

  Dipole Moment: [D]
     X:     0.5550      Y:    -9.7383      Z:    -0.0190     Total:     9.7542


*** tstop() called on node102.bme.utexas.edu at Sun May 12 23:37:34 2024
Module time:
	user time   =     152.65 seconds =       2.54 minutes
	system time =       3.46 seconds =       0.06 minutes
	total time  =         23 seconds =       0.38 minutes
Total time:
	user time   =     152.65 seconds =       2.54 minutes
	system time =       3.46 seconds =       0.06 minutes
	total time  =         23 seconds =       0.38 minutes

*** tstart() called on node102.bme.utexas.edu
*** at Sun May 12 23:37:34 2024


  //>>>>>>>>>>>>>>>>>>>>>>>>>>>>>>>>>>>//
  //               DFMP2               //
  //<<<<<<<<<<<<<<<<<<<<<<<<<<<<<<<<<<<//

   => Loading Basis Set <=

    Name: (JUN-CC-PVDZ AUX)
    Role: RIFIT
    Keyword: DF_BASIS_MP2
    atoms 1, 3, 9, 14, 16, 20, 22, 24 entry N          line   144 file /opt/anaconda/envs/psi4v1.5/share/psi4/basis/jun-cc-pvdz-ri.gbs 
    atoms 2, 4-6, 15, 17-19, 21       entry C          line   100 file /opt/anaconda/envs/psi4v1.5/share/psi4/basis/jun-cc-pvdz-ri.gbs 
    atoms 7, 10-13, 23, 25-26, 28-29  entry H          line    30 file /opt/anaconda/envs/psi4v1.5/share/psi4/basis/jun-cc-pvdz-ri.gbs 
    atoms 8, 27                       entry O          line   188 file /opt/anaconda/envs/psi4v1.5/share/psi4/basis/jun-cc-pvdz-ri.gbs 

	 --------------------------------------------------------
	                          DF-MP2                         
	      2nd-Order Density-Fitted Moller-Plesset Theory     
	              RMP2 Wavefunction,   8 Threads             
	                                                         
	        Rob Parrish, Justin Turney, Andy Simmonett,      
	           Ed Hohenstein, and C. David Sherrill          
	 --------------------------------------------------------

   => Auxiliary Basis Set <=

  Basis Set: (JUN-CC-PVDZ AUX)
    Blend: JUN-CC-PVDZ-RI
    Number of shells: 459
    Number of basis functions: 1375
    Number of Cartesian functions: 1594
    Spherical Harmonics?: true
    Max angular momentum: 3

	 --------------------------------------------------------
	                 NBF =   392, NAUX =  1375
	 --------------------------------------------------------
	   CLASS    FOCC     OCC    AOCC    AVIR     VIR    FVIR
	   PAIRS      19      68      49     324     324       0
	 --------------------------------------------------------

	 Will save fitting metric to file 97.

	-----------------------------------------------------------
	 ==================> DF-MP2 Energies <==================== 
	-----------------------------------------------------------
	 Reference Energy          =    -932.1184961045950104 [Eh]
	 Singles Energy            =      -0.0000000000000000 [Eh]
	 Same-Spin Energy          =      -0.7867399471774690 [Eh]
	 Opposite-Spin Energy      =      -2.0504110737855163 [Eh]
	 Correlation Energy        =      -2.8371510209629855 [Eh]
	 Total Energy              =    -934.9556471255580163 [Eh]
	-----------------------------------------------------------
	 ================> DF-SCS-MP2 Energies <================== 
	-----------------------------------------------------------
	 SCS Same-Spin Scale       =       0.3333333333333333 [-]
	 SCS Opposite-Spin Scale   =       1.2000000000000000 [-]
	 SCS Same-Spin Energy      =      -0.2622466490591563 [Eh]
	 SCS Opposite-Spin Energy  =      -2.4604932885426196 [Eh]
	 SCS Correlation Energy    =      -2.7227399376017760 [Eh]
	 SCS Total Energy          =    -934.8412360421967833 [Eh]
	-----------------------------------------------------------


*** tstop() called on node102.bme.utexas.edu at Sun May 12 23:37:43 2024
Module time:
	user time   =      50.41 seconds =       0.84 minutes
	system time =       1.14 seconds =       0.02 minutes
	total time  =          9 seconds =       0.15 minutes
Total time:
	user time   =     203.08 seconds =       3.38 minutes
	system time =       4.60 seconds =       0.08 minutes
	total time  =         32 seconds =       0.53 minutes

  //>>>>>>>>>>>>>>>>>>>>>>>>>>>>>>>>>>>//
  //            Monomer A HF           //
  //<<<<<<<<<<<<<<<<<<<<<<<<<<<<<<<<<<<//


*** tstart() called on node102.bme.utexas.edu
*** at Sun May 12 23:37:43 2024

   => Loading Basis Set <=

    Name: JUN-CC-PVDZ
    Role: ORBITAL
    Keyword: BASIS
    atoms 1, 3, 9, 14, 16, 20, 22, 24 entry N          line   198 file /opt/anaconda/envs/psi4v1.5/share/psi4/basis/jun-cc-pvdz.gbs 
    atoms 2, 4-6, 15, 17-19, 21       entry C          line   164 file /opt/anaconda/envs/psi4v1.5/share/psi4/basis/jun-cc-pvdz.gbs 
    atoms 7, 10-13, 23, 25-26, 28-29  entry H          line    36 file /opt/anaconda/envs/psi4v1.5/share/psi4/basis/jun-cc-pvdz.gbs 
    atoms 8, 27                       entry O          line   232 file /opt/anaconda/envs/psi4v1.5/share/psi4/basis/jun-cc-pvdz.gbs 


         ---------------------------------------------------------
                                   SCF
               by Justin Turney, Rob Parrish, Andy Simmonett
                          and Daniel G. A. Smith
                              RHF Reference
                        8 Threads,  76293 MiB Core
         ---------------------------------------------------------

  ==> Geometry <==

    Molecular point group: c1
    Full point group: C1

    Geometry (in Angstrom), charge = 0, multiplicity = 1:

       Center              X                  Y                   Z               Mass       
    ------------   -----------------  -----------------  -----------------  -----------------
         N           -0.025935986011    -4.050582910336    -2.014526759242    14.003074004430
         C           -0.254538986011    -2.660287910336    -2.014580759242    12.000000000000
         N            0.830734013989    -1.844352910336    -2.014627759242    14.003074004430
         C            2.074087013989    -2.349480910336    -2.014627759242    12.000000000000
         C            2.315574013989    -3.774951910336    -2.014574759242    12.000000000000
         C            1.226681013989    -4.587105910336    -2.014527759242    12.000000000000
         H           -0.852074986011    -4.634278910336    -2.014486759242     1.007825032230
         O           -1.425690986011    -2.258359910336    -2.014587759242    15.994914619570
         N            3.093550013989    -1.484618910336    -2.014676759242    14.003074004430
         H            2.919200013989    -0.456750910336    -2.014734759242     1.007825032230
         H            4.041261013989    -1.828185910336    -2.014682759242     1.007825032230
         H            3.322942013989    -4.182549910336    -2.014570759242     1.007825032230
         H            1.295314013989    -5.674177910336    -2.014483759242     1.007825032230
      Gh(N)           0.208558013989     0.681541089664     1.453222240758    14.003074004430
      Gh(C)          -1.122027986011     0.344747089664     1.546539240758    12.000000000000
      Gh(N)          -2.100994986011     1.240969089664     1.589870240758    14.003074004430
      Gh(C)          -1.642560986011     2.508742089664     1.532220240758    12.000000000000
      Gh(C)          -0.320766986011     2.967000089664     1.436782240758    12.000000000000
      Gh(C)           0.722047013989     1.988486089664     1.391158240758    12.000000000000
      Gh(N)          -0.279286986011     4.353223089664     1.403414240758    14.003074004430
      Gh(C)          -1.531851986011     4.724960089664     1.476011240758    12.000000000000
      Gh(N)          -2.407208986011     3.649083089664     1.556314240758    14.003074004430
      Gh(H)           0.917531013989    -0.075045910336     1.424224240758     1.007825032230
      Gh(N)          -1.410044986011    -0.975237910336     1.594351240758    14.003074004430
      Gh(H)          -0.689223986011    -1.703262910336     1.563957240758     1.007825032230
      Gh(H)          -2.382687986011    -1.227748910336     1.662702240758     1.007825032230
      Gh(O)           1.949733013989     2.164879089664     1.308040240758    15.994914619570
      Gh(H)          -1.889304986011     5.749715089664     1.476385240758     1.007825032230
      Gh(H)          -3.414995986011     3.678062089664     1.620700240758     1.007825032230

  Running in c1 symmetry.

  Rotational constants: A =      0.02489  B =      0.00543  C =      0.00485 [cm^-1]
  Rotational constants: A =    746.14974  B =    162.72303  C =    145.43596 [MHz]
  Nuclear repulsion =  355.312363002821201

  Charge       = 0
  Multiplicity = 1
  Electrons    = 58
  Nalpha       = 29
  Nbeta        = 29

  ==> Algorithm <==

  SCF Algorithm Type is DF.
  DIIS enabled.
  MOM disabled.
  Fractional occupation disabled.
  Guess Type is SAD.
  Energy threshold   = 1.00e-08
  Density threshold  = 1.00e-08
  Integral threshold = 1.00e-12

  ==> Primary Basis <==

  Basis Set: JUN-CC-PVDZ
    Blend: JUN-CC-PVDZ
    Number of shells: 182
    Number of basis functions: 392
    Number of Cartesian functions: 411
    Spherical Harmonics?: true
    Max angular momentum: 2

   => Loading Basis Set <=

    Name: (JUN-CC-PVDZ AUX)
    Role: JKFIT
    Keyword: DF_BASIS_SCF
    atoms 1, 3, 9, 14, 16, 20, 22, 24 entry N          line   202 file /opt/anaconda/envs/psi4v1.5/share/psi4/basis/jun-cc-pvdz-jkfit.gbs 
    atoms 2, 4-6, 15, 17-19, 21       entry C          line   146 file /opt/anaconda/envs/psi4v1.5/share/psi4/basis/jun-cc-pvdz-jkfit.gbs 
    atoms 7, 10-13, 23, 25-26, 28-29  entry H          line    70 file /opt/anaconda/envs/psi4v1.5/share/psi4/basis/jun-cc-pvdz-jkfit.gbs 
    atoms 8, 27                       entry O          line   258 file /opt/anaconda/envs/psi4v1.5/share/psi4/basis/jun-cc-pvdz-jkfit.gbs 

  ==> Integral Setup <==

  ==> DiskDFJK: Density-Fitted J/K Matrices <==

    J tasked:                  Yes
    K tasked:                  Yes
    wK tasked:                  No
    OpenMP threads:              8
    Integrals threads:           8
    Memory [MiB]:            57220
    Algorithm:                Core
    Integral Cache:           LOAD
    Schwarz Cutoff:          1E-12
    Fitting Condition:       1E-10

   => Auxiliary Basis Set <=

  Basis Set: (JUN-CC-PVDZ AUX)
    Blend: JUN-CC-PVDZ-JKFIT
    Number of shells: 603
    Number of basis functions: 1731
    Number of Cartesian functions: 1979
    Spherical Harmonics?: true
    Max angular momentum: 3

  Minimum eigenvalue in the overlap matrix is 1.1652423164E-05.
  Reciprocal condition number of the overlap matrix is 8.8876775159E-07.
    Using symmetric orthogonalization.

  ==> Pre-Iterations <==

  SCF Guess: Superposition of Atomic Densities via on-the-fly atomic UHF (no occupation information).

   -------------------------
    Irrep   Nso     Nmo    
   -------------------------
     A        392     392 
   -------------------------
    Total     392     392
   -------------------------

  ==> Iterations <==

                           Total Energy        Delta E     RMS |[F,P]|

   @DF-RHF iter SAD:  -392.02258853703381   -3.92023e+02   0.00000e+00 
   @DF-RHF iter   1:  -392.41197156112594   -3.89383e-01   1.77463e-03 DIIS
   @DF-RHF iter   2:  -392.59891018417784   -1.86939e-01   9.96328e-04 DIIS
   @DF-RHF iter   3:  -392.65671002793567   -5.77998e-02   1.90940e-04 DIIS
   @DF-RHF iter   4:  -392.65990109215670   -3.19106e-03   8.17497e-05 DIIS
   @DF-RHF iter   5:  -392.66052920091715   -6.28109e-04   1.71439e-05 DIIS
   @DF-RHF iter   6:  -392.66059384319414   -6.46423e-05   9.41554e-06 DIIS
   @DF-RHF iter   7:  -392.66061148905175   -1.76459e-05   3.24698e-06 DIIS
   @DF-RHF iter   8:  -392.66061430724790   -2.81820e-06   1.13892e-06 DIIS
   @DF-RHF iter   9:  -392.66061456632002   -2.59072e-07   4.61529e-07 DIIS
   @DF-RHF iter  10:  -392.66061461409822   -4.77782e-08   1.52834e-07 DIIS
   @DF-RHF iter  11:  -392.66061462047526   -6.37704e-09   3.81581e-08 DIIS
   @DF-RHF iter  12:  -392.66061462079665   -3.21393e-10   1.47599e-08 DIIS
   @DF-RHF iter  13:  -392.66061462084122   -4.45652e-11   5.35437e-09 DIIS
  Energy and wave function converged.


  ==> Post-Iterations <==

    Orbital Energies [Eh]
    ---------------------

    Doubly Occupied:                                                      

       1A    -20.501286     2A    -15.631041     3A    -15.617334  
       4A    -15.545612     5A    -11.374446     6A    -11.367318  
       7A    -11.343865     8A    -11.259927     9A     -1.379295  
      10A     -1.299498    11A     -1.268768    12A     -1.174341  
      13A     -1.070630    14A     -0.907053    15A     -0.881617  
      16A     -0.766876    17A     -0.763565    18A     -0.730783  
      19A     -0.680304    20A     -0.625414    21A     -0.624157  
      22A     -0.615723    23A     -0.584699    24A     -0.542599  
      25A     -0.484585    26A     -0.432239    27A     -0.416536  
      28A     -0.383095    29A     -0.343144  

    Virtual:                                                              

      30A      0.036396    31A      0.040663    32A      0.048439  
      33A      0.056734    34A      0.061482    35A      0.071189  
      36A      0.077408    37A      0.081674    38A      0.085197  
      39A      0.089011    40A      0.098893    41A      0.100979  
      42A      0.105466    43A      0.110973    44A      0.115692  
      45A      0.117048    46A      0.122908    47A      0.128114  
      48A      0.132089    49A      0.136420    50A      0.141688  
      51A      0.150185    52A      0.151375    53A      0.154680  
      54A      0.160372    55A      0.165928    56A      0.173261  
      57A      0.175052    58A      0.177860    59A      0.184857  
      60A      0.187716    61A      0.193860    62A      0.198839  
      63A      0.205937    64A      0.208149    65A      0.214825  
      66A      0.218863    67A      0.222410    68A      0.226630  
      69A      0.233724    70A      0.238331    71A      0.239306  
      72A      0.243887    73A      0.246751    74A      0.248397  
      75A      0.254290    76A      0.260430    77A      0.263515  
      78A      0.266125    79A      0.268481    80A      0.272797  
      81A      0.279935    82A      0.282600    83A      0.287016  
      84A      0.295937    85A      0.298325    86A      0.300695  
      87A      0.309591    88A      0.310523    89A      0.314576  
      90A      0.318694    91A      0.324882    92A      0.325723  
      93A      0.336934    94A      0.340453    95A      0.348661  
      96A      0.350775    97A      0.355143    98A      0.359963  
      99A      0.368677   100A      0.371141   101A      0.379061  
     102A      0.382558   103A      0.391033   104A      0.392855  
     105A      0.396224   106A      0.400558   107A      0.403596  
     108A      0.420366   109A      0.427547   110A      0.441788  
     111A      0.444078   112A      0.444354   113A      0.456212  
     114A      0.466586   115A      0.480764   116A      0.495797  
     117A      0.503430   118A      0.515330   119A      0.524064  
     120A      0.526151   121A      0.536272   122A      0.548478  
     123A      0.551184   124A      0.562686   125A      0.565449  
     126A      0.572138   127A      0.581440   128A      0.587053  
     129A      0.597557   130A      0.606630   131A      0.613151  
     132A      0.623358   133A      0.643260   134A      0.652330  
     135A      0.669676   136A      0.673026   137A      0.686209  
     138A      0.692182   139A      0.701050   140A      0.706528  
     141A      0.758161   142A      0.768378   143A      0.789442  
     144A      0.797206   145A      0.798238   146A      0.801255  
     147A      0.804432   148A      0.817359   149A      0.834480  
     150A      0.839626   151A      0.846418   152A      0.852335  
     153A      0.856586   154A      0.891911   155A      0.907037  
     156A      0.907820   157A      0.911982   158A      0.916725  
     159A      0.925544   160A      0.934988   161A      0.939329  
     162A      0.952738   163A      0.957562   164A      0.965500  
     165A      0.983462   166A      1.014672   167A      1.026769  
     168A      1.034136   169A      1.041115   170A      1.053065  
     171A      1.070695   172A      1.077354   173A      1.092074  
     174A      1.094505   175A      1.099028   176A      1.128717  
     177A      1.137942   178A      1.140305   179A      1.157090  
     180A      1.160418   181A      1.164690   182A      1.189617  
     183A      1.195679   184A      1.212819   185A      1.232733  
     186A      1.244077   187A      1.261414   188A      1.268384  
     189A      1.270868   190A      1.274327   191A      1.287705  
     192A      1.304217   193A      1.307502   194A      1.311186  
     195A      1.324710   196A      1.340081   197A      1.347600  
     198A      1.352267   199A      1.359456   200A      1.396099  
     201A      1.416086   202A      1.441979   203A      1.449984  
     204A      1.475923   205A      1.504756   206A      1.572453  
     207A      1.589635   208A      1.603752   209A      1.610508  
     210A      1.644573   211A      1.704010   212A      1.750265  
     213A      1.751564   214A      1.782122   215A      1.783917  
     216A      1.817523   217A      1.819896   218A      1.825898  
     219A      1.854969   220A      1.861926   221A      1.864423  
     222A      1.887387   223A      1.891629   224A      1.907699  
     225A      1.926479   226A      1.931659   227A      1.936486  
     228A      1.938006   229A      1.954372   230A      1.958134  
     231A      1.972585   232A      1.990304   233A      1.999766  
     234A      2.028687   235A      2.039210   236A      2.042360  
     237A      2.047819   238A      2.064193   239A      2.070205  
     240A      2.081132   241A      2.084633   242A      2.099909  
     243A      2.110246   244A      2.114324   245A      2.128998  
     246A      2.134893   247A      2.139311   248A      2.153793  
     249A      2.170285   250A      2.183312   251A      2.192973  
     252A      2.200324   253A      2.209675   254A      2.216129  
     255A      2.219105   256A      2.256346   257A      2.269409  
     258A      2.285550   259A      2.317649   260A      2.328321  
     261A      2.345755   262A      2.358761   263A      2.362413  
     264A      2.367100   265A      2.379663   266A      2.384448  
     267A      2.401420   268A      2.423004   269A      2.433820  
     270A      2.469637   271A      2.480965   272A      2.495448  
     273A      2.496360   274A      2.503283   275A      2.515558  
     276A      2.517014   277A      2.543399   278A      2.550855  
     279A      2.557171   280A      2.559794   281A      2.570124  
     282A      2.577428   283A      2.595509   284A      2.643893  
     285A      2.656265   286A      2.680158   287A      2.701155  
     288A      2.727419   289A      2.736632   290A      2.757537  
     291A      2.765934   292A      2.790892   293A      2.813525  
     294A      2.824243   295A      2.832782   296A      2.838447  
     297A      2.855480   298A      2.878111   299A      2.898494  
     300A      2.943354   301A      2.957119   302A      2.979763  
     303A      2.993819   304A      3.001744   305A      3.031632  
     306A      3.036915   307A      3.051671   308A      3.064787  
     309A      3.076159   310A      3.118506   311A      3.121223  
     312A      3.135636   313A      3.155384   314A      3.173370  
     315A      3.196324   316A      3.219298   317A      3.251991  
     318A      3.278838   319A      3.295045   320A      3.321871  
     321A      3.328041   322A      3.354721   323A      3.402298  
     324A      3.413792   325A      3.427659   326A      3.451457  
     327A      3.506047   328A      3.521459   329A      3.532376  
     330A      3.571277   331A      3.588345   332A      3.627709  
     333A      3.690138   334A      3.695197   335A      3.722811  
     336A      3.746666   337A      3.793379   338A      3.835418  
     339A      3.875263   340A      3.919851   341A      3.927048  
     342A      3.972359   343A      4.076828   344A      4.083940  
     345A      4.114549   346A      4.155689   347A      4.162831  
     348A      4.241112   349A      4.272800   350A      4.291091  
     351A      4.311724   352A      4.339297   353A      4.343729  
     354A      4.353332   355A      4.400124   356A      4.427340  
     357A      4.507646   358A      4.579574   359A      4.626949  
     360A      4.699218   361A      4.740347   362A      4.770140  
     363A      4.851499   364A      4.888651   365A      4.911057  
     366A      5.034131   367A      5.176837   368A      5.191210  
     369A      5.332986   370A      5.509948   371A      5.642885  
     372A      5.659298   373A      5.684954   374A      5.759473  
     375A      5.923947   376A      6.043732   377A      6.086988  
     378A      6.127949   379A      6.163920   380A      6.230847  
     381A      6.876573   382A     18.165996   383A     18.465008  
     384A     18.527111   385A     18.532200   386A     18.900182  
     387A     25.304427   388A     25.340146   389A     25.414401  
     390A     25.431091   391A     25.469862   392A     33.521372  

    Final Occupation by Irrep:
              A 
    DOCC [    29 ]

  @DF-RHF Final Energy:  -392.66061462084122

   => Energetics <=

    Nuclear Repulsion Energy =            355.3123630028212006
    One-Electron Energy =               -1238.7144567844268295
    Two-Electron Energy =                 490.7414791607643565
    Total Energy =                       -392.6606146208412156

Computation Completed


Properties will be evaluated at   0.000000,   0.000000,   0.000000 [a0]

Properties computed using the SCF density matrix

  Nuclear Dipole Moment: [e a0]
     X:   111.0788      Y:  -315.0753      Z:  -220.8076

  Electronic Dipole Moment: [e a0]
     X:  -108.4619      Y:   313.3394      Z:   220.8058

  Dipole Moment: [e a0]
     X:     2.6169      Y:    -1.7359      Z:    -0.0018     Total:     3.1403

  Dipole Moment: [D]
     X:     6.6515      Y:    -4.4123      Z:    -0.0046     Total:     7.9819


*** tstop() called on node102.bme.utexas.edu at Sun May 12 23:37:55 2024
Module time:
	user time   =      74.79 seconds =       1.25 minutes
	system time =       1.44 seconds =       0.02 minutes
	total time  =         12 seconds =       0.20 minutes
Total time:
	user time   =     277.91 seconds =       4.63 minutes
	system time =       6.05 seconds =       0.10 minutes
	total time  =         44 seconds =       0.73 minutes

*** tstart() called on node102.bme.utexas.edu
*** at Sun May 12 23:37:55 2024


  //>>>>>>>>>>>>>>>>>>>>>>>>>>>>>>>>>>>//
  //               DFMP2               //
  //<<<<<<<<<<<<<<<<<<<<<<<<<<<<<<<<<<<//

   => Loading Basis Set <=

    Name: (JUN-CC-PVDZ AUX)
    Role: RIFIT
    Keyword: DF_BASIS_MP2
    atoms 1, 3, 9, 14, 16, 20, 22, 24 entry N          line   144 file /opt/anaconda/envs/psi4v1.5/share/psi4/basis/jun-cc-pvdz-ri.gbs 
    atoms 2, 4-6, 15, 17-19, 21       entry C          line   100 file /opt/anaconda/envs/psi4v1.5/share/psi4/basis/jun-cc-pvdz-ri.gbs 
    atoms 7, 10-13, 23, 25-26, 28-29  entry H          line    30 file /opt/anaconda/envs/psi4v1.5/share/psi4/basis/jun-cc-pvdz-ri.gbs 
    atoms 8, 27                       entry O          line   188 file /opt/anaconda/envs/psi4v1.5/share/psi4/basis/jun-cc-pvdz-ri.gbs 

	 --------------------------------------------------------
	                          DF-MP2                         
	      2nd-Order Density-Fitted Moller-Plesset Theory     
	              RMP2 Wavefunction,   8 Threads             
	                                                         
	        Rob Parrish, Justin Turney, Andy Simmonett,      
	           Ed Hohenstein, and C. David Sherrill          
	 --------------------------------------------------------

   => Auxiliary Basis Set <=

  Basis Set: (JUN-CC-PVDZ AUX)
    Blend: JUN-CC-PVDZ-RI
    Number of shells: 459
    Number of basis functions: 1375
    Number of Cartesian functions: 1594
    Spherical Harmonics?: true
    Max angular momentum: 3

	 --------------------------------------------------------
	                 NBF =   392, NAUX =  1375
	 --------------------------------------------------------
	   CLASS    FOCC     OCC    AOCC    AVIR     VIR    FVIR
	   PAIRS       8      29      21     363     363       0
	 --------------------------------------------------------

	 Will attempt to load fitting metric from file 97.

	-----------------------------------------------------------
	 ==================> DF-MP2 Energies <==================== 
	-----------------------------------------------------------
	 Reference Energy          =    -392.6606146208412156 [Eh]
	 Singles Energy            =      -0.0000000000000000 [Eh]
	 Same-Spin Energy          =      -0.3257563113038243 [Eh]
	 Opposite-Spin Energy      =      -0.8658950422210914 [Eh]
	 Correlation Energy        =      -1.1916513535249158 [Eh]
	 Total Energy              =    -393.8522659743661052 [Eh]
	-----------------------------------------------------------
	 ================> DF-SCS-MP2 Energies <================== 
	-----------------------------------------------------------
	 SCS Same-Spin Scale       =       0.3333333333333333 [-]
	 SCS Opposite-Spin Scale   =       1.2000000000000000 [-]
	 SCS Same-Spin Energy      =      -0.1085854371012748 [Eh]
	 SCS Opposite-Spin Energy  =      -1.0390740506653096 [Eh]
	 SCS Correlation Energy    =      -1.1476594877665844 [Eh]
	 SCS Total Energy          =    -393.8082741086078045 [Eh]
	-----------------------------------------------------------


*** tstop() called on node102.bme.utexas.edu at Sun May 12 23:38:01 2024
Module time:
	user time   =      31.64 seconds =       0.53 minutes
	system time =       0.75 seconds =       0.01 minutes
	total time  =          6 seconds =       0.10 minutes
Total time:
	user time   =     309.56 seconds =       5.16 minutes
	system time =       6.80 seconds =       0.11 minutes
	total time  =         50 seconds =       0.83 minutes

  //>>>>>>>>>>>>>>>>>>>>>>>>>>>>>>>>>>>//
  //            Monomer B HF           //
  //<<<<<<<<<<<<<<<<<<<<<<<<<<<<<<<<<<<//


*** tstart() called on node102.bme.utexas.edu
*** at Sun May 12 23:38:01 2024

   => Loading Basis Set <=

    Name: JUN-CC-PVDZ
    Role: ORBITAL
    Keyword: BASIS
    atoms 1, 3, 9, 14, 16, 20, 22, 24 entry N          line   198 file /opt/anaconda/envs/psi4v1.5/share/psi4/basis/jun-cc-pvdz.gbs 
    atoms 2, 4-6, 15, 17-19, 21       entry C          line   164 file /opt/anaconda/envs/psi4v1.5/share/psi4/basis/jun-cc-pvdz.gbs 
    atoms 7, 10-13, 23, 25-26, 28-29  entry H          line    36 file /opt/anaconda/envs/psi4v1.5/share/psi4/basis/jun-cc-pvdz.gbs 
    atoms 8, 27                       entry O          line   232 file /opt/anaconda/envs/psi4v1.5/share/psi4/basis/jun-cc-pvdz.gbs 


         ---------------------------------------------------------
                                   SCF
               by Justin Turney, Rob Parrish, Andy Simmonett
                          and Daniel G. A. Smith
                              RHF Reference
                        8 Threads,  76293 MiB Core
         ---------------------------------------------------------

  ==> Geometry <==

    Molecular point group: c1
    Full point group: C1

    Geometry (in Angstrom), charge = 0, multiplicity = 1:

       Center              X                  Y                   Z               Mass       
    ------------   -----------------  -----------------  -----------------  -----------------
      Gh(N)          -0.025935986011    -4.050582910336    -2.014526759242    14.003074004430
      Gh(C)          -0.254538986011    -2.660287910336    -2.014580759242    12.000000000000
      Gh(N)           0.830734013989    -1.844352910336    -2.014627759242    14.003074004430
      Gh(C)           2.074087013989    -2.349480910336    -2.014627759242    12.000000000000
      Gh(C)           2.315574013989    -3.774951910336    -2.014574759242    12.000000000000
      Gh(C)           1.226681013989    -4.587105910336    -2.014527759242    12.000000000000
      Gh(H)          -0.852074986011    -4.634278910336    -2.014486759242     1.007825032230
      Gh(O)          -1.425690986011    -2.258359910336    -2.014587759242    15.994914619570
      Gh(N)           3.093550013989    -1.484618910336    -2.014676759242    14.003074004430
      Gh(H)           2.919200013989    -0.456750910336    -2.014734759242     1.007825032230
      Gh(H)           4.041261013989    -1.828185910336    -2.014682759242     1.007825032230
      Gh(H)           3.322942013989    -4.182549910336    -2.014570759242     1.007825032230
      Gh(H)           1.295314013989    -5.674177910336    -2.014483759242     1.007825032230
         N            0.208558013989     0.681541089664     1.453222240758    14.003074004430
         C           -1.122027986011     0.344747089664     1.546539240758    12.000000000000
         N           -2.100994986011     1.240969089664     1.589870240758    14.003074004430
         C           -1.642560986011     2.508742089664     1.532220240758    12.000000000000
         C           -0.320766986011     2.967000089664     1.436782240758    12.000000000000
         C            0.722047013989     1.988486089664     1.391158240758    12.000000000000
         N           -0.279286986011     4.353223089664     1.403414240758    14.003074004430
         C           -1.531851986011     4.724960089664     1.476011240758    12.000000000000
         N           -2.407208986011     3.649083089664     1.556314240758    14.003074004430
         H            0.917531013989    -0.075045910336     1.424224240758     1.007825032230
         N           -1.410044986011    -0.975237910336     1.594351240758    14.003074004430
         H           -0.689223986011    -1.703262910336     1.563957240758     1.007825032230
         H           -2.382687986011    -1.227748910336     1.662702240758     1.007825032230
         O            1.949733013989     2.164879089664     1.308040240758    15.994914619570
         H           -1.889304986011     5.749715089664     1.476385240758     1.007825032230
         H           -3.414995986011     3.678062089664     1.620700240758     1.007825032230

  Running in c1 symmetry.

  Rotational constants: A =      0.02489  B =      0.00543  C =      0.00485 [cm^-1]
  Rotational constants: A =    746.14974  B =    162.72303  C =    145.43596 [MHz]
  Nuclear repulsion =  593.872093725379045

  Charge       = 0
  Multiplicity = 1
  Electrons    = 78
  Nalpha       = 39
  Nbeta        = 39

  ==> Algorithm <==

  SCF Algorithm Type is DF.
  DIIS enabled.
  MOM disabled.
  Fractional occupation disabled.
  Guess Type is SAD.
  Energy threshold   = 1.00e-08
  Density threshold  = 1.00e-08
  Integral threshold = 1.00e-12

  ==> Primary Basis <==

  Basis Set: JUN-CC-PVDZ
    Blend: JUN-CC-PVDZ
    Number of shells: 182
    Number of basis functions: 392
    Number of Cartesian functions: 411
    Spherical Harmonics?: true
    Max angular momentum: 2

   => Loading Basis Set <=

    Name: (JUN-CC-PVDZ AUX)
    Role: JKFIT
    Keyword: DF_BASIS_SCF
    atoms 1, 3, 9, 14, 16, 20, 22, 24 entry N          line   202 file /opt/anaconda/envs/psi4v1.5/share/psi4/basis/jun-cc-pvdz-jkfit.gbs 
    atoms 2, 4-6, 15, 17-19, 21       entry C          line   146 file /opt/anaconda/envs/psi4v1.5/share/psi4/basis/jun-cc-pvdz-jkfit.gbs 
    atoms 7, 10-13, 23, 25-26, 28-29  entry H          line    70 file /opt/anaconda/envs/psi4v1.5/share/psi4/basis/jun-cc-pvdz-jkfit.gbs 
    atoms 8, 27                       entry O          line   258 file /opt/anaconda/envs/psi4v1.5/share/psi4/basis/jun-cc-pvdz-jkfit.gbs 

  ==> Integral Setup <==

  ==> DiskDFJK: Density-Fitted J/K Matrices <==

    J tasked:                  Yes
    K tasked:                  Yes
    wK tasked:                  No
    OpenMP threads:              8
    Integrals threads:           8
    Memory [MiB]:            57220
    Algorithm:                Core
    Integral Cache:           LOAD
    Schwarz Cutoff:          1E-12
    Fitting Condition:       1E-10

   => Auxiliary Basis Set <=

  Basis Set: (JUN-CC-PVDZ AUX)
    Blend: JUN-CC-PVDZ-JKFIT
    Number of shells: 603
    Number of basis functions: 1731
    Number of Cartesian functions: 1979
    Spherical Harmonics?: true
    Max angular momentum: 3

  Minimum eigenvalue in the overlap matrix is 1.1652423164E-05.
  Reciprocal condition number of the overlap matrix is 8.8876775159E-07.
    Using symmetric orthogonalization.

  ==> Pre-Iterations <==

  SCF Guess: Superposition of Atomic Densities via on-the-fly atomic UHF (no occupation information).

   -------------------------
    Irrep   Nso     Nmo    
   -------------------------
     A        392     392 
   -------------------------
    Total     392     392
   -------------------------

  ==> Iterations <==

                           Total Energy        Delta E     RMS |[F,P]|

   @DF-RHF iter SAD:  -539.22325590790854   -5.39223e+02   0.00000e+00 
   @DF-RHF iter   1:  -539.14284250642015    8.04134e-02   1.95421e-03 DIIS
   @DF-RHF iter   2:  -539.36558472113029   -2.22742e-01   1.16787e-03 DIIS
   @DF-RHF iter   3:  -539.44771734516678   -8.21326e-02   2.43115e-04 DIIS
   @DF-RHF iter   4:  -539.45273772191820   -5.02038e-03   9.40306e-05 DIIS
   @DF-RHF iter   5:  -539.45360374037773   -8.66018e-04   2.10562e-05 DIIS
   @DF-RHF iter   6:  -539.45369748565872   -9.37453e-05   1.12340e-05 DIIS
   @DF-RHF iter   7:  -539.45372493379944   -2.74481e-05   4.55821e-06 DIIS
   @DF-RHF iter   8:  -539.45372968068727   -4.74689e-06   1.55410e-06 DIIS
   @DF-RHF iter   9:  -539.45373018097166   -5.00284e-07   6.02141e-07 DIIS
   @DF-RHF iter  10:  -539.45373027244193   -9.14703e-08   2.56866e-07 DIIS
   @DF-RHF iter  11:  -539.45373028609083   -1.36489e-08   1.04559e-07 DIIS
   @DF-RHF iter  12:  -539.45373028812776   -2.03693e-09   3.20328e-08 DIIS
   @DF-RHF iter  13:  -539.45373028834638   -2.18620e-10   1.42373e-08 DIIS
   @DF-RHF iter  14:  -539.45373028838662   -4.02451e-11   4.79742e-09 DIIS
  Energy and wave function converged.


  ==> Post-Iterations <==

    Orbital Energies [Eh]
    ---------------------

    Doubly Occupied:                                                      

       1A    -20.522077     2A    -15.645676     3A    -15.636507  
       4A    -15.631691     5A    -15.576299     6A    -15.569046  
       7A    -11.414781     8A    -11.370605     9A    -11.333322  
      10A    -11.317523    11A    -11.250339    12A     -1.393885  
      13A     -1.355150    14A     -1.338403    15A     -1.231622  
      16A     -1.222807    17A     -1.177334    18A     -1.033091  
      19A     -0.908981    20A     -0.898009    21A     -0.839545  
      22A     -0.807689    23A     -0.747975    24A     -0.743498  
      25A     -0.712555    26A     -0.673071    27A     -0.659311  
      28A     -0.637775    29A     -0.606498    30A     -0.598981  
      31A     -0.598674    32A     -0.545748    33A     -0.495543  
      34A     -0.455544    35A     -0.436365    36A     -0.429995  
      37A     -0.424994    38A     -0.406974    39A     -0.296188  

    Virtual:                                                              

      40A      0.019052    41A      0.044791    42A      0.046981  
      43A      0.048955    44A      0.052590    45A      0.069903  
      46A      0.078563    47A      0.081209    48A      0.087835  
      49A      0.088508    50A      0.091941    51A      0.094428  
      52A      0.106362    53A      0.107411    54A      0.114216  
      55A      0.119232    56A      0.123954    57A      0.129218  
      58A      0.130552    59A      0.133315    60A      0.140179  
      61A      0.146343    62A      0.146582    63A      0.151617  
      64A      0.156881    65A      0.160698    66A      0.165237  
      67A      0.165303    68A      0.173969    69A      0.177477  
      70A      0.182834    71A      0.186805    72A      0.189011  
      73A      0.196493    74A      0.200381    75A      0.202253  
      76A      0.210146    77A      0.211263    78A      0.216772  
      79A      0.224739    80A      0.227057    81A      0.231151  
      82A      0.232830    83A      0.235872    84A      0.240045  
      85A      0.242753    86A      0.250183    87A      0.256342  
      88A      0.260847    89A      0.263879    90A      0.270007  
      91A      0.271530    92A      0.278261    93A      0.282149  
      94A      0.287470    95A      0.291838    96A      0.296190  
      97A      0.298046    98A      0.304240    99A      0.310258  
     100A      0.313387   101A      0.318133   102A      0.322163  
     103A      0.326496   104A      0.332600   105A      0.332816  
     106A      0.341381   107A      0.346712   108A      0.353477  
     109A      0.360124   110A      0.360650   111A      0.367631  
     112A      0.372027   113A      0.382208   114A      0.398388  
     115A      0.399603   116A      0.408197   117A      0.410681  
     118A      0.415264   119A      0.422548   120A      0.422857  
     121A      0.433338   122A      0.436029   123A      0.444287  
     124A      0.449801   125A      0.457269   126A      0.460538  
     127A      0.473652   128A      0.481370   129A      0.487041  
     130A      0.493458   131A      0.496777   132A      0.500184  
     133A      0.510906   134A      0.516125   135A      0.532582  
     136A      0.535815   137A      0.544741   138A      0.552587  
     139A      0.563670   140A      0.576590   141A      0.586162  
     142A      0.598433   143A      0.615354   144A      0.618400  
     145A      0.621553   146A      0.630258   147A      0.650897  
     148A      0.666599   149A      0.676174   150A      0.713579  
     151A      0.727644   152A      0.736835   153A      0.760534  
     154A      0.778045   155A      0.782915   156A      0.788095  
     157A      0.812092   158A      0.819764   159A      0.829976  
     160A      0.853960   161A      0.856558   162A      0.861718  
     163A      0.870196   164A      0.877704   165A      0.879354  
     166A      0.884486   167A      0.885183   168A      0.902601  
     169A      0.914678   170A      0.945968   171A      0.961137  
     172A      0.963662   173A      0.971213   174A      0.992654  
     175A      1.000921   176A      1.016836   177A      1.020388  
     178A      1.039124   179A      1.060203   180A      1.068736  
     181A      1.073517   182A      1.080613   183A      1.084050  
     184A      1.096613   185A      1.110250   186A      1.121793  
     187A      1.129275   188A      1.143376   189A      1.150751  
     190A      1.163841   191A      1.173135   192A      1.188576  
     193A      1.195162   194A      1.207746   195A      1.214367  
     196A      1.217035   197A      1.235407   198A      1.237603  
     199A      1.255444   200A      1.257405   201A      1.268931  
     202A      1.281035   203A      1.289201   204A      1.303975  
     205A      1.309145   206A      1.313301   207A      1.325275  
     208A      1.327812   209A      1.333796   210A      1.340187  
     211A      1.364188   212A      1.373826   213A      1.391025  
     214A      1.415588   215A      1.424205   216A      1.430263  
     217A      1.486103   218A      1.492650   219A      1.516627  
     220A      1.524432   221A      1.577417   222A      1.584335  
     223A      1.600746   224A      1.625409   225A      1.676087  
     226A      1.705476   227A      1.732177   228A      1.737759  
     229A      1.771046   230A      1.775668   231A      1.797940  
     232A      1.819021   233A      1.826416   234A      1.831746  
     235A      1.843318   236A      1.843640   237A      1.847215  
     238A      1.874214   239A      1.878961   240A      1.882492  
     241A      1.888687   242A      1.897727   243A      1.915122  
     244A      1.921096   245A      1.937054   246A      1.954080  
     247A      1.964878   248A      1.965764   249A      1.971844  
     250A      1.984099   251A      2.015820   252A      2.019117  
     253A      2.022137   254A      2.052226   255A      2.065390  
     256A      2.068680   257A      2.073688   258A      2.077175  
     259A      2.091987   260A      2.102989   261A      2.133312  
     262A      2.142879   263A      2.150458   264A      2.166008  
     265A      2.170373   266A      2.174605   267A      2.184072  
     268A      2.201927   269A      2.220601   270A      2.224855  
     271A      2.229722   272A      2.252887   273A      2.262739  
     274A      2.273338   275A      2.280522   276A      2.298591  
     277A      2.305640   278A      2.318338   279A      2.320943  
     280A      2.329525   281A      2.346009   282A      2.372336  
     283A      2.382661   284A      2.391886   285A      2.399933  
     286A      2.425293   287A      2.431299   288A      2.456559  
     289A      2.470226   290A      2.472182   291A      2.477585  
     292A      2.513942   293A      2.531484   294A      2.547026  
     295A      2.557119   296A      2.564950   297A      2.570085  
     298A      2.620119   299A      2.631059   300A      2.640052  
     301A      2.669215   302A      2.676156   303A      2.694407  
     304A      2.710212   305A      2.716047   306A      2.728246  
     307A      2.735750   308A      2.752345   309A      2.776653  
     310A      2.797936   311A      2.822491   312A      2.831717  
     313A      2.861102   314A      2.878129   315A      2.893645  
     316A      2.929871   317A      2.937198   318A      2.947830  
     319A      2.970397   320A      2.974382   321A      3.015803  
     322A      3.022714   323A      3.033136   324A      3.064167  
     325A      3.088721   326A      3.100983   327A      3.117348  
     328A      3.133124   329A      3.146202   330A      3.157231  
     331A      3.196730   332A      3.207979   333A      3.242057  
     334A      3.274123   335A      3.279289   336A      3.289000  
     337A      3.301536   338A      3.338524   339A      3.364848  
     340A      3.382655   341A      3.399293   342A      3.499733  
     343A      3.501941   344A      3.516652   345A      3.559024  
     346A      3.592220   347A      3.630172   348A      3.647319  
     349A      3.691442   350A      3.716925   351A      3.739308  
     352A      3.749900   353A      3.809344   354A      3.847443  
     355A      3.938315   356A      4.034070   357A      4.067360  
     358A      4.123450   359A      4.152695   360A      4.216784  
     361A      4.256281   362A      4.264696   363A      4.305643  
     364A      4.327688   365A      4.332759   366A      4.377451  
     367A      4.513625   368A      4.591169   369A      4.720697  
     370A      4.816093   371A      4.856984   372A      4.899575  
     373A      5.084049   374A      5.174913   375A      5.458215  
     376A      5.558932   377A      5.608368   378A      5.629996  
     379A      5.744821   380A      5.934527   381A      6.024864  
     382A      6.058489   383A      6.271379   384A      6.792904  
     385A     18.094178   386A     18.400312   387A     18.496883  
     388A     18.871490   389A     25.301008   390A     25.386876  
     391A     25.440799   392A     33.494061  

    Final Occupation by Irrep:
              A 
    DOCC [    39 ]

  @DF-RHF Final Energy:  -539.45373028838662

   => Energetics <=

    Nuclear Repulsion Energy =            593.8720937253790453
    One-Electron Energy =               -1912.7634998358084886
    Two-Electron Energy =                 779.4376758220428201
    Total Energy =                       -539.4537302883866232

Computation Completed


Properties will be evaluated at   0.000000,   0.000000,   0.000000 [a0]

Properties computed using the SCF density matrix

  Nuclear Dipole Moment: [e a0]
     X:  -108.0066      Y:   305.3635      Z:   218.6201

  Electronic Dipole Moment: [e a0]
     X:   105.6058      Y:  -307.3394      Z:  -218.4227

  Dipole Moment: [e a0]
     X:    -2.4008      Y:    -1.9759      Z:     0.1974     Total:     3.1156

  Dipole Moment: [D]
     X:    -6.1023      Y:    -5.0222      Z:     0.5017     Total:     7.9191


*** tstop() called on node102.bme.utexas.edu at Sun May 12 23:38:15 2024
Module time:
	user time   =      87.66 seconds =       1.46 minutes
	system time =       1.66 seconds =       0.03 minutes
	total time  =         14 seconds =       0.23 minutes
Total time:
	user time   =     397.28 seconds =       6.62 minutes
	system time =       8.46 seconds =       0.14 minutes
	total time  =         64 seconds =       1.07 minutes

*** tstart() called on node102.bme.utexas.edu
*** at Sun May 12 23:38:15 2024


  //>>>>>>>>>>>>>>>>>>>>>>>>>>>>>>>>>>>//
  //               DFMP2               //
  //<<<<<<<<<<<<<<<<<<<<<<<<<<<<<<<<<<<//

   => Loading Basis Set <=

    Name: (JUN-CC-PVDZ AUX)
    Role: RIFIT
    Keyword: DF_BASIS_MP2
    atoms 1, 3, 9, 14, 16, 20, 22, 24 entry N          line   144 file /opt/anaconda/envs/psi4v1.5/share/psi4/basis/jun-cc-pvdz-ri.gbs 
    atoms 2, 4-6, 15, 17-19, 21       entry C          line   100 file /opt/anaconda/envs/psi4v1.5/share/psi4/basis/jun-cc-pvdz-ri.gbs 
    atoms 7, 10-13, 23, 25-26, 28-29  entry H          line    30 file /opt/anaconda/envs/psi4v1.5/share/psi4/basis/jun-cc-pvdz-ri.gbs 
    atoms 8, 27                       entry O          line   188 file /opt/anaconda/envs/psi4v1.5/share/psi4/basis/jun-cc-pvdz-ri.gbs 

	 --------------------------------------------------------
	                          DF-MP2                         
	      2nd-Order Density-Fitted Moller-Plesset Theory     
	              RMP2 Wavefunction,   8 Threads             
	                                                         
	        Rob Parrish, Justin Turney, Andy Simmonett,      
	           Ed Hohenstein, and C. David Sherrill          
	 --------------------------------------------------------

   => Auxiliary Basis Set <=

  Basis Set: (JUN-CC-PVDZ AUX)
    Blend: JUN-CC-PVDZ-RI
    Number of shells: 459
    Number of basis functions: 1375
    Number of Cartesian functions: 1594
    Spherical Harmonics?: true
    Max angular momentum: 3

	 --------------------------------------------------------
	                 NBF =   392, NAUX =  1375
	 --------------------------------------------------------
	   CLASS    FOCC     OCC    AOCC    AVIR     VIR    FVIR
	   PAIRS      11      39      28     353     353       0
	 --------------------------------------------------------

	 Will attempt to load fitting metric from file 97.

	-----------------------------------------------------------
	 ==================> DF-MP2 Energies <==================== 
	-----------------------------------------------------------
	 Reference Energy          =    -539.4537302883866232 [Eh]
	 Singles Energy            =      -0.0000000000000000 [Eh]
	 Same-Spin Energy          =      -0.4604010510368598 [Eh]
	 Opposite-Spin Energy      =      -1.1843931858220507 [Eh]
	 Correlation Energy        =      -1.6447942368589104 [Eh]
	 Total Energy              =    -541.0985245252455798 [Eh]
	-----------------------------------------------------------
	 ================> DF-SCS-MP2 Energies <================== 
	-----------------------------------------------------------
	 SCS Same-Spin Scale       =       0.3333333333333333 [-]
	 SCS Opposite-Spin Scale   =       1.2000000000000000 [-]
	 SCS Same-Spin Energy      =      -0.1534670170122866 [Eh]
	 SCS Opposite-Spin Energy  =      -1.4212718229864607 [Eh]
	 SCS Correlation Energy    =      -1.5747388399987474 [Eh]
	 SCS Total Energy          =    -541.0284691283853817 [Eh]
	-----------------------------------------------------------


*** tstop() called on node102.bme.utexas.edu at Sun May 12 23:38:22 2024
Module time:
	user time   =      35.24 seconds =       0.59 minutes
	system time =       0.84 seconds =       0.01 minutes
	total time  =          7 seconds =       0.12 minutes
Total time:
	user time   =     432.53 seconds =       7.21 minutes
	system time =       9.30 seconds =       0.15 minutes
	total time  =         71 seconds =       1.18 minutes
  Constructing Basis Sets for SAPT...

   => Loading Basis Set <=

    Name: (JUN-CC-PVDZ AUX)
    Role: RIFIT
    Keyword: DF_BASIS_SAPT
    atoms 1, 3, 9, 14, 16, 20, 22, 24 entry N          line   144 file /opt/anaconda/envs/psi4v1.5/share/psi4/basis/jun-cc-pvdz-ri.gbs 
    atoms 2, 4-6, 15, 17-19, 21       entry C          line   100 file /opt/anaconda/envs/psi4v1.5/share/psi4/basis/jun-cc-pvdz-ri.gbs 
    atoms 7, 10-13, 23, 25-26, 28-29  entry H          line    30 file /opt/anaconda/envs/psi4v1.5/share/psi4/basis/jun-cc-pvdz-ri.gbs 
    atoms 8, 27                       entry O          line   188 file /opt/anaconda/envs/psi4v1.5/share/psi4/basis/jun-cc-pvdz-ri.gbs 


  //>>>>>>>>>>>>>>>>>>>>>>>>>>>>>>>>>>>//
  //           SAPT2+(3)DMP2           //
  //<<<<<<<<<<<<<<<<<<<<<<<<<<<<<<<<<<<//


*** tstart() called on node102.bme.utexas.edu
*** at Sun May 12 23:38:22 2024

      SAPT2+(3)  
    Ed Hohenstein
     6 June 2009

      Orbital Information
  --------------------------
    NSO        =       392
    NMO        =       392
    NRI        =      1375
    NOCC A     =        29
    NOCC B     =        39
    FOCC A     =         8
    FOCC B     =        11
    NVIR A     =       363
    NVIR B     =       353

    Estimated memory usage: 6259.6 MB

    Natural Orbital Cutoff:   1.000E-06
    Disp(T3) Truncation:            Yes
    CCD (vv|vv) Truncation:         Yes
    MBPT T2 Truncation:             Yes

    Monomer A: 216 virtual orbitals dropped
    Monomer B: 163 virtual orbitals dropped

    Elst10,r            =    -0.003750597939 [Eh]
    Exch10 (S^2)        =     0.000472710415 [Eh]
    Exch10              =     0.000472823961 [Eh]
    Ind20,r (A<-B)      =    -0.000342637159 [Eh]
    Ind20,r (B<-A)      =    -0.000586080275 [Eh]
    Ind20,r             =    -0.000928717434 [Eh]
    Exch-Ind20,r (A<-B) =     0.000060230672 [Eh]
    Exch-Ind20,r (B<-A) =     0.000067437850 [Eh]
    Exch-Ind20,r        =     0.000127668521 [Eh]
    Disp20              =    -0.002017226553 [Eh]
    Disp20 (NO)         =    -0.001949606894 [Eh]
    Exch-Disp20         =     0.000063596268 [Eh]
    Elst12,r            =     0.000992848328 [Eh]
    Exch11              =    -0.000026949177 [Eh]
    Exch12              =     0.000162431223 [Eh]
    Ind22               =     0.000009247810 [Eh]
    Disp21              =     0.000454808500 [Eh]
    Disp22 (SDQ)        =    -0.000129936564 [Eh]

    (i =   1 of  28)         52 seconds
    (i =   2 of  28)        104 seconds
    (i =   3 of  28)        155 seconds
    (i =   4 of  28)        206 seconds
    (i =   5 of  28)        258 seconds
    (i =   6 of  28)        309 seconds
    (i =   7 of  28)        361 seconds
    (i =   8 of  28)        412 seconds
    (i =   9 of  28)        464 seconds
    (i =  10 of  28)        515 seconds
    (i =  11 of  28)        567 seconds
    (i =  12 of  28)        618 seconds
    (i =  13 of  28)        670 seconds
    (i =  14 of  28)        722 seconds
    (i =  15 of  28)        773 seconds
    (i =  16 of  28)        825 seconds
    (i =  17 of  28)        876 seconds
    (i =  18 of  28)        927 seconds
    (i =  19 of  28)        979 seconds
    (i =  20 of  28)       1033 seconds
    (i =  21 of  28)       1086 seconds
    (i =  22 of  28)       1138 seconds
    (i =  23 of  28)       1189 seconds
    (i =  24 of  28)       1240 seconds
    (i =  25 of  28)       1291 seconds
    (i =  26 of  28)       1342 seconds
    (i =  27 of  28)       1393 seconds
    (i =  28 of  28)       1443 seconds

    Disp220 (T)         =    -0.000230569527 [Eh]

    (i =   1 of  21)        112 seconds
    (i =   2 of  21)        224 seconds
    (i =   3 of  21)        334 seconds
    (i =   4 of  21)        445 seconds
    (i =   5 of  21)        555 seconds
    (i =   6 of  21)        665 seconds
    (i =   7 of  21)        776 seconds
    (i =   8 of  21)        887 seconds
    (i =   9 of  21)        999 seconds
    (i =  10 of  21)       1112 seconds
    (i =  11 of  21)       1226 seconds
    (i =  12 of  21)       1339 seconds
    (i =  13 of  21)       1454 seconds
    (i =  14 of  21)       1568 seconds
    (i =  15 of  21)       1682 seconds
    (i =  16 of  21)       1795 seconds
    (i =  17 of  21)       1909 seconds
    (i =  18 of  21)       2022 seconds
    (i =  19 of  21)       2136 seconds
    (i =  20 of  21)       2249 seconds
    (i =  21 of  21)       2362 seconds

    Disp202 (T)         =    -0.000217715642 [Eh]

    Disp22 (T)          =    -0.000448285169 [Eh]

    Est. Disp220 (T)    =    -0.000238566540 [Eh]
    Est. Disp202 (T)    =    -0.000225266835 [Eh]

    Est. Disp22 (T)     =    -0.000463833375 [Eh]
    Elst13,r            =    -0.000338345553 [Eh]
    Disp30              =     0.000004285941 [Eh]

    SAPT Results 
  --------------------------------------------------------------------------------------------------------
    Electrostatics                 -3.09609516 [mEh]      -1.94282905 [kcal/mol]      -8.12879673 [kJ/mol]
      Elst10,r                     -3.75059794 [mEh]      -2.35353574 [kcal/mol]      -9.84719353 [kJ/mol]
      Elst12,r                      0.99284833 [mEh]       0.62302173 [kcal/mol]       2.60672293 [kJ/mol]
      Elst13,r                     -0.33834555 [mEh]      -0.21231504 [kcal/mol]      -0.88832613 [kJ/mol]

    Exchange                        0.60830601 [mEh]       0.38171778 [kcal/mol]       1.59710720 [kJ/mol]
      Exch10                        0.47282396 [mEh]       0.29670151 [kcal/mol]       1.24139914 [kJ/mol]
      Exch10(S^2)                   0.47271042 [mEh]       0.29663026 [kcal/mol]       1.24110102 [kJ/mol]
      Exch11(S^2)                  -0.02694918 [mEh]      -0.01691086 [kcal/mol]      -0.07075506 [kJ/mol]
      Exch12(S^2)                   0.16243122 [mEh]       0.10192713 [kcal/mol]       0.42646312 [kJ/mol]

    Induction                      -0.75355206 [mEh]      -0.47286105 [kcal/mol]      -1.97845065 [kJ/mol]
      Ind20,r                      -0.92871743 [mEh]      -0.58277899 [kcal/mol]      -2.43834729 [kJ/mol]
      Ind22                         0.00924781 [mEh]       0.00580309 [kcal/mol]       0.02428012 [kJ/mol]
      Exch-Ind20,r                  0.12766852 [mEh]       0.08011321 [kcal/mol]       0.33519366 [kJ/mol]
      Exch-Ind22                   -0.00127127 [mEh]      -0.00079774 [kcal/mol]      -0.00333773 [kJ/mol]
      delta HF,r (2)               -0.07237248 [mEh]      -0.04541441 [kcal/mol]      -0.19001391 [kJ/mol]
      delta MP2,r (2)               0.11189280 [mEh]       0.07021379 [kcal/mol]       0.29377449 [kJ/mol]

    Dispersion                     -2.08830578 [mEh]      -1.31043166 [kcal/mol]      -5.48284608 [kJ/mol]
      Disp20                       -2.01722655 [mEh]      -1.26582877 [kcal/mol]      -5.29622758 [kJ/mol]
      Disp30                        0.00428594 [mEh]       0.00268947 [kcal/mol]       0.01125274 [kJ/mol]
      Disp21                        0.45480850 [mEh]       0.28539664 [kcal/mol]       1.19409955 [kJ/mol]
      Disp22 (SDQ)                 -0.12993656 [mEh]      -0.08153643 [kcal/mol]      -0.34114840 [kJ/mol]
      Disp22 (T)                   -0.44828517 [mEh]      -0.28130319 [kcal/mol]      -1.17697255 [kJ/mol]
      Est. Disp22 (T)              -0.46383338 [mEh]      -0.29105984 [kcal/mol]      -1.21779436 [kJ/mol]
      Exch-Disp20                   0.06359627 [mEh]       0.03990726 [kcal/mol]       0.16697198 [kJ/mol]

  Total HF                         -4.15119537 [mEh]      -2.60491442 [kcal/mol]     -10.89896193 [kJ/mol]
  Total SAPT0                      -6.10482565 [mEh]      -3.83083593 [kcal/mol]     -16.02821754 [kJ/mol]
  Total SAPT2                      -4.96851874 [mEh]      -3.11779258 [kcal/mol]     -13.04484416 [kJ/mol]
  Total SAPT2+                     -5.10748018 [mEh]      -3.20499220 [kcal/mol]     -13.40968737 [kJ/mol]
  Total SAPT2+(3)                  -5.44153979 [mEh]      -3.41461777 [kcal/mol]     -14.28676076 [kJ/mol]
  Total SAPT2+dMP2                 -4.99558739 [mEh]      -3.13477841 [kcal/mol]     -13.11591288 [kJ/mol]
  Total SAPT2+(3)dMP2              -5.32964700 [mEh]      -3.34440398 [kcal/mol]     -13.99298627 [kJ/mol]

  Special recipe for scaled SAPT0 (see Manual):
    Electrostatics sSAPT0          -3.75059794 [mEh]      -2.35353574 [kcal/mol]      -9.84719353 [kJ/mol]
    Exchange sSAPT0                 0.47282396 [mEh]       0.29670151 [kcal/mol]       1.24139914 [kJ/mol]
    Induction sSAPT0               -0.87332937 [mEh]      -0.54802245 [kcal/mol]      -2.29292594 [kJ/mol]
    Dispersion sSAPT0              -1.95358445 [mEh]      -1.22589275 [kcal/mol]      -5.12913526 [kJ/mol]
  Total sSAPT0                     -6.10468779 [mEh]      -3.83074942 [kcal/mol]     -16.02785559 [kJ/mol]
  --------------------------------------------------------------------------------------------------------

*** tstop() called on node102.bme.utexas.edu at Mon May 13 00:55:59 2024
Module time:
	user time   =   35761.10 seconds =     596.02 minutes
	system time =     474.51 seconds =       7.91 minutes
	total time  =       4657 seconds =      77.62 minutes
Total time:
	user time   =   36195.00 seconds =     603.25 minutes
	system time =     483.88 seconds =       8.06 minutes
	total time  =       4728 seconds =      78.80 minutes

    Psi4 stopped on: Monday, 13 May 2024 12:55AM
    Psi4 wall time for execution: 1:18:47.81

*** Psi4 exiting successfully. Buy a developer a beer!
