
    -----------------------------------------------------------------------
          Psi4: An Open-Source Ab Initio Electronic Structure Package
                               Psi4 1.5 release

                         Git: Rev {HEAD} e9f4d6d 


    D. G. A. Smith, L. A. Burns, A. C. Simmonett, R. M. Parrish,
    M. C. Schieber, R. Galvelis, P. Kraus, H. Kruse, R. Di Remigio,
    A. Alenaizan, A. M. James, S. Lehtola, J. P. Misiewicz, M. Scheurer,
    R. A. Shaw, J. B. Schriber, Y. Xie, Z. L. Glick, D. A. Sirianni,
    J. S. O'Brien, J. M. Waldrop, A. Kumar, E. G. Hohenstein,
    B. P. Pritchard, B. R. Brooks, H. F. Schaefer III, A. Yu. Sokolov,
    K. Patkowski, A. E. DePrince III, U. Bozkaya, R. A. King,
    F. A. Evangelista, J. M. Turney, T. D. Crawford, C. D. Sherrill,
    J. Chem. Phys. 152(18) 184108 (2020). https://doi.org/10.1063/5.0006002

                            Additional Code Authors
    E. T. Seidl, C. L. Janssen, E. F. Valeev, M. L. Leininger,
    J. F. Gonthier, R. M. Richard, H. R. McAlexander, M. Saitow, X. Wang,
    P. Verma, M. H. Lechner, and A. Jiang

             Previous Authors, Complete List of Code Contributors,
                       and Citations for Specific Modules
    https://github.com/psi4/psi4/blob/master/codemeta.json
    https://github.com/psi4/psi4/graphs/contributors
    http://psicode.org/psi4manual/master/introduction.html#citing-psifour

    -----------------------------------------------------------------------


    Psi4 started on: Sunday, 12 May 2024 11:45PM

    Process ID: 1590430
    Host:       node48.bme.utexas.edu
    PSIDATADIR: /opt/anaconda/envs/psi4v1.5/share/psi4
    Memory:     500.0 MiB
    Threads:    8
    
  ==> Input File <==

--------------------------------------------------------------------------
memory 90GB

molecule {
0 1
N -0.892798 0.641213 -0.000177
C -2.178983 1.129399 -0.000138
N -2.468274 2.425461 -7.7e-05
C -1.363696 3.200471 -5.8e-05
C -0.014974 2.816806 -9.2e-05
C 0.279491 1.416691 -0.000154
N 0.8152 3.928228 -5.6e-05
C -0.0 4.951862 0.0
N -1.336777 4.573395 -0.0
H -0.745051 -0.38547 -0.000222
N -3.173589 0.213779 -0.000162
H -2.999709 -0.796316 -0.000206
H -4.117404 0.565463 -0.000136
O 1.38905 0.85623 -0.000185
H 0.294954 5.996323 3.7e-05
H -2.147795 5.175782 3.4e-05
--
0 1
N -1.018123 0.316785 3.46775
C -2.348709 -0.020009 3.561067
N -3.327676 0.876213 3.604398
C -2.869242 2.143986 3.546748
C -1.547448 2.602244 3.45131
C -0.504634 1.62373 3.405686
N -1.505968 3.988467 3.417942
C -2.758533 4.360204 3.490539
N -3.63389 3.284327 3.570842
H -0.30915 -0.439802 3.438752
N -2.636726 -1.339994 3.608879
H -1.915905 -2.068019 3.578485
H -3.609369 -1.592505 3.67723
O 0.723052 1.800123 3.322568
H -3.115986 5.384959 3.490913
H -4.641677 3.313306 3.635228
 units angstrom
 no_reorient
 symmetry c1}
set  {scf_type DF
 basis jun-cc-pvdz
 freeze_core True
 guess SAD}
energy('sapt2+(3)dmp2')
--------------------------------------------------------------------------

  Memory set to  83.819 GiB by Python driver.

Scratch directory: /tmp/
   => Loading Basis Set <=

    Name: JUN-CC-PVDZ
    Role: ORBITAL
    Keyword: BASIS
    atoms 1, 3, 7, 9, 11, 17, 19, 23, 25, 27 entry N          line   198 file /opt/anaconda/envs/psi4v1.5/share/psi4/basis/jun-cc-pvdz.gbs 
    atoms 2, 4-6, 8, 18, 20-22, 24           entry C          line   164 file /opt/anaconda/envs/psi4v1.5/share/psi4/basis/jun-cc-pvdz.gbs 
    atoms 10, 12-13, 15-16, 26, 28-29, 31-32 entry H          line    36 file /opt/anaconda/envs/psi4v1.5/share/psi4/basis/jun-cc-pvdz.gbs 
    atoms 14, 30                             entry O          line   232 file /opt/anaconda/envs/psi4v1.5/share/psi4/basis/jun-cc-pvdz.gbs 

   => Loading Basis Set <=

    Name: JUN-CC-PVDZ
    Role: ORBITAL
    Keyword: BASIS
    atoms 1, 3, 7, 9, 11, 17, 19, 23, 25, 27 entry N          line   198 file /opt/anaconda/envs/psi4v1.5/share/psi4/basis/jun-cc-pvdz.gbs 
    atoms 2, 4-6, 8, 18, 20-22, 24           entry C          line   164 file /opt/anaconda/envs/psi4v1.5/share/psi4/basis/jun-cc-pvdz.gbs 
    atoms 10, 12-13, 15-16, 26, 28-29, 31-32 entry H          line    36 file /opt/anaconda/envs/psi4v1.5/share/psi4/basis/jun-cc-pvdz.gbs 
    atoms 14, 30                             entry O          line   232 file /opt/anaconda/envs/psi4v1.5/share/psi4/basis/jun-cc-pvdz.gbs 


  //>>>>>>>>>>>>>>>>>>>>>>>>>>>>>>>>>>>//
  //              Dimer HF             //
  //<<<<<<<<<<<<<<<<<<<<<<<<<<<<<<<<<<<//


*** tstart() called on node48.bme.utexas.edu
*** at Sun May 12 23:45:11 2024

   => Loading Basis Set <=

    Name: JUN-CC-PVDZ
    Role: ORBITAL
    Keyword: BASIS
    atoms 1, 3, 7, 9, 11, 17, 19, 23, 25, 27 entry N          line   198 file /opt/anaconda/envs/psi4v1.5/share/psi4/basis/jun-cc-pvdz.gbs 
    atoms 2, 4-6, 8, 18, 20-22, 24           entry C          line   164 file /opt/anaconda/envs/psi4v1.5/share/psi4/basis/jun-cc-pvdz.gbs 
    atoms 10, 12-13, 15-16, 26, 28-29, 31-32 entry H          line    36 file /opt/anaconda/envs/psi4v1.5/share/psi4/basis/jun-cc-pvdz.gbs 
    atoms 14, 30                             entry O          line   232 file /opt/anaconda/envs/psi4v1.5/share/psi4/basis/jun-cc-pvdz.gbs 


         ---------------------------------------------------------
                                   SCF
               by Justin Turney, Rob Parrish, Andy Simmonett
                          and Daniel G. A. Smith
                              RHF Reference
                        8 Threads,  85830 MiB Core
         ---------------------------------------------------------

  ==> Geometry <==

    Molecular point group: c1
    Full point group: C1

    Geometry (in Angstrom), charge = 0, multiplicity = 1:

       Center              X                  Y                   Z               Mass       
    ------------   -----------------  -----------------  -----------------  -----------------
         N            0.490679649134    -1.388696969454    -1.747898982854    14.003074004430
         C           -0.795505350866    -0.900510969454    -1.747859982854    12.000000000000
         N           -1.084796350866     0.395551030546    -1.747798982854    14.003074004430
         C            0.019781649134     1.170561030546    -1.747779982854    12.000000000000
         C            1.368503649134     0.786896030546    -1.747813982854    12.000000000000
         C            1.662968649134    -0.613218969454    -1.747875982854    12.000000000000
         N            2.198677649134     1.898318030546    -1.747777982854    14.003074004430
         C            1.383477649134     2.921952030546    -1.747721982854    12.000000000000
         N            0.046700649134     2.543485030546    -1.747721982854    14.003074004430
         H            0.638426649134    -2.415379969454    -1.747943982854     1.007825032230
         N           -1.790111350866    -1.816130969454    -1.747883982854    14.003074004430
         H           -1.616231350866    -2.826225969454    -1.747927982854     1.007825032230
         H           -2.733926350866    -1.464446969454    -1.747857982854     1.007825032230
         O            2.772527649134    -1.173679969454    -1.747906982854    15.994914619570
         H            1.678431649134     3.966413030546    -1.747684982854     1.007825032230
         H           -0.764317350866     3.145872030546    -1.747687982854     1.007825032230
         N            0.365354649134    -1.713124969454     1.720028017146    14.003074004430
         C           -0.965231350866    -2.049918969454     1.813345017146    12.000000000000
         N           -1.944198350866    -1.153696969454     1.856676017146    14.003074004430
         C           -1.485764350866     0.114076030546     1.799026017146    12.000000000000
         C           -0.163970350866     0.572334030546     1.703588017146    12.000000000000
         C            0.878843649134    -0.406179969454     1.657964017146    12.000000000000
         N           -0.122490350866     1.958557030546     1.670220017146    14.003074004430
         C           -1.375055350866     2.330294030546     1.742817017146    12.000000000000
         N           -2.250412350866     1.254417030546     1.823120017146    14.003074004430
         H            1.074327649134    -2.469711969454     1.691030017146     1.007825032230
         N           -1.253248350866    -3.369903969454     1.861157017146    14.003074004430
         H           -0.532427350866    -4.097928969454     1.830763017146     1.007825032230
         H           -2.225891350866    -3.622414969454     1.929508017146     1.007825032230
         O            2.106529649134    -0.229786969454     1.574846017146    15.994914619570
         H           -1.732508350866     3.355049030546     1.743191017146     1.007825032230
         H           -3.258199350866     1.283396030546     1.887506017146     1.007825032230

  Running in c1 symmetry.

  Rotational constants: A =      0.01366  B =      0.00990  C =      0.00836 [cm^-1]
  Rotational constants: A =    409.60923  B =    296.80008  C =    250.74160 [MHz]
  Nuclear repulsion = 1888.611738045665788

  Charge       = 0
  Multiplicity = 1
  Electrons    = 156
  Nalpha       = 78
  Nbeta        = 78

  ==> Algorithm <==

  SCF Algorithm Type is DF.
  DIIS enabled.
  MOM disabled.
  Fractional occupation disabled.
  Guess Type is SAD.
  Energy threshold   = 1.00e-08
  Density threshold  = 1.00e-08
  Integral threshold = 1.00e-12

  ==> Primary Basis <==

  Basis Set: JUN-CC-PVDZ
    Blend: JUN-CC-PVDZ
    Number of shells: 206
    Number of basis functions: 446
    Number of Cartesian functions: 468
    Spherical Harmonics?: true
    Max angular momentum: 2

   => Loading Basis Set <=

    Name: (JUN-CC-PVDZ AUX)
    Role: JKFIT
    Keyword: DF_BASIS_SCF
    atoms 1, 3, 7, 9, 11, 17, 19, 23, 25, 27 entry N          line   202 file /opt/anaconda/envs/psi4v1.5/share/psi4/basis/jun-cc-pvdz-jkfit.gbs 
    atoms 2, 4-6, 8, 18, 20-22, 24           entry C          line   146 file /opt/anaconda/envs/psi4v1.5/share/psi4/basis/jun-cc-pvdz-jkfit.gbs 
    atoms 10, 12-13, 15-16, 26, 28-29, 31-32 entry H          line    70 file /opt/anaconda/envs/psi4v1.5/share/psi4/basis/jun-cc-pvdz-jkfit.gbs 
    atoms 14, 30                             entry O          line   258 file /opt/anaconda/envs/psi4v1.5/share/psi4/basis/jun-cc-pvdz-jkfit.gbs 

  ==> Integral Setup <==

  ==> DiskDFJK: Density-Fitted J/K Matrices <==

    J tasked:                  Yes
    K tasked:                  Yes
    wK tasked:                  No
    OpenMP threads:              8
    Integrals threads:           8
    Memory [MiB]:            64373
    Algorithm:                Core
    Integral Cache:           SAVE
    Schwarz Cutoff:          1E-12
    Fitting Condition:       1E-10

   => Auxiliary Basis Set <=

  Basis Set: (JUN-CC-PVDZ AUX)
    Blend: JUN-CC-PVDZ-JKFIT
    Number of shells: 684
    Number of basis functions: 1968
    Number of Cartesian functions: 2252
    Spherical Harmonics?: true
    Max angular momentum: 3

  Minimum eigenvalue in the overlap matrix is 4.9158792094E-06.
  Reciprocal condition number of the overlap matrix is 2.7777035958E-07.
    Using symmetric orthogonalization.

  ==> Pre-Iterations <==

  SCF Guess: Superposition of Atomic Densities via on-the-fly atomic UHF (no occupation information).

   -------------------------
    Irrep   Nso     Nmo    
   -------------------------
     A        446     446 
   -------------------------
    Total     446     446
   -------------------------

  ==> Iterations <==

                           Total Energy        Delta E     RMS |[F,P]|

   @DF-RHF iter SAD: -1078.62927766302414   -1.07863e+03   0.00000e+00 
   @DF-RHF iter   1: -1078.25449047150482    3.74787e-01   2.45650e-03 DIIS
   @DF-RHF iter   2: -1078.69794314956516   -4.43453e-01   1.52594e-03 DIIS
   @DF-RHF iter   3: -1078.88249051736716   -1.84547e-01   3.19962e-04 DIIS
   @DF-RHF iter   4: -1078.89349005417534   -1.09995e-02   1.24298e-04 DIIS
   @DF-RHF iter   5: -1078.89542401911444   -1.93396e-03   2.91558e-05 DIIS
   @DF-RHF iter   6: -1078.89562702796275   -2.03009e-04   1.55884e-05 DIIS
   @DF-RHF iter   7: -1078.89569305931445   -6.60314e-05   6.14463e-06 DIIS
   @DF-RHF iter   8: -1078.89570417763957   -1.11183e-05   2.17703e-06 DIIS
   @DF-RHF iter   9: -1078.89570542891329   -1.25127e-06   8.23920e-07 DIIS
   @DF-RHF iter  10: -1078.89570563760094   -2.08688e-07   3.68728e-07 DIIS
   @DF-RHF iter  11: -1078.89570567333931   -3.57384e-08   1.49982e-07 DIIS
   @DF-RHF iter  12: -1078.89570567906912   -5.72982e-09   4.33346e-08 DIIS
   @DF-RHF iter  13: -1078.89570567963483   -5.65706e-10   1.91907e-08 DIIS
   @DF-RHF iter  14: -1078.89570567973783   -1.03000e-10   6.67306e-09 DIIS
  Energy and wave function converged.


  ==> Post-Iterations <==

    Orbital Energies [Eh]
    ---------------------

    Doubly Occupied:                                                      

       1A    -20.518516     2A    -20.508698     3A    -15.646722  
       4A    -15.638912     5A    -15.637999     6A    -15.637930  
       7A    -15.626124     8A    -15.619973     9A    -15.579651  
      10A    -15.570859    11A    -15.567261    12A    -15.550669  
      13A    -11.418280    14A    -11.405928    15A    -11.367877  
      16A    -11.357471    17A    -11.334132    18A    -11.319437  
      19A    -11.317917    20A    -11.300545    21A    -11.251279  
      22A    -11.235427    23A     -1.394678    24A     -1.382855  
      25A     -1.354796    26A     -1.339759    27A     -1.339677  
      28A     -1.326794    29A     -1.236336    30A     -1.224932  
      31A     -1.223849    32A     -1.211896    33A     -1.178893  
      34A     -1.161031    35A     -1.034642    36A     -1.019031  
      37A     -0.910348    38A     -0.901027    39A     -0.896385  
      40A     -0.888591    41A     -0.841175    42A     -0.823688  
      43A     -0.810923    44A     -0.797693    45A     -0.751657  
      46A     -0.745710    47A     -0.739283    48A     -0.731721  
      49A     -0.717506    50A     -0.704683    51A     -0.673552  
      52A     -0.669457    53A     -0.659326    54A     -0.642562  
      55A     -0.639885    56A     -0.625073    57A     -0.607311  
      58A     -0.603730    59A     -0.595593    60A     -0.591461  
      61A     -0.584118    62A     -0.583169    63A     -0.550981  
      64A     -0.529953    65A     -0.498192    66A     -0.483180  
      67A     -0.460085    68A     -0.446342    69A     -0.436623  
      70A     -0.433013    71A     -0.422879    72A     -0.421922  
      73A     -0.416012    74A     -0.410308    75A     -0.407361  
      76A     -0.389218    77A     -0.296876    78A     -0.281115  

    Virtual:                                                              

      79A      0.023788    80A      0.039503    81A      0.047974  
      82A      0.055616    83A      0.063799    84A      0.070738  
      85A      0.075624    86A      0.084381    87A      0.087136  
      88A      0.094821    89A      0.101974    90A      0.103450  
      91A      0.112804    92A      0.117632    93A      0.122450  
      94A      0.124876    95A      0.129065    96A      0.129627  
      97A      0.135657    98A      0.137283    99A      0.142590  
     100A      0.148433   101A      0.151918   102A      0.156770  
     103A      0.159847   104A      0.164288   105A      0.170006  
     106A      0.173800   107A      0.176938   108A      0.179736  
     109A      0.183872   110A      0.193951   111A      0.196816  
     112A      0.200182   113A      0.206962   114A      0.210234  
     115A      0.215324   116A      0.217754   117A      0.220252  
     118A      0.224991   119A      0.229889   120A      0.235235  
     121A      0.238951   122A      0.239246   123A      0.244831  
     124A      0.246822   125A      0.253317   126A      0.256716  
     127A      0.260396   128A      0.266946   129A      0.273091  
     130A      0.276419   131A      0.280328   132A      0.283392  
     133A      0.286360   134A      0.289750   135A      0.292680  
     136A      0.294939   137A      0.298068   138A      0.306229  
     139A      0.310289   140A      0.312151   141A      0.316216  
     142A      0.320079   143A      0.321611   144A      0.328300  
     145A      0.334653   146A      0.336947   147A      0.341953  
     148A      0.345761   149A      0.347623   150A      0.354734  
     151A      0.361071   152A      0.367654   153A      0.368474  
     154A      0.373267   155A      0.377812   156A      0.380723  
     157A      0.383167   158A      0.388004   159A      0.391777  
     160A      0.394110   161A      0.400674   162A      0.409007  
     163A      0.411346   164A      0.416415   165A      0.419527  
     166A      0.423378   167A      0.431325   168A      0.432342  
     169A      0.436950   170A      0.440041   171A      0.444540  
     172A      0.448761   173A      0.453005   174A      0.461686  
     175A      0.467946   176A      0.470010   177A      0.480636  
     178A      0.486329   179A      0.489096   180A      0.492661  
     181A      0.497196   182A      0.504432   183A      0.513811  
     184A      0.517450   185A      0.523996   186A      0.528642  
     187A      0.534358   188A      0.545859   189A      0.549278  
     190A      0.552052   191A      0.562333   192A      0.576616  
     193A      0.586503   194A      0.600719   195A      0.618024  
     196A      0.622892   197A      0.630804   198A      0.636925  
     199A      0.642984   200A      0.655172   201A      0.680034  
     202A      0.693348   203A      0.742924   204A      0.754913  
     205A      0.790285   206A      0.807420   207A      0.817920  
     208A      0.830056   209A      0.862229   210A      0.871560  
     211A      0.876660   212A      0.885430   213A      0.889950  
     214A      0.895456   215A      0.902745   216A      0.908631  
     217A      0.922324   218A      0.924571   219A      0.937918  
     220A      0.947586   221A      0.961736   222A      0.963147  
     223A      0.977862   224A      0.983584   225A      0.989491  
     226A      0.999448   227A      1.012520   228A      1.018576  
     229A      1.030195   230A      1.034360   231A      1.045563  
     232A      1.052580   233A      1.053907   234A      1.066121  
     235A      1.067407   236A      1.081539   237A      1.084863  
     238A      1.089497   239A      1.099285   240A      1.102820  
     241A      1.108654   242A      1.111817   243A      1.125903  
     244A      1.127125   245A      1.139813   246A      1.144461  
     247A      1.150648   248A      1.163676   249A      1.174298  
     250A      1.176803   251A      1.182924   252A      1.189880  
     253A      1.196871   254A      1.208528   255A      1.210614  
     256A      1.222083   257A      1.228097   258A      1.230102  
     259A      1.240096   260A      1.244070   261A      1.252220  
     262A      1.257158   263A      1.267180   264A      1.279402  
     265A      1.281268   266A      1.296969   267A      1.297503  
     268A      1.309854   269A      1.314390   270A      1.322452  
     271A      1.323652   272A      1.330039   273A      1.339908  
     274A      1.340686   275A      1.342200   276A      1.355175  
     277A      1.361508   278A      1.367975   279A      1.375634  
     280A      1.387393   281A      1.394667   282A      1.398208  
     283A      1.408249   284A      1.416003   285A      1.425832  
     286A      1.431592   287A      1.437420   288A      1.447465  
     289A      1.457982   290A      1.463471   291A      1.472782  
     292A      1.494450   293A      1.498008   294A      1.504714  
     295A      1.508212   296A      1.519126   297A      1.524521  
     298A      1.544247   299A      1.549195   300A      1.552083  
     301A      1.575627   302A      1.589987   303A      1.608046  
     304A      1.613031   305A      1.624061   306A      1.630843  
     307A      1.656481   308A      1.677225   309A      1.687105  
     310A      1.706291   311A      1.734101   312A      1.736429  
     313A      1.756290   314A      1.766872   315A      1.796299  
     316A      1.808172   317A      1.818607   318A      1.827441  
     319A      1.832059   320A      1.841607   321A      1.849384  
     322A      1.866657   323A      1.870095   324A      1.883164  
     325A      1.890586   326A      1.901775   327A      1.908638  
     328A      1.919158   329A      1.925900   330A      1.935451  
     331A      1.946061   332A      1.957843   333A      1.961416  
     334A      1.967536   335A      1.982216   336A      1.993831  
     337A      2.004535   338A      2.009471   339A      2.023883  
     340A      2.037888   341A      2.043374   342A      2.062291  
     343A      2.074103   344A      2.078669   345A      2.086753  
     346A      2.094894   347A      2.103239   348A      2.109461  
     349A      2.125265   350A      2.138789   351A      2.167168  
     352A      2.176403   353A      2.187120   354A      2.198978  
     355A      2.215690   356A      2.235290   357A      2.243546  
     358A      2.256041   359A      2.283234   360A      2.290191  
     361A      2.303277   362A      2.315393   363A      2.327456  
     364A      2.331810   365A      2.350254   366A      2.356658  
     367A      2.380769   368A      2.387039   369A      2.394488  
     370A      2.406915   371A      2.424820   372A      2.434606  
     373A      2.439920   374A      2.460585   375A      2.466052  
     376A      2.477762   377A      2.483470   378A      2.487374  
     379A      2.509364   380A      2.532194   381A      2.554452  
     382A      2.573459   383A      2.584570   384A      2.592600  
     385A      2.630795   386A      2.642969   387A      2.655029  
     388A      2.673970   389A      2.685631   390A      2.703317  
     391A      2.709770   392A      2.724066   393A      2.731613  
     394A      2.735493   395A      2.750184   396A      2.758669  
     397A      2.774228   398A      2.783553   399A      2.832910  
     400A      2.854465   401A      2.880829   402A      2.891780  
     403A      2.893118   404A      2.905602   405A      2.945653  
     406A      2.953658   407A      2.960104   408A      2.973506  
     409A      2.985628   410A      2.995047   411A      3.037942  
     412A      3.054368   413A      3.069997   414A      3.082694  
     415A      3.101465   416A      3.109023   417A      3.119866  
     418A      3.127277   419A      3.132207   420A      3.135717  
     421A      3.166670   422A      3.181496   423A      3.214064  
     424A      3.234154   425A      3.256847   426A      3.289914  
     427A      3.301850   428A      3.309553   429A      3.318276  
     430A      3.333731   431A      3.374764   432A      3.392889  
     433A      3.414253   434A      3.452073   435A      3.512588  
     436A      3.520734   437A      3.692511   438A      3.709187  
     439A      3.753547   440A      3.769770   441A      3.818520  
     442A      3.840141   443A      3.854220   444A      3.863429  
     445A      4.089575   446A      4.098437  

    Final Occupation by Irrep:
              A 
    DOCC [    78 ]

  @DF-RHF Final Energy: -1078.89570567973783

   => Energetics <=

    Nuclear Repulsion Energy =           1888.6117380456657884
    One-Electron Energy =               -5228.0939563431757051
    Two-Electron Energy =                2260.5865126177723141
    Total Energy =                      -1078.8957056797376026

Computation Completed


Properties will be evaluated at   0.000000,   0.000000,   0.000000 [a0]

Properties computed using the SCF density matrix

  Nuclear Dipole Moment: [e a0]
     X:    -8.8410      Y:    -4.8263      Z:     0.3201

  Electronic Dipole Moment: [e a0]
     X:     3.7172      Y:     2.8468      Z:     0.0385

  Dipole Moment: [e a0]
     X:    -5.1238      Y:    -1.9795      Z:     0.3586     Total:     5.5046

  Dipole Moment: [D]
     X:   -13.0235      Y:    -5.0315      Z:     0.9115     Total:    13.9913


*** tstop() called on node48.bme.utexas.edu at Sun May 12 23:46:14 2024
Module time:
	user time   =     452.45 seconds =       7.54 minutes
	system time =       5.98 seconds =       0.10 minutes
	total time  =         63 seconds =       1.05 minutes
Total time:
	user time   =     452.45 seconds =       7.54 minutes
	system time =       5.98 seconds =       0.10 minutes
	total time  =         63 seconds =       1.05 minutes

*** tstart() called on node48.bme.utexas.edu
*** at Sun May 12 23:46:14 2024


  //>>>>>>>>>>>>>>>>>>>>>>>>>>>>>>>>>>>//
  //               DFMP2               //
  //<<<<<<<<<<<<<<<<<<<<<<<<<<<<<<<<<<<//

   => Loading Basis Set <=

    Name: (JUN-CC-PVDZ AUX)
    Role: RIFIT
    Keyword: DF_BASIS_MP2
    atoms 1, 3, 7, 9, 11, 17, 19, 23, 25, 27 entry N          line   144 file /opt/anaconda/envs/psi4v1.5/share/psi4/basis/jun-cc-pvdz-ri.gbs 
    atoms 2, 4-6, 8, 18, 20-22, 24           entry C          line   100 file /opt/anaconda/envs/psi4v1.5/share/psi4/basis/jun-cc-pvdz-ri.gbs 
    atoms 10, 12-13, 15-16, 26, 28-29, 31-32 entry H          line    30 file /opt/anaconda/envs/psi4v1.5/share/psi4/basis/jun-cc-pvdz-ri.gbs 
    atoms 14, 30                             entry O          line   188 file /opt/anaconda/envs/psi4v1.5/share/psi4/basis/jun-cc-pvdz-ri.gbs 

	 --------------------------------------------------------
	                          DF-MP2                         
	      2nd-Order Density-Fitted Moller-Plesset Theory     
	              RMP2 Wavefunction,   8 Threads             
	                                                         
	        Rob Parrish, Justin Turney, Andy Simmonett,      
	           Ed Hohenstein, and C. David Sherrill          
	 --------------------------------------------------------

   => Auxiliary Basis Set <=

  Basis Set: (JUN-CC-PVDZ AUX)
    Blend: JUN-CC-PVDZ-RI
    Number of shells: 522
    Number of basis functions: 1570
    Number of Cartesian functions: 1822
    Spherical Harmonics?: true
    Max angular momentum: 3

	 --------------------------------------------------------
	                 NBF =   446, NAUX =  1570
	 --------------------------------------------------------
	   CLASS    FOCC     OCC    AOCC    AVIR     VIR    FVIR
	   PAIRS      22      78      56     368     368       0
	 --------------------------------------------------------

	 Will save fitting metric to file 97.

	-----------------------------------------------------------
	 ==================> DF-MP2 Energies <==================== 
	-----------------------------------------------------------
	 Reference Energy          =   -1078.8957056797378300 [Eh]
	 Singles Energy            =      -0.0000000000000000 [Eh]
	 Same-Spin Energy          =      -0.9309256671068868 [Eh]
	 Opposite-Spin Energy      =      -2.3828600688597081 [Eh]
	 Correlation Energy        =      -3.3137857359665950 [Eh]
	 Total Energy              =   -1082.2094914157044059 [Eh]
	-----------------------------------------------------------
	 ================> DF-SCS-MP2 Energies <================== 
	-----------------------------------------------------------
	 SCS Same-Spin Scale       =       0.3333333333333333 [-]
	 SCS Opposite-Spin Scale   =       1.2000000000000000 [-]
	 SCS Same-Spin Energy      =      -0.3103085557022956 [Eh]
	 SCS Opposite-Spin Energy  =      -2.8594320826316495 [Eh]
	 SCS Correlation Energy    =      -3.1697406383339453 [Eh]
	 SCS Total Energy          =   -1082.0654463180717357 [Eh]
	-----------------------------------------------------------


*** tstop() called on node48.bme.utexas.edu at Sun May 12 23:46:37 2024
Module time:
	user time   =     140.69 seconds =       2.34 minutes
	system time =       2.01 seconds =       0.03 minutes
	total time  =         23 seconds =       0.38 minutes
Total time:
	user time   =     593.15 seconds =       9.89 minutes
	system time =       7.99 seconds =       0.13 minutes
	total time  =         86 seconds =       1.43 minutes

  //>>>>>>>>>>>>>>>>>>>>>>>>>>>>>>>>>>>//
  //            Monomer A HF           //
  //<<<<<<<<<<<<<<<<<<<<<<<<<<<<<<<<<<<//


*** tstart() called on node48.bme.utexas.edu
*** at Sun May 12 23:46:37 2024

   => Loading Basis Set <=

    Name: JUN-CC-PVDZ
    Role: ORBITAL
    Keyword: BASIS
    atoms 1, 3, 7, 9, 11, 17, 19, 23, 25, 27 entry N          line   198 file /opt/anaconda/envs/psi4v1.5/share/psi4/basis/jun-cc-pvdz.gbs 
    atoms 2, 4-6, 8, 18, 20-22, 24           entry C          line   164 file /opt/anaconda/envs/psi4v1.5/share/psi4/basis/jun-cc-pvdz.gbs 
    atoms 10, 12-13, 15-16, 26, 28-29, 31-32 entry H          line    36 file /opt/anaconda/envs/psi4v1.5/share/psi4/basis/jun-cc-pvdz.gbs 
    atoms 14, 30                             entry O          line   232 file /opt/anaconda/envs/psi4v1.5/share/psi4/basis/jun-cc-pvdz.gbs 


         ---------------------------------------------------------
                                   SCF
               by Justin Turney, Rob Parrish, Andy Simmonett
                          and Daniel G. A. Smith
                              RHF Reference
                        8 Threads,  85830 MiB Core
         ---------------------------------------------------------

  ==> Geometry <==

    Molecular point group: c1
    Full point group: C1

    Geometry (in Angstrom), charge = 0, multiplicity = 1:

       Center              X                  Y                   Z               Mass       
    ------------   -----------------  -----------------  -----------------  -----------------
         N            0.490679649134    -1.388696969454    -1.747898982854    14.003074004430
         C           -0.795505350866    -0.900510969454    -1.747859982854    12.000000000000
         N           -1.084796350866     0.395551030546    -1.747798982854    14.003074004430
         C            0.019781649134     1.170561030546    -1.747779982854    12.000000000000
         C            1.368503649134     0.786896030546    -1.747813982854    12.000000000000
         C            1.662968649134    -0.613218969454    -1.747875982854    12.000000000000
         N            2.198677649134     1.898318030546    -1.747777982854    14.003074004430
         C            1.383477649134     2.921952030546    -1.747721982854    12.000000000000
         N            0.046700649134     2.543485030546    -1.747721982854    14.003074004430
         H            0.638426649134    -2.415379969454    -1.747943982854     1.007825032230
         N           -1.790111350866    -1.816130969454    -1.747883982854    14.003074004430
         H           -1.616231350866    -2.826225969454    -1.747927982854     1.007825032230
         H           -2.733926350866    -1.464446969454    -1.747857982854     1.007825032230
         O            2.772527649134    -1.173679969454    -1.747906982854    15.994914619570
         H            1.678431649134     3.966413030546    -1.747684982854     1.007825032230
         H           -0.764317350866     3.145872030546    -1.747687982854     1.007825032230
      Gh(N)           0.365354649134    -1.713124969454     1.720028017146    14.003074004430
      Gh(C)          -0.965231350866    -2.049918969454     1.813345017146    12.000000000000
      Gh(N)          -1.944198350866    -1.153696969454     1.856676017146    14.003074004430
      Gh(C)          -1.485764350866     0.114076030546     1.799026017146    12.000000000000
      Gh(C)          -0.163970350866     0.572334030546     1.703588017146    12.000000000000
      Gh(C)           0.878843649134    -0.406179969454     1.657964017146    12.000000000000
      Gh(N)          -0.122490350866     1.958557030546     1.670220017146    14.003074004430
      Gh(C)          -1.375055350866     2.330294030546     1.742817017146    12.000000000000
      Gh(N)          -2.250412350866     1.254417030546     1.823120017146    14.003074004430
      Gh(H)           1.074327649134    -2.469711969454     1.691030017146     1.007825032230
      Gh(N)          -1.253248350866    -3.369903969454     1.861157017146    14.003074004430
      Gh(H)          -0.532427350866    -4.097928969454     1.830763017146     1.007825032230
      Gh(H)          -2.225891350866    -3.622414969454     1.929508017146     1.007825032230
      Gh(O)           2.106529649134    -0.229786969454     1.574846017146    15.994914619570
      Gh(H)          -1.732508350866     3.355049030546     1.743191017146     1.007825032230
      Gh(H)          -3.258199350866     1.283396030546     1.887506017146     1.007825032230

  Running in c1 symmetry.

  Rotational constants: A =      0.01366  B =      0.00990  C =      0.00836 [cm^-1]
  Rotational constants: A =    409.60923  B =    296.80008  C =    250.74160 [MHz]
  Nuclear repulsion =  593.872086066747443

  Charge       = 0
  Multiplicity = 1
  Electrons    = 78
  Nalpha       = 39
  Nbeta        = 39

  ==> Algorithm <==

  SCF Algorithm Type is DF.
  DIIS enabled.
  MOM disabled.
  Fractional occupation disabled.
  Guess Type is SAD.
  Energy threshold   = 1.00e-08
  Density threshold  = 1.00e-08
  Integral threshold = 1.00e-12

  ==> Primary Basis <==

  Basis Set: JUN-CC-PVDZ
    Blend: JUN-CC-PVDZ
    Number of shells: 206
    Number of basis functions: 446
    Number of Cartesian functions: 468
    Spherical Harmonics?: true
    Max angular momentum: 2

   => Loading Basis Set <=

    Name: (JUN-CC-PVDZ AUX)
    Role: JKFIT
    Keyword: DF_BASIS_SCF
    atoms 1, 3, 7, 9, 11, 17, 19, 23, 25, 27 entry N          line   202 file /opt/anaconda/envs/psi4v1.5/share/psi4/basis/jun-cc-pvdz-jkfit.gbs 
    atoms 2, 4-6, 8, 18, 20-22, 24           entry C          line   146 file /opt/anaconda/envs/psi4v1.5/share/psi4/basis/jun-cc-pvdz-jkfit.gbs 
    atoms 10, 12-13, 15-16, 26, 28-29, 31-32 entry H          line    70 file /opt/anaconda/envs/psi4v1.5/share/psi4/basis/jun-cc-pvdz-jkfit.gbs 
    atoms 14, 30                             entry O          line   258 file /opt/anaconda/envs/psi4v1.5/share/psi4/basis/jun-cc-pvdz-jkfit.gbs 

  ==> Integral Setup <==

  ==> DiskDFJK: Density-Fitted J/K Matrices <==

    J tasked:                  Yes
    K tasked:                  Yes
    wK tasked:                  No
    OpenMP threads:              8
    Integrals threads:           8
    Memory [MiB]:            64373
    Algorithm:                Core
    Integral Cache:           LOAD
    Schwarz Cutoff:          1E-12
    Fitting Condition:       1E-10

   => Auxiliary Basis Set <=

  Basis Set: (JUN-CC-PVDZ AUX)
    Blend: JUN-CC-PVDZ-JKFIT
    Number of shells: 684
    Number of basis functions: 1968
    Number of Cartesian functions: 2252
    Spherical Harmonics?: true
    Max angular momentum: 3

  Minimum eigenvalue in the overlap matrix is 4.9158792093E-06.
  Reciprocal condition number of the overlap matrix is 2.7777035958E-07.
    Using symmetric orthogonalization.

  ==> Pre-Iterations <==

  SCF Guess: Superposition of Atomic Densities via on-the-fly atomic UHF (no occupation information).

   -------------------------
    Irrep   Nso     Nmo    
   -------------------------
     A        446     446 
   -------------------------
    Total     446     446
   -------------------------

  ==> Iterations <==

                           Total Energy        Delta E     RMS |[F,P]|

   @DF-RHF iter SAD:  -539.22327110411584   -5.39223e+02   0.00000e+00 
   @DF-RHF iter   1:  -539.14376439532714    7.95067e-02   1.71866e-03 DIIS
   @DF-RHF iter   2:  -539.36659699767461   -2.22833e-01   1.02719e-03 DIIS
   @DF-RHF iter   3:  -539.44884353687848   -8.22465e-02   2.13866e-04 DIIS
   @DF-RHF iter   4:  -539.45387345816494   -5.02992e-03   8.27428e-05 DIIS
   @DF-RHF iter   5:  -539.45474142383682   -8.67966e-04   1.85288e-05 DIIS
   @DF-RHF iter   6:  -539.45483534132211   -9.39175e-05   9.89071e-06 DIIS
   @DF-RHF iter   7:  -539.45486287247445   -2.75312e-05   4.01450e-06 DIIS
   @DF-RHF iter   8:  -539.45486765233647   -4.77986e-06   1.36794e-06 DIIS
   @DF-RHF iter   9:  -539.45486815513732   -5.02801e-07   5.30592e-07 DIIS
   @DF-RHF iter  10:  -539.45486824710747   -9.19702e-08   2.26481e-07 DIIS
   @DF-RHF iter  11:  -539.45486826087745   -1.37700e-08   9.24057e-08 DIIS
   @DF-RHF iter  12:  -539.45486826293427   -2.05682e-09   2.82911e-08 DIIS
   @DF-RHF iter  13:  -539.45486826315528   -2.21007e-10   1.25605e-08 DIIS
   @DF-RHF iter  14:  -539.45486826319552   -4.02451e-11   4.22504e-09 DIIS
  Energy and wave function converged.


  ==> Post-Iterations <==

    Orbital Energies [Eh]
    ---------------------

    Doubly Occupied:                                                      

       1A    -20.522013     2A    -15.645437     3A    -15.636390  
       4A    -15.631534     5A    -15.576302     6A    -15.568956  
       7A    -11.414679     8A    -11.370526     9A    -11.333376  
      10A    -11.317476    11A    -11.250387    12A     -1.393609  
      13A     -1.354925    14A     -1.338166    15A     -1.231390  
      16A     -1.222514    17A     -1.177103    18A     -1.032809  
      19A     -0.908716    20A     -0.897769    21A     -0.839360  
      22A     -0.807453    23A     -0.747716    24A     -0.743277  
      25A     -0.712375    26A     -0.672835    27A     -0.659142  
      28A     -0.637528    29A     -0.606319    30A     -0.598823  
      31A     -0.598509    32A     -0.545589    33A     -0.495373  
      34A     -0.455383    35A     -0.436203    36A     -0.429770  
      37A     -0.424836    38A     -0.406780    39A     -0.296026  

    Virtual:                                                              

      40A      0.022736    41A      0.035085    42A      0.045239  
      43A      0.052294    44A      0.060138    45A      0.066770  
      46A      0.072656    47A      0.078003    48A      0.083623  
      49A      0.089730    50A      0.095389    51A      0.097355  
      52A      0.103319    53A      0.108602    54A      0.111152  
      55A      0.118754    56A      0.123014    57A      0.128991  
      58A      0.129388    59A      0.131092    60A      0.137190  
      61A      0.141652    62A      0.144770    63A      0.152239  
      64A      0.156201    65A      0.159646    66A      0.162542  
      67A      0.168159    68A      0.173452    69A      0.176476  
      70A      0.180471    71A      0.183081    72A      0.188507  
      73A      0.192476    74A      0.197073    75A      0.201259  
      76A      0.210695    77A      0.213911    78A      0.217039  
      79A      0.223369    80A      0.225837    81A      0.229273  
      82A      0.236495    83A      0.237991    84A      0.239938  
      85A      0.243056    86A      0.247459    87A      0.251658  
      88A      0.254470    89A      0.256159    90A      0.264341  
      91A      0.265072    92A      0.270180    93A      0.275007  
      94A      0.275888    95A      0.283566    96A      0.285208  
      97A      0.292013    98A      0.294264    99A      0.300091  
     100A      0.303140   101A      0.308197   102A      0.310425  
     103A      0.314366   104A      0.321639   105A      0.324113  
     106A      0.326499   107A      0.332536   108A      0.334572  
     109A      0.339085   110A      0.345833   111A      0.350031  
     112A      0.355474   113A      0.360121   114A      0.361983  
     115A      0.370650   116A      0.371023   117A      0.377867  
     118A      0.379666   119A      0.388193   120A      0.388637  
     121A      0.390629   122A      0.401202   123A      0.405334  
     124A      0.411380   125A      0.413424   126A      0.423559  
     127A      0.428036   128A      0.431458   129A      0.435232  
     130A      0.440937   131A      0.448533   132A      0.454278  
     133A      0.462054   134A      0.472642   135A      0.475538  
     136A      0.490613   137A      0.494610   138A      0.501341  
     139A      0.511095   140A      0.515983   141A      0.520160  
     142A      0.524248   143A      0.531528   144A      0.553132  
     145A      0.556459   146A      0.560868   147A      0.575412  
     148A      0.577949   149A      0.595630   150A      0.598969  
     151A      0.605082   152A      0.613903   153A      0.615432  
     154A      0.625902   155A      0.629220   156A      0.633619  
     157A      0.639091   158A      0.646423   159A      0.668197  
     160A      0.676991   161A      0.687011   162A      0.687305  
     163A      0.703032   164A      0.710388   165A      0.719166  
     166A      0.743858   167A      0.763146   168A      0.774537  
     169A      0.786349   170A      0.793931   171A      0.804290  
     172A      0.815022   173A      0.819414   174A      0.827937  
     175A      0.845345   176A      0.859273   177A      0.876615  
     178A      0.888097   179A      0.890098   180A      0.898249  
     181A      0.907901   182A      0.912960   183A      0.916591  
     184A      0.923712   185A      0.932136   186A      0.963896  
     187A      0.970312   188A      0.976918   189A      0.991790  
     190A      1.007156   191A      1.009037   192A      1.018772  
     193A      1.026750   194A      1.037171   195A      1.048026  
     196A      1.061313   197A      1.065092   198A      1.074423  
     199A      1.080910   200A      1.091869   201A      1.098992  
     202A      1.107488   203A      1.112170   204A      1.131284  
     205A      1.132310   206A      1.140983   207A      1.145150  
     208A      1.159183   209A      1.175275   210A      1.183509  
     211A      1.197500   212A      1.206478   213A      1.221098  
     214A      1.227500   215A      1.236573   216A      1.245632  
     217A      1.260223   218A      1.265212   219A      1.278427  
     220A      1.283742   221A      1.295004   222A      1.297985  
     223A      1.306822   224A      1.311642   225A      1.318293  
     226A      1.326643   227A      1.338336   228A      1.349436  
     229A      1.361477   230A      1.365443   231A      1.370826  
     232A      1.378935   233A      1.396497   234A      1.406843  
     235A      1.412256   236A      1.421162   237A      1.428209  
     238A      1.455540   239A      1.475294   240A      1.491022  
     241A      1.505157   242A      1.516947   243A      1.548322  
     244A      1.572112   245A      1.602266   246A      1.621175  
     247A      1.634344   248A      1.647147   249A      1.712826  
     250A      1.757394   251A      1.780190   252A      1.803871  
     253A      1.806155   254A      1.815326   255A      1.833520  
     256A      1.835132   257A      1.842771   258A      1.853407  
     259A      1.863459   260A      1.868897   261A      1.881881  
     262A      1.898724   263A      1.907762   264A      1.919182  
     265A      1.933925   266A      1.944696   267A      1.955234  
     268A      1.969186   269A      1.977742   270A      1.989020  
     271A      1.992671   272A      2.013537   273A      2.017895  
     274A      2.028755   275A      2.035297   276A      2.047470  
     277A      2.050302   278A      2.060757   279A      2.069839  
     280A      2.076111   281A      2.084264   282A      2.087629  
     283A      2.094781   284A      2.112552   285A      2.119956  
     286A      2.140366   287A      2.153941   288A      2.164982  
     289A      2.172524   290A      2.176390   291A      2.185742  
     292A      2.197990   293A      2.212605   294A      2.217016  
     295A      2.231080   296A      2.241158   297A      2.248065  
     298A      2.272033   299A      2.283580   300A      2.292759  
     301A      2.318094   302A      2.322178   303A      2.327950  
     304A      2.337199   305A      2.355196   306A      2.374973  
     307A      2.376645   308A      2.386664   309A      2.392094  
     310A      2.399611   311A      2.412797   312A      2.425671  
     313A      2.440452   314A      2.447065   315A      2.466041  
     316A      2.472873   317A      2.478646   318A      2.487424  
     319A      2.497420   320A      2.532213   321A      2.536556  
     322A      2.553826   323A      2.560831   324A      2.568826  
     325A      2.585041   326A      2.603785   327A      2.622565  
     328A      2.630976   329A      2.645270   330A      2.651848  
     331A      2.681056   332A      2.686671   333A      2.691752  
     334A      2.715540   335A      2.735117   336A      2.743768  
     337A      2.757739   338A      2.773524   339A      2.798025  
     340A      2.821400   341A      2.838129   342A      2.849162  
     343A      2.866864   344A      2.880111   345A      2.894775  
     346A      2.908629   347A      2.944628   348A      2.952587  
     349A      2.961905   350A      2.983000   351A      2.993520  
     352A      3.001040   353A      3.021816   354A      3.033182  
     355A      3.048448   356A      3.054819   357A      3.071427  
     358A      3.080216   359A      3.105408   360A      3.113538  
     361A      3.120575   362A      3.136710   363A      3.155536  
     364A      3.190358   365A      3.205983   366A      3.227534  
     367A      3.230012   368A      3.265500   369A      3.279727  
     370A      3.296826   371A      3.311885   372A      3.319772  
     373A      3.328579   374A      3.361469   375A      3.383975  
     376A      3.395734   377A      3.428888   378A      3.436535  
     379A      3.444030   380A      3.506659   381A      3.535462  
     382A      3.538288   383A      3.576018   384A      3.579902  
     385A      3.607107   386A      3.683011   387A      3.700836  
     388A      3.735546   389A      3.736413   390A      3.759867  
     391A      3.813043   392A      3.818455   393A      3.825252  
     394A      3.851180   395A      3.937376   396A      3.985870  
     397A      4.070796   398A      4.084180   399A      4.121080  
     400A      4.147631   401A      4.183620   402A      4.255468  
     403A      4.268283   404A      4.288995   405A      4.338146  
     406A      4.348762   407A      4.359441   408A      4.395808  
     409A      4.434353   410A      4.448936   411A      4.540124  
     412A      4.581051   413A      4.627179   414A      4.712150  
     415A      4.754982   416A      4.768074   417A      4.848106  
     418A      4.894500   419A      4.913756   420A      5.034517  
     421A      5.172419   422A      5.194092   423A      5.328284  
     424A      5.505873   425A      5.670934   426A      5.704039  
     427A      5.749824   428A      5.778779   429A      5.929701  
     430A      6.037780   431A      6.053356   432A      6.121868  
     433A      6.148842   434A      6.203108   435A      6.897928  
     436A     18.162779   437A     18.458479   438A     18.503065  
     439A     18.527666   440A     18.906040   441A     25.307607  
     442A     25.320380   443A     25.402397   444A     25.420528  
     445A     25.432601   446A     33.540143  

    Final Occupation by Irrep:
              A 
    DOCC [    39 ]

  @DF-RHF Final Energy:  -539.45486826319552

   => Energetics <=

    Nuclear Repulsion Energy =            593.8720860667474426
    One-Electron Energy =               -1912.7791619528727551
    Two-Electron Energy =                 779.4522076229297909
    Total Energy =                       -539.4548682631955216

Computation Completed


Properties will be evaluated at   0.000000,   0.000000,   0.000000 [a0]

Properties computed using the SCF density matrix

  Nuclear Dipole Moment: [e a0]
     X:    76.0539      Y:    42.7807      Z:  -257.6268

  Electronic Dipole Moment: [e a0]
     X:   -79.1577      Y:   -43.0169      Z:   257.6301

  Dipole Moment: [e a0]
     X:    -3.1038      Y:    -0.2362      Z:     0.0032     Total:     3.1128

  Dipole Moment: [D]
     X:    -7.8890      Y:    -0.6003      Z:     0.0083     Total:     7.9118


*** tstop() called on node48.bme.utexas.edu at Sun May 12 23:47:11 2024
Module time:
	user time   =     237.34 seconds =       3.96 minutes
	system time =       3.15 seconds =       0.05 minutes
	total time  =         34 seconds =       0.57 minutes
Total time:
	user time   =     830.55 seconds =      13.84 minutes
	system time =      11.15 seconds =       0.19 minutes
	total time  =        120 seconds =       2.00 minutes

*** tstart() called on node48.bme.utexas.edu
*** at Sun May 12 23:47:11 2024


  //>>>>>>>>>>>>>>>>>>>>>>>>>>>>>>>>>>>//
  //               DFMP2               //
  //<<<<<<<<<<<<<<<<<<<<<<<<<<<<<<<<<<<//

   => Loading Basis Set <=

    Name: (JUN-CC-PVDZ AUX)
    Role: RIFIT
    Keyword: DF_BASIS_MP2
    atoms 1, 3, 7, 9, 11, 17, 19, 23, 25, 27 entry N          line   144 file /opt/anaconda/envs/psi4v1.5/share/psi4/basis/jun-cc-pvdz-ri.gbs 
    atoms 2, 4-6, 8, 18, 20-22, 24           entry C          line   100 file /opt/anaconda/envs/psi4v1.5/share/psi4/basis/jun-cc-pvdz-ri.gbs 
    atoms 10, 12-13, 15-16, 26, 28-29, 31-32 entry H          line    30 file /opt/anaconda/envs/psi4v1.5/share/psi4/basis/jun-cc-pvdz-ri.gbs 
    atoms 14, 30                             entry O          line   188 file /opt/anaconda/envs/psi4v1.5/share/psi4/basis/jun-cc-pvdz-ri.gbs 

	 --------------------------------------------------------
	                          DF-MP2                         
	      2nd-Order Density-Fitted Moller-Plesset Theory     
	              RMP2 Wavefunction,   8 Threads             
	                                                         
	        Rob Parrish, Justin Turney, Andy Simmonett,      
	           Ed Hohenstein, and C. David Sherrill          
	 --------------------------------------------------------

   => Auxiliary Basis Set <=

  Basis Set: (JUN-CC-PVDZ AUX)
    Blend: JUN-CC-PVDZ-RI
    Number of shells: 522
    Number of basis functions: 1570
    Number of Cartesian functions: 1822
    Spherical Harmonics?: true
    Max angular momentum: 3

	 --------------------------------------------------------
	                 NBF =   446, NAUX =  1570
	 --------------------------------------------------------
	   CLASS    FOCC     OCC    AOCC    AVIR     VIR    FVIR
	   PAIRS      11      39      28     407     407       0
	 --------------------------------------------------------

	 Will attempt to load fitting metric from file 97.

	-----------------------------------------------------------
	 ==================> DF-MP2 Energies <==================== 
	-----------------------------------------------------------
	 Reference Energy          =    -539.4548682631955216 [Eh]
	 Singles Energy            =      -0.0000000000000000 [Eh]
	 Same-Spin Energy          =      -0.4613039889830547 [Eh]
	 Opposite-Spin Energy      =      -1.1866379077475901 [Eh]
	 Correlation Energy        =      -1.6479418967306450 [Eh]
	 Total Energy              =    -541.1028101599262072 [Eh]
	-----------------------------------------------------------
	 ================> DF-SCS-MP2 Energies <================== 
	-----------------------------------------------------------
	 SCS Same-Spin Scale       =       0.3333333333333333 [-]
	 SCS Opposite-Spin Scale   =       1.2000000000000000 [-]
	 SCS Same-Spin Energy      =      -0.1537679963276849 [Eh]
	 SCS Opposite-Spin Energy  =      -1.4239654892971081 [Eh]
	 SCS Correlation Energy    =      -1.5777334856247931 [Eh]
	 SCS Total Energy          =    -541.0326017488202979 [Eh]
	-----------------------------------------------------------


*** tstop() called on node48.bme.utexas.edu at Sun May 12 23:47:26 2024
Module time:
	user time   =      75.40 seconds =       1.26 minutes
	system time =       1.48 seconds =       0.02 minutes
	total time  =         15 seconds =       0.25 minutes
Total time:
	user time   =     905.96 seconds =      15.10 minutes
	system time =      12.63 seconds =       0.21 minutes
	total time  =        135 seconds =       2.25 minutes

  //>>>>>>>>>>>>>>>>>>>>>>>>>>>>>>>>>>>//
  //            Monomer B HF           //
  //<<<<<<<<<<<<<<<<<<<<<<<<<<<<<<<<<<<//


*** tstart() called on node48.bme.utexas.edu
*** at Sun May 12 23:47:26 2024

   => Loading Basis Set <=

    Name: JUN-CC-PVDZ
    Role: ORBITAL
    Keyword: BASIS
    atoms 1, 3, 7, 9, 11, 17, 19, 23, 25, 27 entry N          line   198 file /opt/anaconda/envs/psi4v1.5/share/psi4/basis/jun-cc-pvdz.gbs 
    atoms 2, 4-6, 8, 18, 20-22, 24           entry C          line   164 file /opt/anaconda/envs/psi4v1.5/share/psi4/basis/jun-cc-pvdz.gbs 
    atoms 10, 12-13, 15-16, 26, 28-29, 31-32 entry H          line    36 file /opt/anaconda/envs/psi4v1.5/share/psi4/basis/jun-cc-pvdz.gbs 
    atoms 14, 30                             entry O          line   232 file /opt/anaconda/envs/psi4v1.5/share/psi4/basis/jun-cc-pvdz.gbs 


         ---------------------------------------------------------
                                   SCF
               by Justin Turney, Rob Parrish, Andy Simmonett
                          and Daniel G. A. Smith
                              RHF Reference
                        8 Threads,  85830 MiB Core
         ---------------------------------------------------------

  ==> Geometry <==

    Molecular point group: c1
    Full point group: C1

    Geometry (in Angstrom), charge = 0, multiplicity = 1:

       Center              X                  Y                   Z               Mass       
    ------------   -----------------  -----------------  -----------------  -----------------
      Gh(N)           0.490679649134    -1.388696969454    -1.747898982854    14.003074004430
      Gh(C)          -0.795505350866    -0.900510969454    -1.747859982854    12.000000000000
      Gh(N)          -1.084796350866     0.395551030546    -1.747798982854    14.003074004430
      Gh(C)           0.019781649134     1.170561030546    -1.747779982854    12.000000000000
      Gh(C)           1.368503649134     0.786896030546    -1.747813982854    12.000000000000
      Gh(C)           1.662968649134    -0.613218969454    -1.747875982854    12.000000000000
      Gh(N)           2.198677649134     1.898318030546    -1.747777982854    14.003074004430
      Gh(C)           1.383477649134     2.921952030546    -1.747721982854    12.000000000000
      Gh(N)           0.046700649134     2.543485030546    -1.747721982854    14.003074004430
      Gh(H)           0.638426649134    -2.415379969454    -1.747943982854     1.007825032230
      Gh(N)          -1.790111350866    -1.816130969454    -1.747883982854    14.003074004430
      Gh(H)          -1.616231350866    -2.826225969454    -1.747927982854     1.007825032230
      Gh(H)          -2.733926350866    -1.464446969454    -1.747857982854     1.007825032230
      Gh(O)           2.772527649134    -1.173679969454    -1.747906982854    15.994914619570
      Gh(H)           1.678431649134     3.966413030546    -1.747684982854     1.007825032230
      Gh(H)          -0.764317350866     3.145872030546    -1.747687982854     1.007825032230
         N            0.365354649134    -1.713124969454     1.720028017146    14.003074004430
         C           -0.965231350866    -2.049918969454     1.813345017146    12.000000000000
         N           -1.944198350866    -1.153696969454     1.856676017146    14.003074004430
         C           -1.485764350866     0.114076030546     1.799026017146    12.000000000000
         C           -0.163970350866     0.572334030546     1.703588017146    12.000000000000
         C            0.878843649134    -0.406179969454     1.657964017146    12.000000000000
         N           -0.122490350866     1.958557030546     1.670220017146    14.003074004430
         C           -1.375055350866     2.330294030546     1.742817017146    12.000000000000
         N           -2.250412350866     1.254417030546     1.823120017146    14.003074004430
         H            1.074327649134    -2.469711969454     1.691030017146     1.007825032230
         N           -1.253248350866    -3.369903969454     1.861157017146    14.003074004430
         H           -0.532427350866    -4.097928969454     1.830763017146     1.007825032230
         H           -2.225891350866    -3.622414969454     1.929508017146     1.007825032230
         O            2.106529649134    -0.229786969454     1.574846017146    15.994914619570
         H           -1.732508350866     3.355049030546     1.743191017146     1.007825032230
         H           -3.258199350866     1.283396030546     1.887506017146     1.007825032230

  Running in c1 symmetry.

  Rotational constants: A =      0.01366  B =      0.00990  C =      0.00836 [cm^-1]
  Rotational constants: A =    409.60923  B =    296.80008  C =    250.74160 [MHz]
  Nuclear repulsion =  593.872093725379159

  Charge       = 0
  Multiplicity = 1
  Electrons    = 78
  Nalpha       = 39
  Nbeta        = 39

  ==> Algorithm <==

  SCF Algorithm Type is DF.
  DIIS enabled.
  MOM disabled.
  Fractional occupation disabled.
  Guess Type is SAD.
  Energy threshold   = 1.00e-08
  Density threshold  = 1.00e-08
  Integral threshold = 1.00e-12

  ==> Primary Basis <==

  Basis Set: JUN-CC-PVDZ
    Blend: JUN-CC-PVDZ
    Number of shells: 206
    Number of basis functions: 446
    Number of Cartesian functions: 468
    Spherical Harmonics?: true
    Max angular momentum: 2

   => Loading Basis Set <=

    Name: (JUN-CC-PVDZ AUX)
    Role: JKFIT
    Keyword: DF_BASIS_SCF
    atoms 1, 3, 7, 9, 11, 17, 19, 23, 25, 27 entry N          line   202 file /opt/anaconda/envs/psi4v1.5/share/psi4/basis/jun-cc-pvdz-jkfit.gbs 
    atoms 2, 4-6, 8, 18, 20-22, 24           entry C          line   146 file /opt/anaconda/envs/psi4v1.5/share/psi4/basis/jun-cc-pvdz-jkfit.gbs 
    atoms 10, 12-13, 15-16, 26, 28-29, 31-32 entry H          line    70 file /opt/anaconda/envs/psi4v1.5/share/psi4/basis/jun-cc-pvdz-jkfit.gbs 
    atoms 14, 30                             entry O          line   258 file /opt/anaconda/envs/psi4v1.5/share/psi4/basis/jun-cc-pvdz-jkfit.gbs 

  ==> Integral Setup <==

  ==> DiskDFJK: Density-Fitted J/K Matrices <==

    J tasked:                  Yes
    K tasked:                  Yes
    wK tasked:                  No
    OpenMP threads:              8
    Integrals threads:           8
    Memory [MiB]:            64373
    Algorithm:                Core
    Integral Cache:           LOAD
    Schwarz Cutoff:          1E-12
    Fitting Condition:       1E-10

   => Auxiliary Basis Set <=

  Basis Set: (JUN-CC-PVDZ AUX)
    Blend: JUN-CC-PVDZ-JKFIT
    Number of shells: 684
    Number of basis functions: 1968
    Number of Cartesian functions: 2252
    Spherical Harmonics?: true
    Max angular momentum: 3

  Minimum eigenvalue in the overlap matrix is 4.9158792094E-06.
  Reciprocal condition number of the overlap matrix is 2.7777035958E-07.
    Using symmetric orthogonalization.

  ==> Pre-Iterations <==

  SCF Guess: Superposition of Atomic Densities via on-the-fly atomic UHF (no occupation information).

   -------------------------
    Irrep   Nso     Nmo    
   -------------------------
     A        446     446 
   -------------------------
    Total     446     446
   -------------------------

  ==> Iterations <==

                           Total Energy        Delta E     RMS |[F,P]|

   @DF-RHF iter SAD:  -539.22327134321461   -5.39223e+02   0.00000e+00 
   @DF-RHF iter   1:  -539.14380560696918    7.94657e-02   1.71876e-03 DIIS
   @DF-RHF iter   2:  -539.36664786801339   -2.22842e-01   1.02730e-03 DIIS
   @DF-RHF iter   3:  -539.44891599644870   -8.22681e-02   2.13943e-04 DIIS
   @DF-RHF iter   4:  -539.45394620382547   -5.03021e-03   8.27104e-05 DIIS
   @DF-RHF iter   5:  -539.45481356959579   -8.67366e-04   1.85318e-05 DIIS
   @DF-RHF iter   6:  -539.45490748122836   -9.39116e-05   9.88919e-06 DIIS
   @DF-RHF iter   7:  -539.45493501281032   -2.75316e-05   4.01354e-06 DIIS
   @DF-RHF iter   8:  -539.45493979108255   -4.77827e-06   1.36722e-06 DIIS
   @DF-RHF iter   9:  -539.45494029405893   -5.02976e-07   5.30242e-07 DIIS
   @DF-RHF iter  10:  -539.45494038617380   -9.21149e-08   2.26166e-07 DIIS
   @DF-RHF iter  11:  -539.45494039994253   -1.37687e-08   9.22092e-08 DIIS
   @DF-RHF iter  12:  -539.45494040199583   -2.05330e-09   2.83397e-08 DIIS
   @DF-RHF iter  13:  -539.45494040221593   -2.20098e-10   1.25840e-08 DIIS
   @DF-RHF iter  14:  -539.45494040225685   -4.09273e-11   4.23569e-09 DIIS
  Energy and wave function converged.


  ==> Post-Iterations <==

    Orbital Energies [Eh]
    ---------------------

    Doubly Occupied:                                                      

       1A    -20.522061     2A    -15.645379     3A    -15.636318  
       4A    -15.631462     5A    -15.576162     6A    -15.569139  
       7A    -11.414516     8A    -11.370608     9A    -11.333239  
      10A    -11.317560    11A    -11.250572    12A     -1.393575  
      13A     -1.354891    14A     -1.338133    15A     -1.231343  
      16A     -1.222485    17A     -1.177088    18A     -1.032773  
      19A     -0.908677    20A     -0.897734    21A     -0.839332  
      22A     -0.807424    23A     -0.747689    24A     -0.743255  
      25A     -0.712340    26A     -0.672805    27A     -0.659094  
      28A     -0.637515    29A     -0.606310    30A     -0.598802  
      31A     -0.598471    32A     -0.545562    33A     -0.495338  
      34A     -0.455342    35A     -0.436185    36A     -0.429745  
      37A     -0.424809    38A     -0.406818    39A     -0.296007  

    Virtual:                                                              

      40A      0.029412    41A      0.041346    42A      0.047141  
      43A      0.056888    44A      0.061974    45A      0.070416  
      46A      0.074169    47A      0.083541    48A      0.085824  
      49A      0.094587    50A      0.096382    51A      0.102570  
      52A      0.106014    53A      0.115560    54A      0.116169  
      55A      0.120521    56A      0.125758    57A      0.128935  
      58A      0.132591    59A      0.133055    60A      0.140557  
      61A      0.148657    62A      0.150529    63A      0.156795  
      64A      0.159404    65A      0.163366    66A      0.166780  
      67A      0.169155    68A      0.175535    69A      0.180429  
      70A      0.184466    71A      0.187392    72A      0.195370  
      73A      0.198902    74A      0.201357    75A      0.206918  
      76A      0.212102    77A      0.218195    78A      0.222008  
      79A      0.225066    80A      0.227137    81A      0.229684  
      82A      0.230763    83A      0.240599    84A      0.245165  
      85A      0.250119    86A      0.251506    87A      0.257546  
      88A      0.262828    89A      0.266638    90A      0.270137  
      91A      0.272230    92A      0.276625    93A      0.279608  
      94A      0.280506    95A      0.284079    96A      0.289987  
      97A      0.296545    98A      0.298123    99A      0.305168  
     100A      0.308984   101A      0.313544   102A      0.314669  
     103A      0.318955   104A      0.322335   105A      0.327684  
     106A      0.331560   107A      0.335545   108A      0.340978  
     109A      0.344819   110A      0.350462   111A      0.352616  
     112A      0.358032   113A      0.361642   114A      0.365269  
     115A      0.373482   116A      0.375851   117A      0.379445  
     118A      0.383513   119A      0.387078   120A      0.395674  
     121A      0.397094   122A      0.398035   123A      0.403850  
     124A      0.410603   125A      0.425126   126A      0.427463  
     127A      0.431059   128A      0.432710   129A      0.440519  
     130A      0.447253   131A      0.453211   132A      0.463521  
     133A      0.469744   134A      0.474973   135A      0.476956  
     136A      0.484216   137A      0.492348   138A      0.504102  
     139A      0.506632   140A      0.511495   141A      0.527252  
     142A      0.534293   143A      0.545145   144A      0.547003  
     145A      0.565644   146A      0.569605   147A      0.580842  
     148A      0.588252   149A      0.598286   150A      0.602887  
     151A      0.614128   152A      0.621190   153A      0.633766  
     154A      0.636065   155A      0.641682   156A      0.643676  
     157A      0.660485   158A      0.669154   159A      0.676384  
     160A      0.687824   161A      0.693719   162A      0.708498  
     163A      0.710940   164A      0.721685   165A      0.736400  
     166A      0.744677   167A      0.782226   168A      0.793679  
     169A      0.799586   170A      0.812829   171A      0.822476  
     172A      0.825921   173A      0.833589   174A      0.843207  
     175A      0.858781   176A      0.869198   177A      0.879074  
     178A      0.887561   179A      0.892720   180A      0.906175  
     181A      0.914256   182A      0.926896   183A      0.930381  
     184A      0.939874   185A      0.944622   186A      0.961175  
     187A      0.964307   188A      0.972759   189A      0.991955  
     190A      0.995378   191A      1.024177   192A      1.033957  
     193A      1.034984   194A      1.050344   195A      1.062136  
     196A      1.069254   197A      1.073224   198A      1.078824  
     199A      1.084752   200A      1.094943   201A      1.101847  
     202A      1.108710   203A      1.114948   204A      1.126957  
     205A      1.131958   206A      1.145712   207A      1.155540  
     208A      1.164430   209A      1.173420   210A      1.194575  
     211A      1.198499   212A      1.213522   213A      1.216702  
     214A      1.227989   215A      1.233281   216A      1.249910  
     217A      1.252063   218A      1.261298   219A      1.266596  
     220A      1.280289   221A      1.292635   222A      1.306053  
     223A      1.311239   224A      1.317111   225A      1.319984  
     226A      1.334433   227A      1.340453   228A      1.343235  
     229A      1.350602   230A      1.371937   231A      1.373718  
     232A      1.380701   233A      1.401762   234A      1.408837  
     235A      1.420278   236A      1.433399   237A      1.441864  
     238A      1.459941   239A      1.472529   240A      1.483870  
     241A      1.510608   242A      1.514316   243A      1.535552  
     244A      1.555724   245A      1.603793   246A      1.614937  
     247A      1.642118   248A      1.671292   249A      1.707839  
     250A      1.755832   251A      1.785250   252A      1.804057  
     253A      1.817497   254A      1.823493   255A      1.833184  
     256A      1.844684   257A      1.850084   258A      1.857183  
     259A      1.870722   260A      1.881656   261A      1.888781  
     262A      1.904723   263A      1.906838   264A      1.922498  
     265A      1.928614   266A      1.950669   267A      1.957430  
     268A      1.961513   269A      1.971682   270A      1.984339  
     271A      2.008758   272A      2.010457   273A      2.022591  
     274A      2.036819   275A      2.049069   276A      2.053393  
     277A      2.061151   278A      2.075489   279A      2.083377  
     280A      2.087959   281A      2.091516   282A      2.106476  
     283A      2.115376   284A      2.125918   285A      2.136442  
     286A      2.140319   287A      2.161030   288A      2.169594  
     289A      2.174917   290A      2.188555   291A      2.193204  
     292A      2.217540   293A      2.228002   294A      2.232927  
     295A      2.246771   296A      2.248815   297A      2.269311  
     298A      2.281259   299A      2.290470   300A      2.298254  
     301A      2.329207   302A      2.331266   303A      2.341854  
     304A      2.360108   305A      2.371497   306A      2.372797  
     307A      2.384266   308A      2.398314   309A      2.410178  
     310A      2.421279   311A      2.429486   312A      2.439700  
     313A      2.448848   314A      2.457648   315A      2.468574  
     316A      2.479884   317A      2.490826   318A      2.493921  
     319A      2.507467   320A      2.537213   321A      2.540073  
     322A      2.556219   323A      2.562595   324A      2.568549  
     325A      2.584224   326A      2.592565   327A      2.624978  
     328A      2.644885   329A      2.662839   330A      2.665316  
     331A      2.675857   332A      2.706515   333A      2.722884  
     334A      2.726397   335A      2.734062   336A      2.743582  
     337A      2.780838   338A      2.790596   339A      2.799835  
     340A      2.829145   341A      2.836458   342A      2.876800  
     343A      2.889342   344A      2.894947   345A      2.907457  
     346A      2.931830   347A      2.940144   348A      2.955491  
     349A      2.968304   350A      2.986077   351A      2.998665  
     352A      3.006395   353A      3.040352   354A      3.041609  
     355A      3.059052   356A      3.069725   357A      3.082909  
     358A      3.093693   359A      3.106028   360A      3.123063  
     361A      3.127398   362A      3.137907   363A      3.160853  
     364A      3.174016   365A      3.220122   366A      3.231090  
     367A      3.254526   368A      3.269963   369A      3.287605  
     370A      3.300579   371A      3.308657   372A      3.322748  
     373A      3.334634   374A      3.375105   375A      3.398155  
     376A      3.413097   377A      3.423599   378A      3.458591  
     379A      3.475001   380A      3.505587   381A      3.547638  
     382A      3.553243   383A      3.584010   384A      3.591106  
     385A      3.625350   386A      3.695528   387A      3.702106  
     388A      3.745755   389A      3.754576   390A      3.764483  
     391A      3.817906   392A      3.827301   393A      3.833302  
     394A      3.852921   395A      3.942568   396A      3.987640  
     397A      4.078869   398A      4.106738   399A      4.130363  
     400A      4.164894   401A      4.199703   402A      4.263149  
     403A      4.300400   404A      4.319290   405A      4.350896  
     406A      4.358424   407A      4.385743   408A      4.408430  
     409A      4.462533   410A      4.475985   411A      4.553070  
     412A      4.604098   413A      4.644840   414A      4.724233  
     415A      4.756762   416A      4.788206   417A      4.860912  
     418A      4.911539   419A      4.930431   420A      5.057172  
     421A      5.193948   422A      5.208290   423A      5.341210  
     424A      5.521206   425A      5.684582   426A      5.704593  
     427A      5.709587   428A      5.777694   429A      5.936161  
     430A      6.054337   431A      6.066912   432A      6.133180  
     433A      6.162230   434A      6.216737   435A      6.897501  
     436A     18.179584   437A     18.478630   438A     18.517681  
     439A     18.549269   440A     18.923045   441A     25.326472  
     442A     25.338319   443A     25.411627   444A     25.443442  
     445A     25.445446   446A     33.539485  

    Final Occupation by Irrep:
              A 
    DOCC [    39 ]

  @DF-RHF Final Energy:  -539.45494040225685

   => Energetics <=

    Nuclear Repulsion Energy =            593.8720937253791590
    One-Electron Energy =               -1912.7809531817049447
    Two-Electron Energy =                 779.4539190540690470
    Total Energy =                       -539.4549404022568524

Computation Completed


Properties will be evaluated at   0.000000,   0.000000,   0.000000 [a0]

Properties computed using the SCF density matrix

  Nuclear Dipole Moment: [e a0]
     X:   -84.8950      Y:   -47.6070      Z:   257.9469

  Electronic Dipole Moment: [e a0]
     X:    82.5003      Y:    45.6425      Z:  -257.7524

  Dipole Moment: [e a0]
     X:    -2.3947      Y:    -1.9645      Z:     0.1945     Total:     3.1034

  Dipole Moment: [D]
     X:    -6.0866      Y:    -4.9932      Z:     0.4943     Total:     7.8882


*** tstop() called on node48.bme.utexas.edu at Sun May 12 23:48:01 2024
Module time:
	user time   =     239.20 seconds =       3.99 minutes
	system time =       3.97 seconds =       0.07 minutes
	total time  =         35 seconds =       0.58 minutes
Total time:
	user time   =    1145.22 seconds =      19.09 minutes
	system time =      16.60 seconds =       0.28 minutes
	total time  =        170 seconds =       2.83 minutes

*** tstart() called on node48.bme.utexas.edu
*** at Sun May 12 23:48:01 2024


  //>>>>>>>>>>>>>>>>>>>>>>>>>>>>>>>>>>>//
  //               DFMP2               //
  //<<<<<<<<<<<<<<<<<<<<<<<<<<<<<<<<<<<//

   => Loading Basis Set <=

    Name: (JUN-CC-PVDZ AUX)
    Role: RIFIT
    Keyword: DF_BASIS_MP2
    atoms 1, 3, 7, 9, 11, 17, 19, 23, 25, 27 entry N          line   144 file /opt/anaconda/envs/psi4v1.5/share/psi4/basis/jun-cc-pvdz-ri.gbs 
    atoms 2, 4-6, 8, 18, 20-22, 24           entry C          line   100 file /opt/anaconda/envs/psi4v1.5/share/psi4/basis/jun-cc-pvdz-ri.gbs 
    atoms 10, 12-13, 15-16, 26, 28-29, 31-32 entry H          line    30 file /opt/anaconda/envs/psi4v1.5/share/psi4/basis/jun-cc-pvdz-ri.gbs 
    atoms 14, 30                             entry O          line   188 file /opt/anaconda/envs/psi4v1.5/share/psi4/basis/jun-cc-pvdz-ri.gbs 

	 --------------------------------------------------------
	                          DF-MP2                         
	      2nd-Order Density-Fitted Moller-Plesset Theory     
	              RMP2 Wavefunction,   8 Threads             
	                                                         
	        Rob Parrish, Justin Turney, Andy Simmonett,      
	           Ed Hohenstein, and C. David Sherrill          
	 --------------------------------------------------------

   => Auxiliary Basis Set <=

  Basis Set: (JUN-CC-PVDZ AUX)
    Blend: JUN-CC-PVDZ-RI
    Number of shells: 522
    Number of basis functions: 1570
    Number of Cartesian functions: 1822
    Spherical Harmonics?: true
    Max angular momentum: 3

	 --------------------------------------------------------
	                 NBF =   446, NAUX =  1570
	 --------------------------------------------------------
	   CLASS    FOCC     OCC    AOCC    AVIR     VIR    FVIR
	   PAIRS      11      39      28     407     407       0
	 --------------------------------------------------------

	 Will attempt to load fitting metric from file 97.

	-----------------------------------------------------------
	 ==================> DF-MP2 Energies <==================== 
	-----------------------------------------------------------
	 Reference Energy          =    -539.4549404022568524 [Eh]
	 Singles Energy            =      -0.0000000000000000 [Eh]
	 Same-Spin Energy          =      -0.4613138320347877 [Eh]
	 Opposite-Spin Energy      =      -1.1866651983521121 [Eh]
	 Correlation Energy        =      -1.6479790303869000 [Eh]
	 Total Energy              =    -541.1029194326437164 [Eh]
	-----------------------------------------------------------
	 ================> DF-SCS-MP2 Energies <================== 
	-----------------------------------------------------------
	 SCS Same-Spin Scale       =       0.3333333333333333 [-]
	 SCS Opposite-Spin Scale   =       1.2000000000000000 [-]
	 SCS Same-Spin Energy      =      -0.1537712773449292 [Eh]
	 SCS Opposite-Spin Energy  =      -1.4239982380225344 [Eh]
	 SCS Correlation Energy    =      -1.5777695153674638 [Eh]
	 SCS Total Energy          =    -541.0327099176242882 [Eh]
	-----------------------------------------------------------


*** tstop() called on node48.bme.utexas.edu at Sun May 12 23:48:17 2024
Module time:
	user time   =      80.25 seconds =       1.34 minutes
	system time =       1.56 seconds =       0.03 minutes
	total time  =         16 seconds =       0.27 minutes
Total time:
	user time   =    1225.49 seconds =      20.42 minutes
	system time =      18.16 seconds =       0.30 minutes
	total time  =        186 seconds =       3.10 minutes
  Constructing Basis Sets for SAPT...

   => Loading Basis Set <=

    Name: (JUN-CC-PVDZ AUX)
    Role: RIFIT
    Keyword: DF_BASIS_SAPT
    atoms 1, 3, 7, 9, 11, 17, 19, 23, 25, 27 entry N          line   144 file /opt/anaconda/envs/psi4v1.5/share/psi4/basis/jun-cc-pvdz-ri.gbs 
    atoms 2, 4-6, 8, 18, 20-22, 24           entry C          line   100 file /opt/anaconda/envs/psi4v1.5/share/psi4/basis/jun-cc-pvdz-ri.gbs 
    atoms 10, 12-13, 15-16, 26, 28-29, 31-32 entry H          line    30 file /opt/anaconda/envs/psi4v1.5/share/psi4/basis/jun-cc-pvdz-ri.gbs 
    atoms 14, 30                             entry O          line   188 file /opt/anaconda/envs/psi4v1.5/share/psi4/basis/jun-cc-pvdz-ri.gbs 


  //>>>>>>>>>>>>>>>>>>>>>>>>>>>>>>>>>>>//
  //           SAPT2+(3)DMP2           //
  //<<<<<<<<<<<<<<<<<<<<<<<<<<<<<<<<<<<//


*** tstart() called on node48.bme.utexas.edu
*** at Sun May 12 23:48:17 2024

      SAPT2+(3)  
    Ed Hohenstein
     6 June 2009

      Orbital Information
  --------------------------
    NSO        =       446
    NMO        =       446
    NRI        =      1570
    NOCC A     =        39
    NOCC B     =        39
    FOCC A     =        11
    FOCC B     =        11
    NVIR A     =       407
    NVIR B     =       407

    Estimated memory usage: 8127.4 MB

    Natural Orbital Cutoff:   1.000E-06
    Disp(T3) Truncation:            Yes
    CCD (vv|vv) Truncation:         Yes
    MBPT T2 Truncation:             Yes

    Monomer A: 202 virtual orbitals dropped
    Monomer B: 202 virtual orbitals dropped

    Elst10,r            =     0.006259223701 [Eh]
    Exch10 (S^2)        =     0.009803635062 [Eh]
    Exch10              =     0.009806025960 [Eh]
    Ind20,r (A<-B)      =    -0.002727588912 [Eh]
    Ind20,r (B<-A)      =    -0.002654902431 [Eh]
    Ind20,r             =    -0.005382491343 [Eh]
    Exch-Ind20,r (A<-B) =     0.001647629086 [Eh]
    Exch-Ind20,r (B<-A) =     0.001998212975 [Eh]
    Exch-Ind20,r        =     0.003645842060 [Eh]
    Disp20              =    -0.017252400023 [Eh]
    Disp20 (NO)         =    -0.016550595568 [Eh]
    Exch-Disp20         =     0.001437069892 [Eh]
    Elst12,r            =    -0.003615581612 [Eh]
    Exch11              =    -0.000095431996 [Eh]
    Exch12              =     0.001260357831 [Eh]
    Ind22               =    -0.000378715118 [Eh]
    Disp21              =     0.006358952099 [Eh]
    Disp22 (SDQ)        =    -0.001859880072 [Eh]

    (i =   1 of  28)        387 seconds
    (i =   2 of  28)        791 seconds
    (i =   3 of  28)       1215 seconds
    (i =   4 of  28)       1643 seconds
    (i =   5 of  28)       2072 seconds
    (i =   6 of  28)       2506 seconds
    (i =   7 of  28)       2917 seconds
    (i =   8 of  28)       3335 seconds
    (i =   9 of  28)       3751 seconds
    (i =  10 of  28)       4153 seconds
    (i =  11 of  28)       4558 seconds
    (i =  12 of  28)       4956 seconds
    (i =  13 of  28)       5356 seconds
    (i =  14 of  28)       5765 seconds
    (i =  15 of  28)       6162 seconds
    (i =  16 of  28)       6562 seconds
    (i =  17 of  28)       6980 seconds
    (i =  18 of  28)       7378 seconds
    (i =  19 of  28)       7723 seconds
    (i =  20 of  28)       7930 seconds
    (i =  21 of  28)       8135 seconds
    (i =  22 of  28)       8337 seconds
    (i =  23 of  28)       8538 seconds
    (i =  24 of  28)       8743 seconds
    (i =  25 of  28)       8948 seconds
    (i =  26 of  28)       9148 seconds
    (i =  27 of  28)       9348 seconds
    (i =  28 of  28)       9551 seconds

    Disp220 (T)         =    -0.001848434275 [Eh]

    (i =   1 of  28)        207 seconds
    (i =   2 of  28)        412 seconds
    (i =   3 of  28)        618 seconds
    (i =   4 of  28)        823 seconds
    (i =   5 of  28)       1028 seconds
    (i =   6 of  28)       1233 seconds
    (i =   7 of  28)       1437 seconds
    (i =   8 of  28)       1649 seconds
    (i =   9 of  28)       1864 seconds
    (i =  10 of  28)       2079 seconds
    (i =  11 of  28)       2297 seconds
    (i =  12 of  28)       2509 seconds
    (i =  13 of  28)       2727 seconds
    (i =  14 of  28)       2944 seconds
    (i =  15 of  28)       3161 seconds
    (i =  16 of  28)       3378 seconds
    (i =  17 of  28)       3611 seconds
    (i =  18 of  28)       3824 seconds
    (i =  19 of  28)       4032 seconds
    (i =  20 of  28)       4238 seconds
    (i =  21 of  28)       4444 seconds
    (i =  22 of  28)       4695 seconds
    (i =  23 of  28)       4994 seconds
    (i =  24 of  28)       5292 seconds
    (i =  25 of  28)       5542 seconds
    (i =  26 of  28)       5763 seconds
    (i =  27 of  28)       5973 seconds
    (i =  28 of  28)       6178 seconds

    Disp202 (T)         =    -0.001885715052 [Eh]

    Disp22 (T)          =    -0.003734149327 [Eh]

    Est. Disp220 (T)    =    -0.001926814501 [Eh]
    Est. Disp202 (T)    =    -0.001965676115 [Eh]

    Est. Disp22 (T)     =    -0.003892490616 [Eh]
    Elst13,r            =     0.001170798653 [Eh]
    Disp30              =     0.000117229847 [Eh]

    SAPT Results 
  --------------------------------------------------------------------------------------------------------
    Electrostatics                  3.81444074 [mEh]       2.39359770 [kcal/mol]      10.01481279 [kJ/mol]
      Elst10,r                      6.25922370 [mEh]       3.92772217 [kcal/mol]      16.43358956 [kJ/mol]
      Elst12,r                     -3.61558161 [mEh]      -2.26881172 [kcal/mol]      -9.49270822 [kJ/mol]
      Elst13,r                      1.17079865 [mEh]       0.73468725 [kcal/mol]       3.07393144 [kJ/mol]

    Exchange                       10.97095179 [mEh]       6.88437619 [kcal/mol]      28.80422997 [kJ/mol]
      Exch10                        9.80602596 [mEh]       6.15337419 [kcal/mol]      25.74571761 [kJ/mol]
      Exch10(S^2)                   9.80363506 [mEh]       6.15187388 [kcal/mol]      25.73944031 [kJ/mol]
      Exch11(S^2)                  -0.09543200 [mEh]      -0.05988448 [kcal/mol]      -0.25055667 [kJ/mol]
      Exch12(S^2)                   1.26035783 [mEh]       0.79088648 [kcal/mol]       3.30906903 [kJ/mol]

    Induction                      -1.56108689 [mEh]      -0.97959681 [kcal/mol]      -4.09863306 [kJ/mol]
      Ind20,r                      -5.38249134 [mEh]      -3.37756431 [kcal/mol]     -14.13172907 [kJ/mol]
      Ind22                        -0.37871512 [mEh]      -0.23764732 [kcal/mol]      -0.99431641 [kJ/mol]
      Exch-Ind20,r                  3.64584206 [mEh]       2.28780043 [kcal/mol]       9.57215701 [kJ/mol]
      Exch-Ind22                    0.25652350 [mEh]       0.16097093 [kcal/mol]       0.67350235 [kJ/mol]
      delta HF,r (2)               -0.22561466 [mEh]      -0.14157534 [kcal/mol]      -0.59235122 [kJ/mol]
      delta MP2,r (2)               0.52336868 [mEh]       0.32841880 [kcal/mol]       1.37410428 [kJ/mol]

    Dispersion                    -15.09151887 [mEh]      -9.47007107 [kcal/mol]     -39.62277734 [kJ/mol]
      Disp20                      -17.25240002 [mEh]     -10.82604446 [kcal/mol]     -45.29617002 [kJ/mol]
      Disp30                        0.11722985 [mEh]       0.07356284 [kcal/mol]       0.30778692 [kJ/mol]
      Disp21                        6.35895210 [mEh]       3.99030269 [kcal/mol]      16.69542644 [kJ/mol]
      Disp22 (SDQ)                 -1.85988007 [mEh]      -1.16709237 [kcal/mol]      -4.88311446 [kJ/mol]
      Disp22 (T)                   -3.73414933 [mEh]      -2.34321408 [kcal/mol]      -9.80400771 [kJ/mol]
      Est. Disp22 (T)              -3.89249062 [mEh]      -2.44257474 [kcal/mol]     -10.21973270 [kJ/mol]
      Exch-Disp20                   1.43706989 [mEh]       0.90177497 [kcal/mol]       3.77302648 [kJ/mol]

  Total HF                         14.10298571 [mEh]       8.84975714 [kcal/mol]      37.02738389 [kJ/mol]
  Total SAPT0                      -1.71234442 [mEh]      -1.07451234 [kcal/mol]      -4.49575965 [kJ/mol]
  Total SAPT2                      -4.28519181 [mEh]      -2.68899846 [kcal/mol]     -11.25076956 [kJ/mol]
  Total SAPT2+                     -3.67861040 [mEh]      -2.30836288 [kcal/mol]      -9.65819028 [kJ/mol]
  Total SAPT2+(3)                  -2.39058190 [mEh]      -1.50011279 [kcal/mol]      -6.27647192 [kJ/mol]
  Total SAPT2+dMP2                 -3.15524172 [mEh]      -1.97994407 [kcal/mol]      -8.28408600 [kJ/mol]
  Total SAPT2+(3)dMP2              -1.86721322 [mEh]      -1.17169399 [kcal/mol]      -4.90236764 [kJ/mol]

  Special recipe for scaled SAPT0 (see Manual):
    Electrostatics sSAPT0           6.25922370 [mEh]       3.92772217 [kcal/mol]      16.43358956 [kJ/mol]
    Exchange sSAPT0                 9.80602596 [mEh]       6.15337419 [kcal/mol]      25.74571761 [kJ/mol]
    Induction sSAPT0               -1.95959587 [mEh]      -1.22966497 [kcal/mol]      -5.14491824 [kJ/mol]
    Dispersion sSAPT0             -15.81427846 [mEh]      -9.92360956 [kcal/mol]     -41.52038238 [kJ/mol]
  Total sSAPT0                     -1.70862467 [mEh]      -1.07217817 [kcal/mol]      -4.48599345 [kJ/mol]
  --------------------------------------------------------------------------------------------------------

*** tstop() called on node48.bme.utexas.edu at Mon May 13 04:55:45 2024
Module time:
	user time   =  135553.28 seconds =    2259.22 minutes
	system time =    1488.55 seconds =      24.81 minutes
	total time  =      18448 seconds =     307.47 minutes
Total time:
	user time   =  136780.14 seconds =    2279.67 minutes
	system time =    1506.78 seconds =      25.11 minutes
	total time  =      18634 seconds =     310.57 minutes

    Psi4 stopped on: Monday, 13 May 2024 04:55AM
    Psi4 wall time for execution: 5:10:34.92

*** Psi4 exiting successfully. Buy a developer a beer!
