
    -----------------------------------------------------------------------
          Psi4: An Open-Source Ab Initio Electronic Structure Package
                               Psi4 1.5 release

                         Git: Rev {HEAD} e9f4d6d 


    D. G. A. Smith, L. A. Burns, A. C. Simmonett, R. M. Parrish,
    M. C. Schieber, R. Galvelis, P. Kraus, H. Kruse, R. Di Remigio,
    A. Alenaizan, A. M. James, S. Lehtola, J. P. Misiewicz, M. Scheurer,
    R. A. Shaw, J. B. Schriber, Y. Xie, Z. L. Glick, D. A. Sirianni,
    J. S. O'Brien, J. M. Waldrop, A. Kumar, E. G. Hohenstein,
    B. P. Pritchard, B. R. Brooks, H. F. Schaefer III, A. Yu. Sokolov,
    K. Patkowski, A. E. DePrince III, U. Bozkaya, R. A. King,
    F. A. Evangelista, J. M. Turney, T. D. Crawford, C. D. Sherrill,
    J. Chem. Phys. 152(18) 184108 (2020). https://doi.org/10.1063/5.0006002

                            Additional Code Authors
    E. T. Seidl, C. L. Janssen, E. F. Valeev, M. L. Leininger,
    J. F. Gonthier, R. M. Richard, H. R. McAlexander, M. Saitow, X. Wang,
    P. Verma, M. H. Lechner, and A. Jiang

             Previous Authors, Complete List of Code Contributors,
                       and Citations for Specific Modules
    https://github.com/psi4/psi4/blob/master/codemeta.json
    https://github.com/psi4/psi4/graphs/contributors
    http://psicode.org/psi4manual/master/introduction.html#citing-psifour

    -----------------------------------------------------------------------


    Psi4 started on: Wednesday, 24 January 2024 11:32AM

    Process ID: 850744
    Host:       node165.bme.utexas.edu
    PSIDATADIR: /opt/anaconda/envs/psi4v1.5/share/psi4
    Memory:     500.0 MiB
    Threads:    8
    
  ==> Input File <==

--------------------------------------------------------------------------
memory 80GB

molecule {
0 1
N -0.64527 -0.537199 -0.000379
C -1.914342 -0.992571 -0.000336
N -2.327871 -2.260455 -0.000198
C -1.289976 -3.113552 -0.000134
C 0.071467 -2.788444 -0.000208
C 0.388103 -1.409805 -0.000331
N 0.862141 -3.925582 -0.00012
C 0.0 -4.915748 0.0
N -1.315514 -4.490519 -0.0
H -2.678219 -0.213216 -0.000396
N 1.647269 -0.939941 -0.000399
H 2.408453 -1.601685 -0.000397
H 1.826741 0.069006 -0.000581
H 0.255544 -5.970689 9.4e-05
H -2.145977 -5.066056 9e-05
--
0 1
N -1.161035 0.281726 3.349773
C -2.399615 -0.250866 3.336631
N -3.566425 0.394056 3.302481
C -3.388962 1.725606 3.280568
C -2.171635 2.416432 3.290353
C -1.00018 1.624456 3.327354
N -2.368621 3.78704 3.260675
C -3.674188 3.922965 3.233568
N -4.346384 2.714891 3.243829
H -2.42695 -1.341622 3.356796
N 0.241035 2.139697 3.340899
H 0.346581 3.142631 3.323914
H 1.060138 1.524457 3.368029
H -4.206501 4.868516 3.205646
H -5.346111 2.569285 3.227794
 units angstrom
 no_reorient
 symmetry c1}
set  {scf_type DF
 basis aug-cc-pvtz
 freeze_core True
 guess SAD}
energy('sapt2+(3)dmp2')
--------------------------------------------------------------------------

  Memory set to  74.506 GiB by Python driver.

Scratch directory: /tmp/
   => Loading Basis Set <=

    Name: AUG-CC-PVTZ
    Role: ORBITAL
    Keyword: BASIS
    atoms 1, 3, 7, 9, 11, 16, 18, 22, 24, 26 entry N          line   285 file /opt/anaconda/envs/psi4v1.5/share/psi4/basis/aug-cc-pvtz.gbs 
    atoms 2, 4-6, 8, 17, 19-21, 23           entry C          line   239 file /opt/anaconda/envs/psi4v1.5/share/psi4/basis/aug-cc-pvtz.gbs 
    atoms 10, 12-15, 25, 27-30               entry H          line    40 file /opt/anaconda/envs/psi4v1.5/share/psi4/basis/aug-cc-pvtz.gbs 

   => Loading Basis Set <=

    Name: AUG-CC-PVTZ
    Role: ORBITAL
    Keyword: BASIS
    atoms 1, 3, 7, 9, 11, 16, 18, 22, 24, 26 entry N          line   285 file /opt/anaconda/envs/psi4v1.5/share/psi4/basis/aug-cc-pvtz.gbs 
    atoms 2, 4-6, 8, 17, 19-21, 23           entry C          line   239 file /opt/anaconda/envs/psi4v1.5/share/psi4/basis/aug-cc-pvtz.gbs 
    atoms 10, 12-15, 25, 27-30               entry H          line    40 file /opt/anaconda/envs/psi4v1.5/share/psi4/basis/aug-cc-pvtz.gbs 


  //>>>>>>>>>>>>>>>>>>>>>>>>>>>>>>>>>>>//
  //              Dimer HF             //
  //<<<<<<<<<<<<<<<<<<<<<<<<<<<<<<<<<<<//


*** tstart() called on node165.bme.utexas.edu
*** at Wed Jan 24 11:33:00 2024

   => Loading Basis Set <=

    Name: AUG-CC-PVTZ
    Role: ORBITAL
    Keyword: BASIS
    atoms 1, 3, 7, 9, 11, 16, 18, 22, 24, 26 entry N          line   285 file /opt/anaconda/envs/psi4v1.5/share/psi4/basis/aug-cc-pvtz.gbs 
    atoms 2, 4-6, 8, 17, 19-21, 23           entry C          line   239 file /opt/anaconda/envs/psi4v1.5/share/psi4/basis/aug-cc-pvtz.gbs 
    atoms 10, 12-15, 25, 27-30               entry H          line    40 file /opt/anaconda/envs/psi4v1.5/share/psi4/basis/aug-cc-pvtz.gbs 


         ---------------------------------------------------------
                                   SCF
               by Justin Turney, Rob Parrish, Andy Simmonett
                          and Daniel G. A. Smith
                              RHF Reference
                        8 Threads,  76293 MiB Core
         ---------------------------------------------------------

  ==> Geometry <==

    Molecular point group: c1
    Full point group: C1

    Geometry (in Angstrom), charge = 0, multiplicity = 1:

       Center              X                  Y                   Z               Mass       
    ------------   -----------------  -----------------  -----------------  -----------------
         N            0.751621422596    -0.214624689177    -1.648684364318    14.003074004430
         C           -0.517450577404    -0.669996689177    -1.648641364318    12.000000000000
         N           -0.930979577404    -1.937880689177    -1.648503364318    14.003074004430
         C            0.106915422596    -2.790977689177    -1.648439364318    12.000000000000
         C            1.468358422596    -2.465869689177    -1.648513364318    12.000000000000
         C            1.784994422596    -1.087230689177    -1.648636364318    12.000000000000
         N            2.259032422596    -3.603007689177    -1.648425364318    14.003074004430
         C            1.396891422596    -4.593173689177    -1.648305364318    12.000000000000
         N            0.081377422596    -4.167944689177    -1.648305364318    14.003074004430
         H           -1.281327577404     0.109358310823    -1.648701364318     1.007825032230
         N            3.044160422596    -0.617366689177    -1.648704364318    14.003074004430
         H            3.805344422596    -1.279110689177    -1.648702364318     1.007825032230
         H            3.223632422596     0.391580310823    -1.648886364318     1.007825032230
         H            1.652435422596    -5.648114689177    -1.648211364318     1.007825032230
         H           -0.749085577404    -4.743481689177    -1.648215364318     1.007825032230
         N            0.235856422596     0.604300310823     1.701467635682    14.003074004430
         C           -1.002723577404     0.071708310823     1.688325635682    12.000000000000
         N           -2.169533577404     0.716630310823     1.654175635682    14.003074004430
         C           -1.992070577404     2.048180310823     1.632262635682    12.000000000000
         C           -0.774743577404     2.739006310823     1.642047635682    12.000000000000
         C            0.396711422596     1.947030310823     1.679048635682    12.000000000000
         N           -0.971729577404     4.109614310823     1.612369635682    14.003074004430
         C           -2.277296577404     4.245539310823     1.585262635682    12.000000000000
         N           -2.949492577404     3.037465310823     1.595523635682    14.003074004430
         H           -1.030058577404    -1.019047689177     1.708490635682     1.007825032230
         N            1.637926422596     2.462271310823     1.692593635682    14.003074004430
         H            1.743472422596     3.465205310823     1.675608635682     1.007825032230
         H            2.457029422596     1.847031310823     1.719723635682     1.007825032230
         H           -2.809609577404     5.191090310823     1.557340635682     1.007825032230
         H           -3.949219577404     2.891859310823     1.579488635682     1.007825032230

  Running in c1 symmetry.

  Rotational constants: A =      0.02612  B =      0.00582  C =      0.00525 [cm^-1]
  Rotational constants: A =    783.11783  B =    174.35194  C =    157.39031 [MHz]
  Nuclear repulsion = 1441.840075571344414

  Charge       = 0
  Multiplicity = 1
  Electrons    = 140
  Nalpha       = 70
  Nbeta        = 70

  ==> Algorithm <==

  SCF Algorithm Type is DF.
  DIIS enabled.
  MOM disabled.
  Fractional occupation disabled.
  Guess Type is SAD.
  Energy threshold   = 1.00e-08
  Density threshold  = 1.00e-08
  Integral threshold = 1.00e-12

  ==> Primary Basis <==

  Basis Set: AUG-CC-PVTZ
    Blend: AUG-CC-PVTZ
    Number of shells: 370
    Number of basis functions: 1150
    Number of Cartesian functions: 1350
    Spherical Harmonics?: true
    Max angular momentum: 3

   => Loading Basis Set <=

    Name: (AUG-CC-PVTZ AUX)
    Role: JKFIT
    Keyword: DF_BASIS_SCF
    atoms 1, 3, 7, 9, 11, 16, 18, 22, 24, 26 entry N          line   224 file /opt/anaconda/envs/psi4v1.5/share/psi4/basis/aug-cc-pvtz-jkfit.gbs 
    atoms 2, 4-6, 8, 17, 19-21, 23           entry C          line   162 file /opt/anaconda/envs/psi4v1.5/share/psi4/basis/aug-cc-pvtz-jkfit.gbs 
    atoms 10, 12-15, 25, 27-30               entry H          line    70 file /opt/anaconda/envs/psi4v1.5/share/psi4/basis/aug-cc-pvtz-jkfit.gbs 

  ==> Integral Setup <==

  ==> DiskDFJK: Density-Fitted J/K Matrices <==

    J tasked:                  Yes
    K tasked:                  Yes
    wK tasked:                  No
    OpenMP threads:              8
    Integrals threads:           8
    Memory [MiB]:            57220
    Algorithm:                Core
    Integral Cache:           SAVE
    Schwarz Cutoff:          1E-12
    Fitting Condition:       1E-10

   => Auxiliary Basis Set <=

  Basis Set: (AUG-CC-PVTZ AUX)
    Blend: AUG-CC-PVTZ-JKFIT
    Number of shells: 740
    Number of basis functions: 2540
    Number of Cartesian functions: 3170
    Spherical Harmonics?: true
    Max angular momentum: 4

  Minimum eigenvalue in the overlap matrix is 8.7054309103E-07.
  Reciprocal condition number of the overlap matrix is 4.5768168538E-08.
    Using symmetric orthogonalization.

  ==> Pre-Iterations <==

  SCF Guess: Superposition of Atomic Densities via on-the-fly atomic UHF (no occupation information).

   -------------------------
    Irrep   Nso     Nmo    
   -------------------------
     A       1150    1150 
   -------------------------
    Total    1150    1150
   -------------------------

  ==> Iterations <==

                           Total Energy        Delta E     RMS |[F,P]|

   @DF-RHF iter SAD:  -928.95163009826376   -9.28952e+02   0.00000e+00 
   @DF-RHF iter   1:  -928.88048996202053    7.11401e-02   8.25217e-04 DIIS
   @DF-RHF iter   2:  -929.26370001720409   -3.83210e-01   4.07286e-04 DIIS
   @DF-RHF iter   3:  -929.35206879989357   -8.83688e-02   9.33803e-05 DIIS
   @DF-RHF iter   4:  -929.35866256278814   -6.59376e-03   4.48034e-05 DIIS
   @DF-RHF iter   5:  -929.36003732589370   -1.37476e-03   9.00118e-06 DIIS
   @DF-RHF iter   6:  -929.36015238237974   -1.15056e-04   4.30601e-06 DIIS
   @DF-RHF iter   7:  -929.36018409971689   -3.17173e-05   1.82187e-06 DIIS
   @DF-RHF iter   8:  -929.36019139005566   -7.29034e-06   6.74257e-07 DIIS
   @DF-RHF iter   9:  -929.36019251899700   -1.12894e-06   3.49252e-07 DIIS
   @DF-RHF iter  10:  -929.36019280778248   -2.88785e-07   1.28662e-07 DIIS
   @DF-RHF iter  11:  -929.36019286266458   -5.48821e-08   5.51055e-08 DIIS
   @DF-RHF iter  12:  -929.36019287046918   -7.80460e-09   2.16062e-08 DIIS
   @DF-RHF iter  13:  -929.36019287156455   -1.09537e-09   7.40987e-09 DIIS
  Energy and wave function converged.


  ==> Post-Iterations <==

    Orbital Energies [Eh]
    ---------------------

    Doubly Occupied:                                                      

       1A    -15.626537     2A    -15.626513     3A    -15.585182  
       4A    -15.584626     5A    -15.565642     6A    -15.565587  
       7A    -15.549751     8A    -15.549724     9A    -15.540284  
      10A    -15.540241    11A    -11.334257    12A    -11.334107  
      13A    -11.320272    14A    -11.320239    15A    -11.312373  
      16A    -11.312355    17A    -11.303555    18A    -11.303499  
      19A    -11.247793    20A    -11.247764    21A     -1.358809  
      22A     -1.358730    23A     -1.289592    24A     -1.288686  
      25A     -1.241220    26A     -1.240787    27A     -1.180887  
      28A     -1.180730    29A     -1.140746    30A     -1.139982  
      31A     -1.026551    32A     -1.025992    33A     -0.888026  
      34A     -0.887533    35A     -0.867908    36A     -0.866742  
      37A     -0.837677    38A     -0.837614    39A     -0.772574  
      40A     -0.772056    41A     -0.734575    42A     -0.734022  
      43A     -0.692259    44A     -0.691644    45A     -0.670057  
      46A     -0.669833    47A     -0.631759    48A     -0.630217  
      49A     -0.629680    50A     -0.628779    51A     -0.606868  
      52A     -0.606537    53A     -0.586009    54A     -0.585361  
      55A     -0.554590    56A     -0.547448    57A     -0.495766  
      58A     -0.489881    59A     -0.488245    60A     -0.487632  
      61A     -0.442261    62A     -0.441158    63A     -0.420520  
      64A     -0.419340    65A     -0.400724    66A     -0.398411  
      67A     -0.367453    68A     -0.357709    69A     -0.305208  
      70A     -0.300978  

    Virtual:                                                              

      71A      0.023267    72A      0.024048    73A      0.027720  
      74A      0.039873    75A      0.040308    76A      0.043913  
      77A      0.049454    78A      0.055024    79A      0.056528  
      80A      0.065253    81A      0.070378    82A      0.080824  
      83A      0.083535    84A      0.087629    85A      0.092922  
      86A      0.097226    87A      0.098801    88A      0.099315  
      89A      0.104650    90A      0.105577    91A      0.109270  
      92A      0.111709    93A      0.112623    94A      0.115226  
      95A      0.121568    96A      0.123061    97A      0.125925  
      98A      0.129187    99A      0.131441   100A      0.133997  
     101A      0.136568   102A      0.139242   103A      0.140200  
     104A      0.144048   105A      0.145561   106A      0.147122  
     107A      0.150750   108A      0.153523   109A      0.154377  
     110A      0.159746   111A      0.161237   112A      0.163026  
     113A      0.171736   114A      0.172794   115A      0.178367  
     116A      0.180346   117A      0.183268   118A      0.186249  
     119A      0.187956   120A      0.193590   121A      0.196406  
     122A      0.198350   123A      0.199913   124A      0.206021  
     125A      0.208395   126A      0.213935   127A      0.214737  
     128A      0.214970   129A      0.217772   130A      0.226972  
     131A      0.228202   132A      0.231263   133A      0.233664  
     134A      0.235828   135A      0.237358   136A      0.238290  
     137A      0.242246   138A      0.244525   139A      0.248107  
     140A      0.252440   141A      0.253070   142A      0.259431  
     143A      0.259793   144A      0.261962   145A      0.265068  
     146A      0.268029   147A      0.277559   148A      0.280205  
     149A      0.280651   150A      0.286001   151A      0.287217  
     152A      0.289905   153A      0.294216   154A      0.297887  
     155A      0.298974   156A      0.306090   157A      0.307956  
     158A      0.308639   159A      0.314588   160A      0.319302  
     161A      0.320024   162A      0.326846   163A      0.330915  
     164A      0.333215   165A      0.337547   166A      0.342356  
     167A      0.343158   168A      0.346590   169A      0.347591  
     170A      0.348275   171A      0.354210   172A      0.355213  
     173A      0.361536   174A      0.365099   175A      0.369504  
     176A      0.370871   177A      0.376580   178A      0.380377  
     179A      0.386827   180A      0.392130   181A      0.392573  
     182A      0.396162   183A      0.396365   184A      0.399210  
     185A      0.401524   186A      0.404424   187A      0.405643  
     188A      0.410938   189A      0.412572   190A      0.419504  
     191A      0.422149   192A      0.423620   193A      0.425867  
     194A      0.428666   195A      0.433403   196A      0.434535  
     197A      0.438908   198A      0.441319   199A      0.443133  
     200A      0.449962   201A      0.450386   202A      0.453845  
     203A      0.454137   204A      0.458614   205A      0.461935  
     206A      0.466543   207A      0.468195   208A      0.472037  
     209A      0.473152   210A      0.475828   211A      0.480186  
     212A      0.481212   213A      0.485032   214A      0.486290  
     215A      0.488542   216A      0.493335   217A      0.496771  
     218A      0.499083   219A      0.499275   220A      0.502188  
     221A      0.504317   222A      0.508840   223A      0.511369  
     224A      0.514245   225A      0.516982   226A      0.524251  
     227A      0.525688   228A      0.528631   229A      0.530393  
     230A      0.534056   231A      0.534723   232A      0.536135  
     233A      0.541039   234A      0.543164   235A      0.545610  
     236A      0.550824   237A      0.554632   238A      0.560450  
     239A      0.564493   240A      0.566944   241A      0.569675  
     242A      0.572788   243A      0.576397   244A      0.580050  
     245A      0.582204   246A      0.585268   247A      0.590760  
     248A      0.593895   249A      0.595948   250A      0.601267  
     251A      0.610003   252A      0.613710   253A      0.615604  
     254A      0.617704   255A      0.620566   256A      0.626925  
     257A      0.632551   258A      0.633292   259A      0.635614  
     260A      0.640752   261A      0.643210   262A      0.651282  
     263A      0.653835   264A      0.656584   265A      0.658989  
     266A      0.665873   267A      0.669373   268A      0.669796  
     269A      0.676250   270A      0.677655   271A      0.683283  
     272A      0.685571   273A      0.687808   274A      0.692524  
     275A      0.693602   276A      0.702040   277A      0.707295  
     278A      0.709482   279A      0.713483   280A      0.716274  
     281A      0.719546   282A      0.723409   283A      0.725701  
     284A      0.731538   285A      0.731869   286A      0.742714  
     287A      0.746216   288A      0.749536   289A      0.753591  
     290A      0.759593   291A      0.762811   292A      0.766264  
     293A      0.770358   294A      0.777402   295A      0.779863  
     296A      0.782712   297A      0.784042   298A      0.786708  
     299A      0.793047   300A      0.803339   301A      0.805126  
     302A      0.807099   303A      0.810171   304A      0.811895  
     305A      0.815649   306A      0.819543   307A      0.823041  
     308A      0.825216   309A      0.830783   310A      0.836751  
     311A      0.837034   312A      0.841962   313A      0.843879  
     314A      0.847723   315A      0.848211   316A      0.857602  
     317A      0.862589   318A      0.865589   319A      0.867442  
     320A      0.868517   321A      0.871856   322A      0.877146  
     323A      0.882298   324A      0.887810   325A      0.895810  
     326A      0.900369   327A      0.902604   328A      0.904890  
     329A      0.907533   330A      0.909480   331A      0.912459  
     332A      0.915912   333A      0.922969   334A      0.925514  
     335A      0.930483   336A      0.937183   337A      0.938728  
     338A      0.943332   339A      0.955938   340A      0.956803  
     341A      0.961966   342A      0.966887   343A      0.968515  
     344A      0.969324   345A      0.971620   346A      0.978994  
     347A      0.979819   348A      0.981989   349A      0.986781  
     350A      0.989140   351A      0.993074   352A      0.996217  
     353A      1.002319   354A      1.005664   355A      1.012151  
     356A      1.019242   357A      1.021568   358A      1.023857  
     359A      1.024532   360A      1.029429   361A      1.032976  
     362A      1.036666   363A      1.038086   364A      1.039920  
     365A      1.046461   366A      1.051041   367A      1.051881  
     368A      1.053648   369A      1.059843   370A      1.065839  
     371A      1.067155   372A      1.073795   373A      1.075527  
     374A      1.078584   375A      1.078965   376A      1.080003  
     377A      1.087203   378A      1.091295   379A      1.097599  
     380A      1.100398   381A      1.101838   382A      1.106217  
     383A      1.108422   384A      1.116984   385A      1.122221  
     386A      1.124025   387A      1.129464   388A      1.132139  
     389A      1.135677   390A      1.138249   391A      1.139133  
     392A      1.143180   393A      1.145135   394A      1.150927  
     395A      1.155634   396A      1.158436   397A      1.163240  
     398A      1.163782   399A      1.167255   400A      1.175899  
     401A      1.182563   402A      1.184655   403A      1.187097  
     404A      1.189106   405A      1.192208   406A      1.202260  
     407A      1.204690   408A      1.207179   409A      1.211949  
     410A      1.213301   411A      1.217236   412A      1.220828  
     413A      1.223021   414A      1.227602   415A      1.234320  
     416A      1.240464   417A      1.245899   418A      1.247651  
     419A      1.250206   420A      1.257772   421A      1.261739  
     422A      1.263820   423A      1.266706   424A      1.269900  
     425A      1.272142   426A      1.273313   427A      1.278086  
     428A      1.291792   429A      1.296560   430A      1.303054  
     431A      1.306552   432A      1.311257   433A      1.313330  
     434A      1.317990   435A      1.320654   436A      1.323452  
     437A      1.327647   438A      1.336636   439A      1.341079  
     440A      1.345055   441A      1.345737   442A      1.351747  
     443A      1.352820   444A      1.355475   445A      1.358950  
     446A      1.362798   447A      1.367222   448A      1.373846  
     449A      1.375637   450A      1.377576   451A      1.382205  
     452A      1.387726   453A      1.393718   454A      1.399723  
     455A      1.400807   456A      1.410053   457A      1.412570  
     458A      1.421810   459A      1.424866   460A      1.427584  
     461A      1.429123   462A      1.433589   463A      1.441052  
     464A      1.445327   465A      1.457771   466A      1.468463  
     467A      1.469403   468A      1.470750   469A      1.472799  
     470A      1.473864   471A      1.479690   472A      1.481002  
     473A      1.486174   474A      1.494115   475A      1.498918  
     476A      1.504599   477A      1.510601   478A      1.513322  
     479A      1.517263   480A      1.522009   481A      1.524673  
     482A      1.539042   483A      1.540681   484A      1.544336  
     485A      1.550734   486A      1.560102   487A      1.561670  
     488A      1.567001   489A      1.569678   490A      1.577883  
     491A      1.583713   492A      1.585402   493A      1.593458  
     494A      1.595813   495A      1.601956   496A      1.606509  
     497A      1.611468   498A      1.615052   499A      1.615744  
     500A      1.616716   501A      1.619651   502A      1.625309  
     503A      1.632694   504A      1.638267   505A      1.646147  
     506A      1.651857   507A      1.660044   508A      1.666267  
     509A      1.674500   510A      1.681653   511A      1.684369  
     512A      1.690765   513A      1.694083   514A      1.698909  
     515A      1.705677   516A      1.708679   517A      1.711200  
     518A      1.715406   519A      1.719480   520A      1.728481  
     521A      1.737676   522A      1.740179   523A      1.745532  
     524A      1.751078   525A      1.753043   526A      1.762688  
     527A      1.765570   528A      1.781332   529A      1.781962  
     530A      1.785527   531A      1.792997   532A      1.802383  
     533A      1.806634   534A      1.811171   535A      1.816537  
     536A      1.819021   537A      1.823901   538A      1.826189  
     539A      1.832516   540A      1.838494   541A      1.842648  
     542A      1.846074   543A      1.849645   544A      1.860157  
     545A      1.874859   546A      1.878780   547A      1.885133  
     548A      1.887576   549A      1.891894   550A      1.894379  
     551A      1.902544   552A      1.912520   553A      1.921054  
     554A      1.921397   555A      1.926260   556A      1.936614  
     557A      1.939222   558A      1.953691   559A      1.962497  
     560A      1.970933   561A      1.972867   562A      1.973590  
     563A      1.978124   564A      1.981678   565A      1.987505  
     566A      2.000673   567A      2.003894   568A      2.014765  
     569A      2.020758   570A      2.031503   571A      2.035356  
     572A      2.042558   573A      2.050595   574A      2.058672  
     575A      2.064544   576A      2.074252   577A      2.081428  
     578A      2.088555   579A      2.089696   580A      2.101337  
     581A      2.104511   582A      2.107343   583A      2.118357  
     584A      2.124740   585A      2.127565   586A      2.129278  
     587A      2.132272   588A      2.139716   589A      2.145104  
     590A      2.147412   591A      2.150669   592A      2.157728  
     593A      2.167778   594A      2.174621   595A      2.175920  
     596A      2.181401   597A      2.187713   598A      2.189054  
     599A      2.193573   600A      2.198515   601A      2.199540  
     602A      2.207911   603A      2.216586   604A      2.220607  
     605A      2.228571   606A      2.233265   607A      2.234142  
     608A      2.236784   609A      2.254315   610A      2.260357  
     611A      2.263438   612A      2.267144   613A      2.276510  
     614A      2.280569   615A      2.286363   616A      2.293799  
     617A      2.304312   618A      2.316354   619A      2.321275  
     620A      2.324378   621A      2.327813   622A      2.331530  
     623A      2.335683   624A      2.340460   625A      2.352851  
     626A      2.360368   627A      2.363050   628A      2.366167  
     629A      2.373267   630A      2.389803   631A      2.392517  
     632A      2.394293   633A      2.399565   634A      2.406043  
     635A      2.406478   636A      2.415571   637A      2.422463  
     638A      2.434439   639A      2.437192   640A      2.441372  
     641A      2.445786   642A      2.447788   643A      2.455055  
     644A      2.461041   645A      2.470289   646A      2.473142  
     647A      2.476075   648A      2.487094   649A      2.491999  
     650A      2.497415   651A      2.498245   652A      2.508262  
     653A      2.513940   654A      2.518024   655A      2.518451  
     656A      2.523867   657A      2.536574   658A      2.537502  
     659A      2.541772   660A      2.551375   661A      2.577473  
     662A      2.585466   663A      2.589895   664A      2.591351  
     665A      2.593046   666A      2.601672   667A      2.615095  
     668A      2.617039   669A      2.624194   670A      2.630428  
     671A      2.632856   672A      2.638448   673A      2.652508  
     674A      2.654045   675A      2.660178   676A      2.668286  
     677A      2.672152   678A      2.684672   679A      2.689408  
     680A      2.699990   681A      2.700923   682A      2.709718  
     683A      2.717106   684A      2.723771   685A      2.727355  
     686A      2.736939   687A      2.745918   688A      2.753921  
     689A      2.771222   690A      2.772734   691A      2.791261  
     692A      2.803987   693A      2.816453   694A      2.827414  
     695A      2.832518   696A      2.840270   697A      2.848577  
     698A      2.853865   699A      2.858845   700A      2.871321  
     701A      2.889588   702A      2.890532   703A      2.892888  
     704A      2.895872   705A      2.915736   706A      2.918507  
     707A      2.924066   708A      2.937007   709A      2.949503  
     710A      2.961981   711A      2.996059   712A      3.000505  
     713A      3.049095   714A      3.052378   715A      3.056603  
     716A      3.059912   717A      3.093607   718A      3.106138  
     719A      3.128495   720A      3.132660   721A      3.136395  
     722A      3.144776   723A      3.151097   724A      3.171597  
     725A      3.178944   726A      3.193460   727A      3.204843  
     728A      3.224159   729A      3.232675   730A      3.255750  
     731A      3.258522   732A      3.268718   733A      3.271089  
     734A      3.299103   735A      3.315291   736A      3.333144  
     737A      3.359710   738A      3.371698   739A      3.372878  
     740A      3.380181   741A      3.390504   742A      3.416587  
     743A      3.420852   744A      3.437824   745A      3.450787  
     746A      3.452684   747A      3.455934   748A      3.458702  
     749A      3.472477   750A      3.481249   751A      3.522024  
     752A      3.526693   753A      3.527279   754A      3.533917  
     755A      3.537923   756A      3.539922   757A      3.550482  
     758A      3.564823   759A      3.575057   760A      3.580902  
     761A      3.591836   762A      3.601682   763A      3.606454  
     764A      3.618390   765A      3.620788   766A      3.627970  
     767A      3.633743   768A      3.640750   769A      3.646009  
     770A      3.662799   771A      3.666598   772A      3.670678  
     773A      3.675455   774A      3.683015   775A      3.697740  
     776A      3.702311   777A      3.707505   778A      3.716207  
     779A      3.723283   780A      3.729150   781A      3.730834  
     782A      3.733657   783A      3.740355   784A      3.762700  
     785A      3.773349   786A      3.775101   787A      3.787674  
     788A      3.794401   789A      3.797481   790A      3.800748  
     791A      3.808006   792A      3.813975   793A      3.822604  
     794A      3.843615   795A      3.845381   796A      3.855399  
     797A      3.857856   798A      3.871205   799A      3.875965  
     800A      3.899349   801A      3.902266   802A      3.907201  
     803A      3.909124   804A      3.919975   805A      3.924726  
     806A      3.931059   807A      3.943805   808A      3.952953  
     809A      3.955244   810A      3.957069   811A      3.960195  
     812A      3.968365   813A      3.969969   814A      3.981037  
     815A      3.986880   816A      3.990811   817A      3.998342  
     818A      4.004807   819A      4.007635   820A      4.020938  
     821A      4.026522   822A      4.041866   823A      4.047136  
     824A      4.058166   825A      4.067341   826A      4.069334  
     827A      4.078700   828A      4.085868   829A      4.091266  
     830A      4.094847   831A      4.107727   832A      4.114555  
     833A      4.115666   834A      4.121170   835A      4.124715  
     836A      4.133900   837A      4.143802   838A      4.160115  
     839A      4.168035   840A      4.176618   841A      4.180925  
     842A      4.182237   843A      4.193845   844A      4.195956  
     845A      4.197517   846A      4.208170   847A      4.209230  
     848A      4.218613   849A      4.225307   850A      4.228257  
     851A      4.240699   852A      4.244720   853A      4.249185  
     854A      4.250712   855A      4.252675   856A      4.256614  
     857A      4.262950   858A      4.268378   859A      4.275451  
     860A      4.277553   861A      4.277798   862A      4.295055  
     863A      4.301189   864A      4.308563   865A      4.313437  
     866A      4.324430   867A      4.327884   868A      4.333241  
     869A      4.335541   870A      4.335834   871A      4.347535  
     872A      4.349840   873A      4.355164   874A      4.364793  
     875A      4.384364   876A      4.401090   877A      4.406057  
     878A      4.411005   879A      4.414800   880A      4.416415  
     881A      4.434427   882A      4.439051   883A      4.450363  
     884A      4.452767   885A      4.470242   886A      4.473393  
     887A      4.486839   888A      4.499491   889A      4.500060  
     890A      4.501875   891A      4.505014   892A      4.517814  
     893A      4.523513   894A      4.534185   895A      4.545850  
     896A      4.547107   897A      4.564590   898A      4.567618  
     899A      4.571584   900A      4.576991   901A      4.584293  
     902A      4.589117   903A      4.626477   904A      4.627607  
     905A      4.640784   906A      4.647352   907A      4.652720  
     908A      4.653414   909A      4.659495   910A      4.664755  
     911A      4.675515   912A      4.676317   913A      4.679841  
     914A      4.682359   915A      4.726935   916A      4.728539  
     917A      4.736866   918A      4.740349   919A      4.797308  
     920A      4.802887   921A      4.807699   922A      4.809731  
     923A      4.827319   924A      4.828901   925A      4.832713  
     926A      4.834039   927A      4.842093   928A      4.844445  
     929A      4.867995   930A      4.876062   931A      4.883220  
     932A      4.888659   933A      4.914648   934A      4.922784  
     935A      4.926718   936A      4.930122   937A      4.937549  
     938A      4.940514   939A      4.963880   940A      4.967584  
     941A      5.016650   942A      5.022897   943A      5.029413  
     944A      5.041165   945A      5.052883   946A      5.056323  
     947A      5.064295   948A      5.065153   949A      5.085146  
     950A      5.092509   951A      5.104650   952A      5.109434  
     953A      5.114150   954A      5.115387   955A      5.139125  
     956A      5.147250   957A      5.171781   958A      5.179742  
     959A      5.181943   960A      5.190667   961A      5.191662  
     962A      5.204888   963A      5.226764   964A      5.228250  
     965A      5.230708   966A      5.235095   967A      5.263625  
     968A      5.283998   969A      5.297635   970A      5.302034  
     971A      5.314959   972A      5.316306   973A      5.327709  
     974A      5.329892   975A      5.378173   976A      5.378474  
     977A      5.384151   978A      5.391016   979A      5.399216  
     980A      5.409104   981A      5.412713   982A      5.425300  
     983A      5.430629   984A      5.435226   985A      5.435962  
     986A      5.460709   987A      5.467985   988A      5.477105  
     989A      5.486331   990A      5.497640   991A      5.529511  
     992A      5.536400   993A      5.540142   994A      5.547383  
     995A      5.552712   996A      5.558099   997A      5.571810  
     998A      5.576426   999A      5.578775  1000A      5.583688  
    1001A      5.587165  1002A      5.597022  1003A      5.617923  
    1004A      5.619784  1005A      5.623059  1006A      5.626905  
    1007A      5.635057  1008A      5.635634  1009A      5.661029  
    1010A      5.674790  1011A      5.684507  1012A      5.684642  
    1013A      5.696041  1014A      5.697565  1015A      5.698720  
    1016A      5.705151  1017A      5.708744  1018A      5.712800  
    1019A      5.719151  1020A      5.723913  1021A      5.732791  
    1022A      5.735055  1023A      5.739986  1024A      5.743748  
    1025A      5.768718  1026A      5.779978  1027A      5.784151  
    1028A      5.790005  1029A      5.801033  1030A      5.811558  
    1031A      5.826070  1032A      5.832113  1033A      5.836978  
    1034A      5.852510  1035A      5.861228  1036A      5.869775  
    1037A      5.899488  1038A      5.901160  1039A      5.916185  
    1040A      5.919691  1041A      5.937622  1042A      5.944505  
    1043A      5.945397  1044A      5.947418  1045A      5.950487  
    1046A      5.954647  1047A      5.970060  1048A      5.974171  
    1049A      5.994545  1050A      6.006773  1051A      6.013964  
    1052A      6.034219  1053A      6.047909  1054A      6.062199  
    1055A      6.101221  1056A      6.102887  1057A      6.118857  
    1058A      6.121070  1059A      6.146019  1060A      6.156946  
    1061A      6.162964  1062A      6.164846  1063A      6.172460  
    1064A      6.173170  1065A      6.198590  1066A      6.198976  
    1067A      6.205577  1068A      6.207597  1069A      6.242547  
    1070A      6.254433  1071A      6.277872  1072A      6.284076  
    1073A      6.284676  1074A      6.295033  1075A      6.343078  
    1076A      6.356745  1077A      6.389686  1078A      6.390686  
    1079A      6.461149  1080A      6.461623  1081A      6.497986  
    1082A      6.502676  1083A      6.539820  1084A      6.545236  
    1085A      6.559606  1086A      6.571828  1087A      6.599105  
    1088A      6.603655  1089A      6.615066  1090A      6.624433  
    1091A      6.673155  1092A      6.676472  1093A      6.711689  
    1094A      6.713455  1095A      6.749572  1096A      6.751342  
    1097A      6.769305  1098A      6.774218  1099A      6.810813  
    1100A      6.813858  1101A      6.827212  1102A      6.841099  
    1103A      6.905362  1104A      6.906253  1105A      7.000932  
    1106A      7.007370  1107A      7.034868  1108A      7.036875  
    1109A      7.065042  1110A      7.072328  1111A      7.095779  
    1112A      7.097201  1113A      7.119640  1114A      7.123407  
    1115A      7.255668  1116A      7.256708  1117A      7.301204  
    1118A      7.303030  1119A      7.408639  1120A      7.411378  
    1121A      7.459341  1122A      7.468625  1123A      7.595234  
    1124A      7.597783  1125A      7.656268  1126A      7.659823  
    1127A      7.847474  1128A      7.851662  1129A      7.868818  
    1130A      7.873111  1131A     16.075284  1132A     16.088657  
    1133A     16.337533  1134A     16.341631  1135A     16.386680  
    1136A     16.467855  1137A     17.697363  1138A     17.801889  
    1139A     18.131600  1140A     18.141949  1141A     19.034497  
    1142A     19.121895  1143A     19.262705  1144A     19.289485  
    1145A     19.407949  1146A     19.632423  1147A     20.138566  
    1148A     20.253183  1149A     20.952580  1150A     21.013556  

    Final Occupation by Irrep:
              A 
    DOCC [    70 ]

  @DF-RHF Final Energy:  -929.36019287156455

   => Energetics <=

    Nuclear Repulsion Energy =           1441.8400755713444141
    One-Electron Energy =               -4130.4244060384035038
    Two-Electron Energy =                1759.2241375954943123
    Total Energy =                       -929.3601928715645499

Computation Completed


Properties will be evaluated at   0.000000,   0.000000,   0.000000 [a0]

Properties computed using the SCF density matrix

  Nuclear Dipole Moment: [e a0]
     X:     2.8682      Y:     1.1298      Z:    -0.0020

  Electronic Dipole Moment: [e a0]
     X:    -2.9152      Y:    -1.1505      Z:    -0.0190

  Dipole Moment: [e a0]
     X:    -0.0470      Y:    -0.0207      Z:    -0.0210     Total:     0.0555

  Dipole Moment: [D]
     X:    -0.1194      Y:    -0.0527      Z:    -0.0534     Total:     0.1410


*** tstop() called on node165.bme.utexas.edu at Wed Jan 24 11:34:47 2024
Module time:
	user time   =     720.71 seconds =      12.01 minutes
	system time =      23.24 seconds =       0.39 minutes
	total time  =        107 seconds =       1.78 minutes
Total time:
	user time   =     720.71 seconds =      12.01 minutes
	system time =      23.24 seconds =       0.39 minutes
	total time  =        107 seconds =       1.78 minutes

*** tstart() called on node165.bme.utexas.edu
*** at Wed Jan 24 11:34:47 2024


  //>>>>>>>>>>>>>>>>>>>>>>>>>>>>>>>>>>>//
  //               DFMP2               //
  //<<<<<<<<<<<<<<<<<<<<<<<<<<<<<<<<<<<//

   => Loading Basis Set <=

    Name: (AUG-CC-PVTZ AUX)
    Role: RIFIT
    Keyword: DF_BASIS_MP2
    atoms 1, 3, 7, 9, 11, 16, 18, 22, 24, 26 entry N          line   206 file /opt/anaconda/envs/psi4v1.5/share/psi4/basis/aug-cc-pvtz-ri.gbs 
    atoms 2, 4-6, 8, 17, 19-21, 23           entry C          line   148 file /opt/anaconda/envs/psi4v1.5/share/psi4/basis/aug-cc-pvtz-ri.gbs 
    atoms 10, 12-15, 25, 27-30               entry H          line    30 file /opt/anaconda/envs/psi4v1.5/share/psi4/basis/aug-cc-pvtz-ri.gbs 

	 --------------------------------------------------------
	                          DF-MP2                         
	      2nd-Order Density-Fitted Moller-Plesset Theory     
	              RMP2 Wavefunction,   8 Threads             
	                                                         
	        Rob Parrish, Justin Turney, Andy Simmonett,      
	           Ed Hohenstein, and C. David Sherrill          
	 --------------------------------------------------------

   => Auxiliary Basis Set <=

  Basis Set: (AUG-CC-PVTZ AUX)
    Blend: AUG-CC-PVTZ-RI
    Number of shells: 700
    Number of basis functions: 2580
    Number of Cartesian functions: 3270
    Spherical Harmonics?: true
    Max angular momentum: 4

	 --------------------------------------------------------
	                 NBF =  1150, NAUX =  2580
	 --------------------------------------------------------
	   CLASS    FOCC     OCC    AOCC    AVIR     VIR    FVIR
	   PAIRS      20      70      50    1080    1080       0
	 --------------------------------------------------------

	 Will save fitting metric to file 97.

	-----------------------------------------------------------
	 ==================> DF-MP2 Energies <==================== 
	-----------------------------------------------------------
	 Reference Energy          =    -929.3601928715645499 [Eh]
	 Singles Energy            =      -0.0000000000000000 [Eh]
	 Same-Spin Energy          =      -0.9600249369180771 [Eh]
	 Opposite-Spin Energy      =      -2.6509500543098663 [Eh]
	 Correlation Energy        =      -3.6109749912279434 [Eh]
	 Total Energy              =    -932.9711678627925266 [Eh]
	-----------------------------------------------------------
	 ================> DF-SCS-MP2 Energies <================== 
	-----------------------------------------------------------
	 SCS Same-Spin Scale       =       0.3333333333333333 [-]
	 SCS Opposite-Spin Scale   =       1.2000000000000000 [-]
	 SCS Same-Spin Energy      =      -0.3200083123060257 [Eh]
	 SCS Opposite-Spin Energy  =      -3.1811400651718396 [Eh]
	 SCS Correlation Energy    =      -3.5011483774778651 [Eh]
	 SCS Total Energy          =    -932.8613412490424253 [Eh]
	-----------------------------------------------------------


*** tstop() called on node165.bme.utexas.edu at Wed Jan 24 11:35:31 2024
Module time:
	user time   =     233.06 seconds =       3.88 minutes
	system time =       9.86 seconds =       0.16 minutes
	total time  =         44 seconds =       0.73 minutes
Total time:
	user time   =     953.78 seconds =      15.90 minutes
	system time =      33.10 seconds =       0.55 minutes
	total time  =        151 seconds =       2.52 minutes

  //>>>>>>>>>>>>>>>>>>>>>>>>>>>>>>>>>>>//
  //            Monomer A HF           //
  //<<<<<<<<<<<<<<<<<<<<<<<<<<<<<<<<<<<//


*** tstart() called on node165.bme.utexas.edu
*** at Wed Jan 24 11:35:31 2024

   => Loading Basis Set <=

    Name: AUG-CC-PVTZ
    Role: ORBITAL
    Keyword: BASIS
    atoms 1, 3, 7, 9, 11, 16, 18, 22, 24, 26 entry N          line   285 file /opt/anaconda/envs/psi4v1.5/share/psi4/basis/aug-cc-pvtz.gbs 
    atoms 2, 4-6, 8, 17, 19-21, 23           entry C          line   239 file /opt/anaconda/envs/psi4v1.5/share/psi4/basis/aug-cc-pvtz.gbs 
    atoms 10, 12-15, 25, 27-30               entry H          line    40 file /opt/anaconda/envs/psi4v1.5/share/psi4/basis/aug-cc-pvtz.gbs 


         ---------------------------------------------------------
                                   SCF
               by Justin Turney, Rob Parrish, Andy Simmonett
                          and Daniel G. A. Smith
                              RHF Reference
                        8 Threads,  76293 MiB Core
         ---------------------------------------------------------

  ==> Geometry <==

    Molecular point group: c1
    Full point group: C1

    Geometry (in Angstrom), charge = 0, multiplicity = 1:

       Center              X                  Y                   Z               Mass       
    ------------   -----------------  -----------------  -----------------  -----------------
         N            0.751621422596    -0.214624689177    -1.648684364318    14.003074004430
         C           -0.517450577404    -0.669996689177    -1.648641364318    12.000000000000
         N           -0.930979577404    -1.937880689177    -1.648503364318    14.003074004430
         C            0.106915422596    -2.790977689177    -1.648439364318    12.000000000000
         C            1.468358422596    -2.465869689177    -1.648513364318    12.000000000000
         C            1.784994422596    -1.087230689177    -1.648636364318    12.000000000000
         N            2.259032422596    -3.603007689177    -1.648425364318    14.003074004430
         C            1.396891422596    -4.593173689177    -1.648305364318    12.000000000000
         N            0.081377422596    -4.167944689177    -1.648305364318    14.003074004430
         H           -1.281327577404     0.109358310823    -1.648701364318     1.007825032230
         N            3.044160422596    -0.617366689177    -1.648704364318    14.003074004430
         H            3.805344422596    -1.279110689177    -1.648702364318     1.007825032230
         H            3.223632422596     0.391580310823    -1.648886364318     1.007825032230
         H            1.652435422596    -5.648114689177    -1.648211364318     1.007825032230
         H           -0.749085577404    -4.743481689177    -1.648215364318     1.007825032230
      Gh(N)           0.235856422596     0.604300310823     1.701467635682    14.003074004430
      Gh(C)          -1.002723577404     0.071708310823     1.688325635682    12.000000000000
      Gh(N)          -2.169533577404     0.716630310823     1.654175635682    14.003074004430
      Gh(C)          -1.992070577404     2.048180310823     1.632262635682    12.000000000000
      Gh(C)          -0.774743577404     2.739006310823     1.642047635682    12.000000000000
      Gh(C)           0.396711422596     1.947030310823     1.679048635682    12.000000000000
      Gh(N)          -0.971729577404     4.109614310823     1.612369635682    14.003074004430
      Gh(C)          -2.277296577404     4.245539310823     1.585262635682    12.000000000000
      Gh(N)          -2.949492577404     3.037465310823     1.595523635682    14.003074004430
      Gh(H)          -1.030058577404    -1.019047689177     1.708490635682     1.007825032230
      Gh(N)           1.637926422596     2.462271310823     1.692593635682    14.003074004430
      Gh(H)           1.743472422596     3.465205310823     1.675608635682     1.007825032230
      Gh(H)           2.457029422596     1.847031310823     1.719723635682     1.007825032230
      Gh(H)          -2.809609577404     5.191090310823     1.557340635682     1.007825032230
      Gh(H)          -3.949219577404     2.891859310823     1.579488635682     1.007825032230

  Running in c1 symmetry.

  Rotational constants: A =      0.02612  B =      0.00582  C =      0.00525 [cm^-1]
  Rotational constants: A =    783.11783  B =    174.35194  C =    157.39031 [MHz]
  Nuclear repulsion =  501.306590497387276

  Charge       = 0
  Multiplicity = 1
  Electrons    = 70
  Nalpha       = 35
  Nbeta        = 35

  ==> Algorithm <==

  SCF Algorithm Type is DF.
  DIIS enabled.
  MOM disabled.
  Fractional occupation disabled.
  Guess Type is SAD.
  Energy threshold   = 1.00e-08
  Density threshold  = 1.00e-08
  Integral threshold = 1.00e-12

  ==> Primary Basis <==

  Basis Set: AUG-CC-PVTZ
    Blend: AUG-CC-PVTZ
    Number of shells: 370
    Number of basis functions: 1150
    Number of Cartesian functions: 1350
    Spherical Harmonics?: true
    Max angular momentum: 3

   => Loading Basis Set <=

    Name: (AUG-CC-PVTZ AUX)
    Role: JKFIT
    Keyword: DF_BASIS_SCF
    atoms 1, 3, 7, 9, 11, 16, 18, 22, 24, 26 entry N          line   224 file /opt/anaconda/envs/psi4v1.5/share/psi4/basis/aug-cc-pvtz-jkfit.gbs 
    atoms 2, 4-6, 8, 17, 19-21, 23           entry C          line   162 file /opt/anaconda/envs/psi4v1.5/share/psi4/basis/aug-cc-pvtz-jkfit.gbs 
    atoms 10, 12-15, 25, 27-30               entry H          line    70 file /opt/anaconda/envs/psi4v1.5/share/psi4/basis/aug-cc-pvtz-jkfit.gbs 

  ==> Integral Setup <==

  ==> DiskDFJK: Density-Fitted J/K Matrices <==

    J tasked:                  Yes
    K tasked:                  Yes
    wK tasked:                  No
    OpenMP threads:              8
    Integrals threads:           8
    Memory [MiB]:            57220
    Algorithm:                Core
    Integral Cache:           LOAD
    Schwarz Cutoff:          1E-12
    Fitting Condition:       1E-10

   => Auxiliary Basis Set <=

  Basis Set: (AUG-CC-PVTZ AUX)
    Blend: AUG-CC-PVTZ-JKFIT
    Number of shells: 740
    Number of basis functions: 2540
    Number of Cartesian functions: 3170
    Spherical Harmonics?: true
    Max angular momentum: 4

  Minimum eigenvalue in the overlap matrix is 8.7054309103E-07.
  Reciprocal condition number of the overlap matrix is 4.5768168538E-08.
    Using symmetric orthogonalization.

  ==> Pre-Iterations <==

  SCF Guess: Superposition of Atomic Densities via on-the-fly atomic UHF (no occupation information).

   -------------------------
    Irrep   Nso     Nmo    
   -------------------------
     A       1150    1150 
   -------------------------
    Total    1150    1150
   -------------------------

  ==> Iterations <==

                           Total Energy        Delta E     RMS |[F,P]|

   @DF-RHF iter SAD:  -464.44377937709930   -4.64444e+02   0.00000e+00 
   @DF-RHF iter   1:  -464.44338332715768    3.96050e-04   5.82997e-04 DIIS
   @DF-RHF iter   2:  -464.63445865215306   -1.91075e-01   2.86255e-04 DIIS
   @DF-RHF iter   3:  -464.67795052057255   -4.34919e-02   6.43783e-05 DIIS
   @DF-RHF iter   4:  -464.68115742036872   -3.20690e-03   3.01687e-05 DIIS
   @DF-RHF iter   5:  -464.68178123236021   -6.23812e-04   6.10454e-06 DIIS
   @DF-RHF iter   6:  -464.68183657784988   -5.53455e-05   2.95163e-06 DIIS
   @DF-RHF iter   7:  -464.68185135978314   -1.47819e-05   1.21539e-06 DIIS
   @DF-RHF iter   8:  -464.68185479172666   -3.43194e-06   4.46788e-07 DIIS
   @DF-RHF iter   9:  -464.68185529972197   -5.07995e-07   2.35597e-07 DIIS
   @DF-RHF iter  10:  -464.68185542517125   -1.25449e-07   8.88946e-08 DIIS
   @DF-RHF iter  11:  -464.68185545114596   -2.59747e-08   3.61889e-08 DIIS
   @DF-RHF iter  12:  -464.68185545466389   -3.51793e-09   1.46086e-08 DIIS
   @DF-RHF iter  13:  -464.68185545516224   -4.98346e-10   4.75626e-09 DIIS
  Energy and wave function converged.


  ==> Post-Iterations <==

    Orbital Energies [Eh]
    ---------------------

    Doubly Occupied:                                                      

       1A    -15.631605     2A    -15.589965     3A    -15.570516  
       4A    -15.556383     5A    -15.548197     6A    -11.340697  
       7A    -11.325348     8A    -11.318334     9A    -11.311015  
      10A    -11.253713    11A     -1.364177    12A     -1.295691  
      13A     -1.246875    14A     -1.186035    15A     -1.147020  
      16A     -1.032193    17A     -0.893707    18A     -0.873580  
      19A     -0.842868    20A     -0.778107    21A     -0.739808  
      22A     -0.697362    23A     -0.675780    24A     -0.635951  
      25A     -0.635468    26A     -0.612349    27A     -0.592044  
      28A     -0.557317    29A     -0.498213    30A     -0.494384  
      31A     -0.448033    32A     -0.425073    33A     -0.406337  
      34A     -0.369796    35A     -0.308830  

    Virtual:                                                              

      36A      0.019822    37A      0.022405    38A      0.028903  
      39A      0.035018    40A      0.039294    41A      0.039814  
      42A      0.049028    43A      0.054258    44A      0.055315  
      45A      0.062110    46A      0.064799    47A      0.069664  
      48A      0.077527    49A      0.082219    50A      0.087228  
      51A      0.089049    52A      0.091888    53A      0.095410  
      54A      0.096520    55A      0.099825    56A      0.101483  
      57A      0.103813    58A      0.106188    59A      0.111939  
      60A      0.114806    61A      0.118164    62A      0.121880  
      63A      0.123967    64A      0.127943    65A      0.130336  
      66A      0.132371    67A      0.136907    68A      0.138557  
      69A      0.141120    70A      0.143859    71A      0.144978  
      72A      0.146189    73A      0.150715    74A      0.153632  
      75A      0.157393    76A      0.161291    77A      0.167255  
      78A      0.168844    79A      0.172206    80A      0.175513  
      81A      0.178898    82A      0.181443    83A      0.183109  
      84A      0.185721    85A      0.188153    86A      0.191556  
      87A      0.195792    88A      0.200109    89A      0.205305  
      90A      0.207369    91A      0.208414    92A      0.211453  
      93A      0.215820    94A      0.218885    95A      0.220737  
      96A      0.224084    97A      0.227711    98A      0.229368  
      99A      0.230664   100A      0.231911   101A      0.234365  
     102A      0.239134   103A      0.241268   104A      0.244308  
     105A      0.249249   106A      0.251496   107A      0.253497  
     108A      0.257658   109A      0.260558   110A      0.261733  
     111A      0.266653   112A      0.271013   113A      0.274285  
     114A      0.277528   115A      0.278204   116A      0.286126  
     117A      0.289857   118A      0.293439   119A      0.297254  
     120A      0.299322   121A      0.301668   122A      0.303228  
     123A      0.308723   124A      0.309652   125A      0.312748  
     126A      0.315032   127A      0.322448   128A      0.328117  
     129A      0.332637   130A      0.334106   131A      0.337438  
     132A      0.341288   133A      0.344009   134A      0.348313  
     135A      0.349927   136A      0.358146   137A      0.366026  
     138A      0.367828   139A      0.370984   140A      0.375343  
     141A      0.378488   142A      0.381560   143A      0.382500  
     144A      0.386498   145A      0.388784   146A      0.392675  
     147A      0.394598   148A      0.400123   149A      0.402397  
     150A      0.404022   151A      0.407985   152A      0.409876  
     153A      0.414358   154A      0.415054   155A      0.419652  
     156A      0.422619   157A      0.424717   158A      0.428809  
     159A      0.431399   160A      0.433747   161A      0.435262  
     162A      0.439997   163A      0.441151   164A      0.444468  
     165A      0.447846   166A      0.450936   167A      0.454155  
     168A      0.458050   169A      0.458410   170A      0.461336  
     171A      0.466420   172A      0.467531   173A      0.470229  
     174A      0.472091   175A      0.473570   176A      0.476517  
     177A      0.481812   178A      0.486800   179A      0.488195  
     180A      0.491016   181A      0.494787   182A      0.496411  
     183A      0.497007   184A      0.501936   185A      0.503993  
     186A      0.505028   187A      0.507043   188A      0.509638  
     189A      0.513748   190A      0.517721   191A      0.522788  
     192A      0.526698   193A      0.528631   194A      0.531937  
     195A      0.534805   196A      0.537885   197A      0.541586  
     198A      0.548177   199A      0.550434   200A      0.555114  
     201A      0.556833   202A      0.561212   203A      0.564977  
     204A      0.569653   205A      0.573651   206A      0.577592  
     207A      0.582380   208A      0.587303   209A      0.589472  
     210A      0.592341   211A      0.593541   212A      0.601587  
     213A      0.603898   214A      0.605774   215A      0.611790  
     216A      0.615828   217A      0.617832   218A      0.622538  
     219A      0.628963   220A      0.633830   221A      0.638933  
     222A      0.643758   223A      0.646463   224A      0.655405  
     225A      0.659878   226A      0.661144   227A      0.663831  
     228A      0.668243   229A      0.670446   230A      0.672782  
     231A      0.682562   232A      0.683077   233A      0.689477  
     234A      0.690217   235A      0.696474   236A      0.702039  
     237A      0.705259   238A      0.707463   239A      0.715608  
     240A      0.721202   241A      0.722729   242A      0.724911  
     243A      0.734474   244A      0.736960   245A      0.741482  
     246A      0.744791   247A      0.747517   248A      0.753700  
     249A      0.755067   250A      0.758406   251A      0.765578  
     252A      0.766995   253A      0.772097   254A      0.774807  
     255A      0.779314   256A      0.781698   257A      0.788267  
     258A      0.792292   259A      0.796571   260A      0.799239  
     261A      0.805644   262A      0.806449   263A      0.809705  
     264A      0.815120   265A      0.820652   266A      0.824032  
     267A      0.826691   268A      0.828638   269A      0.834628  
     270A      0.836533   271A      0.840910   272A      0.843887  
     273A      0.846279   274A      0.850513   275A      0.854725  
     276A      0.858907   277A      0.860770   278A      0.863431  
     279A      0.869962   280A      0.871706   281A      0.873955  
     282A      0.879055   283A      0.882274   284A      0.887501  
     285A      0.890272   286A      0.895393   287A      0.899866  
     288A      0.901034   289A      0.905303   290A      0.908056  
     291A      0.911739   292A      0.914968   293A      0.919092  
     294A      0.924164   295A      0.931010   296A      0.932530  
     297A      0.935191   298A      0.938697   299A      0.944944  
     300A      0.946179   301A      0.950203   302A      0.952823  
     303A      0.956452   304A      0.964658   305A      0.966677  
     306A      0.968542   307A      0.974042   308A      0.978559  
     309A      0.983128   310A      0.984790   311A      0.986621  
     312A      0.992437   313A      0.996310   314A      0.996922  
     315A      1.001589   316A      1.006090   317A      1.014046  
     318A      1.017047   319A      1.019494   320A      1.023388  
     321A      1.029063   322A      1.032617   323A      1.035671  
     324A      1.036855   325A      1.043048   326A      1.045963  
     327A      1.049974   328A      1.056903   329A      1.058669  
     330A      1.066894   331A      1.068322   332A      1.074796  
     333A      1.077986   334A      1.080993   335A      1.081766  
     336A      1.085617   337A      1.088419   338A      1.092354  
     339A      1.100551   340A      1.104733   341A      1.109588  
     342A      1.113133   343A      1.115275   344A      1.119305  
     345A      1.127260   346A      1.128498   347A      1.132462  
     348A      1.136393   349A      1.141304   350A      1.144346  
     351A      1.148276   352A      1.154294   353A      1.162205  
     354A      1.162688   355A      1.164503   356A      1.165792  
     357A      1.170259   358A      1.172536   359A      1.180084  
     360A      1.183573   361A      1.188147   362A      1.191669  
     363A      1.200593   364A      1.202833   365A      1.206836  
     366A      1.207324   367A      1.211382   368A      1.214013  
     369A      1.223023   370A      1.227722   371A      1.230284  
     372A      1.235331   373A      1.236601   374A      1.241787  
     375A      1.247163   376A      1.248772   377A      1.258290  
     378A      1.259231   379A      1.264496   380A      1.272644  
     381A      1.275170   382A      1.277203   383A      1.282356  
     384A      1.286073   385A      1.293406   386A      1.301207  
     387A      1.305192   388A      1.308278   389A      1.308476  
     390A      1.315138   391A      1.318307   392A      1.321837  
     393A      1.329111   394A      1.334839   395A      1.337849  
     396A      1.340415   397A      1.342747   398A      1.347299  
     399A      1.354516   400A      1.357122   401A      1.362722  
     402A      1.367676   403A      1.370093   404A      1.378682  
     405A      1.384531   406A      1.389576   407A      1.402816  
     408A      1.405252   409A      1.407405   410A      1.413615  
     411A      1.416894   412A      1.418192   413A      1.423171  
     414A      1.427266   415A      1.435844   416A      1.443278  
     417A      1.444215   418A      1.455880   419A      1.457306  
     420A      1.457914   421A      1.462572   422A      1.465937  
     423A      1.479344   424A      1.479636   425A      1.486631  
     426A      1.494180   427A      1.495400   428A      1.504829  
     429A      1.510122   430A      1.519703   431A      1.524039  
     432A      1.527034   433A      1.531375   434A      1.534216  
     435A      1.540057   436A      1.551053   437A      1.553252  
     438A      1.562865   439A      1.569661   440A      1.570940  
     441A      1.577193   442A      1.582595   443A      1.585889  
     444A      1.590575   445A      1.596172   446A      1.598922  
     447A      1.602119   448A      1.607509   449A      1.613426  
     450A      1.618311   451A      1.621248   452A      1.626334  
     453A      1.637652   454A      1.642385   455A      1.646874  
     456A      1.653102   457A      1.658453   458A      1.663484  
     459A      1.668869   460A      1.670220   461A      1.676280  
     462A      1.680009   463A      1.684217   464A      1.688814  
     465A      1.692119   466A      1.695175   467A      1.705939  
     468A      1.711297   469A      1.715407   470A      1.722076  
     471A      1.724993   472A      1.729848   473A      1.734853  
     474A      1.737388   475A      1.739693   476A      1.749822  
     477A      1.751201   478A      1.754021   479A      1.757896  
     480A      1.759799   481A      1.767601   482A      1.772106  
     483A      1.774945   484A      1.779953   485A      1.785889  
     486A      1.786867   487A      1.798006   488A      1.799839  
     489A      1.804636   490A      1.806633   491A      1.811137  
     492A      1.817224   493A      1.823964   494A      1.831323  
     495A      1.833337   496A      1.837401   497A      1.844391  
     498A      1.849802   499A      1.857025   500A      1.859572  
     501A      1.862157   502A      1.876130   503A      1.879009  
     504A      1.881639   505A      1.895304   506A      1.901379  
     507A      1.907973   508A      1.911694   509A      1.914815  
     510A      1.919520   511A      1.923210   512A      1.926786  
     513A      1.934166   514A      1.942218   515A      1.947270  
     516A      1.948807   517A      1.961202   518A      1.966806  
     519A      1.971609   520A      1.977310   521A      1.982135  
     522A      1.983474   523A      1.989388   524A      1.997599  
     525A      2.006046   526A      2.012652   527A      2.018185  
     528A      2.021108   529A      2.023776   530A      2.029376  
     531A      2.034071   532A      2.046263   533A      2.054257  
     534A      2.060862   535A      2.066295   536A      2.073357  
     537A      2.080107   538A      2.088671   539A      2.092559  
     540A      2.095356   541A      2.101564   542A      2.110967  
     543A      2.118074   544A      2.120501   545A      2.130042  
     546A      2.131718   547A      2.135734   548A      2.138060  
     549A      2.143375   550A      2.148105   551A      2.154544  
     552A      2.158237   553A      2.163116   554A      2.174106  
     555A      2.178027   556A      2.180598   557A      2.189967  
     558A      2.190718   559A      2.194618   560A      2.204377  
     561A      2.211214   562A      2.218139   563A      2.227277  
     564A      2.230041   565A      2.233149   566A      2.242099  
     567A      2.250886   568A      2.255258   569A      2.266627  
     570A      2.271796   571A      2.277333   572A      2.280656  
     573A      2.284297   574A      2.298835   575A      2.307347  
     576A      2.309707   577A      2.318276   578A      2.323874  
     579A      2.330052   580A      2.333308   581A      2.341867  
     582A      2.349144   583A      2.351199   584A      2.359402  
     585A      2.368272   586A      2.372524   587A      2.378362  
     588A      2.379764   589A      2.384462   590A      2.388750  
     591A      2.401754   592A      2.403996   593A      2.407835  
     594A      2.423178   595A      2.425316   596A      2.431447  
     597A      2.435928   598A      2.444842   599A      2.452307  
     600A      2.458951   601A      2.463216   602A      2.469064  
     603A      2.472124   604A      2.477919   605A      2.490026  
     606A      2.493123   607A      2.504183   608A      2.504285  
     609A      2.513577   610A      2.521841   611A      2.530697  
     612A      2.541942   613A      2.548092   614A      2.561000  
     615A      2.567330   616A      2.571598   617A      2.578770  
     618A      2.586656   619A      2.592100   620A      2.597280  
     621A      2.606141   622A      2.615185   623A      2.618661  
     624A      2.627320   625A      2.631761   626A      2.636064  
     627A      2.644383   628A      2.646066   629A      2.656005  
     630A      2.662716   631A      2.673612   632A      2.678050  
     633A      2.681442   634A      2.687879   635A      2.702067  
     636A      2.707837   637A      2.711296   638A      2.716768  
     639A      2.726736   640A      2.732537   641A      2.735275  
     642A      2.743209   643A      2.757310   644A      2.775186  
     645A      2.782668   646A      2.790634   647A      2.793852  
     648A      2.810171   649A      2.824637   650A      2.829185  
     651A      2.836561   652A      2.843845   653A      2.848866  
     654A      2.859757   655A      2.865992   656A      2.881073  
     657A      2.884599   658A      2.887282   659A      2.891575  
     660A      2.895760   661A      2.901347   662A      2.915425  
     663A      2.923887   664A      2.937198   665A      2.949588  
     666A      2.957308   667A      2.963690   668A      2.985921  
     669A      2.992700   670A      3.008399   671A      3.019656  
     672A      3.025800   673A      3.035299   674A      3.048396  
     675A      3.050428   676A      3.055798   677A      3.061498  
     678A      3.073223   679A      3.080665   680A      3.096271  
     681A      3.099977   682A      3.106434   683A      3.117047  
     684A      3.132019   685A      3.134343   686A      3.139398  
     687A      3.149104   688A      3.167581   689A      3.181461  
     690A      3.186487   691A      3.202414   692A      3.206990  
     693A      3.218163   694A      3.221920   695A      3.237084  
     696A      3.258969   697A      3.263987   698A      3.273160  
     699A      3.293115   700A      3.302010   701A      3.318786  
     702A      3.325025   703A      3.327647   704A      3.350469  
     705A      3.360826   706A      3.366859   707A      3.378783  
     708A      3.382644   709A      3.397024   710A      3.410559  
     711A      3.423950   712A      3.429265   713A      3.447103  
     714A      3.458178   715A      3.470763   716A      3.492538  
     717A      3.519669   718A      3.522473   719A      3.530626  
     720A      3.541568   721A      3.554457   722A      3.575155  
     723A      3.576976   724A      3.600915   725A      3.608249  
     726A      3.620779   727A      3.625553   728A      3.636744  
     729A      3.648272   730A      3.661979   731A      3.674686  
     732A      3.687930   733A      3.695282   734A      3.700562  
     735A      3.709757   736A      3.717151   737A      3.730047  
     738A      3.733030   739A      3.740701   740A      3.757488  
     741A      3.775323   742A      3.780494   743A      3.791262  
     744A      3.803991   745A      3.824227   746A      3.834719  
     747A      3.852427   748A      3.855994   749A      3.866749  
     750A      3.870066   751A      3.895965   752A      3.909332  
     753A      3.912115   754A      3.918459   755A      3.927405  
     756A      3.936155   757A      3.948279   758A      3.953045  
     759A      3.966345   760A      3.975831   761A      3.981341  
     762A      3.986028   763A      3.996382   764A      4.004730  
     765A      4.030135   766A      4.050474   767A      4.058234  
     768A      4.069047   769A      4.074413   770A      4.088907  
     771A      4.100382   772A      4.106358   773A      4.119930  
     774A      4.121763   775A      4.131826   776A      4.134099  
     777A      4.147460   778A      4.157770   779A      4.167372  
     780A      4.173050   781A      4.186141   782A      4.186927  
     783A      4.195681   784A      4.199791   785A      4.202999  
     786A      4.212444   787A      4.216425   788A      4.225893  
     789A      4.234927   790A      4.237018   791A      4.248879  
     792A      4.256407   793A      4.262350   794A      4.267690  
     795A      4.272875   796A      4.296510   797A      4.304650  
     798A      4.306400   799A      4.312902   800A      4.324427  
     801A      4.329271   802A      4.334582   803A      4.343424  
     804A      4.345814   805A      4.349138   806A      4.363761  
     807A      4.383135   808A      4.401624   809A      4.404170  
     810A      4.416827   811A      4.429375   812A      4.436589  
     813A      4.438354   814A      4.446762   815A      4.466428  
     816A      4.473431   817A      4.490528   818A      4.497694  
     819A      4.498565   820A      4.506907   821A      4.513674  
     822A      4.530156   823A      4.532233   824A      4.544531  
     825A      4.550538   826A      4.561761   827A      4.563658  
     828A      4.574869   829A      4.603533   830A      4.606291  
     831A      4.619169   832A      4.620494   833A      4.629838  
     834A      4.642532   835A      4.645239   836A      4.650476  
     837A      4.654778   838A      4.665117   839A      4.667069  
     840A      4.674248   841A      4.682075   842A      4.693432  
     843A      4.702162   844A      4.716216   845A      4.721565  
     846A      4.728694   847A      4.742615   848A      4.745280  
     849A      4.759495   850A      4.788950   851A      4.797556  
     852A      4.802304   853A      4.811650   854A      4.823357  
     855A      4.826079   856A      4.828137   857A      4.837594  
     858A      4.844561   859A      4.868065   860A      4.872706  
     861A      4.877873   862A      4.882673   863A      4.900132  
     864A      4.913700   865A      4.920367   866A      4.929026  
     867A      4.931067   868A      4.945168   869A      4.946292  
     870A      4.962225   871A      4.965207   872A      4.970846  
     873A      4.986035   874A      4.990326   875A      5.000069  
     876A      5.014734   877A      5.018513   878A      5.023481  
     879A      5.034100   880A      5.040206   881A      5.049358  
     882A      5.053943   883A      5.064455   884A      5.073370  
     885A      5.081987   886A      5.086999   887A      5.089842  
     888A      5.100792   889A      5.103620   890A      5.114548  
     891A      5.122268   892A      5.126321   893A      5.140066  
     894A      5.146189   895A      5.162501   896A      5.168703  
     897A      5.171820   898A      5.179566   899A      5.182286  
     900A      5.201040   901A      5.208405   902A      5.222771  
     903A      5.227089   904A      5.265164   905A      5.265693  
     906A      5.271370   907A      5.292987   908A      5.296345  
     909A      5.310109   910A      5.314717   911A      5.319730  
     912A      5.324038   913A      5.345049   914A      5.352210  
     915A      5.367165   916A      5.379464   917A      5.384113  
     918A      5.397137   919A      5.410520   920A      5.422152  
     921A      5.426771   922A      5.441944   923A      5.448116  
     924A      5.455279   925A      5.467587   926A      5.483023  
     927A      5.484815   928A      5.495002   929A      5.515001  
     930A      5.519510   931A      5.528729   932A      5.540509  
     933A      5.549421   934A      5.561276   935A      5.565144  
     936A      5.572357   937A      5.578411   938A      5.588421  
     939A      5.612388   940A      5.616039   941A      5.619330  
     942A      5.630251   943A      5.649770   944A      5.666113  
     945A      5.678512   946A      5.683718   947A      5.691067  
     948A      5.698883   949A      5.701359   950A      5.704380  
     951A      5.719618   952A      5.723521   953A      5.728905  
     954A      5.736799   955A      5.764963   956A      5.773335  
     957A      5.778123   958A      5.785547   959A      5.797748  
     960A      5.801895   961A      5.820148   962A      5.825982  
     963A      5.837925   964A      5.856340   965A      5.892991  
     966A      5.906497   967A      5.915588   968A      5.932157  
     969A      5.936894   970A      5.939030   971A      5.942711  
     972A      5.946956   973A      5.963929   974A      5.996425  
     975A      6.006546   976A      6.019512   977A      6.038692  
     978A      6.065578   979A      6.084316   980A      6.087378  
     981A      6.101825   982A      6.110368   983A      6.114350  
     984A      6.129303   985A      6.147170   986A      6.154012  
     987A      6.160664   988A      6.167191   989A      6.195321  
     990A      6.197587   991A      6.212188   992A      6.219242  
     993A      6.234665   994A      6.237701   995A      6.274339  
     996A      6.281878   997A      6.286292   998A      6.336235  
     999A      6.344245  1000A      6.362113  1001A      6.383022  
    1002A      6.401882  1003A      6.441845  1004A      6.454678  
    1005A      6.457391  1006A      6.481924  1007A      6.494022  
    1008A      6.495874  1009A      6.512874  1010A      6.532446  
    1011A      6.539442  1012A      6.541280  1013A      6.551838  
    1014A      6.563384  1015A      6.574816  1016A      6.595862  
    1017A      6.606184  1018A      6.607767  1019A      6.627526  
    1020A      6.656720  1021A      6.668510  1022A      6.704363  
    1023A      6.709280  1024A      6.722501  1025A      6.737152  
    1026A      6.749322  1027A      6.763227  1028A      6.800572  
    1029A      6.802698  1030A      6.812545  1031A      6.827546  
    1032A      6.831968  1033A      6.848863  1034A      6.868511  
    1035A      6.893295  1036A      6.901833  1037A      6.906348  
    1038A      6.928493  1039A      6.943654  1040A      6.962953  
    1041A      6.986548  1042A      6.999844  1043A      7.015408  
    1044A      7.031062  1045A      7.064555  1046A      7.089850  
    1047A      7.102468  1048A      7.116590  1049A      7.155049  
    1050A      7.233590  1051A      7.248807  1052A      7.256014  
    1053A      7.272028  1054A      7.297523  1055A      7.364720  
    1056A      7.400895  1057A      7.406054  1058A      7.444832  
    1059A      7.455543  1060A      7.464084  1061A      7.472531  
    1062A      7.485115  1063A      7.561381  1064A      7.577028  
    1065A      7.591242  1066A      7.599738  1067A      7.608843  
    1068A      7.646445  1069A      7.652139  1070A      7.678273  
    1071A      7.681518  1072A      7.714339  1073A      7.726016  
    1074A      7.756493  1075A      7.788467  1076A      7.815470  
    1077A      7.827414  1078A      7.845133  1079A      7.866202  
    1080A      7.898558  1081A      7.900887  1082A      7.925028  
    1083A      7.952556  1084A      8.012821  1085A      8.023139  
    1086A      8.071957  1087A      8.139880  1088A      8.159522  
    1089A      8.266354  1090A      8.327349  1091A      8.338728  
    1092A      8.411821  1093A      8.454788  1094A      8.499684  
    1095A      8.561511  1096A      8.706777  1097A      8.800120  
    1098A      8.850697  1099A      8.961917  1100A      9.020529  
    1101A      9.073553  1102A      9.241475  1103A      9.301552  
    1104A      9.480802  1105A      9.502006  1106A      9.575204  
    1107A      9.617914  1108A      9.697319  1109A      9.752940  
    1110A      9.797804  1111A     10.190274  1112A     10.268457  
    1113A     10.397619  1114A     10.752713  1115A     11.043555  
    1116A     11.063291  1117A     11.169545  1118A     11.254288  
    1119A     11.515955  1120A     11.638339  1121A     11.763801  
    1122A     11.917052  1123A     12.030355  1124A     12.109041  
    1125A     12.202345  1126A     12.326246  1127A     12.478069  
    1128A     12.588031  1129A     12.890679  1130A     13.045988  
    1131A     16.085343  1132A     16.334495  1133A     16.426444  
    1134A     17.747618  1135A     18.133155  1136A     19.083048  
    1137A     19.275382  1138A     19.507220  1139A     20.208914  
    1140A     20.961149  1141A     51.755556  1142A     51.835802  
    1143A     52.391906  1144A     54.313307  1145A     56.360774  
    1146A     60.325858  1147A     61.425895  1148A     62.267089  
    1149A     62.749662  1150A     64.604875  

    Final Occupation by Irrep:
              A 
    DOCC [    35 ]

  @DF-RHF Final Energy:  -464.68185545516224

   => Energetics <=

    Nuclear Repulsion Energy =            501.3065904973872762
    One-Electron Energy =               -1625.5713566962285768
    Two-Electron Energy =                 659.5829107436790082
    Total Energy =                       -464.6818554551622356

Computation Completed


Properties will be evaluated at   0.000000,   0.000000,   0.000000 [a0]

Properties computed using the SCF density matrix

  Nuclear Dipole Moment: [e a0]
     X:   129.4949      Y:  -292.1498      Z:  -218.0674

  Electronic Dipole Moment: [e a0]
     X:  -129.1650      Y:   291.2554      Z:   218.0672

  Dipole Moment: [e a0]
     X:     0.3299      Y:    -0.8944      Z:    -0.0002     Total:     0.9533

  Dipole Moment: [D]
     X:     0.8386      Y:    -2.2733      Z:    -0.0006     Total:     2.4230


*** tstop() called on node165.bme.utexas.edu at Wed Jan 24 11:36:44 2024
Module time:
	user time   =     519.42 seconds =       8.66 minutes
	system time =       8.91 seconds =       0.15 minutes
	total time  =         73 seconds =       1.22 minutes
Total time:
	user time   =    1473.21 seconds =      24.55 minutes
	system time =      42.01 seconds =       0.70 minutes
	total time  =        224 seconds =       3.73 minutes

*** tstart() called on node165.bme.utexas.edu
*** at Wed Jan 24 11:36:44 2024


  //>>>>>>>>>>>>>>>>>>>>>>>>>>>>>>>>>>>//
  //               DFMP2               //
  //<<<<<<<<<<<<<<<<<<<<<<<<<<<<<<<<<<<//

   => Loading Basis Set <=

    Name: (AUG-CC-PVTZ AUX)
    Role: RIFIT
    Keyword: DF_BASIS_MP2
    atoms 1, 3, 7, 9, 11, 16, 18, 22, 24, 26 entry N          line   206 file /opt/anaconda/envs/psi4v1.5/share/psi4/basis/aug-cc-pvtz-ri.gbs 
    atoms 2, 4-6, 8, 17, 19-21, 23           entry C          line   148 file /opt/anaconda/envs/psi4v1.5/share/psi4/basis/aug-cc-pvtz-ri.gbs 
    atoms 10, 12-15, 25, 27-30               entry H          line    30 file /opt/anaconda/envs/psi4v1.5/share/psi4/basis/aug-cc-pvtz-ri.gbs 

	 --------------------------------------------------------
	                          DF-MP2                         
	      2nd-Order Density-Fitted Moller-Plesset Theory     
	              RMP2 Wavefunction,   8 Threads             
	                                                         
	        Rob Parrish, Justin Turney, Andy Simmonett,      
	           Ed Hohenstein, and C. David Sherrill          
	 --------------------------------------------------------

   => Auxiliary Basis Set <=

  Basis Set: (AUG-CC-PVTZ AUX)
    Blend: AUG-CC-PVTZ-RI
    Number of shells: 700
    Number of basis functions: 2580
    Number of Cartesian functions: 3270
    Spherical Harmonics?: true
    Max angular momentum: 4

	 --------------------------------------------------------
	                 NBF =  1150, NAUX =  2580
	 --------------------------------------------------------
	   CLASS    FOCC     OCC    AOCC    AVIR     VIR    FVIR
	   PAIRS      10      35      25    1115    1115       0
	 --------------------------------------------------------

	 Will attempt to load fitting metric from file 97.

	-----------------------------------------------------------
	 ==================> DF-MP2 Energies <==================== 
	-----------------------------------------------------------
	 Reference Energy          =    -464.6818554551622356 [Eh]
	 Singles Energy            =      -0.0000000000000000 [Eh]
	 Same-Spin Energy          =      -0.4782988672045063 [Eh]
	 Opposite-Spin Energy      =      -1.3236595761980412 [Eh]
	 Correlation Energy        =      -1.8019584434025475 [Eh]
	 Total Energy              =    -466.4838138985647902 [Eh]
	-----------------------------------------------------------
	 ================> DF-SCS-MP2 Energies <================== 
	-----------------------------------------------------------
	 SCS Same-Spin Scale       =       0.3333333333333333 [-]
	 SCS Opposite-Spin Scale   =       1.2000000000000000 [-]
	 SCS Same-Spin Energy      =      -0.1594329557348354 [Eh]
	 SCS Opposite-Spin Energy  =      -1.5883914914376493 [Eh]
	 SCS Correlation Energy    =      -1.7478244471724849 [Eh]
	 SCS Total Energy          =    -466.4296799023347262 [Eh]
	-----------------------------------------------------------


*** tstop() called on node165.bme.utexas.edu at Wed Jan 24 11:37:17 2024
Module time:
	user time   =     160.01 seconds =       2.67 minutes
	system time =       8.29 seconds =       0.14 minutes
	total time  =         33 seconds =       0.55 minutes
Total time:
	user time   =    1633.23 seconds =      27.22 minutes
	system time =      50.30 seconds =       0.84 minutes
	total time  =        257 seconds =       4.28 minutes

  //>>>>>>>>>>>>>>>>>>>>>>>>>>>>>>>>>>>//
  //            Monomer B HF           //
  //<<<<<<<<<<<<<<<<<<<<<<<<<<<<<<<<<<<//


*** tstart() called on node165.bme.utexas.edu
*** at Wed Jan 24 11:37:17 2024

   => Loading Basis Set <=

    Name: AUG-CC-PVTZ
    Role: ORBITAL
    Keyword: BASIS
    atoms 1, 3, 7, 9, 11, 16, 18, 22, 24, 26 entry N          line   285 file /opt/anaconda/envs/psi4v1.5/share/psi4/basis/aug-cc-pvtz.gbs 
    atoms 2, 4-6, 8, 17, 19-21, 23           entry C          line   239 file /opt/anaconda/envs/psi4v1.5/share/psi4/basis/aug-cc-pvtz.gbs 
    atoms 10, 12-15, 25, 27-30               entry H          line    40 file /opt/anaconda/envs/psi4v1.5/share/psi4/basis/aug-cc-pvtz.gbs 


         ---------------------------------------------------------
                                   SCF
               by Justin Turney, Rob Parrish, Andy Simmonett
                          and Daniel G. A. Smith
                              RHF Reference
                        8 Threads,  76293 MiB Core
         ---------------------------------------------------------

  ==> Geometry <==

    Molecular point group: c1
    Full point group: C1

    Geometry (in Angstrom), charge = 0, multiplicity = 1:

       Center              X                  Y                   Z               Mass       
    ------------   -----------------  -----------------  -----------------  -----------------
      Gh(N)           0.751621422596    -0.214624689177    -1.648684364318    14.003074004430
      Gh(C)          -0.517450577404    -0.669996689177    -1.648641364318    12.000000000000
      Gh(N)          -0.930979577404    -1.937880689177    -1.648503364318    14.003074004430
      Gh(C)           0.106915422596    -2.790977689177    -1.648439364318    12.000000000000
      Gh(C)           1.468358422596    -2.465869689177    -1.648513364318    12.000000000000
      Gh(C)           1.784994422596    -1.087230689177    -1.648636364318    12.000000000000
      Gh(N)           2.259032422596    -3.603007689177    -1.648425364318    14.003074004430
      Gh(C)           1.396891422596    -4.593173689177    -1.648305364318    12.000000000000
      Gh(N)           0.081377422596    -4.167944689177    -1.648305364318    14.003074004430
      Gh(H)          -1.281327577404     0.109358310823    -1.648701364318     1.007825032230
      Gh(N)           3.044160422596    -0.617366689177    -1.648704364318    14.003074004430
      Gh(H)           3.805344422596    -1.279110689177    -1.648702364318     1.007825032230
      Gh(H)           3.223632422596     0.391580310823    -1.648886364318     1.007825032230
      Gh(H)           1.652435422596    -5.648114689177    -1.648211364318     1.007825032230
      Gh(H)          -0.749085577404    -4.743481689177    -1.648215364318     1.007825032230
         N            0.235856422596     0.604300310823     1.701467635682    14.003074004430
         C           -1.002723577404     0.071708310823     1.688325635682    12.000000000000
         N           -2.169533577404     0.716630310823     1.654175635682    14.003074004430
         C           -1.992070577404     2.048180310823     1.632262635682    12.000000000000
         C           -0.774743577404     2.739006310823     1.642047635682    12.000000000000
         C            0.396711422596     1.947030310823     1.679048635682    12.000000000000
         N           -0.971729577404     4.109614310823     1.612369635682    14.003074004430
         C           -2.277296577404     4.245539310823     1.585262635682    12.000000000000
         N           -2.949492577404     3.037465310823     1.595523635682    14.003074004430
         H           -1.030058577404    -1.019047689177     1.708490635682     1.007825032230
         N            1.637926422596     2.462271310823     1.692593635682    14.003074004430
         H            1.743472422596     3.465205310823     1.675608635682     1.007825032230
         H            2.457029422596     1.847031310823     1.719723635682     1.007825032230
         H           -2.809609577404     5.191090310823     1.557340635682     1.007825032230
         H           -3.949219577404     2.891859310823     1.579488635682     1.007825032230

  Running in c1 symmetry.

  Rotational constants: A =      0.02612  B =      0.00582  C =      0.00525 [cm^-1]
  Rotational constants: A =    783.11783  B =    174.35194  C =    157.39031 [MHz]
  Nuclear repulsion =  501.306615970653695

  Charge       = 0
  Multiplicity = 1
  Electrons    = 70
  Nalpha       = 35
  Nbeta        = 35

  ==> Algorithm <==

  SCF Algorithm Type is DF.
  DIIS enabled.
  MOM disabled.
  Fractional occupation disabled.
  Guess Type is SAD.
  Energy threshold   = 1.00e-08
  Density threshold  = 1.00e-08
  Integral threshold = 1.00e-12

  ==> Primary Basis <==

  Basis Set: AUG-CC-PVTZ
    Blend: AUG-CC-PVTZ
    Number of shells: 370
    Number of basis functions: 1150
    Number of Cartesian functions: 1350
    Spherical Harmonics?: true
    Max angular momentum: 3

   => Loading Basis Set <=

    Name: (AUG-CC-PVTZ AUX)
    Role: JKFIT
    Keyword: DF_BASIS_SCF
    atoms 1, 3, 7, 9, 11, 16, 18, 22, 24, 26 entry N          line   224 file /opt/anaconda/envs/psi4v1.5/share/psi4/basis/aug-cc-pvtz-jkfit.gbs 
    atoms 2, 4-6, 8, 17, 19-21, 23           entry C          line   162 file /opt/anaconda/envs/psi4v1.5/share/psi4/basis/aug-cc-pvtz-jkfit.gbs 
    atoms 10, 12-15, 25, 27-30               entry H          line    70 file /opt/anaconda/envs/psi4v1.5/share/psi4/basis/aug-cc-pvtz-jkfit.gbs 

  ==> Integral Setup <==

  ==> DiskDFJK: Density-Fitted J/K Matrices <==

    J tasked:                  Yes
    K tasked:                  Yes
    wK tasked:                  No
    OpenMP threads:              8
    Integrals threads:           8
    Memory [MiB]:            57220
    Algorithm:                Core
    Integral Cache:           LOAD
    Schwarz Cutoff:          1E-12
    Fitting Condition:       1E-10

   => Auxiliary Basis Set <=

  Basis Set: (AUG-CC-PVTZ AUX)
    Blend: AUG-CC-PVTZ-JKFIT
    Number of shells: 740
    Number of basis functions: 2540
    Number of Cartesian functions: 3170
    Spherical Harmonics?: true
    Max angular momentum: 4

  Minimum eigenvalue in the overlap matrix is 8.7054309103E-07.
  Reciprocal condition number of the overlap matrix is 4.5768168538E-08.
    Using symmetric orthogonalization.

  ==> Pre-Iterations <==

  SCF Guess: Superposition of Atomic Densities via on-the-fly atomic UHF (no occupation information).

   -------------------------
    Irrep   Nso     Nmo    
   -------------------------
     A       1150    1150 
   -------------------------
    Total    1150    1150
   -------------------------

  ==> Iterations <==

                           Total Energy        Delta E     RMS |[F,P]|

   @DF-RHF iter SAD:  -464.44378055967155   -4.64444e+02   0.00000e+00 
   @DF-RHF iter   1:  -464.44338448518977    3.96074e-04   5.82997e-04 DIIS
   @DF-RHF iter   2:  -464.63446002896478   -1.91076e-01   2.86256e-04 DIIS
   @DF-RHF iter   3:  -464.67795203246533   -4.34920e-02   6.43787e-05 DIIS
   @DF-RHF iter   4:  -464.68115894584491   -3.20691e-03   3.01689e-05 DIIS
   @DF-RHF iter   5:  -464.68178276561201   -6.23820e-04   6.10453e-06 DIIS
   @DF-RHF iter   6:  -464.68183811102472   -5.53454e-05   2.95163e-06 DIIS
   @DF-RHF iter   7:  -464.68185289305751   -1.47820e-05   1.21538e-06 DIIS
   @DF-RHF iter   8:  -464.68185632497472   -3.43192e-06   4.46790e-07 DIIS
   @DF-RHF iter   9:  -464.68185683297531   -5.08001e-07   2.35596e-07 DIIS
   @DF-RHF iter  10:  -464.68185695842294   -1.25448e-07   8.88943e-08 DIIS
   @DF-RHF iter  11:  -464.68185698439856   -2.59756e-08   3.61889e-08 DIIS
   @DF-RHF iter  12:  -464.68185698791643   -3.51787e-09   1.46085e-08 DIIS
   @DF-RHF iter  13:  -464.68185698841341   -4.96982e-10   4.75619e-09 DIIS
  Energy and wave function converged.


  ==> Post-Iterations <==

    Orbital Energies [Eh]
    ---------------------

    Doubly Occupied:                                                      

       1A    -15.631604     2A    -15.589964     3A    -15.570515  
       4A    -15.556384     5A    -15.548198     6A    -11.340696  
       7A    -11.325347     8A    -11.318333     9A    -11.311014  
      10A    -11.253713    11A     -1.364177    12A     -1.295691  
      13A     -1.246874    14A     -1.186034    15A     -1.147020  
      16A     -1.032192    17A     -0.893706    18A     -0.873579  
      19A     -0.842867    20A     -0.778106    21A     -0.739807  
      22A     -0.697361    23A     -0.675780    24A     -0.635951  
      25A     -0.635468    26A     -0.612348    27A     -0.592044  
      28A     -0.557317    29A     -0.498213    30A     -0.494383  
      31A     -0.448033    32A     -0.425072    33A     -0.406337  
      34A     -0.369796    35A     -0.308830  

    Virtual:                                                              

      36A      0.019737    37A      0.022306    38A      0.028836  
      39A      0.035375    40A      0.039148    41A      0.039675  
      42A      0.048948    43A      0.054223    44A      0.055498  
      45A      0.062310    46A      0.064501    47A      0.069318  
      48A      0.077394    49A      0.082365    50A      0.087101  
      51A      0.088738    52A      0.091845    53A      0.095027  
      54A      0.097123    55A      0.100079    56A      0.101813  
      57A      0.103364    58A      0.106064    59A      0.111908  
      60A      0.114703    61A      0.118208    62A      0.121685  
      63A      0.123833    64A      0.127756    65A      0.130485  
      66A      0.132911    67A      0.136176    68A      0.139192  
      69A      0.141277    70A      0.143941    71A      0.145397  
      72A      0.145961    73A      0.149778    74A      0.153125  
      75A      0.157288    76A      0.161505    77A      0.167155  
      78A      0.168593    79A      0.172390    80A      0.176247  
      81A      0.179305    82A      0.181143    83A      0.181675  
      84A      0.185392    85A      0.188048    86A      0.190788  
      87A      0.196534    88A      0.200596    89A      0.204355  
      90A      0.207321    91A      0.208900    92A      0.211798  
      93A      0.216026    94A      0.218510    95A      0.220960  
      96A      0.223596    97A      0.227761    98A      0.229886  
      99A      0.230984   100A      0.232821   101A      0.233891  
     102A      0.238793   103A      0.240415   104A      0.244062  
     105A      0.248341   106A      0.252154   107A      0.253694  
     108A      0.257286   109A      0.259847   110A      0.262013  
     111A      0.267187   112A      0.270640   113A      0.274719  
     114A      0.277856   115A      0.278185   116A      0.285829  
     117A      0.290673   118A      0.292213   119A      0.297255  
     120A      0.299715   121A      0.301074   122A      0.302350  
     123A      0.308947   124A      0.310112   125A      0.313839  
     126A      0.317412   127A      0.320099   128A      0.328596  
     129A      0.330203   130A      0.334844   131A      0.336561  
     132A      0.342756   133A      0.344774   134A      0.347356  
     135A      0.350794   136A      0.358843   137A      0.365361  
     138A      0.368541   139A      0.371082   140A      0.374544  
     141A      0.376289   142A      0.381079   143A      0.381432  
     144A      0.387549   145A      0.388609   146A      0.392901  
     147A      0.394743   148A      0.400125   149A      0.402158  
     150A      0.403503   151A      0.409074   152A      0.411266  
     153A      0.413288   154A      0.417810   155A      0.419716  
     156A      0.422507   157A      0.424918   158A      0.427830  
     159A      0.431112   160A      0.433443   161A      0.434291  
     162A      0.438618   163A      0.441327   164A      0.444922  
     165A      0.447311   166A      0.449189   167A      0.454292  
     168A      0.456695   169A      0.458632   170A      0.460677  
     171A      0.465666   172A      0.467045   173A      0.470119  
     174A      0.472733   175A      0.474657   176A      0.476088  
     177A      0.482872   178A      0.484928   179A      0.489971  
     180A      0.492223   181A      0.493057   182A      0.494256  
     183A      0.497759   184A      0.501596   185A      0.503015  
     186A      0.504426   187A      0.506803   188A      0.511620  
     189A      0.514960   190A      0.515667   191A      0.521354  
     192A      0.526179   193A      0.530597   194A      0.532247  
     195A      0.535620   196A      0.538379   197A      0.541024  
     198A      0.547479   199A      0.550722   200A      0.554808  
     201A      0.556335   202A      0.561397   203A      0.565809  
     204A      0.569339   205A      0.574384   206A      0.578661  
     207A      0.580311   208A      0.581775   209A      0.591539  
     210A      0.592340   211A      0.593870   212A      0.602489  
     213A      0.602709   214A      0.608159   215A      0.611979  
     216A      0.616323   217A      0.619455   218A      0.622681  
     219A      0.630106   220A      0.632813   221A      0.638125  
     222A      0.644663   223A      0.647295   224A      0.653759  
     225A      0.655389   226A      0.662345   227A      0.664087  
     228A      0.669504   229A      0.671001   230A      0.674697  
     231A      0.683100   232A      0.684527   233A      0.687582  
     234A      0.693039   235A      0.695243   236A      0.701746  
     237A      0.703452   238A      0.706833   239A      0.717553  
     240A      0.720743   241A      0.722526   242A      0.724500  
     243A      0.732161   244A      0.736104   245A      0.740878  
     246A      0.746431   247A      0.747740   248A      0.752797  
     249A      0.757813   250A      0.760502   251A      0.765286  
     252A      0.767917   253A      0.771034   254A      0.775831  
     255A      0.779398   256A      0.781373   257A      0.789597  
     258A      0.790891   259A      0.794974   260A      0.800400  
     261A      0.804341   262A      0.808128   263A      0.808648  
     264A      0.815014   265A      0.819391   266A      0.824760  
     267A      0.828286   268A      0.829795   269A      0.833617  
     270A      0.834093   271A      0.840501   272A      0.843964  
     273A      0.846793   274A      0.851026   275A      0.853253  
     276A      0.857960   277A      0.861025   278A      0.864934  
     279A      0.869486   280A      0.869766   281A      0.875009  
     282A      0.880356   283A      0.883276   284A      0.887375  
     285A      0.887766   286A      0.895190   287A      0.899352  
     288A      0.900481   289A      0.903838   290A      0.907301  
     291A      0.912819   292A      0.917118   293A      0.918721  
     294A      0.925097   295A      0.929154   296A      0.932990  
     297A      0.936336   298A      0.937944   299A      0.940678  
     300A      0.947173   301A      0.949017   302A      0.952238  
     303A      0.956123   304A      0.962923   305A      0.964249  
     306A      0.967691   307A      0.972603   308A      0.977502  
     309A      0.982184   310A      0.983009   311A      0.986576  
     312A      0.990345   313A      0.996076   314A      0.999543  
     315A      1.003571   316A      1.006353   317A      1.013598  
     318A      1.018690   319A      1.021397   320A      1.025158  
     321A      1.027885   322A      1.031299   323A      1.034911  
     324A      1.040308   325A      1.041603   326A      1.044115  
     327A      1.052604   328A      1.055470   329A      1.060081  
     330A      1.066142   331A      1.068635   332A      1.071988  
     333A      1.075433   334A      1.081924   335A      1.083206  
     336A      1.086185   337A      1.088932   338A      1.092508  
     339A      1.097225   340A      1.104358   341A      1.106465  
     342A      1.112995   343A      1.115928   344A      1.120977  
     345A      1.127127   346A      1.129707   347A      1.131612  
     348A      1.137056   349A      1.141317   350A      1.143280  
     351A      1.147457   352A      1.156401   353A      1.159457  
     354A      1.163404   355A      1.165546   356A      1.166769  
     357A      1.171227   358A      1.174098   359A      1.180301  
     360A      1.184957   361A      1.187874   362A      1.193776  
     363A      1.198783   364A      1.204235   365A      1.205072  
     366A      1.209839   367A      1.212684   368A      1.214168  
     369A      1.224139   370A      1.227610   371A      1.231683  
     372A      1.234975   373A      1.237820   374A      1.242255  
     375A      1.245720   376A      1.249033   377A      1.254887  
     378A      1.259544   379A      1.263150   380A      1.269675  
     381A      1.273146   382A      1.278197   383A      1.282079  
     384A      1.287897   385A      1.292734   386A      1.298630  
     387A      1.305462   388A      1.307079   389A      1.309269  
     390A      1.315293   391A      1.319553   392A      1.323776  
     393A      1.327884   394A      1.334183   395A      1.339154  
     396A      1.344211   397A      1.345520   398A      1.346922  
     399A      1.353988   400A      1.360911   401A      1.364723  
     402A      1.365809   403A      1.374602   404A      1.378462  
     405A      1.382233   406A      1.391148   407A      1.395848  
     408A      1.405665   409A      1.407647   410A      1.412758  
     411A      1.415348   412A      1.417970   413A      1.423403  
     414A      1.428804   415A      1.434268   416A      1.441061  
     417A      1.446761   418A      1.450169   419A      1.455301  
     420A      1.465884   421A      1.469395   422A      1.472252  
     423A      1.478436   424A      1.481661   425A      1.487894  
     426A      1.491090   427A      1.493212   428A      1.505178  
     429A      1.507559   430A      1.517657   431A      1.523409  
     432A      1.527365   433A      1.531989   434A      1.534992  
     435A      1.541463   436A      1.545886   437A      1.553239  
     438A      1.561898   439A      1.567533   440A      1.571287  
     441A      1.576375   442A      1.579878   443A      1.585837  
     444A      1.588593   445A      1.597034   446A      1.599276  
     447A      1.603675   448A      1.604837   449A      1.614281  
     450A      1.619094   451A      1.622409   452A      1.628710  
     453A      1.635942   454A      1.642462   455A      1.646277  
     456A      1.649600   457A      1.657361   458A      1.665325  
     459A      1.669016   460A      1.672172   461A      1.677423  
     462A      1.681713   463A      1.685356   464A      1.689419  
     465A      1.695440   466A      1.698719   467A      1.704881  
     468A      1.711580   469A      1.713172   470A      1.715219  
     471A      1.726087   472A      1.729515   473A      1.733878  
     474A      1.740038   475A      1.743953   476A      1.746181  
     477A      1.751557   478A      1.753015   479A      1.758998  
     480A      1.760127   481A      1.767787   482A      1.771672  
     483A      1.774199   484A      1.777879   485A      1.783983  
     486A      1.785112   487A      1.794589   488A      1.801934  
     489A      1.807758   490A      1.809786   491A      1.811007  
     492A      1.816105   493A      1.824728   494A      1.828194  
     495A      1.834384   496A      1.836560   497A      1.843580  
     498A      1.852416   499A      1.855569   500A      1.860591  
     501A      1.863049   502A      1.874568   503A      1.875599  
     504A      1.879881   505A      1.897938   506A      1.901274  
     507A      1.907541   508A      1.909324   509A      1.914408  
     510A      1.916691   511A      1.922820   512A      1.927726  
     513A      1.934568   514A      1.937451   515A      1.945048  
     516A      1.952738   517A      1.958971   518A      1.964381  
     519A      1.971073   520A      1.977252   521A      1.983323  
     522A      1.984914   523A      1.988831   524A      1.995387  
     525A      2.005700   526A      2.012351   527A      2.016633  
     528A      2.020345   529A      2.022105   530A      2.033451  
     531A      2.033495   532A      2.044324   533A      2.052558  
     534A      2.059044   535A      2.068563   536A      2.072955  
     537A      2.081021   538A      2.086920   539A      2.090993  
     540A      2.098866   541A      2.103242   542A      2.113347  
     543A      2.116291   544A      2.116470   545A      2.126456  
     546A      2.128915   547A      2.135438   548A      2.138972  
     549A      2.142442   550A      2.150801   551A      2.154356  
     552A      2.161664   553A      2.163993   554A      2.173243  
     555A      2.177731   556A      2.182039   557A      2.190400  
     558A      2.194170   559A      2.195826   560A      2.204746  
     561A      2.211457   562A      2.218666   563A      2.226466  
     564A      2.227726   565A      2.232095   566A      2.238749  
     567A      2.248284   568A      2.257842   569A      2.261927  
     570A      2.270163   571A      2.278582   572A      2.283899  
     573A      2.293438   574A      2.302086   575A      2.303922  
     576A      2.306461   577A      2.316541   578A      2.324547  
     579A      2.327835   580A      2.332486   581A      2.339688  
     582A      2.346470   583A      2.351678   584A      2.360090  
     585A      2.367608   586A      2.372281   587A      2.377063  
     588A      2.379900   589A      2.383300   590A      2.393839  
     591A      2.400505   592A      2.404071   593A      2.411530  
     594A      2.420301   595A      2.425306   596A      2.433777  
     597A      2.437133   598A      2.447094   599A      2.452430  
     600A      2.460318   601A      2.461964   602A      2.470911  
     603A      2.473747   604A      2.476793   605A      2.488353  
     606A      2.491445   607A      2.505915   608A      2.509044  
     609A      2.512911   610A      2.521503   611A      2.526573  
     612A      2.537427   613A      2.545948   614A      2.563041  
     615A      2.567151   616A      2.569731   617A      2.577539  
     618A      2.583797   619A      2.591681   620A      2.594929  
     621A      2.608416   622A      2.613895   623A      2.625046  
     624A      2.629715   625A      2.631408   626A      2.637701  
     627A      2.647180   628A      2.649357   629A      2.656771  
     630A      2.662175   631A      2.670851   632A      2.676303  
     633A      2.679398   634A      2.683308   635A      2.699852  
     636A      2.707132   637A      2.710102   638A      2.718129  
     639A      2.723744   640A      2.728431   641A      2.736675  
     642A      2.741646   643A      2.764243   644A      2.772886  
     645A      2.782212   646A      2.787302   647A      2.795287  
     648A      2.809587   649A      2.823565   650A      2.831766  
     651A      2.840948   652A      2.843379   653A      2.848132  
     654A      2.857939   655A      2.861889   656A      2.880073  
     657A      2.886013   658A      2.889877   659A      2.895919  
     660A      2.897048   661A      2.899537   662A      2.917301  
     663A      2.920252   664A      2.931209   665A      2.949206  
     666A      2.954585   667A      2.962437   668A      2.983593  
     669A      2.993772   670A      3.009440   671A      3.022335  
     672A      3.026144   673A      3.034271   674A      3.047691  
     675A      3.048654   676A      3.053563   677A      3.059246  
     678A      3.070656   679A      3.080364   680A      3.094942  
     681A      3.101983   682A      3.112663   683A      3.118150  
     684A      3.131613   685A      3.137488   686A      3.137853  
     687A      3.150803   688A      3.166430   689A      3.184724  
     690A      3.185985   691A      3.202490   692A      3.211027  
     693A      3.217530   694A      3.229255   695A      3.238961  
     696A      3.258883   697A      3.263711   698A      3.273417  
     699A      3.292772   700A      3.302995   701A      3.317132  
     702A      3.322078   703A      3.334636   704A      3.352568  
     705A      3.357559   706A      3.367965   707A      3.378279  
     708A      3.382295   709A      3.396954   710A      3.410384  
     711A      3.423139   712A      3.430988   713A      3.445607  
     714A      3.457269   715A      3.473495   716A      3.492325  
     717A      3.521659   718A      3.523139   719A      3.532984  
     720A      3.543913   721A      3.559079   722A      3.574915  
     723A      3.580851   724A      3.602943   725A      3.607701  
     726A      3.622418   727A      3.625595   728A      3.632732  
     729A      3.645634   730A      3.660669   731A      3.672480  
     732A      3.684476   733A      3.692482   734A      3.701027  
     735A      3.709374   736A      3.721127   737A      3.732641  
     738A      3.732895   739A      3.741084   740A      3.758963  
     741A      3.776835   742A      3.784618   743A      3.793797  
     744A      3.803632   745A      3.817518   746A      3.835336  
     747A      3.851185   748A      3.859517   749A      3.866757  
     750A      3.872445   751A      3.895152   752A      3.910027  
     753A      3.914198   754A      3.920098   755A      3.930611  
     756A      3.936051   757A      3.946928   758A      3.951581  
     759A      3.966740   760A      3.974351   761A      3.982705  
     762A      3.985668   763A      3.996603   764A      4.006338  
     765A      4.028159   766A      4.050424   767A      4.056532  
     768A      4.069598   769A      4.073445   770A      4.089357  
     771A      4.093672   772A      4.106829   773A      4.119332  
     774A      4.124120   775A      4.130300   776A      4.134191  
     777A      4.146901   778A      4.155353   779A      4.167218  
     780A      4.172803   781A      4.183833   782A      4.186557  
     783A      4.196228   784A      4.198235   785A      4.203676  
     786A      4.212349   787A      4.218020   788A      4.227993  
     789A      4.234138   790A      4.238244   791A      4.249103  
     792A      4.253107   793A      4.260348   794A      4.268888  
     795A      4.277206   796A      4.292891   797A      4.304074  
     798A      4.309184   799A      4.313449   800A      4.326608  
     801A      4.328801   802A      4.330567   803A      4.340540  
     804A      4.351236   805A      4.354007   806A      4.368371  
     807A      4.381675   808A      4.400554   809A      4.404475  
     810A      4.413136   811A      4.430219   812A      4.432141  
     813A      4.434313   814A      4.444142   815A      4.467164  
     816A      4.474432   817A      4.490266   818A      4.497160  
     819A      4.499534   820A      4.506552   821A      4.513439  
     822A      4.530367   823A      4.538587   824A      4.544131  
     825A      4.549321   826A      4.561912   827A      4.567680  
     828A      4.574079   829A      4.599181   830A      4.606767  
     831A      4.618764   832A      4.621257   833A      4.632309  
     834A      4.637847   835A      4.641757   836A      4.646449  
     837A      4.655465   838A      4.663846   839A      4.667761  
     840A      4.680096   841A      4.684707   842A      4.692800  
     843A      4.700381   844A      4.716634   845A      4.721375  
     846A      4.729871   847A      4.745504   848A      4.747474  
     849A      4.760084   850A      4.784380   851A      4.797445  
     852A      4.803547   853A      4.812638   854A      4.822431  
     855A      4.825086   856A      4.828384   857A      4.838872  
     858A      4.842228   859A      4.867483   860A      4.871636  
     861A      4.878577   862A      4.884277   863A      4.898931  
     864A      4.915340   865A      4.921534   866A      4.928627  
     867A      4.932000   868A      4.945796   869A      4.947472  
     870A      4.962351   871A      4.963974   872A      4.973335  
     873A      4.985744   874A      4.988240   875A      5.000828  
     876A      5.015084   877A      5.018419   878A      5.023172  
     879A      5.032424   880A      5.041350   881A      5.048354  
     882A      5.058560   883A      5.061912   884A      5.073921  
     885A      5.080741   886A      5.089876   887A      5.092094  
     888A      5.097329   889A      5.105820   890A      5.111010  
     891A      5.118937   892A      5.126031   893A      5.142644  
     894A      5.146054   895A      5.156302   896A      5.167080  
     897A      5.172517   898A      5.182278   899A      5.183695  
     900A      5.196367   901A      5.203906   902A      5.223042  
     903A      5.227147   904A      5.262057   905A      5.263584  
     906A      5.272212   907A      5.293288   908A      5.296571  
     909A      5.305285   910A      5.314203   911A      5.319932  
     912A      5.324346   913A      5.344117   914A      5.349649  
     915A      5.365923   916A      5.379428   917A      5.386415  
     918A      5.398038   919A      5.409424   920A      5.421417  
     921A      5.426850   922A      5.441369   923A      5.443312  
     924A      5.452603   925A      5.467413   926A      5.482956  
     927A      5.485662   928A      5.494476   929A      5.518792  
     930A      5.522512   931A      5.529290   932A      5.540344  
     933A      5.549855   934A      5.560985   935A      5.565263  
     936A      5.570687   937A      5.577134   938A      5.588322  
     939A      5.611317   940A      5.615851   941A      5.619941  
     942A      5.630768   943A      5.649138   944A      5.667549  
     945A      5.678302   946A      5.682493   947A      5.690278  
     948A      5.697137   949A      5.702480   950A      5.705657  
     951A      5.717135   952A      5.723484   953A      5.730100  
     954A      5.734351   955A      5.767412   956A      5.773836  
     957A      5.779118   958A      5.785131   959A      5.800586  
     960A      5.800884   961A      5.819818   962A      5.826573  
     963A      5.836096   964A      5.856739   965A      5.894301  
     966A      5.909014   967A      5.916322   968A      5.932184  
     969A      5.937482   970A      5.938700   971A      5.942473  
     972A      5.946762   973A      5.965705   974A      5.998165  
     975A      6.006120   976A      6.018499   977A      6.041601  
     978A      6.066626   979A      6.084576   980A      6.091962  
     981A      6.100709   982A      6.107477   983A      6.118371  
     984A      6.129120   985A      6.143479   986A      6.154142  
     987A      6.158278   988A      6.167920   989A      6.195195  
     990A      6.199102   991A      6.210762   992A      6.217605  
     993A      6.234693   994A      6.237156   995A      6.273928  
     996A      6.282188   997A      6.284538   998A      6.335809  
     999A      6.344152  1000A      6.362976  1001A      6.383599  
    1002A      6.398664  1003A      6.441290  1004A      6.452744  
    1005A      6.458150  1006A      6.481026  1007A      6.492288  
    1008A      6.495935  1009A      6.512679  1010A      6.533123  
    1011A      6.538503  1012A      6.541212  1013A      6.552111  
    1014A      6.561524  1015A      6.574021  1016A      6.595853  
    1017A      6.603780  1018A      6.607646  1019A      6.625964  
    1020A      6.656739  1021A      6.666976  1022A      6.704148  
    1023A      6.708842  1024A      6.721846  1025A      6.735146  
    1026A      6.745361  1027A      6.762106  1028A      6.800285  
    1029A      6.802874  1030A      6.811941  1031A      6.823953  
    1032A      6.829963  1033A      6.845800  1034A      6.869951  
    1035A      6.892904  1036A      6.902487  1037A      6.906879  
    1038A      6.931527  1039A      6.943122  1040A      6.960374  
    1041A      6.986584  1042A      7.000487  1043A      7.010517  
    1044A      7.030957  1045A      7.063349  1046A      7.088784  
    1047A      7.104554  1048A      7.116477  1049A      7.157183  
    1050A      7.234916  1051A      7.247998  1052A      7.252503  
    1053A      7.270764  1054A      7.295225  1055A      7.365129  
    1056A      7.401849  1057A      7.403798  1058A      7.445856  
    1059A      7.453380  1060A      7.464310  1061A      7.471054  
    1062A      7.487363  1063A      7.559565  1064A      7.571643  
    1065A      7.590430  1066A      7.599730  1067A      7.609189  
    1068A      7.645551  1069A      7.651457  1070A      7.678882  
    1071A      7.679523  1072A      7.714358  1073A      7.725229  
    1074A      7.756182  1075A      7.786534  1076A      7.815635  
    1077A      7.829260  1078A      7.844817  1079A      7.865587  
    1080A      7.901812  1081A      7.903806  1082A      7.926506  
    1083A      7.952575  1084A      8.013410  1085A      8.024196  
    1086A      8.072294  1087A      8.139766  1088A      8.160965  
    1089A      8.266254  1090A      8.328057  1091A      8.339285  
    1092A      8.413637  1093A      8.454456  1094A      8.500636  
    1095A      8.561473  1096A      8.706606  1097A      8.799052  
    1098A      8.851171  1099A      8.964761  1100A      9.022538  
    1101A      9.073821  1102A      9.242184  1103A      9.302442  
    1104A      9.480588  1105A      9.499220  1106A      9.574372  
    1107A      9.616255  1108A      9.697774  1109A      9.754272  
    1110A      9.800684  1111A     10.192949  1112A     10.270689  
    1113A     10.399429  1114A     10.757249  1115A     11.049700  
    1116A     11.062382  1117A     11.168759  1118A     11.254221  
    1119A     11.514721  1120A     11.638959  1121A     11.765356  
    1122A     11.918317  1123A     12.031058  1124A     12.109234  
    1125A     12.203053  1126A     12.328309  1127A     12.482208  
    1128A     12.599131  1129A     12.891716  1130A     13.048922  
    1131A     16.075676  1132A     16.335326  1133A     16.415986  
    1134A     17.746793  1135A     18.128175  1136A     19.088122  
    1137A     19.273197  1138A     19.490140  1139A     20.177923  
    1140A     20.971928  1141A     51.768413  1142A     51.835456  
    1143A     52.386362  1144A     54.321215  1145A     56.338257  
    1146A     60.346192  1147A     61.442578  1148A     62.280836  
    1149A     62.758809  1150A     64.655769  

    Final Occupation by Irrep:
              A 
    DOCC [    35 ]

  @DF-RHF Final Energy:  -464.68185698841341

   => Energetics <=

    Nuclear Repulsion Energy =            501.3066159706536951
    One-Electron Energy =               -1625.5714376630444349
    Two-Electron Energy =                 659.5829647039773818
    Total Energy =                       -464.6818569884134149

Computation Completed


Properties will be evaluated at   0.000000,   0.000000,   0.000000 [a0]

Properties computed using the SCF density matrix

  Nuclear Dipole Moment: [e a0]
     X:  -126.6266      Y:   293.2796      Z:   218.0654

  Electronic Dipole Moment: [e a0]
     X:   126.2582      Y:  -292.4007      Z:  -218.0887

  Dipole Moment: [e a0]
     X:    -0.3685      Y:     0.8789      Z:    -0.0233     Total:     0.9533

  Dipole Moment: [D]
     X:    -0.9365      Y:     2.2340      Z:    -0.0592     Total:     2.4231


*** tstop() called on node165.bme.utexas.edu at Wed Jan 24 11:38:29 2024
Module time:
	user time   =     516.00 seconds =       8.60 minutes
	system time =       8.85 seconds =       0.15 minutes
	total time  =         72 seconds =       1.20 minutes
Total time:
	user time   =    2149.25 seconds =      35.82 minutes
	system time =      59.15 seconds =       0.99 minutes
	total time  =        329 seconds =       5.48 minutes

*** tstart() called on node165.bme.utexas.edu
*** at Wed Jan 24 11:38:29 2024


  //>>>>>>>>>>>>>>>>>>>>>>>>>>>>>>>>>>>//
  //               DFMP2               //
  //<<<<<<<<<<<<<<<<<<<<<<<<<<<<<<<<<<<//

   => Loading Basis Set <=

    Name: (AUG-CC-PVTZ AUX)
    Role: RIFIT
    Keyword: DF_BASIS_MP2
    atoms 1, 3, 7, 9, 11, 16, 18, 22, 24, 26 entry N          line   206 file /opt/anaconda/envs/psi4v1.5/share/psi4/basis/aug-cc-pvtz-ri.gbs 
    atoms 2, 4-6, 8, 17, 19-21, 23           entry C          line   148 file /opt/anaconda/envs/psi4v1.5/share/psi4/basis/aug-cc-pvtz-ri.gbs 
    atoms 10, 12-15, 25, 27-30               entry H          line    30 file /opt/anaconda/envs/psi4v1.5/share/psi4/basis/aug-cc-pvtz-ri.gbs 

	 --------------------------------------------------------
	                          DF-MP2                         
	      2nd-Order Density-Fitted Moller-Plesset Theory     
	              RMP2 Wavefunction,   8 Threads             
	                                                         
	        Rob Parrish, Justin Turney, Andy Simmonett,      
	           Ed Hohenstein, and C. David Sherrill          
	 --------------------------------------------------------

   => Auxiliary Basis Set <=

  Basis Set: (AUG-CC-PVTZ AUX)
    Blend: AUG-CC-PVTZ-RI
    Number of shells: 700
    Number of basis functions: 2580
    Number of Cartesian functions: 3270
    Spherical Harmonics?: true
    Max angular momentum: 4

	 --------------------------------------------------------
	                 NBF =  1150, NAUX =  2580
	 --------------------------------------------------------
	   CLASS    FOCC     OCC    AOCC    AVIR     VIR    FVIR
	   PAIRS      10      35      25    1115    1115       0
	 --------------------------------------------------------

	 Will attempt to load fitting metric from file 97.

	-----------------------------------------------------------
	 ==================> DF-MP2 Energies <==================== 
	-----------------------------------------------------------
	 Reference Energy          =    -464.6818569884134149 [Eh]
	 Singles Energy            =      -0.0000000000000000 [Eh]
	 Same-Spin Energy          =      -0.4783005201971439 [Eh]
	 Opposite-Spin Energy      =      -1.3236679164027398 [Eh]
	 Correlation Energy        =      -1.8019684365998838 [Eh]
	 Total Energy              =    -466.4838254250133218 [Eh]
	-----------------------------------------------------------
	 ================> DF-SCS-MP2 Energies <================== 
	-----------------------------------------------------------
	 SCS Same-Spin Scale       =       0.3333333333333333 [-]
	 SCS Opposite-Spin Scale   =       1.2000000000000000 [-]
	 SCS Same-Spin Energy      =      -0.1594335067323813 [Eh]
	 SCS Opposite-Spin Energy  =      -1.5884014996832878 [Eh]
	 SCS Correlation Energy    =      -1.7478350064156691 [Eh]
	 SCS Total Energy          =    -466.4296919948290565 [Eh]
	-----------------------------------------------------------


*** tstop() called on node165.bme.utexas.edu at Wed Jan 24 11:39:03 2024
Module time:
	user time   =     160.87 seconds =       2.68 minutes
	system time =       8.25 seconds =       0.14 minutes
	total time  =         34 seconds =       0.57 minutes
Total time:
	user time   =    2310.13 seconds =      38.50 minutes
	system time =      67.40 seconds =       1.12 minutes
	total time  =        363 seconds =       6.05 minutes
  Constructing Basis Sets for SAPT...

   => Loading Basis Set <=

    Name: (AUG-CC-PVTZ AUX)
    Role: RIFIT
    Keyword: DF_BASIS_SAPT
    atoms 1, 3, 7, 9, 11, 16, 18, 22, 24, 26 entry N          line   206 file /opt/anaconda/envs/psi4v1.5/share/psi4/basis/aug-cc-pvtz-ri.gbs 
    atoms 2, 4-6, 8, 17, 19-21, 23           entry C          line   148 file /opt/anaconda/envs/psi4v1.5/share/psi4/basis/aug-cc-pvtz-ri.gbs 
    atoms 10, 12-15, 25, 27-30               entry H          line    30 file /opt/anaconda/envs/psi4v1.5/share/psi4/basis/aug-cc-pvtz-ri.gbs 


  //>>>>>>>>>>>>>>>>>>>>>>>>>>>>>>>>>>>//
  //           SAPT2+(3)DMP2           //
  //<<<<<<<<<<<<<<<<<<<<<<<<<<<<<<<<<<<//


*** tstart() called on node165.bme.utexas.edu
*** at Wed Jan 24 11:39:03 2024

      SAPT2+(3)  
    Ed Hohenstein
     6 June 2009

      Orbital Information
  --------------------------
    NSO        =      1150
    NMO        =      1150
    NRI        =      2580
    NOCC A     =        35
    NOCC B     =        35
    FOCC A     =        10
    FOCC B     =        10
    NVIR A     =      1115
    NVIR B     =      1115

    Estimated memory usage: 62211.0 MB

    Natural Orbital Cutoff:   1.000E-06
    Disp(T3) Truncation:            Yes
    CCD (vv|vv) Truncation:         Yes
    MBPT T2 Truncation:             Yes

    Monomer A: 627 virtual orbitals dropped
    Monomer B: 626 virtual orbitals dropped

    Elst10,r            =     0.000660029228 [Eh]
    Exch10 (S^2)        =     0.003358088747 [Eh]
    Exch10              =     0.003363596391 [Eh]
    Ind20,r (A<-B)      =    -0.000789013107 [Eh]
    Ind20,r (B<-A)      =    -0.000777302305 [Eh]
    Ind20,r             =    -0.001566315412 [Eh]
    Exch-Ind20,r (A<-B) =     0.000639926421 [Eh]
    Exch-Ind20,r (B<-A) =     0.000630587710 [Eh]
    Exch-Ind20,r        =     0.001270514131 [Eh]
    Disp20              =    -0.007752049620 [Eh]
    Disp20 (NO)         =    -0.007218145412 [Eh]
    Exch-Disp20         =     0.000612780448 [Eh]
    Elst12,r            =    -0.000425866580 [Eh]
    Exch11              =     0.000068368960 [Eh]
    Exch12              =     0.000238695294 [Eh]
    Ind22               =    -0.000145315641 [Eh]
    Disp21              =     0.002416416208 [Eh]
    Disp22 (SDQ)        =    -0.000248306311 [Eh]

    (i =   1 of  25)       1137 seconds
    (i =   2 of  25)       2262 seconds
    (i =   3 of  25)       3465 seconds
    (i =   4 of  25)       4604 seconds
    (i =   5 of  25)       5758 seconds
    (i =   6 of  25)       6904 seconds
    (i =   7 of  25)       8054 seconds
    (i =   8 of  25)       9193 seconds
    (i =   9 of  25)      10329 seconds
    (i =  10 of  25)      11672 seconds
    (i =  11 of  25)      12901 seconds
    (i =  12 of  25)      14050 seconds
    (i =  13 of  25)      15208 seconds
    (i =  14 of  25)      16337 seconds
    (i =  15 of  25)      17478 seconds
    (i =  16 of  25)      18618 seconds
    (i =  17 of  25)      19762 seconds
    (i =  18 of  25)      20894 seconds
    (i =  19 of  25)      22040 seconds
    (i =  20 of  25)      23469 seconds
    (i =  21 of  25)      24612 seconds
    (i =  22 of  25)      25741 seconds
    (i =  23 of  25)      26881 seconds
    (i =  24 of  25)      28024 seconds
    (i =  25 of  25)      29168 seconds

    Disp220 (T)         =    -0.000943011161 [Eh]

    (i =   1 of  25)       1151 seconds
    (i =   2 of  25)       2300 seconds
    (i =   3 of  25)       3467 seconds
    (i =   4 of  25)       4631 seconds
    (i =   5 of  25)       5778 seconds
    (i =   6 of  25)       6926 seconds
    (i =   7 of  25)       8073 seconds
    (i =   8 of  25)       9222 seconds
    (i =   9 of  25)      10364 seconds
    (i =  10 of  25)      11519 seconds
    (i =  11 of  25)      12690 seconds
    (i =  12 of  25)      14137 seconds
    (i =  13 of  25)      15289 seconds
    (i =  14 of  25)      16435 seconds
    (i =  15 of  25)      17586 seconds
    (i =  16 of  25)      18722 seconds
    (i =  17 of  25)      19859 seconds
    (i =  18 of  25)      21001 seconds
    (i =  19 of  25)      22165 seconds
    (i =  20 of  25)      23355 seconds
    (i =  21 of  25)      24711 seconds
    (i =  22 of  25)      25853 seconds
    (i =  23 of  25)      26989 seconds
    (i =  24 of  25)      28132 seconds
    (i =  25 of  25)      29289 seconds

    Disp202 (T)         =    -0.000943920032 [Eh]

    Disp22 (T)          =    -0.001886931194 [Eh]

    Est. Disp220 (T)    =    -0.001012762822 [Eh]
    Est. Disp202 (T)    =    -0.001013738919 [Eh]

    Est. Disp22 (T)     =    -0.002026501741 [Eh]
    Elst13,r            =     0.000263296680 [Eh]
    Disp30              =     0.000154953541 [Eh]

    SAPT Results 
  --------------------------------------------------------------------------------------------------------
    Electrostatics                  0.49745933 [mEh]       0.31216044 [kcal/mol]       1.30607929 [kJ/mol]
      Elst10,r                      0.66002923 [mEh]       0.41417459 [kcal/mol]       1.73290650 [kJ/mol]
      Elst12,r                     -0.42586658 [mEh]      -0.26723531 [kcal/mol]      -1.11811255 [kJ/mol]
      Elst13,r                      0.26329668 [mEh]       0.16522116 [kcal/mol]       0.69128534 [kJ/mol]

    Exchange                        3.67066064 [mEh]       2.30337433 [kcal/mol]       9.63731819 [kJ/mol]
      Exch10                        3.36359639 [mEh]       2.11068860 [kcal/mol]       8.83112111 [kJ/mol]
      Exch10(S^2)                   3.35808875 [mEh]       2.10723250 [kcal/mol]       8.81666079 [kJ/mol]
      Exch11(S^2)                   0.06836896 [mEh]       0.04290217 [kcal/mol]       0.17950268 [kJ/mol]
      Exch12(S^2)                   0.23869529 [mEh]       0.14978356 [kcal/mol]       0.62669441 [kJ/mol]

    Induction                      -0.29409333 [mEh]      -0.18454635 [kcal/mol]      -0.77214194 [kJ/mol]
      Ind20,r                      -1.56631541 [mEh]      -0.98287776 [kcal/mol]      -4.11236055 [kJ/mol]
      Ind22                        -0.14531564 [mEh]      -0.09118694 [kcal/mol]      -0.38152616 [kJ/mol]
      Exch-Ind20,r                  1.27051413 [mEh]       0.79725965 [kcal/mol]       3.33573439 [kJ/mol]
      Exch-Ind22                    0.11787254 [mEh]       0.07396614 [kcal/mol]       0.30947431 [kJ/mol]
      delta HF,r (2)               -0.20825233 [mEh]      -0.13068031 [kcal/mol]      -0.54676641 [kJ/mol]
      delta MP2,r (2)               0.23740337 [mEh]       0.14897287 [kcal/mol]       0.62330247 [kJ/mol]

    Dispersion                     -6.84270747 [mEh]      -4.29386377 [kcal/mol]     -17.96552600 [kJ/mol]
      Disp20                       -7.75204962 [mEh]      -4.86448458 [kcal/mol]     -20.35300347 [kJ/mol]
      Disp30                        0.15495354 [mEh]       0.09723482 [kcal/mol]       0.40683047 [kJ/mol]
      Disp21                        2.41641621 [mEh]       1.51632406 [kcal/mol]       6.34429988 [kJ/mol]
      Disp22 (SDQ)                 -0.24830631 [mEh]      -0.15581456 [kcal/mol]      -0.65192813 [kJ/mol]
      Disp22 (T)                   -1.88693119 [mEh]      -1.18406720 [kcal/mol]      -4.95413717 [kJ/mol]
      Est. Disp22 (T)              -2.02650174 [mEh]      -1.27164904 [kcal/mol]      -5.32057959 [kJ/mol]
      Exch-Disp20                   0.61278045 [mEh]       0.38452554 [kcal/mol]       1.60885484 [kJ/mol]

  Total HF                          3.51957201 [mEh]       2.20856478 [kcal/mol]       9.24063504 [kJ/mol]
  Total SAPT0                      -3.61969716 [mEh]      -2.27139426 [kcal/mol]      -9.50351359 [kJ/mol]
  Total SAPT2                      -3.76594259 [mEh]      -2.36316465 [kcal/mol]      -9.88748090 [kJ/mol]
  Total SAPT2+                     -3.62433443 [mEh]      -2.27430419 [kcal/mol]      -9.51568874 [kJ/mol]
  Total SAPT2+(3)                  -3.20608421 [mEh]      -2.01184822 [kcal/mol]      -8.41757294 [kJ/mol]
  Total SAPT2+dMP2                 -3.38693106 [mEh]      -2.12533133 [kcal/mol]      -8.89238627 [kJ/mol]
  Total SAPT2+(3)dMP2              -2.96868084 [mEh]      -1.86287535 [kcal/mol]      -7.79427046 [kJ/mol]

  Special recipe for scaled SAPT0 (see Manual):
    Electrostatics sSAPT0           0.66002923 [mEh]       0.41417459 [kcal/mol]       1.73290650 [kJ/mol]
    Exchange sSAPT0                 3.36359639 [mEh]       2.11068860 [kcal/mol]       8.83112111 [kJ/mol]
    Induction sSAPT0               -0.49779199 [mEh]      -0.31236919 [kcal/mol]      -1.30695269 [kJ/mol]
    Dispersion sSAPT0              -7.13624914 [mEh]      -4.47806394 [kcal/mol]     -18.73621953 [kJ/mol]
  Total sSAPT0                     -3.61041551 [mEh]      -2.26556994 [kcal/mol]      -9.47914461 [kJ/mol]
  --------------------------------------------------------------------------------------------------------

*** tstop() called on node165.bme.utexas.edu at Thu Jan 25 07:15:00 2024
Module time:
	user time   =  434436.94 seconds =    7240.62 minutes
	system time =    3538.66 seconds =      58.98 minutes
	total time  =      70557 seconds =    1175.95 minutes
Total time:
	user time   =  436747.68 seconds =    7279.13 minutes
	system time =    3606.07 seconds =      60.10 minutes
	total time  =      70920 seconds =    1182.00 minutes

    Psi4 stopped on: Thursday, 25 January 2024 07:15AM
    Psi4 wall time for execution: 19:42:01.23

*** Psi4 exiting successfully. Buy a developer a beer!
