
    -----------------------------------------------------------------------
          Psi4: An Open-Source Ab Initio Electronic Structure Package
                               Psi4 1.5 release

                         Git: Rev {HEAD} e9f4d6d 


    D. G. A. Smith, L. A. Burns, A. C. Simmonett, R. M. Parrish,
    M. C. Schieber, R. Galvelis, P. Kraus, H. Kruse, R. Di Remigio,
    A. Alenaizan, A. M. James, S. Lehtola, J. P. Misiewicz, M. Scheurer,
    R. A. Shaw, J. B. Schriber, Y. Xie, Z. L. Glick, D. A. Sirianni,
    J. S. O'Brien, J. M. Waldrop, A. Kumar, E. G. Hohenstein,
    B. P. Pritchard, B. R. Brooks, H. F. Schaefer III, A. Yu. Sokolov,
    K. Patkowski, A. E. DePrince III, U. Bozkaya, R. A. King,
    F. A. Evangelista, J. M. Turney, T. D. Crawford, C. D. Sherrill,
    J. Chem. Phys. 152(18) 184108 (2020). https://doi.org/10.1063/5.0006002

                            Additional Code Authors
    E. T. Seidl, C. L. Janssen, E. F. Valeev, M. L. Leininger,
    J. F. Gonthier, R. M. Richard, H. R. McAlexander, M. Saitow, X. Wang,
    P. Verma, M. H. Lechner, and A. Jiang

             Previous Authors, Complete List of Code Contributors,
                       and Citations for Specific Modules
    https://github.com/psi4/psi4/blob/master/codemeta.json
    https://github.com/psi4/psi4/graphs/contributors
    http://psicode.org/psi4manual/master/introduction.html#citing-psifour

    -----------------------------------------------------------------------


    Psi4 started on: Sunday, 12 May 2024 11:45PM

    Process ID: 1576226
    Host:       node45.bme.utexas.edu
    PSIDATADIR: /opt/anaconda/envs/psi4v1.5/share/psi4
    Memory:     500.0 MiB
    Threads:    8
    
  ==> Input File <==

--------------------------------------------------------------------------
memory 80GB

molecule {
0 1
N -1.249408 4.334618 -0.000108
C -1.453779 2.957386 -0.000369
N -0.287164 2.222242 -0.000471
C 1.008028 2.72249 -0.000365
C 1.139737 4.181361 -6.4e-05
C 0.0 4.915748 0.0
H -2.087419 4.899193 -0.000228
O -2.573085 2.462566 -0.000505
H -0.408805 1.172186 -0.000678
O 1.977244 1.953535 -0.000498
C 2.515972 4.780254 0.000534
H 2.46354 5.877599 -0.006109
H 3.080111 4.452913 0.886592
H 3.085127 4.442101 -0.87814
H 0.011158 6.004875 3.7e-05
--
0 1
N -1.161035 0.281726 3.349773
C -2.399615 -0.250866 3.336631
N -3.566425 0.394056 3.302481
C -3.388962 1.725606 3.280568
C -2.171635 2.416432 3.290353
C -1.00018 1.624456 3.327354
N -2.368621 3.78704 3.260675
C -3.674188 3.922965 3.233568
N -4.346384 2.714891 3.243829
H -2.42695 -1.341622 3.356796
N 0.241035 2.139697 3.340899
H 0.346581 3.142631 3.323914
H 1.060138 1.524457 3.368029
H -4.206501 4.868516 3.205646
H -5.346111 2.569285 3.227794
 units angstrom
 no_reorient
 symmetry c1}
set  {scf_type DF
 basis jun-cc-pvdz
 freeze_core True
 guess SAD}
energy('sapt2+(3)dmp2')
--------------------------------------------------------------------------

  Memory set to  74.506 GiB by Python driver.

Scratch directory: /tmp/
   => Loading Basis Set <=

    Name: JUN-CC-PVDZ
    Role: ORBITAL
    Keyword: BASIS
    atoms 1, 3, 16, 18, 22, 24, 26  entry N          line   198 file /opt/anaconda/envs/psi4v1.5/share/psi4/basis/jun-cc-pvdz.gbs 
    atoms 2, 4-6, 11, 17, 19-21, 23 entry C          line   164 file /opt/anaconda/envs/psi4v1.5/share/psi4/basis/jun-cc-pvdz.gbs 
    atoms 7, 9, 12-15, 25, 27-30    entry H          line    36 file /opt/anaconda/envs/psi4v1.5/share/psi4/basis/jun-cc-pvdz.gbs 
    atoms 8, 10                     entry O          line   232 file /opt/anaconda/envs/psi4v1.5/share/psi4/basis/jun-cc-pvdz.gbs 

   => Loading Basis Set <=

    Name: JUN-CC-PVDZ
    Role: ORBITAL
    Keyword: BASIS
    atoms 1, 3, 16, 18, 22, 24, 26  entry N          line   198 file /opt/anaconda/envs/psi4v1.5/share/psi4/basis/jun-cc-pvdz.gbs 
    atoms 2, 4-6, 11, 17, 19-21, 23 entry C          line   164 file /opt/anaconda/envs/psi4v1.5/share/psi4/basis/jun-cc-pvdz.gbs 
    atoms 7, 9, 12-15, 25, 27-30    entry H          line    36 file /opt/anaconda/envs/psi4v1.5/share/psi4/basis/jun-cc-pvdz.gbs 
    atoms 8, 10                     entry O          line   232 file /opt/anaconda/envs/psi4v1.5/share/psi4/basis/jun-cc-pvdz.gbs 


  //>>>>>>>>>>>>>>>>>>>>>>>>>>>>>>>>>>>//
  //              Dimer HF             //
  //<<<<<<<<<<<<<<<<<<<<<<<<<<<<<<<<<<<//


*** tstart() called on node45.bme.utexas.edu
*** at Sun May 12 23:45:11 2024

   => Loading Basis Set <=

    Name: JUN-CC-PVDZ
    Role: ORBITAL
    Keyword: BASIS
    atoms 1, 3, 16, 18, 22, 24, 26  entry N          line   198 file /opt/anaconda/envs/psi4v1.5/share/psi4/basis/jun-cc-pvdz.gbs 
    atoms 2, 4-6, 11, 17, 19-21, 23 entry C          line   164 file /opt/anaconda/envs/psi4v1.5/share/psi4/basis/jun-cc-pvdz.gbs 
    atoms 7, 9, 12-15, 25, 27-30    entry H          line    36 file /opt/anaconda/envs/psi4v1.5/share/psi4/basis/jun-cc-pvdz.gbs 
    atoms 8, 10                     entry O          line   232 file /opt/anaconda/envs/psi4v1.5/share/psi4/basis/jun-cc-pvdz.gbs 


         ---------------------------------------------------------
                                   SCF
               by Justin Turney, Rob Parrish, Andy Simmonett
                          and Daniel G. A. Smith
                              RHF Reference
                        8 Threads,  76293 MiB Core
         ---------------------------------------------------------

  ==> Geometry <==

    Molecular point group: c1
    Full point group: C1

    Geometry (in Angstrom), charge = 0, multiplicity = 1:

       Center              X                  Y                   Z               Mass       
    ------------   -----------------  -----------------  -----------------  -----------------
         N           -0.079496552317     1.734898081818    -1.705314105950    14.003074004430
         C           -0.283867552317     0.357666081818    -1.705575105950    12.000000000000
         N            0.882747447683    -0.377477918182    -1.705677105950    14.003074004430
         C            2.177939447683     0.122770081818    -1.705571105950    12.000000000000
         C            2.309648447683     1.581641081818    -1.705270105950    12.000000000000
         C            1.169911447683     2.316028081818    -1.705206105950    12.000000000000
         H           -0.917507552317     2.299473081818    -1.705434105950     1.007825032230
         O           -1.403173552317    -0.137153918182    -1.705711105950    15.994914619570
         H            0.761106447683    -1.427533918182    -1.705884105950     1.007825032230
         O            3.147155447683    -0.646184918182    -1.705704105950    15.994914619570
         C            3.685883447683     2.180534081818    -1.704672105950    12.000000000000
         H            3.633451447683     3.277879081818    -1.711315105950     1.007825032230
         H            4.250022447683     1.853193081818    -0.818614105950     1.007825032230
         H            4.255038447683     1.842381081818    -2.583346105950     1.007825032230
         H            1.181069447683     3.405155081818    -1.705169105950     1.007825032230
         N            0.008876447683    -2.317993918182     1.644566894050    14.003074004430
         C           -1.229703552317    -2.850585918182     1.631424894050    12.000000000000
         N           -2.396513552317    -2.205663918182     1.597274894050    14.003074004430
         C           -2.219050552317    -0.874113918182     1.575361894050    12.000000000000
         C           -1.001723552317    -0.183287918182     1.585146894050    12.000000000000
         C            0.169731447683    -0.975263918182     1.622147894050    12.000000000000
         N           -1.198709552317     1.187320081818     1.555468894050    14.003074004430
         C           -2.504276552317     1.323245081818     1.528361894050    12.000000000000
         N           -3.176472552317     0.115171081818     1.538622894050    14.003074004430
         H           -1.257038552317    -3.941341918182     1.651589894050     1.007825032230
         N            1.410946447683    -0.460022918182     1.635692894050    14.003074004430
         H            1.516492447683     0.542911081818     1.618707894050     1.007825032230
         H            2.230049447683    -1.075262918182     1.662822894050     1.007825032230
         H           -3.036589552317     2.268796081818     1.500439894050     1.007825032230
         H           -4.176199552317    -0.030434918182     1.522587894050     1.007825032230

  Running in c1 symmetry.

  Rotational constants: A =      0.02267  B =      0.00933  C =      0.00818 [cm^-1]
  Rotational constants: A =    679.68473  B =    279.77679  C =    245.34530 [MHz]
  Nuclear repulsion = 1444.802397981033437

  Charge       = 0
  Multiplicity = 1
  Electrons    = 136
  Nalpha       = 68
  Nbeta        = 68

  ==> Algorithm <==

  SCF Algorithm Type is DF.
  DIIS enabled.
  MOM disabled.
  Fractional occupation disabled.
  Guess Type is SAD.
  Energy threshold   = 1.00e-08
  Density threshold  = 1.00e-08
  Integral threshold = 1.00e-12

  ==> Primary Basis <==

  Basis Set: JUN-CC-PVDZ
    Blend: JUN-CC-PVDZ
    Number of shells: 185
    Number of basis functions: 397
    Number of Cartesian functions: 416
    Spherical Harmonics?: true
    Max angular momentum: 2

   => Loading Basis Set <=

    Name: (JUN-CC-PVDZ AUX)
    Role: JKFIT
    Keyword: DF_BASIS_SCF
    atoms 1, 3, 16, 18, 22, 24, 26  entry N          line   202 file /opt/anaconda/envs/psi4v1.5/share/psi4/basis/jun-cc-pvdz-jkfit.gbs 
    atoms 2, 4-6, 11, 17, 19-21, 23 entry C          line   146 file /opt/anaconda/envs/psi4v1.5/share/psi4/basis/jun-cc-pvdz-jkfit.gbs 
    atoms 7, 9, 12-15, 25, 27-30    entry H          line    70 file /opt/anaconda/envs/psi4v1.5/share/psi4/basis/jun-cc-pvdz-jkfit.gbs 
    atoms 8, 10                     entry O          line   258 file /opt/anaconda/envs/psi4v1.5/share/psi4/basis/jun-cc-pvdz-jkfit.gbs 

  ==> Integral Setup <==

  ==> DiskDFJK: Density-Fitted J/K Matrices <==

    J tasked:                  Yes
    K tasked:                  Yes
    wK tasked:                  No
    OpenMP threads:              8
    Integrals threads:           8
    Memory [MiB]:            57220
    Algorithm:                Core
    Integral Cache:           SAVE
    Schwarz Cutoff:          1E-12
    Fitting Condition:       1E-10

   => Auxiliary Basis Set <=

  Basis Set: (JUN-CC-PVDZ AUX)
    Blend: JUN-CC-PVDZ-JKFIT
    Number of shells: 612
    Number of basis functions: 1754
    Number of Cartesian functions: 2004
    Spherical Harmonics?: true
    Max angular momentum: 3

  Minimum eigenvalue in the overlap matrix is 7.5088109011E-06.
  Reciprocal condition number of the overlap matrix is 4.8362293466E-07.
    Using symmetric orthogonalization.

  ==> Pre-Iterations <==

  SCF Guess: Superposition of Atomic Densities via on-the-fly atomic UHF (no occupation information).

   -------------------------
    Irrep   Nso     Nmo    
   -------------------------
     A        397     397 
   -------------------------
    Total     397     397
   -------------------------

  ==> Iterations <==

                           Total Energy        Delta E     RMS |[F,P]|

   @DF-RHF iter SAD:  -915.32958756865628   -9.15330e+02   0.00000e+00 
   @DF-RHF iter   1:  -915.60866221948982   -2.79075e-01   2.48939e-03 DIIS
   @DF-RHF iter   2:  -915.98567924161955   -3.77017e-01   1.46954e-03 DIIS
   @DF-RHF iter   3:  -916.11736751091496   -1.31688e-01   3.18194e-04 DIIS
   @DF-RHF iter   4:  -916.12606204886094   -8.69454e-03   1.29591e-04 DIIS
   @DF-RHF iter   5:  -916.12767110767584   -1.60906e-03   2.73857e-05 DIIS
   @DF-RHF iter   6:  -916.12782659595825   -1.55488e-04   1.48052e-05 DIIS
   @DF-RHF iter   7:  -916.12787105567361   -4.44597e-05   6.06765e-06 DIIS
   @DF-RHF iter   8:  -916.12787884522436   -7.78955e-06   2.38741e-06 DIIS
   @DF-RHF iter   9:  -916.12787997687860   -1.13165e-06   8.58784e-07 DIIS
   @DF-RHF iter  10:  -916.12788014926525   -1.72387e-07   3.61566e-07 DIIS
   @DF-RHF iter  11:  -916.12788018485230   -3.55870e-08   1.59579e-07 DIIS
   @DF-RHF iter  12:  -916.12788019165600   -6.80370e-09   6.01415e-08 DIIS
   @DF-RHF iter  13:  -916.12788019266395   -1.00795e-09   2.69655e-08 DIIS
   @DF-RHF iter  14:  -916.12788019288416   -2.20211e-10   1.06090e-08 DIIS
   @DF-RHF iter  15:  -916.12788019291656   -3.24007e-11   4.74021e-09 DIIS
  Energy and wave function converged.


  ==> Post-Iterations <==

    Orbital Energies [Eh]
    ---------------------

    Doubly Occupied:                                                      

       1A    -20.547753     2A    -20.545238     3A    -15.642899  
       4A    -15.636749     5A    -15.636637     6A    -15.596325  
       7A    -15.578768     8A    -15.561414     9A    -15.554197  
      10A    -11.423034    11A    -11.384847    12A    -11.345830  
      13A    -11.337147    14A    -11.334346    15A    -11.322775  
      16A    -11.316921    17A    -11.265678    18A    -11.257192  
      19A    -11.249462    20A     -1.429622    21A     -1.390212  
      22A     -1.367693    23A     -1.304090    24A     -1.298817  
      25A     -1.249391    26A     -1.241691    27A     -1.189270  
      28A     -1.149354    29A     -1.106022    30A     -1.035092  
      31A     -0.967348    32A     -0.912738    33A     -0.895719  
      34A     -0.893019    35A     -0.875067    36A     -0.844401  
      37A     -0.779095    38A     -0.768312    39A     -0.765075  
      40A     -0.740053    41A     -0.704078    42A     -0.698210  
      43A     -0.676886    44A     -0.671521    45A     -0.665370  
      46A     -0.637352    47A     -0.635838    48A     -0.630210  
      49A     -0.613057    50A     -0.610618    51A     -0.592176  
      52A     -0.586653    53A     -0.566462    54A     -0.561260  
      55A     -0.549535    56A     -0.549370    57A     -0.508027  
      58A     -0.496139    59A     -0.494289    60A     -0.473739  
      61A     -0.448081    62A     -0.443436    63A     -0.431256  
      64A     -0.421854    65A     -0.404629    66A     -0.367612  
      67A     -0.349657    68A     -0.307642  

    Virtual:                                                              

      69A      0.035422    70A      0.047135    71A      0.056242  
      72A      0.062932    73A      0.068050    74A      0.074632  
      75A      0.079869    76A      0.082983    77A      0.085055  
      78A      0.094109    79A      0.100051    80A      0.103699  
      81A      0.104982    82A      0.107481    83A      0.118126  
      84A      0.124659    85A      0.128582    86A      0.131004  
      87A      0.133754    88A      0.135584    89A      0.139784  
      90A      0.143504    91A      0.148840    92A      0.154193  
      93A      0.154902    94A      0.163540    95A      0.170331  
      96A      0.175688    97A      0.179704    98A      0.180933  
      99A      0.185648   100A      0.190623   101A      0.195640  
     102A      0.202934   103A      0.207164   104A      0.214024  
     105A      0.219504   106A      0.228767   107A      0.233253  
     108A      0.235735   109A      0.238019   110A      0.241148  
     111A      0.245847   112A      0.248369   113A      0.260474  
     114A      0.265316   115A      0.268360   116A      0.273579  
     117A      0.274891   118A      0.282092   119A      0.283567  
     120A      0.284805   121A      0.292883   122A      0.296528  
     123A      0.300711   124A      0.306761   125A      0.311403  
     126A      0.313769   127A      0.316056   128A      0.322430  
     129A      0.329852   130A      0.332146   131A      0.335372  
     132A      0.338411   133A      0.345634   134A      0.347804  
     135A      0.357134   136A      0.362517   137A      0.368361  
     138A      0.370881   139A      0.373794   140A      0.376382  
     141A      0.382706   142A      0.387130   143A      0.388809  
     144A      0.395120   145A      0.396903   146A      0.401462  
     147A      0.407051   148A      0.416747   149A      0.421020  
     150A      0.423536   151A      0.429800   152A      0.437206  
     153A      0.440687   154A      0.448641   155A      0.452468  
     156A      0.459770   157A      0.460527   158A      0.465944  
     159A      0.470666   160A      0.474481   161A      0.485113  
     162A      0.488872   163A      0.500553   164A      0.512109  
     165A      0.524081   166A      0.530330   167A      0.542653  
     168A      0.550904   169A      0.557485   170A      0.577715  
     171A      0.580530   172A      0.610541   173A      0.616228  
     174A      0.619736   175A      0.642898   176A      0.664657  
     177A      0.693548   178A      0.706188   179A      0.712062  
     180A      0.745707   181A      0.759802   182A      0.782876  
     183A      0.806768   184A      0.829184   185A      0.839593  
     186A      0.846500   187A      0.859889   188A      0.868597  
     189A      0.878836   190A      0.882303   191A      0.887971  
     192A      0.888907   193A      0.893888   194A      0.910224  
     195A      0.915593   196A      0.924439   197A      0.931275  
     198A      0.935554   199A      0.946148   200A      0.954749  
     201A      0.961213   202A      0.967583   203A      0.985464  
     204A      0.987279   205A      0.996408   206A      1.004385  
     207A      1.013325   208A      1.029606   209A      1.032058  
     210A      1.043817   211A      1.055424   212A      1.071362  
     213A      1.078464   214A      1.087760   215A      1.095346  
     216A      1.105396   217A      1.115021   218A      1.119371  
     219A      1.127008   220A      1.136982   221A      1.140162  
     222A      1.156202   223A      1.171218   224A      1.173040  
     225A      1.181025   226A      1.192800   227A      1.201582  
     228A      1.214127   229A      1.215532   230A      1.225641  
     231A      1.234052   232A      1.242040   233A      1.259479  
     234A      1.266884   235A      1.272994   236A      1.279482  
     237A      1.292533   238A      1.298846   239A      1.302319  
     240A      1.314645   241A      1.320052   242A      1.331800  
     243A      1.334929   244A      1.345399   245A      1.348495  
     246A      1.357622   247A      1.365128   248A      1.375340  
     249A      1.380112   250A      1.384101   251A      1.395357  
     252A      1.401410   253A      1.408428   254A      1.421963  
     255A      1.434610   256A      1.440538   257A      1.457461  
     258A      1.469102   259A      1.490565   260A      1.496969  
     261A      1.504213   262A      1.533201   263A      1.534853  
     264A      1.538750   265A      1.551364   266A      1.560128  
     267A      1.563346   268A      1.582994   269A      1.592449  
     270A      1.597470   271A      1.613331   272A      1.617606  
     273A      1.631209   274A      1.675848   275A      1.683206  
     276A      1.692966   277A      1.721632   278A      1.750700  
     279A      1.756819   280A      1.783577   281A      1.787640  
     282A      1.810728   283A      1.815521   284A      1.832151  
     285A      1.837525   286A      1.843577   287A      1.853350  
     288A      1.862994   289A      1.880443   290A      1.898152  
     291A      1.903108   292A      1.906963   293A      1.926431  
     294A      1.934290   295A      1.940071   296A      1.952188  
     297A      1.960094   298A      1.972318   299A      1.980117  
     300A      1.988598   301A      1.995900   302A      2.001252  
     303A      2.017385   304A      2.029586   305A      2.035852  
     306A      2.049630   307A      2.057583   308A      2.070122  
     309A      2.079554   310A      2.081496   311A      2.085107  
     312A      2.102804   313A      2.117414   314A      2.123062  
     315A      2.144467   316A      2.147345   317A      2.193254  
     318A      2.206174   319A      2.224672   320A      2.226852  
     321A      2.239720   322A      2.257190   323A      2.274187  
     324A      2.289586   325A      2.313975   326A      2.328205  
     327A      2.338851   328A      2.356982   329A      2.387278  
     330A      2.396508   331A      2.405240   332A      2.410940  
     333A      2.431623   334A      2.445805   335A      2.455744  
     336A      2.464098   337A      2.470683   338A      2.513033  
     339A      2.521572   340A      2.523391   341A      2.532980  
     342A      2.542739   343A      2.576181   344A      2.598347  
     345A      2.616739   346A      2.624702   347A      2.641197  
     348A      2.650517   349A      2.656166   350A      2.664369  
     351A      2.689215   352A      2.692886   353A      2.704718  
     354A      2.765228   355A      2.780147   356A      2.797696  
     357A      2.822096   358A      2.837847   359A      2.847807  
     360A      2.867027   361A      2.874934   362A      2.882511  
     363A      2.910320   364A      2.935212   365A      2.953439  
     366A      2.961999   367A      2.974076   368A      2.990930  
     369A      3.001838   370A      3.021929   371A      3.064444  
     372A      3.067297   373A      3.086733   374A      3.101137  
     375A      3.111569   376A      3.133975   377A      3.157063  
     378A      3.167894   379A      3.210856   380A      3.244795  
     381A      3.256987   382A      3.316288   383A      3.322326  
     384A      3.361608   385A      3.399246   386A      3.426141  
     387A      3.435966   388A      3.454207   389A      3.513714  
     390A      3.686571   391A      3.746617   392A      3.786112  
     393A      3.819412   394A      3.855040   395A      3.874440  
     396A      4.049774   397A      4.107556  

    Final Occupation by Irrep:
              A 
    DOCC [    68 ]

  @DF-RHF Final Energy:  -916.12788019291656

   => Energetics <=

    Nuclear Repulsion Energy =           1444.8023979810334367
    One-Electron Energy =               -4120.1920455100589606
    Two-Electron Energy =                1759.2617673361091875
    Total Energy =                       -916.1278801929165638

Computation Completed


Properties will be evaluated at   0.000000,   0.000000,   0.000000 [a0]

Properties computed using the SCF density matrix

  Nuclear Dipole Moment: [e a0]
     X:     7.9337      Y:     8.4545      Z:    -2.1611

  Electronic Dipole Moment: [e a0]
     X:    -8.5949      Y:    -5.7413      Z:     2.1161

  Dipole Moment: [e a0]
     X:    -0.6611      Y:     2.7131      Z:    -0.0450     Total:     2.7929

  Dipole Moment: [D]
     X:    -1.6804      Y:     6.8961      Z:    -0.1144     Total:     7.0989


*** tstop() called on node45.bme.utexas.edu at Sun May 12 23:45:54 2024
Module time:
	user time   =     310.29 seconds =       5.17 minutes
	system time =       5.56 seconds =       0.09 minutes
	total time  =         43 seconds =       0.72 minutes
Total time:
	user time   =     310.29 seconds =       5.17 minutes
	system time =       5.56 seconds =       0.09 minutes
	total time  =         43 seconds =       0.72 minutes

*** tstart() called on node45.bme.utexas.edu
*** at Sun May 12 23:45:54 2024


  //>>>>>>>>>>>>>>>>>>>>>>>>>>>>>>>>>>>//
  //               DFMP2               //
  //<<<<<<<<<<<<<<<<<<<<<<<<<<<<<<<<<<<//

   => Loading Basis Set <=

    Name: (JUN-CC-PVDZ AUX)
    Role: RIFIT
    Keyword: DF_BASIS_MP2
    atoms 1, 3, 16, 18, 22, 24, 26  entry N          line   144 file /opt/anaconda/envs/psi4v1.5/share/psi4/basis/jun-cc-pvdz-ri.gbs 
    atoms 2, 4-6, 11, 17, 19-21, 23 entry C          line   100 file /opt/anaconda/envs/psi4v1.5/share/psi4/basis/jun-cc-pvdz-ri.gbs 
    atoms 7, 9, 12-15, 25, 27-30    entry H          line    30 file /opt/anaconda/envs/psi4v1.5/share/psi4/basis/jun-cc-pvdz-ri.gbs 
    atoms 8, 10                     entry O          line   188 file /opt/anaconda/envs/psi4v1.5/share/psi4/basis/jun-cc-pvdz-ri.gbs 

	 --------------------------------------------------------
	                          DF-MP2                         
	      2nd-Order Density-Fitted Moller-Plesset Theory     
	              RMP2 Wavefunction,   8 Threads             
	                                                         
	        Rob Parrish, Justin Turney, Andy Simmonett,      
	           Ed Hohenstein, and C. David Sherrill          
	 --------------------------------------------------------

   => Auxiliary Basis Set <=

  Basis Set: (JUN-CC-PVDZ AUX)
    Blend: JUN-CC-PVDZ-RI
    Number of shells: 465
    Number of basis functions: 1389
    Number of Cartesian functions: 1609
    Spherical Harmonics?: true
    Max angular momentum: 3

	 --------------------------------------------------------
	                 NBF =   397, NAUX =  1389
	 --------------------------------------------------------
	   CLASS    FOCC     OCC    AOCC    AVIR     VIR    FVIR
	   PAIRS      19      68      49     329     329       0
	 --------------------------------------------------------

	 Will save fitting metric to file 97.

	-----------------------------------------------------------
	 ==================> DF-MP2 Energies <==================== 
	-----------------------------------------------------------
	 Reference Energy          =    -916.1278801929165638 [Eh]
	 Singles Energy            =      -0.0000000000000000 [Eh]
	 Same-Spin Energy          =      -0.7806640514267118 [Eh]
	 Opposite-Spin Energy      =      -2.0461384861738479 [Eh]
	 Correlation Energy        =      -2.8268025376005594 [Eh]
	 Total Energy              =    -918.9546827305171064 [Eh]
	-----------------------------------------------------------
	 ================> DF-SCS-MP2 Energies <================== 
	-----------------------------------------------------------
	 SCS Same-Spin Scale       =       0.3333333333333333 [-]
	 SCS Opposite-Spin Scale   =       1.2000000000000000 [-]
	 SCS Same-Spin Energy      =      -0.2602213504755706 [Eh]
	 SCS Opposite-Spin Energy  =      -2.4553661834086173 [Eh]
	 SCS Correlation Energy    =      -2.7155875338841877 [Eh]
	 SCS Total Energy          =    -918.8434677268007817 [Eh]
	-----------------------------------------------------------


*** tstop() called on node45.bme.utexas.edu at Sun May 12 23:46:06 2024
Module time:
	user time   =      71.98 seconds =       1.20 minutes
	system time =       1.49 seconds =       0.02 minutes
	total time  =         12 seconds =       0.20 minutes
Total time:
	user time   =     382.28 seconds =       6.37 minutes
	system time =       7.05 seconds =       0.12 minutes
	total time  =         55 seconds =       0.92 minutes

  //>>>>>>>>>>>>>>>>>>>>>>>>>>>>>>>>>>>//
  //            Monomer A HF           //
  //<<<<<<<<<<<<<<<<<<<<<<<<<<<<<<<<<<<//


*** tstart() called on node45.bme.utexas.edu
*** at Sun May 12 23:46:06 2024

   => Loading Basis Set <=

    Name: JUN-CC-PVDZ
    Role: ORBITAL
    Keyword: BASIS
    atoms 1, 3, 16, 18, 22, 24, 26  entry N          line   198 file /opt/anaconda/envs/psi4v1.5/share/psi4/basis/jun-cc-pvdz.gbs 
    atoms 2, 4-6, 11, 17, 19-21, 23 entry C          line   164 file /opt/anaconda/envs/psi4v1.5/share/psi4/basis/jun-cc-pvdz.gbs 
    atoms 7, 9, 12-15, 25, 27-30    entry H          line    36 file /opt/anaconda/envs/psi4v1.5/share/psi4/basis/jun-cc-pvdz.gbs 
    atoms 8, 10                     entry O          line   232 file /opt/anaconda/envs/psi4v1.5/share/psi4/basis/jun-cc-pvdz.gbs 


         ---------------------------------------------------------
                                   SCF
               by Justin Turney, Rob Parrish, Andy Simmonett
                          and Daniel G. A. Smith
                              RHF Reference
                        8 Threads,  76293 MiB Core
         ---------------------------------------------------------

  ==> Geometry <==

    Molecular point group: c1
    Full point group: C1

    Geometry (in Angstrom), charge = 0, multiplicity = 1:

       Center              X                  Y                   Z               Mass       
    ------------   -----------------  -----------------  -----------------  -----------------
         N           -0.079496552317     1.734898081818    -1.705314105950    14.003074004430
         C           -0.283867552317     0.357666081818    -1.705575105950    12.000000000000
         N            0.882747447683    -0.377477918182    -1.705677105950    14.003074004430
         C            2.177939447683     0.122770081818    -1.705571105950    12.000000000000
         C            2.309648447683     1.581641081818    -1.705270105950    12.000000000000
         C            1.169911447683     2.316028081818    -1.705206105950    12.000000000000
         H           -0.917507552317     2.299473081818    -1.705434105950     1.007825032230
         O           -1.403173552317    -0.137153918182    -1.705711105950    15.994914619570
         H            0.761106447683    -1.427533918182    -1.705884105950     1.007825032230
         O            3.147155447683    -0.646184918182    -1.705704105950    15.994914619570
         C            3.685883447683     2.180534081818    -1.704672105950    12.000000000000
         H            3.633451447683     3.277879081818    -1.711315105950     1.007825032230
         H            4.250022447683     1.853193081818    -0.818614105950     1.007825032230
         H            4.255038447683     1.842381081818    -2.583346105950     1.007825032230
         H            1.181069447683     3.405155081818    -1.705169105950     1.007825032230
      Gh(N)           0.008876447683    -2.317993918182     1.644566894050    14.003074004430
      Gh(C)          -1.229703552317    -2.850585918182     1.631424894050    12.000000000000
      Gh(N)          -2.396513552317    -2.205663918182     1.597274894050    14.003074004430
      Gh(C)          -2.219050552317    -0.874113918182     1.575361894050    12.000000000000
      Gh(C)          -1.001723552317    -0.183287918182     1.585146894050    12.000000000000
      Gh(C)           0.169731447683    -0.975263918182     1.622147894050    12.000000000000
      Gh(N)          -1.198709552317     1.187320081818     1.555468894050    14.003074004430
      Gh(C)          -2.504276552317     1.323245081818     1.528361894050    12.000000000000
      Gh(N)          -3.176472552317     0.115171081818     1.538622894050    14.003074004430
      Gh(H)          -1.257038552317    -3.941341918182     1.651589894050     1.007825032230
      Gh(N)           1.410946447683    -0.460022918182     1.635692894050    14.003074004430
      Gh(H)           1.516492447683     0.542911081818     1.618707894050     1.007825032230
      Gh(H)           2.230049447683    -1.075262918182     1.662822894050     1.007825032230
      Gh(H)          -3.036589552317     2.268796081818     1.500439894050     1.007825032230
      Gh(H)          -4.176199552317    -0.030434918182     1.522587894050     1.007825032230

  Running in c1 symmetry.

  Rotational constants: A =      0.02267  B =      0.00933  C =      0.00818 [cm^-1]
  Rotational constants: A =    679.68473  B =    279.77679  C =    245.34530 [MHz]
  Nuclear repulsion =  438.216117793050785

  Charge       = 0
  Multiplicity = 1
  Electrons    = 66
  Nalpha       = 33
  Nbeta        = 33

  ==> Algorithm <==

  SCF Algorithm Type is DF.
  DIIS enabled.
  MOM disabled.
  Fractional occupation disabled.
  Guess Type is SAD.
  Energy threshold   = 1.00e-08
  Density threshold  = 1.00e-08
  Integral threshold = 1.00e-12

  ==> Primary Basis <==

  Basis Set: JUN-CC-PVDZ
    Blend: JUN-CC-PVDZ
    Number of shells: 185
    Number of basis functions: 397
    Number of Cartesian functions: 416
    Spherical Harmonics?: true
    Max angular momentum: 2

   => Loading Basis Set <=

    Name: (JUN-CC-PVDZ AUX)
    Role: JKFIT
    Keyword: DF_BASIS_SCF
    atoms 1, 3, 16, 18, 22, 24, 26  entry N          line   202 file /opt/anaconda/envs/psi4v1.5/share/psi4/basis/jun-cc-pvdz-jkfit.gbs 
    atoms 2, 4-6, 11, 17, 19-21, 23 entry C          line   146 file /opt/anaconda/envs/psi4v1.5/share/psi4/basis/jun-cc-pvdz-jkfit.gbs 
    atoms 7, 9, 12-15, 25, 27-30    entry H          line    70 file /opt/anaconda/envs/psi4v1.5/share/psi4/basis/jun-cc-pvdz-jkfit.gbs 
    atoms 8, 10                     entry O          line   258 file /opt/anaconda/envs/psi4v1.5/share/psi4/basis/jun-cc-pvdz-jkfit.gbs 

  ==> Integral Setup <==

  ==> DiskDFJK: Density-Fitted J/K Matrices <==

    J tasked:                  Yes
    K tasked:                  Yes
    wK tasked:                  No
    OpenMP threads:              8
    Integrals threads:           8
    Memory [MiB]:            57220
    Algorithm:                Core
    Integral Cache:           LOAD
    Schwarz Cutoff:          1E-12
    Fitting Condition:       1E-10

   => Auxiliary Basis Set <=

  Basis Set: (JUN-CC-PVDZ AUX)
    Blend: JUN-CC-PVDZ-JKFIT
    Number of shells: 612
    Number of basis functions: 1754
    Number of Cartesian functions: 2004
    Spherical Harmonics?: true
    Max angular momentum: 3

  Minimum eigenvalue in the overlap matrix is 7.5088109011E-06.
  Reciprocal condition number of the overlap matrix is 4.8362293466E-07.
    Using symmetric orthogonalization.

  ==> Pre-Iterations <==

  SCF Guess: Superposition of Atomic Densities via on-the-fly atomic UHF (no occupation information).

   -------------------------
    Irrep   Nso     Nmo    
   -------------------------
     A        397     397 
   -------------------------
    Total     397     397
   -------------------------

  ==> Iterations <==

                           Total Energy        Delta E     RMS |[F,P]|

   @DF-RHF iter SAD:  -450.82319823229568   -4.50823e+02   0.00000e+00 
   @DF-RHF iter   1:  -451.26774710490184   -4.44549e-01   1.91249e-03 DIIS
   @DF-RHF iter   2:  -451.45633406007664   -1.88587e-01   1.26742e-03 DIIS
   @DF-RHF iter   3:  -451.54970807541645   -9.33740e-02   2.41437e-04 DIIS
   @DF-RHF iter   4:  -451.55496533554685   -5.25726e-03   9.32141e-05 DIIS
   @DF-RHF iter   5:  -451.55595415736565   -9.88822e-04   1.95357e-05 DIIS
   @DF-RHF iter   6:  -451.55606123201096   -1.07075e-04   1.03579e-05 DIIS
   @DF-RHF iter   7:  -451.55608415154381   -2.29195e-05   4.17430e-06 DIIS
   @DF-RHF iter   8:  -451.55608765040751   -3.49886e-06   1.58218e-06 DIIS
   @DF-RHF iter   9:  -451.55608805281321   -4.02406e-07   5.02088e-07 DIIS
   @DF-RHF iter  10:  -451.55608811173164   -5.89184e-08   2.12258e-07 DIIS
   @DF-RHF iter  11:  -451.55608811943205   -7.70041e-09   7.24645e-08 DIIS
   @DF-RHF iter  12:  -451.55608812048916   -1.05712e-09   2.28555e-08 DIIS
   @DF-RHF iter  13:  -451.55608812058074   -9.15747e-11   7.83563e-09 DIIS
  Energy and wave function converged.


  ==> Post-Iterations <==

    Orbital Energies [Eh]
    ---------------------

    Doubly Occupied:                                                      

       1A    -20.553873     2A    -20.548996     3A    -15.648899  
       4A    -15.643266     5A    -11.428795     6A    -11.388659  
       7A    -11.339891     8A    -11.269345     9A    -11.250239  
      10A     -1.435111    11A     -1.394072    12A     -1.309442  
      13A     -1.247414    14A     -1.109096    15A     -0.970030  
      16A     -0.916971    17A     -0.898169    18A     -0.772973  
      19A     -0.769418    20A     -0.708949    21A     -0.675698  
      22A     -0.667496    23A     -0.640064    24A     -0.613887  
      25A     -0.588708    26A     -0.568847    27A     -0.557807  
      28A     -0.550937    29A     -0.512164    30A     -0.478911  
      31A     -0.447275    32A     -0.433855    33A     -0.353122  

    Virtual:                                                              

      34A      0.027733    35A      0.039066    36A      0.048185  
      37A      0.054545    38A      0.060368    39A      0.066010  
      40A      0.071150    41A      0.078747    42A      0.083808  
      43A      0.091018    44A      0.092388    45A      0.101171  
      46A      0.101864    47A      0.104829    48A      0.111540  
      49A      0.116851    50A      0.122505    51A      0.126324  
      52A      0.131716    53A      0.133549    54A      0.136976  
      55A      0.142422    56A      0.145838    57A      0.153801  
      58A      0.156131    59A      0.158290    60A      0.167464  
      61A      0.170558    62A      0.174032    63A      0.180562  
      64A      0.184229    65A      0.186168    66A      0.192887  
      67A      0.195904    68A      0.203467    69A      0.209036  
      70A      0.209537    71A      0.214856    72A      0.227942  
      73A      0.228254    74A      0.234707    75A      0.239674  
      76A      0.241322    77A      0.246397    78A      0.247858  
      79A      0.258060    80A      0.263790    81A      0.266519  
      82A      0.272261    83A      0.273591    84A      0.275260  
      85A      0.278344    86A      0.284643    87A      0.291271  
      88A      0.292643    89A      0.297071    90A      0.305178  
      91A      0.306990    92A      0.309954    93A      0.316095  
      94A      0.317830    95A      0.326621    96A      0.335015  
      97A      0.338466    98A      0.341744    99A      0.347214  
     100A      0.350371   101A      0.357361   102A      0.364816  
     103A      0.368901   104A      0.375924   105A      0.379846  
     106A      0.384429   107A      0.385990   108A      0.392154  
     109A      0.396019   110A      0.404763   111A      0.408549  
     112A      0.418120   113A      0.426696   114A      0.437004  
     115A      0.438467   116A      0.442373   117A      0.448807  
     118A      0.452726   119A      0.463931   120A      0.476919  
     121A      0.478493   122A      0.496332   123A      0.508070  
     124A      0.525947   125A      0.531101   126A      0.535213  
     127A      0.548109   128A      0.560106   129A      0.568496  
     130A      0.573706   131A      0.584025   132A      0.587993  
     133A      0.590667   134A      0.604453   135A      0.607365  
     136A      0.622569   137A      0.635346   138A      0.643316  
     139A      0.646239   140A      0.663217   141A      0.682036  
     142A      0.686558   143A      0.704294   144A      0.708122  
     145A      0.718467   146A      0.730829   147A      0.734882  
     148A      0.752156   149A      0.764321   150A      0.770772  
     151A      0.791548   152A      0.804976   153A      0.813261  
     154A      0.820875   155A      0.823658   156A      0.831254  
     157A      0.851610   158A      0.858863   159A      0.878875  
     160A      0.886979   161A      0.889558   162A      0.894488  
     163A      0.909378   164A      0.918688   165A      0.925047  
     166A      0.933594   167A      0.937461   168A      0.951496  
     169A      0.962661   170A      0.970987   171A      0.976442  
     172A      0.984918   173A      1.011820   174A      1.022318  
     175A      1.024476   176A      1.042285   177A      1.061905  
     178A      1.069013   179A      1.077166   180A      1.087470  
     181A      1.092903   182A      1.099976   183A      1.118078  
     184A      1.126438   185A      1.137491   186A      1.151015  
     187A      1.160975   188A      1.179544   189A      1.199216  
     190A      1.210340   191A      1.235011   192A      1.249674  
     193A      1.251023   194A      1.263834   195A      1.267913  
     196A      1.280752   197A      1.296337   198A      1.313858  
     199A      1.324769   200A      1.335864   201A      1.349916  
     202A      1.356046   203A      1.383579   204A      1.406854  
     205A      1.412562   206A      1.416606   207A      1.478007  
     208A      1.520477   209A      1.529029   210A      1.557404  
     211A      1.562459   212A      1.577756   213A      1.585558  
     214A      1.608325   215A      1.612338   216A      1.675514  
     217A      1.679107   218A      1.709194   219A      1.747973  
     220A      1.760169   221A      1.766874   222A      1.775044  
     223A      1.789994   224A      1.812292   225A      1.819444  
     226A      1.826994   227A      1.830630   228A      1.841621  
     229A      1.868235   230A      1.889471   231A      1.894867  
     232A      1.903867   233A      1.919231   234A      1.930164  
     235A      1.932285   236A      1.937854   237A      1.949750  
     238A      1.963780   239A      1.977065   240A      1.982154  
     241A      2.002801   242A      2.010335   243A      2.017155  
     244A      2.024989   245A      2.035737   246A      2.046023  
     247A      2.053855   248A      2.059290   249A      2.073180  
     250A      2.081085   251A      2.086480   252A      2.097294  
     253A      2.117729   254A      2.134196   255A      2.138238  
     256A      2.158340   257A      2.171384   258A      2.188943  
     259A      2.197949   260A      2.203204   261A      2.214303  
     262A      2.219721   263A      2.224365   264A      2.233993  
     265A      2.243618   266A      2.256441   267A      2.285134  
     268A      2.297261   269A      2.314379   270A      2.331760  
     271A      2.347528   272A      2.360299   273A      2.371846  
     274A      2.385880   275A      2.390070   276A      2.402338  
     277A      2.417169   278A      2.429661   279A      2.432017  
     280A      2.441489   281A      2.445502   282A      2.449637  
     283A      2.464029   284A      2.492209   285A      2.495181  
     286A      2.517210   287A      2.529634   288A      2.535232  
     289A      2.538967   290A      2.549258   291A      2.576578  
     292A      2.591078   293A      2.610046   294A      2.631978  
     295A      2.643066   296A      2.653120   297A      2.655402  
     298A      2.670136   299A      2.700102   300A      2.735915  
     301A      2.767075   302A      2.792319   303A      2.798657  
     304A      2.821657   305A      2.831668   306A      2.836081  
     307A      2.857130   308A      2.873395   309A      2.882844  
     310A      2.889390   311A      2.907212   312A      2.913896  
     313A      2.952677   314A      2.965463   315A      2.972294  
     316A      2.983587   317A      2.991463   318A      3.001590  
     319A      3.012328   320A      3.028259   321A      3.062423  
     322A      3.096988   323A      3.099138   324A      3.120593  
     325A      3.131128   326A      3.141259   327A      3.156651  
     328A      3.168070   329A      3.242404   330A      3.272252  
     331A      3.275882   332A      3.306080   333A      3.337630  
     334A      3.354940   335A      3.418578   336A      3.420184  
     337A      3.440842   338A      3.448726   339A      3.459510  
     340A      3.486837   341A      3.509776   342A      3.522425  
     343A      3.536055   344A      3.581271   345A      3.635662  
     346A      3.665877   347A      3.711281   348A      3.728972  
     349A      3.745936   350A      3.782382   351A      3.832877  
     352A      3.849831   353A      3.869217   354A      3.984097  
     355A      4.035569   356A      4.046500   357A      4.095535  
     358A      4.126093   359A      4.166611   360A      4.217263  
     361A      4.283895   362A      4.318142   363A      4.347846  
     364A      4.359371   365A      4.364466   366A      4.386410  
     367A      4.417478   368A      4.518033   369A      4.540051  
     370A      4.566650   371A      4.648268   372A      4.729009  
     373A      4.806649   374A      4.893830   375A      4.933658  
     376A      5.012617   377A      5.121397   378A      5.190514  
     379A      5.290205   380A      5.473805   381A      5.637079  
     382A      5.831780   383A      5.961110   384A      6.058945  
     385A      6.061436   386A      6.132800   387A      6.260030  
     388A     18.159177   389A     18.451130   390A     18.478156  
     391A     18.518527   392A     18.897182   393A     25.297536  
     394A     25.307525   395A     25.336884   396A     25.428882  
     397A     25.459660  

    Final Occupation by Irrep:
              A 
    DOCC [    33 ]

  @DF-RHF Final Energy:  -451.55608812058074

   => Energetics <=

    Nuclear Repulsion Energy =            438.2161177930507847
    One-Electron Energy =               -1484.1596533169608847
    Two-Electron Energy =                 594.3874474033294746
    Total Energy =                       -451.5560881205807391

Computation Completed


Properties will be evaluated at   0.000000,   0.000000,   0.000000 [a0]

Properties computed using the SCF density matrix

  Nuclear Dipole Moment: [e a0]
     X:   164.5855      Y:   101.7383      Z:  -212.6996

  Electronic Dipole Moment: [e a0]
     X:  -164.6853      Y:   -99.8015      Z:   212.7013

  Dipole Moment: [e a0]
     X:    -0.0998      Y:     1.9369      Z:     0.0017     Total:     1.9395

  Dipole Moment: [D]
     X:    -0.2537      Y:     4.9231      Z:     0.0042     Total:     4.9296


*** tstop() called on node45.bme.utexas.edu at Sun May 12 23:46:28 2024
Module time:
	user time   =     152.27 seconds =       2.54 minutes
	system time =       2.05 seconds =       0.03 minutes
	total time  =         22 seconds =       0.37 minutes
Total time:
	user time   =     534.59 seconds =       8.91 minutes
	system time =       9.10 seconds =       0.15 minutes
	total time  =         77 seconds =       1.28 minutes

*** tstart() called on node45.bme.utexas.edu
*** at Sun May 12 23:46:28 2024


  //>>>>>>>>>>>>>>>>>>>>>>>>>>>>>>>>>>>//
  //               DFMP2               //
  //<<<<<<<<<<<<<<<<<<<<<<<<<<<<<<<<<<<//

   => Loading Basis Set <=

    Name: (JUN-CC-PVDZ AUX)
    Role: RIFIT
    Keyword: DF_BASIS_MP2
    atoms 1, 3, 16, 18, 22, 24, 26  entry N          line   144 file /opt/anaconda/envs/psi4v1.5/share/psi4/basis/jun-cc-pvdz-ri.gbs 
    atoms 2, 4-6, 11, 17, 19-21, 23 entry C          line   100 file /opt/anaconda/envs/psi4v1.5/share/psi4/basis/jun-cc-pvdz-ri.gbs 
    atoms 7, 9, 12-15, 25, 27-30    entry H          line    30 file /opt/anaconda/envs/psi4v1.5/share/psi4/basis/jun-cc-pvdz-ri.gbs 
    atoms 8, 10                     entry O          line   188 file /opt/anaconda/envs/psi4v1.5/share/psi4/basis/jun-cc-pvdz-ri.gbs 

	 --------------------------------------------------------
	                          DF-MP2                         
	      2nd-Order Density-Fitted Moller-Plesset Theory     
	              RMP2 Wavefunction,   8 Threads             
	                                                         
	        Rob Parrish, Justin Turney, Andy Simmonett,      
	           Ed Hohenstein, and C. David Sherrill          
	 --------------------------------------------------------

   => Auxiliary Basis Set <=

  Basis Set: (JUN-CC-PVDZ AUX)
    Blend: JUN-CC-PVDZ-RI
    Number of shells: 465
    Number of basis functions: 1389
    Number of Cartesian functions: 1609
    Spherical Harmonics?: true
    Max angular momentum: 3

	 --------------------------------------------------------
	                 NBF =   397, NAUX =  1389
	 --------------------------------------------------------
	   CLASS    FOCC     OCC    AOCC    AVIR     VIR    FVIR
	   PAIRS       9      33      24     364     364       0
	 --------------------------------------------------------

	 Will attempt to load fitting metric from file 97.

	-----------------------------------------------------------
	 ==================> DF-MP2 Energies <==================== 
	-----------------------------------------------------------
	 Reference Energy          =    -451.5560881205807391 [Eh]
	 Singles Energy            =      -0.0000000000000000 [Eh]
	 Same-Spin Energy          =      -0.3665412837143551 [Eh]
	 Opposite-Spin Energy      =      -0.9877657453608788 [Eh]
	 Correlation Energy        =      -1.3543070290752339 [Eh]
	 Total Energy              =    -452.9103951496559830 [Eh]
	-----------------------------------------------------------
	 ================> DF-SCS-MP2 Energies <================== 
	-----------------------------------------------------------
	 SCS Same-Spin Scale       =       0.3333333333333333 [-]
	 SCS Opposite-Spin Scale   =       1.2000000000000000 [-]
	 SCS Same-Spin Energy      =      -0.1221804279047850 [Eh]
	 SCS Opposite-Spin Energy  =      -1.1853188944330546 [Eh]
	 SCS Correlation Energy    =      -1.3074993223378397 [Eh]
	 SCS Total Energy          =    -452.8635874429185719 [Eh]
	-----------------------------------------------------------


*** tstop() called on node45.bme.utexas.edu at Sun May 12 23:46:37 2024
Module time:
	user time   =      47.75 seconds =       0.80 minutes
	system time =       1.18 seconds =       0.02 minutes
	total time  =          9 seconds =       0.15 minutes
Total time:
	user time   =     582.35 seconds =       9.71 minutes
	system time =      10.28 seconds =       0.17 minutes
	total time  =         86 seconds =       1.43 minutes

  //>>>>>>>>>>>>>>>>>>>>>>>>>>>>>>>>>>>//
  //            Monomer B HF           //
  //<<<<<<<<<<<<<<<<<<<<<<<<<<<<<<<<<<<//


*** tstart() called on node45.bme.utexas.edu
*** at Sun May 12 23:46:37 2024

   => Loading Basis Set <=

    Name: JUN-CC-PVDZ
    Role: ORBITAL
    Keyword: BASIS
    atoms 1, 3, 16, 18, 22, 24, 26  entry N          line   198 file /opt/anaconda/envs/psi4v1.5/share/psi4/basis/jun-cc-pvdz.gbs 
    atoms 2, 4-6, 11, 17, 19-21, 23 entry C          line   164 file /opt/anaconda/envs/psi4v1.5/share/psi4/basis/jun-cc-pvdz.gbs 
    atoms 7, 9, 12-15, 25, 27-30    entry H          line    36 file /opt/anaconda/envs/psi4v1.5/share/psi4/basis/jun-cc-pvdz.gbs 
    atoms 8, 10                     entry O          line   232 file /opt/anaconda/envs/psi4v1.5/share/psi4/basis/jun-cc-pvdz.gbs 


         ---------------------------------------------------------
                                   SCF
               by Justin Turney, Rob Parrish, Andy Simmonett
                          and Daniel G. A. Smith
                              RHF Reference
                        8 Threads,  76293 MiB Core
         ---------------------------------------------------------

  ==> Geometry <==

    Molecular point group: c1
    Full point group: C1

    Geometry (in Angstrom), charge = 0, multiplicity = 1:

       Center              X                  Y                   Z               Mass       
    ------------   -----------------  -----------------  -----------------  -----------------
      Gh(N)          -0.079496552317     1.734898081818    -1.705314105950    14.003074004430
      Gh(C)          -0.283867552317     0.357666081818    -1.705575105950    12.000000000000
      Gh(N)           0.882747447683    -0.377477918182    -1.705677105950    14.003074004430
      Gh(C)           2.177939447683     0.122770081818    -1.705571105950    12.000000000000
      Gh(C)           2.309648447683     1.581641081818    -1.705270105950    12.000000000000
      Gh(C)           1.169911447683     2.316028081818    -1.705206105950    12.000000000000
      Gh(H)          -0.917507552317     2.299473081818    -1.705434105950     1.007825032230
      Gh(O)          -1.403173552317    -0.137153918182    -1.705711105950    15.994914619570
      Gh(H)           0.761106447683    -1.427533918182    -1.705884105950     1.007825032230
      Gh(O)           3.147155447683    -0.646184918182    -1.705704105950    15.994914619570
      Gh(C)           3.685883447683     2.180534081818    -1.704672105950    12.000000000000
      Gh(H)           3.633451447683     3.277879081818    -1.711315105950     1.007825032230
      Gh(H)           4.250022447683     1.853193081818    -0.818614105950     1.007825032230
      Gh(H)           4.255038447683     1.842381081818    -2.583346105950     1.007825032230
      Gh(H)           1.181069447683     3.405155081818    -1.705169105950     1.007825032230
         N            0.008876447683    -2.317993918182     1.644566894050    14.003074004430
         C           -1.229703552317    -2.850585918182     1.631424894050    12.000000000000
         N           -2.396513552317    -2.205663918182     1.597274894050    14.003074004430
         C           -2.219050552317    -0.874113918182     1.575361894050    12.000000000000
         C           -1.001723552317    -0.183287918182     1.585146894050    12.000000000000
         C            0.169731447683    -0.975263918182     1.622147894050    12.000000000000
         N           -1.198709552317     1.187320081818     1.555468894050    14.003074004430
         C           -2.504276552317     1.323245081818     1.528361894050    12.000000000000
         N           -3.176472552317     0.115171081818     1.538622894050    14.003074004430
         H           -1.257038552317    -3.941341918182     1.651589894050     1.007825032230
         N            1.410946447683    -0.460022918182     1.635692894050    14.003074004430
         H            1.516492447683     0.542911081818     1.618707894050     1.007825032230
         H            2.230049447683    -1.075262918182     1.662822894050     1.007825032230
         H           -3.036589552317     2.268796081818     1.500439894050     1.007825032230
         H           -4.176199552317    -0.030434918182     1.522587894050     1.007825032230

  Running in c1 symmetry.

  Rotational constants: A =      0.02267  B =      0.00933  C =      0.00818 [cm^-1]
  Rotational constants: A =    679.68473  B =    279.77679  C =    245.34530 [MHz]
  Nuclear repulsion =  501.306615970653752

  Charge       = 0
  Multiplicity = 1
  Electrons    = 70
  Nalpha       = 35
  Nbeta        = 35

  ==> Algorithm <==

  SCF Algorithm Type is DF.
  DIIS enabled.
  MOM disabled.
  Fractional occupation disabled.
  Guess Type is SAD.
  Energy threshold   = 1.00e-08
  Density threshold  = 1.00e-08
  Integral threshold = 1.00e-12

  ==> Primary Basis <==

  Basis Set: JUN-CC-PVDZ
    Blend: JUN-CC-PVDZ
    Number of shells: 185
    Number of basis functions: 397
    Number of Cartesian functions: 416
    Spherical Harmonics?: true
    Max angular momentum: 2

   => Loading Basis Set <=

    Name: (JUN-CC-PVDZ AUX)
    Role: JKFIT
    Keyword: DF_BASIS_SCF
    atoms 1, 3, 16, 18, 22, 24, 26  entry N          line   202 file /opt/anaconda/envs/psi4v1.5/share/psi4/basis/jun-cc-pvdz-jkfit.gbs 
    atoms 2, 4-6, 11, 17, 19-21, 23 entry C          line   146 file /opt/anaconda/envs/psi4v1.5/share/psi4/basis/jun-cc-pvdz-jkfit.gbs 
    atoms 7, 9, 12-15, 25, 27-30    entry H          line    70 file /opt/anaconda/envs/psi4v1.5/share/psi4/basis/jun-cc-pvdz-jkfit.gbs 
    atoms 8, 10                     entry O          line   258 file /opt/anaconda/envs/psi4v1.5/share/psi4/basis/jun-cc-pvdz-jkfit.gbs 

  ==> Integral Setup <==

  ==> DiskDFJK: Density-Fitted J/K Matrices <==

    J tasked:                  Yes
    K tasked:                  Yes
    wK tasked:                  No
    OpenMP threads:              8
    Integrals threads:           8
    Memory [MiB]:            57220
    Algorithm:                Core
    Integral Cache:           LOAD
    Schwarz Cutoff:          1E-12
    Fitting Condition:       1E-10

   => Auxiliary Basis Set <=

  Basis Set: (JUN-CC-PVDZ AUX)
    Blend: JUN-CC-PVDZ-JKFIT
    Number of shells: 612
    Number of basis functions: 1754
    Number of Cartesian functions: 2004
    Spherical Harmonics?: true
    Max angular momentum: 3

  Minimum eigenvalue in the overlap matrix is 7.5088109011E-06.
  Reciprocal condition number of the overlap matrix is 4.8362293466E-07.
    Using symmetric orthogonalization.

  ==> Pre-Iterations <==

  SCF Guess: Superposition of Atomic Densities via on-the-fly atomic UHF (no occupation information).

   -------------------------
    Irrep   Nso     Nmo    
   -------------------------
     A        397     397 
   -------------------------
    Total     397     397
   -------------------------

  ==> Iterations <==

                           Total Energy        Delta E     RMS |[F,P]|

   @DF-RHF iter SAD:  -464.38471120415795   -4.64385e+02   0.00000e+00 
   @DF-RHF iter   1:  -464.33734911541870    4.73621e-02   1.61754e-03 DIIS
   @DF-RHF iter   2:  -464.52555357555048   -1.88204e-01   8.04594e-04 DIIS
   @DF-RHF iter   3:  -464.57001650993982   -4.44629e-02   1.83084e-04 DIIS
   @DF-RHF iter   4:  -464.57318854443923   -3.17203e-03   8.23664e-05 DIIS
   @DF-RHF iter   5:  -464.57377196461317   -5.83420e-04   1.67737e-05 DIIS
   @DF-RHF iter   6:  -464.57382162835069   -4.96637e-05   8.06878e-06 DIIS
   @DF-RHF iter   7:  -464.57383532850156   -1.37002e-05   3.22603e-06 DIIS
   @DF-RHF iter   8:  -464.57383796957942   -2.64108e-06   1.14884e-06 DIIS
   @DF-RHF iter   9:  -464.57383832443895   -3.54860e-07   5.71917e-07 DIIS
   @DF-RHF iter  10:  -464.57383841486364   -9.04247e-08   2.13876e-07 DIIS
   @DF-RHF iter  11:  -464.57383843220032   -1.73367e-08   9.44392e-08 DIIS
   @DF-RHF iter  12:  -464.57383843515674   -2.95643e-09   3.37621e-08 DIIS
   @DF-RHF iter  13:  -464.57383843550514   -3.48393e-10   1.31920e-08 DIIS
   @DF-RHF iter  14:  -464.57383843554328   -3.81419e-11   4.70966e-09 DIIS
  Energy and wave function converged.


  ==> Post-Iterations <==

    Orbital Energies [Eh]
    ---------------------

    Doubly Occupied:                                                      

       1A    -15.639628     2A    -15.598851     3A    -15.578826  
       4A    -15.565049     5A    -15.556516     6A    -11.348502  
       7A    -11.334017     8A    -11.325713     9A    -11.319835  
      10A    -11.260325    11A     -1.370214    12A     -1.301135  
      13A     -1.251653    14A     -1.190794    15A     -1.151898  
      16A     -1.037292    17A     -0.897634    18A     -0.877466  
      19A     -0.846427    20A     -0.781033    21A     -0.742301  
      22A     -0.699613    23A     -0.678588    24A     -0.637907  
      25A     -0.636952    26A     -0.614851    27A     -0.594308  
      28A     -0.557957    29A     -0.498888    30A     -0.495814  
      31A     -0.449265    32A     -0.425463    33A     -0.407258  
      34A     -0.370618    35A     -0.310100  

    Virtual:                                                              

      36A      0.031026    37A      0.042611    38A      0.052561  
      39A      0.055072    40A      0.066986    41A      0.070381  
      42A      0.077207    43A      0.082702    44A      0.085523  
      45A      0.089174    46A      0.097775    47A      0.101212  
      48A      0.101747    49A      0.110201    50A      0.111004  
      51A      0.122745    52A      0.125786    53A      0.128365  
      54A      0.131868    55A      0.133447    56A      0.138450  
      57A      0.143743    58A      0.146858    59A      0.153033  
      60A      0.157215    61A      0.162609    62A      0.162707  
      63A      0.169364    64A      0.176212    65A      0.180666  
      66A      0.186351    67A      0.188340    68A      0.194869  
      69A      0.200610    70A      0.206595    71A      0.208826  
      72A      0.212672    73A      0.221723    74A      0.226618  
      75A      0.230720    76A      0.237874    77A      0.243341  
      78A      0.249443    79A      0.250288    80A      0.254297  
      81A      0.262621    82A      0.264041    83A      0.266524  
      84A      0.269844    85A      0.275605    86A      0.280502  
      87A      0.282919    88A      0.290861    89A      0.294410  
      90A      0.296303    91A      0.299543    92A      0.307976  
      93A      0.311297    94A      0.316522    95A      0.321172  
      96A      0.326311    97A      0.329522    98A      0.332212  
      99A      0.340388   100A      0.342806   101A      0.351373  
     102A      0.353373   103A      0.357076   104A      0.364076  
     105A      0.369181   106A      0.377421   107A      0.378301  
     108A      0.386732   109A      0.390255   110A      0.396679  
     111A      0.403355   112A      0.406240   113A      0.409903  
     114A      0.416683   115A      0.425966   116A      0.429958  
     117A      0.435878   118A      0.441341   119A      0.449690  
     120A      0.453629   121A      0.456741   122A      0.464691  
     123A      0.481746   124A      0.484593   125A      0.492273  
     126A      0.503187   127A      0.507834   128A      0.523588  
     129A      0.534006   130A      0.540868   131A      0.549188  
     132A      0.553065   133A      0.573337   134A      0.577807  
     135A      0.578734   136A      0.599832   137A      0.608298  
     138A      0.619310   139A      0.625929   140A      0.634602  
     141A      0.642876   142A      0.643606   143A      0.647940  
     144A      0.665218   145A      0.687265   146A      0.688520  
     147A      0.697388   148A      0.732728   149A      0.739951  
     150A      0.744561   151A      0.779982   152A      0.808897  
     153A      0.823026   154A      0.824629   155A      0.840123  
     156A      0.844551   157A      0.865565   158A      0.871985  
     159A      0.876177   160A      0.887222   161A      0.889383  
     162A      0.902470   163A      0.912523   164A      0.929052  
     165A      0.932421   166A      0.937296   167A      0.945820  
     168A      0.961942   169A      0.975076   170A      0.992931  
     171A      1.000695   172A      1.002121   173A      1.011999  
     174A      1.025993   175A      1.039059   176A      1.047446  
     177A      1.061685   178A      1.066488   179A      1.095649  
     180A      1.108381   181A      1.116344   182A      1.123247  
     183A      1.131816   184A      1.156307   185A      1.160885  
     186A      1.165975   187A      1.182868   188A      1.186956  
     189A      1.197161   190A      1.199076   191A      1.202413  
     192A      1.222308   193A      1.236376   194A      1.250960  
     195A      1.261631   196A      1.273745   197A      1.278775  
     198A      1.299460   199A      1.304121   200A      1.309126  
     201A      1.330874   202A      1.332321   203A      1.337500  
     204A      1.355472   205A      1.360289   206A      1.366354  
     207A      1.373072   208A      1.378797   209A      1.385114  
     210A      1.391255   211A      1.409019   212A      1.417404  
     213A      1.436789   214A      1.467263   215A      1.482363  
     216A      1.494040   217A      1.499515   218A      1.535383  
     219A      1.544856   220A      1.561209   221A      1.574387  
     222A      1.586116   223A      1.622913   224A      1.633082  
     225A      1.672174   226A      1.731214   227A      1.791412  
     228A      1.800341   229A      1.811166   230A      1.819496  
     231A      1.829949   232A      1.846374   233A      1.855515  
     234A      1.862549   235A      1.866602   236A      1.883846  
     237A      1.892983   238A      1.898149   239A      1.909544  
     240A      1.929429   241A      1.937668   242A      1.953990  
     243A      1.970912   244A      1.975396   245A      1.982294  
     246A      1.985583   247A      2.004464   248A      2.017563  
     249A      2.026937   250A      2.031744   251A      2.038280  
     252A      2.040916   253A      2.048413   254A      2.054539  
     255A      2.066461   256A      2.078956   257A      2.082107  
     258A      2.087076   259A      2.100088   260A      2.112910  
     261A      2.127031   262A      2.146193   263A      2.154366  
     264A      2.172940   265A      2.178833   266A      2.192604  
     267A      2.193112   268A      2.207292   269A      2.234437  
     270A      2.238409   271A      2.254375   272A      2.270925  
     273A      2.281761   274A      2.300603   275A      2.318659  
     276A      2.335348   277A      2.336825   278A      2.339789  
     279A      2.383644   280A      2.388711   281A      2.392779  
     282A      2.400173   283A      2.412090   284A      2.419801  
     285A      2.434313   286A      2.443744   287A      2.452986  
     288A      2.473815   289A      2.505847   290A      2.515983  
     291A      2.518317   292A      2.526745   293A      2.530393  
     294A      2.542567   295A      2.572042   296A      2.575292  
     297A      2.587786   298A      2.594595   299A      2.610328  
     300A      2.627027   301A      2.632540   302A      2.653133  
     303A      2.686810   304A      2.688480   305A      2.694258  
     306A      2.717114   307A      2.732686   308A      2.759351  
     309A      2.769368   310A      2.780523   311A      2.809110  
     312A      2.818179   313A      2.846824   314A      2.871047  
     315A      2.878070   316A      2.900651   317A      2.908464  
     318A      2.938286   319A      2.949365   320A      2.959198  
     321A      2.986179   322A      3.004049   323A      3.027742  
     324A      3.075083   325A      3.078121   326A      3.091525  
     327A      3.103921   328A      3.110415   329A      3.126358  
     330A      3.164632   331A      3.203732   332A      3.209190  
     333A      3.219198   334A      3.250597   335A      3.262934  
     336A      3.287053   337A      3.315665   338A      3.327066  
     339A      3.354646   340A      3.382442   341A      3.398365  
     342A      3.410880   343A      3.425551   344A      3.522764  
     345A      3.550703   346A      3.636831   347A      3.656512  
     348A      3.661843   349A      3.684223   350A      3.743225  
     351A      3.774009   352A      3.820088   353A      3.890199  
     354A      3.988862   355A      4.053969   356A      4.095336  
     357A      4.150369   358A      4.207909   359A      4.231606  
     360A      4.279363   361A      4.298366   362A      4.318803  
     363A      4.361342   364A      4.409946   365A      4.428658  
     366A      4.689301   367A      4.715615   368A      4.724631  
     369A      4.783271   370A      4.785495   371A      4.868572  
     372A      4.976011   373A      4.988101   374A      5.061186  
     375A      5.138144   376A      5.302293   377A      5.456358  
     378A      5.627741   379A      5.659416   380A      5.706019  
     381A      5.728316   382A      5.741911   383A      5.758847  
     384A      5.974006   385A      6.033275   386A      6.229291  
     387A      6.796535   388A      6.948158   389A     18.068421  
     390A     18.439970   391A     18.464445   392A     18.545286  
     393A     18.903553   394A     25.406415   395A     25.419393  
     396A     33.515410   397A     33.523645  

    Final Occupation by Irrep:
              A 
    DOCC [    35 ]

  @DF-RHF Final Energy:  -464.57383843554328

   => Energetics <=

    Nuclear Repulsion Energy =            501.3066159706537519
    One-Electron Energy =               -1625.0555249206900044
    Two-Electron Energy =                 659.1750705144930862
    Total Energy =                       -464.5738384355432800

Computation Completed


Properties will be evaluated at   0.000000,   0.000000,   0.000000 [a0]

Properties computed using the SCF density matrix

  Nuclear Dipole Moment: [e a0]
     X:  -156.6517      Y:   -93.2839      Z:   210.5385

  Electronic Dipole Moment: [e a0]
     X:   156.2616      Y:    94.1823      Z:  -210.5672

  Dipole Moment: [e a0]
     X:    -0.3902      Y:     0.8984      Z:    -0.0287     Total:     0.9799

  Dipole Moment: [D]
     X:    -0.9917      Y:     2.2836      Z:    -0.0730     Total:     2.4907


*** tstop() called on node45.bme.utexas.edu at Sun May 12 23:47:02 2024
Module time:
	user time   =     173.92 seconds =       2.90 minutes
	system time =       2.44 seconds =       0.04 minutes
	total time  =         25 seconds =       0.42 minutes
Total time:
	user time   =     756.33 seconds =      12.61 minutes
	system time =      12.72 seconds =       0.21 minutes
	total time  =        111 seconds =       1.85 minutes

*** tstart() called on node45.bme.utexas.edu
*** at Sun May 12 23:47:02 2024


  //>>>>>>>>>>>>>>>>>>>>>>>>>>>>>>>>>>>//
  //               DFMP2               //
  //<<<<<<<<<<<<<<<<<<<<<<<<<<<<<<<<<<<//

   => Loading Basis Set <=

    Name: (JUN-CC-PVDZ AUX)
    Role: RIFIT
    Keyword: DF_BASIS_MP2
    atoms 1, 3, 16, 18, 22, 24, 26  entry N          line   144 file /opt/anaconda/envs/psi4v1.5/share/psi4/basis/jun-cc-pvdz-ri.gbs 
    atoms 2, 4-6, 11, 17, 19-21, 23 entry C          line   100 file /opt/anaconda/envs/psi4v1.5/share/psi4/basis/jun-cc-pvdz-ri.gbs 
    atoms 7, 9, 12-15, 25, 27-30    entry H          line    30 file /opt/anaconda/envs/psi4v1.5/share/psi4/basis/jun-cc-pvdz-ri.gbs 
    atoms 8, 10                     entry O          line   188 file /opt/anaconda/envs/psi4v1.5/share/psi4/basis/jun-cc-pvdz-ri.gbs 

	 --------------------------------------------------------
	                          DF-MP2                         
	      2nd-Order Density-Fitted Moller-Plesset Theory     
	              RMP2 Wavefunction,   8 Threads             
	                                                         
	        Rob Parrish, Justin Turney, Andy Simmonett,      
	           Ed Hohenstein, and C. David Sherrill          
	 --------------------------------------------------------

   => Auxiliary Basis Set <=

  Basis Set: (JUN-CC-PVDZ AUX)
    Blend: JUN-CC-PVDZ-RI
    Number of shells: 465
    Number of basis functions: 1389
    Number of Cartesian functions: 1609
    Spherical Harmonics?: true
    Max angular momentum: 3

	 --------------------------------------------------------
	                 NBF =   397, NAUX =  1389
	 --------------------------------------------------------
	   CLASS    FOCC     OCC    AOCC    AVIR     VIR    FVIR
	   PAIRS      10      35      25     362     362       0
	 --------------------------------------------------------

	 Will attempt to load fitting metric from file 97.

	-----------------------------------------------------------
	 ==================> DF-MP2 Energies <==================== 
	-----------------------------------------------------------
	 Reference Energy          =    -464.5738384355432800 [Eh]
	 Singles Energy            =      -0.0000000000000000 [Eh]
	 Same-Spin Energy          =      -0.4093150189636927 [Eh]
	 Opposite-Spin Energy      =      -1.0538274604283513 [Eh]
	 Correlation Energy        =      -1.4631424793920440 [Eh]
	 Total Energy              =    -466.0369809149353273 [Eh]
	-----------------------------------------------------------
	 ================> DF-SCS-MP2 Energies <================== 
	-----------------------------------------------------------
	 SCS Same-Spin Scale       =       0.3333333333333333 [-]
	 SCS Opposite-Spin Scale   =       1.2000000000000000 [-]
	 SCS Same-Spin Energy      =      -0.1364383396545642 [Eh]
	 SCS Opposite-Spin Energy  =      -1.2645929525140216 [Eh]
	 SCS Correlation Energy    =      -1.4010312921685859 [Eh]
	 SCS Total Energy          =    -465.9748697277118481 [Eh]
	-----------------------------------------------------------


*** tstop() called on node45.bme.utexas.edu at Sun May 12 23:47:11 2024
Module time:
	user time   =      47.40 seconds =       0.79 minutes
	system time =       1.06 seconds =       0.02 minutes
	total time  =          9 seconds =       0.15 minutes
Total time:
	user time   =     803.74 seconds =      13.40 minutes
	system time =      13.79 seconds =       0.23 minutes
	total time  =        120 seconds =       2.00 minutes
  Constructing Basis Sets for SAPT...

   => Loading Basis Set <=

    Name: (JUN-CC-PVDZ AUX)
    Role: RIFIT
    Keyword: DF_BASIS_SAPT
    atoms 1, 3, 16, 18, 22, 24, 26  entry N          line   144 file /opt/anaconda/envs/psi4v1.5/share/psi4/basis/jun-cc-pvdz-ri.gbs 
    atoms 2, 4-6, 11, 17, 19-21, 23 entry C          line   100 file /opt/anaconda/envs/psi4v1.5/share/psi4/basis/jun-cc-pvdz-ri.gbs 
    atoms 7, 9, 12-15, 25, 27-30    entry H          line    30 file /opt/anaconda/envs/psi4v1.5/share/psi4/basis/jun-cc-pvdz-ri.gbs 
    atoms 8, 10                     entry O          line   188 file /opt/anaconda/envs/psi4v1.5/share/psi4/basis/jun-cc-pvdz-ri.gbs 


  //>>>>>>>>>>>>>>>>>>>>>>>>>>>>>>>>>>>//
  //           SAPT2+(3)DMP2           //
  //<<<<<<<<<<<<<<<<<<<<<<<<<<<<<<<<<<<//


*** tstart() called on node45.bme.utexas.edu
*** at Sun May 12 23:47:11 2024

      SAPT2+(3)  
    Ed Hohenstein
     6 June 2009

      Orbital Information
  --------------------------
    NSO        =       397
    NMO        =       397
    NRI        =      1389
    NOCC A     =        33
    NOCC B     =        35
    FOCC A     =         9
    FOCC B     =        10
    NVIR A     =       364
    NVIR B     =       362

    Estimated memory usage: 5367.7 MB

    Natural Orbital Cutoff:   1.000E-06
    Disp(T3) Truncation:            Yes
    CCD (vv|vv) Truncation:         Yes
    MBPT T2 Truncation:             Yes

    Monomer A: 190 virtual orbitals dropped
    Monomer B: 176 virtual orbitals dropped

    Elst10,r            =    -0.004747195315 [Eh]
    Exch10 (S^2)        =     0.007839907233 [Eh]
    Exch10              =     0.007848624817 [Eh]
    Ind20,r (A<-B)      =    -0.001010270970 [Eh]
    Ind20,r (B<-A)      =    -0.002604973492 [Eh]
    Ind20,r             =    -0.003615244462 [Eh]
    Exch-Ind20,r (A<-B) =     0.000822753548 [Eh]
    Exch-Ind20,r (B<-A) =     0.002066823989 [Eh]
    Exch-Ind20,r        =     0.002889577538 [Eh]
    Disp20              =    -0.011281823855 [Eh]
    Disp20 (NO)         =    -0.010745421759 [Eh]
    Exch-Disp20         =     0.001003889558 [Eh]
    Elst12,r            =    -0.000523150887 [Eh]
    Exch11              =    -0.000107530233 [Eh]
    Exch12              =     0.001210488058 [Eh]
    Ind22               =    -0.000453363322 [Eh]
    Disp21              =     0.003541715266 [Eh]
    Disp22 (SDQ)        =    -0.001014680435 [Eh]

    (i =   1 of  25)        186 seconds
    (i =   2 of  25)        303 seconds
    (i =   3 of  25)        408 seconds
    (i =   4 of  25)        514 seconds
    (i =   5 of  25)        629 seconds
    (i =   6 of  25)        782 seconds
    (i =   7 of  25)        926 seconds
    (i =   8 of  25)       1086 seconds
    (i =   9 of  25)       1244 seconds
    (i =  10 of  25)       1404 seconds
    (i =  11 of  25)       1558 seconds
    (i =  12 of  25)       1711 seconds
    (i =  13 of  25)       1867 seconds
    (i =  14 of  25)       2022 seconds
    (i =  15 of  25)       2177 seconds
    (i =  16 of  25)       2327 seconds
    (i =  17 of  25)       2486 seconds
    (i =  18 of  25)       2633 seconds
    (i =  19 of  25)       2784 seconds
    (i =  20 of  25)       2936 seconds
    (i =  21 of  25)       3092 seconds
    (i =  22 of  25)       3246 seconds
    (i =  23 of  25)       3404 seconds
    (i =  24 of  25)       3560 seconds
    (i =  25 of  25)       3715 seconds

    Disp220 (T)         =    -0.001185024656 [Eh]

    (i =   1 of  24)        187 seconds
    (i =   2 of  24)        392 seconds
    (i =   3 of  24)        594 seconds
    (i =   4 of  24)        789 seconds
    (i =   5 of  24)        981 seconds
    (i =   6 of  24)       1169 seconds
    (i =   7 of  24)       1358 seconds
    (i =   8 of  24)       1551 seconds
    (i =   9 of  24)       1748 seconds
    (i =  10 of  24)       1948 seconds
    (i =  11 of  24)       2136 seconds
    (i =  12 of  24)       2323 seconds
    (i =  13 of  24)       2511 seconds
    (i =  14 of  24)       2683 seconds
    (i =  15 of  24)       2870 seconds
    (i =  16 of  24)       3045 seconds
    (i =  17 of  24)       3220 seconds
    (i =  18 of  24)       3402 seconds
    (i =  19 of  24)       3589 seconds
    (i =  20 of  24)       3775 seconds
    (i =  21 of  24)       3958 seconds
    (i =  22 of  24)       4143 seconds
    (i =  23 of  24)       4322 seconds
    (i =  24 of  24)       4506 seconds

    Disp202 (T)         =    -0.001138244847 [Eh]

    Disp22 (T)          =    -0.002323269503 [Eh]

    Est. Disp220 (T)    =    -0.001244180055 [Eh]
    Est. Disp202 (T)    =    -0.001195065038 [Eh]

    Est. Disp22 (T)     =    -0.002439245093 [Eh]
    Elst13,r            =     0.000270764889 [Eh]
    Disp30              =     0.000067168654 [Eh]

    SAPT Results 
  --------------------------------------------------------------------------------------------------------
    Electrostatics                 -4.99958131 [mEh]      -3.13728464 [kcal/mol]     -13.12639893 [kJ/mol]
      Elst10,r                     -4.74719532 [mEh]      -2.97891003 [kcal/mol]     -12.46375958 [kJ/mol]
      Elst12,r                     -0.52315089 [mEh]      -0.32828214 [kcal/mol]      -1.37353247 [kJ/mol]
      Elst13,r                      0.27076489 [mEh]       0.16990753 [kcal/mol]       0.71089312 [kJ/mol]

    Exchange                        8.95158264 [mEh]       5.61720291 [kcal/mol]      23.50237699 [kJ/mol]
      Exch10                        7.84862482 [mEh]       4.92508643 [kcal/mol]      20.60656162 [kJ/mol]
      Exch10(S^2)                   7.83990723 [mEh]       4.91961606 [kcal/mol]      20.58367360 [kJ/mol]
      Exch11(S^2)                  -0.10753023 [mEh]      -0.06747624 [kcal/mol]      -0.28232059 [kJ/mol]
      Exch12(S^2)                   1.21048806 [mEh]       0.75959272 [kcal/mol]       3.17813596 [kJ/mol]

    Induction                      -0.70996807 [mEh]      -0.44551169 [kcal/mol]      -1.86402091 [kJ/mol]
      Ind20,r                      -3.61524446 [mEh]      -2.26860015 [kcal/mol]      -9.49182303 [kJ/mol]
      Ind22                        -0.45336332 [mEh]      -0.28448978 [kcal/mol]      -1.19030524 [kJ/mol]
      Exch-Ind20,r                  2.88957754 [mEh]       1.81323728 [kcal/mol]       7.58658478 [kJ/mol]
      Exch-Ind22                    0.36236235 [mEh]       0.22738581 [kcal/mol]       0.95138221 [kJ/mol]
      delta HF,r (2)               -0.32939937 [mEh]      -0.20670123 [kcal/mol]      -0.86483793 [kJ/mol]
      delta MP2,r (2)               0.43609920 [mEh]       0.27365638 [kcal/mol]       1.14497829 [kJ/mol]

    Dispersion                    -10.12297590 [mEh]      -6.35226328 [kcal/mol]     -26.57786957 [kJ/mol]
      Disp20                      -11.28182385 [mEh]      -7.07945135 [kcal/mol]     -29.62042445 [kJ/mol]
      Disp30                        0.06716865 [mEh]       0.04214897 [kcal/mol]       0.17635128 [kJ/mol]
      Disp21                        3.54171527 [mEh]       2.22245988 [kcal/mol]       9.29877215 [kJ/mol]
      Disp22 (SDQ)                 -1.01468043 [mEh]      -0.63672159 [kcal/mol]      -2.66404311 [kJ/mol]
      Disp22 (T)                   -2.32326950 [mEh]      -1.45787362 [kcal/mol]      -6.09974324 [kJ/mol]
      Est. Disp22 (T)              -2.43924509 [mEh]      -1.53064940 [kcal/mol]      -6.40423711 [kJ/mol]
      Exch-Disp20                   1.00388956 [mEh]       0.62995021 [kcal/mol]       2.63571167 [kJ/mol]

  Total HF                          2.04636321 [mEh]       1.28411230 [kcal/mol]       5.37272586 [kJ/mol]
  Total SAPT0                      -8.23157109 [mEh]      -5.16538884 [kcal/mol]     -21.61198692 [kJ/mol]
  Total SAPT2                      -7.74276512 [mEh]      -4.85865847 [kcal/mol]     -20.32862703 [kJ/mol]
  Total SAPT2+                     -7.65497539 [mEh]      -4.80356958 [kcal/mol]     -20.09813511 [kJ/mol]
  Total SAPT2+(3)                  -7.31704184 [mEh]      -4.59151308 [kcal/mol]     -19.21089071 [kJ/mol]
  Total SAPT2+dMP2                 -7.21887619 [mEh]      -4.52991320 [kcal/mol]     -18.95315682 [kJ/mol]
  Total SAPT2+(3)dMP2              -6.88094264 [mEh]      -4.31785670 [kcal/mol]     -18.06591242 [kJ/mol]

  Special recipe for scaled SAPT0 (see Manual):
    Electrostatics sSAPT0          -4.74719532 [mEh]      -2.97891003 [kcal/mol]     -12.46375958 [kJ/mol]
    Exchange sSAPT0                 7.84862482 [mEh]       4.92508643 [kcal/mol]      20.60656162 [kJ/mol]
    Induction sSAPT0               -1.04541638 [mEh]      -0.65600868 [kcal/mol]      -2.74474032 [kJ/mol]
    Dispersion sSAPT0             -10.27458175 [mEh]      -6.44739738 [kcal/mol]     -26.97591066 [kJ/mol]
  Total sSAPT0                     -8.21856862 [mEh]      -5.15722967 [kcal/mol]     -21.57784894 [kJ/mol]
  --------------------------------------------------------------------------------------------------------

*** tstop() called on node45.bme.utexas.edu at Mon May 13 02:28:40 2024
Module time:
	user time   =   74074.57 seconds =    1234.58 minutes
	system time =    1395.08 seconds =      23.25 minutes
	total time  =       9689 seconds =     161.48 minutes
Total time:
	user time   =   74879.66 seconds =    1247.99 minutes
	system time =    1408.92 seconds =      23.48 minutes
	total time  =       9809 seconds =     163.48 minutes

    Psi4 stopped on: Monday, 13 May 2024 02:28AM
    Psi4 wall time for execution: 2:43:30.33

*** Psi4 exiting successfully. Buy a developer a beer!
