
    -----------------------------------------------------------------------
          Psi4: An Open-Source Ab Initio Electronic Structure Package
                               Psi4 1.5 release

                         Git: Rev {HEAD} e9f4d6d 


    D. G. A. Smith, L. A. Burns, A. C. Simmonett, R. M. Parrish,
    M. C. Schieber, R. Galvelis, P. Kraus, H. Kruse, R. Di Remigio,
    A. Alenaizan, A. M. James, S. Lehtola, J. P. Misiewicz, M. Scheurer,
    R. A. Shaw, J. B. Schriber, Y. Xie, Z. L. Glick, D. A. Sirianni,
    J. S. O'Brien, J. M. Waldrop, A. Kumar, E. G. Hohenstein,
    B. P. Pritchard, B. R. Brooks, H. F. Schaefer III, A. Yu. Sokolov,
    K. Patkowski, A. E. DePrince III, U. Bozkaya, R. A. King,
    F. A. Evangelista, J. M. Turney, T. D. Crawford, C. D. Sherrill,
    J. Chem. Phys. 152(18) 184108 (2020). https://doi.org/10.1063/5.0006002

                            Additional Code Authors
    E. T. Seidl, C. L. Janssen, E. F. Valeev, M. L. Leininger,
    J. F. Gonthier, R. M. Richard, H. R. McAlexander, M. Saitow, X. Wang,
    P. Verma, M. H. Lechner, and A. Jiang

             Previous Authors, Complete List of Code Contributors,
                       and Citations for Specific Modules
    https://github.com/psi4/psi4/blob/master/codemeta.json
    https://github.com/psi4/psi4/graphs/contributors
    http://psicode.org/psi4manual/master/introduction.html#citing-psifour

    -----------------------------------------------------------------------


    Psi4 started on: Monday, 22 January 2024 03:22PM

    Process ID: 376691
    Host:       node165.bme.utexas.edu
    PSIDATADIR: /opt/anaconda/envs/psi4v1.5/share/psi4
    Memory:     500.0 MiB
    Threads:    8
    
  ==> Input File <==

--------------------------------------------------------------------------
memory 80GB

molecule {
0 1
N -1.249408 4.334618 -0.000108
C -1.453779 2.957386 -0.000369
N -0.287164 2.222242 -0.000471
C 1.008028 2.72249 -0.000365
C 1.139737 4.181361 -6.4e-05
C 0.0 4.915748 0.0
H -2.087419 4.899193 -0.000228
O -2.573085 2.462566 -0.000505
H -0.408805 1.172186 -0.000678
O 1.977244 1.953535 -0.000498
C 2.515972 4.780254 0.000534
H 2.46354 5.877599 -0.006109
H 3.080111 4.452913 0.886592
H 3.085127 4.442101 -0.87814
H 0.011158 6.004875 3.7e-05
--
0 1
N -1.161035 0.281726 3.349773
C -2.399615 -0.250866 3.336631
N -3.566425 0.394056 3.302481
C -3.388962 1.725606 3.280568
C -2.171635 2.416432 3.290353
C -1.00018 1.624456 3.327354
N -2.368621 3.78704 3.260675
C -3.674188 3.922965 3.233568
N -4.346384 2.714891 3.243829
H -2.42695 -1.341622 3.356796
N 0.241035 2.139697 3.340899
H 0.346581 3.142631 3.323914
H 1.060138 1.524457 3.368029
H -4.206501 4.868516 3.205646
H -5.346111 2.569285 3.227794
 units angstrom
 no_reorient
 symmetry c1}
set  {scf_type DF
 basis aug-cc-pvtz
 freeze_core True
 guess SAD}
energy('sapt2+(3)dmp2')
--------------------------------------------------------------------------

  Memory set to  74.506 GiB by Python driver.

Scratch directory: /tmp/
   => Loading Basis Set <=

    Name: AUG-CC-PVTZ
    Role: ORBITAL
    Keyword: BASIS
    atoms 1, 3, 16, 18, 22, 24, 26  entry N          line   285 file /opt/anaconda/envs/psi4v1.5/share/psi4/basis/aug-cc-pvtz.gbs 
    atoms 2, 4-6, 11, 17, 19-21, 23 entry C          line   239 file /opt/anaconda/envs/psi4v1.5/share/psi4/basis/aug-cc-pvtz.gbs 
    atoms 7, 9, 12-15, 25, 27-30    entry H          line    40 file /opt/anaconda/envs/psi4v1.5/share/psi4/basis/aug-cc-pvtz.gbs 
    atoms 8, 10                     entry O          line   331 file /opt/anaconda/envs/psi4v1.5/share/psi4/basis/aug-cc-pvtz.gbs 

   => Loading Basis Set <=

    Name: AUG-CC-PVTZ
    Role: ORBITAL
    Keyword: BASIS
    atoms 1, 3, 16, 18, 22, 24, 26  entry N          line   285 file /opt/anaconda/envs/psi4v1.5/share/psi4/basis/aug-cc-pvtz.gbs 
    atoms 2, 4-6, 11, 17, 19-21, 23 entry C          line   239 file /opt/anaconda/envs/psi4v1.5/share/psi4/basis/aug-cc-pvtz.gbs 
    atoms 7, 9, 12-15, 25, 27-30    entry H          line    40 file /opt/anaconda/envs/psi4v1.5/share/psi4/basis/aug-cc-pvtz.gbs 
    atoms 8, 10                     entry O          line   331 file /opt/anaconda/envs/psi4v1.5/share/psi4/basis/aug-cc-pvtz.gbs 


  //>>>>>>>>>>>>>>>>>>>>>>>>>>>>>>>>>>>//
  //              Dimer HF             //
  //<<<<<<<<<<<<<<<<<<<<<<<<<<<<<<<<<<<//


*** tstart() called on node165.bme.utexas.edu
*** at Mon Jan 22 15:22:55 2024

   => Loading Basis Set <=

    Name: AUG-CC-PVTZ
    Role: ORBITAL
    Keyword: BASIS
    atoms 1, 3, 16, 18, 22, 24, 26  entry N          line   285 file /opt/anaconda/envs/psi4v1.5/share/psi4/basis/aug-cc-pvtz.gbs 
    atoms 2, 4-6, 11, 17, 19-21, 23 entry C          line   239 file /opt/anaconda/envs/psi4v1.5/share/psi4/basis/aug-cc-pvtz.gbs 
    atoms 7, 9, 12-15, 25, 27-30    entry H          line    40 file /opt/anaconda/envs/psi4v1.5/share/psi4/basis/aug-cc-pvtz.gbs 
    atoms 8, 10                     entry O          line   331 file /opt/anaconda/envs/psi4v1.5/share/psi4/basis/aug-cc-pvtz.gbs 


         ---------------------------------------------------------
                                   SCF
               by Justin Turney, Rob Parrish, Andy Simmonett
                          and Daniel G. A. Smith
                              RHF Reference
                        8 Threads,  76293 MiB Core
         ---------------------------------------------------------

  ==> Geometry <==

    Molecular point group: c1
    Full point group: C1

    Geometry (in Angstrom), charge = 0, multiplicity = 1:

       Center              X                  Y                   Z               Mass       
    ------------   -----------------  -----------------  -----------------  -----------------
         N           -0.079496552317     1.734898081818    -1.705314105950    14.003074004430
         C           -0.283867552317     0.357666081818    -1.705575105950    12.000000000000
         N            0.882747447683    -0.377477918182    -1.705677105950    14.003074004430
         C            2.177939447683     0.122770081818    -1.705571105950    12.000000000000
         C            2.309648447683     1.581641081818    -1.705270105950    12.000000000000
         C            1.169911447683     2.316028081818    -1.705206105950    12.000000000000
         H           -0.917507552317     2.299473081818    -1.705434105950     1.007825032230
         O           -1.403173552317    -0.137153918182    -1.705711105950    15.994914619570
         H            0.761106447683    -1.427533918182    -1.705884105950     1.007825032230
         O            3.147155447683    -0.646184918182    -1.705704105950    15.994914619570
         C            3.685883447683     2.180534081818    -1.704672105950    12.000000000000
         H            3.633451447683     3.277879081818    -1.711315105950     1.007825032230
         H            4.250022447683     1.853193081818    -0.818614105950     1.007825032230
         H            4.255038447683     1.842381081818    -2.583346105950     1.007825032230
         H            1.181069447683     3.405155081818    -1.705169105950     1.007825032230
         N            0.008876447683    -2.317993918182     1.644566894050    14.003074004430
         C           -1.229703552317    -2.850585918182     1.631424894050    12.000000000000
         N           -2.396513552317    -2.205663918182     1.597274894050    14.003074004430
         C           -2.219050552317    -0.874113918182     1.575361894050    12.000000000000
         C           -1.001723552317    -0.183287918182     1.585146894050    12.000000000000
         C            0.169731447683    -0.975263918182     1.622147894050    12.000000000000
         N           -1.198709552317     1.187320081818     1.555468894050    14.003074004430
         C           -2.504276552317     1.323245081818     1.528361894050    12.000000000000
         N           -3.176472552317     0.115171081818     1.538622894050    14.003074004430
         H           -1.257038552317    -3.941341918182     1.651589894050     1.007825032230
         N            1.410946447683    -0.460022918182     1.635692894050    14.003074004430
         H            1.516492447683     0.542911081818     1.618707894050     1.007825032230
         H            2.230049447683    -1.075262918182     1.662822894050     1.007825032230
         H           -3.036589552317     2.268796081818     1.500439894050     1.007825032230
         H           -4.176199552317    -0.030434918182     1.522587894050     1.007825032230

  Running in c1 symmetry.

  Rotational constants: A =      0.02267  B =      0.00933  C =      0.00818 [cm^-1]
  Rotational constants: A =    679.68473  B =    279.77679  C =    245.34530 [MHz]
  Nuclear repulsion = 1444.802397981033664

  Charge       = 0
  Multiplicity = 1
  Electrons    = 136
  Nalpha       = 68
  Nbeta        = 68

  ==> Algorithm <==

  SCF Algorithm Type is DF.
  DIIS enabled.
  MOM disabled.
  Fractional occupation disabled.
  Guess Type is SAD.
  Energy threshold   = 1.00e-08
  Density threshold  = 1.00e-08
  Integral threshold = 1.00e-12

  ==> Primary Basis <==

  Basis Set: AUG-CC-PVTZ
    Blend: AUG-CC-PVTZ
    Number of shells: 365
    Number of basis functions: 1127
    Number of Cartesian functions: 1320
    Spherical Harmonics?: true
    Max angular momentum: 3

   => Loading Basis Set <=

    Name: (AUG-CC-PVTZ AUX)
    Role: JKFIT
    Keyword: DF_BASIS_SCF
    atoms 1, 3, 16, 18, 22, 24, 26  entry N          line   224 file /opt/anaconda/envs/psi4v1.5/share/psi4/basis/aug-cc-pvtz-jkfit.gbs 
    atoms 2, 4-6, 11, 17, 19-21, 23 entry C          line   162 file /opt/anaconda/envs/psi4v1.5/share/psi4/basis/aug-cc-pvtz-jkfit.gbs 
    atoms 7, 9, 12-15, 25, 27-30    entry H          line    70 file /opt/anaconda/envs/psi4v1.5/share/psi4/basis/aug-cc-pvtz-jkfit.gbs 
    atoms 8, 10                     entry O          line   286 file /opt/anaconda/envs/psi4v1.5/share/psi4/basis/aug-cc-pvtz-jkfit.gbs 

  ==> Integral Setup <==

  ==> DiskDFJK: Density-Fitted J/K Matrices <==

    J tasked:                  Yes
    K tasked:                  Yes
    wK tasked:                  No
    OpenMP threads:              8
    Integrals threads:           8
    Memory [MiB]:            57220
    Algorithm:                Core
    Integral Cache:           SAVE
    Schwarz Cutoff:          1E-12
    Fitting Condition:       1E-10

   => Auxiliary Basis Set <=

  Basis Set: (AUG-CC-PVTZ AUX)
    Blend: AUG-CC-PVTZ-JKFIT
    Number of shells: 724
    Number of basis functions: 2482
    Number of Cartesian functions: 3094
    Spherical Harmonics?: true
    Max angular momentum: 4

  Minimum eigenvalue in the overlap matrix is 7.8168467256E-07.
  Reciprocal condition number of the overlap matrix is 3.6268296852E-08.
    Using symmetric orthogonalization.

  ==> Pre-Iterations <==

  SCF Guess: Superposition of Atomic Densities via on-the-fly atomic UHF (no occupation information).

   -------------------------
    Irrep   Nso     Nmo    
   -------------------------
     A       1127    1127 
   -------------------------
    Total    1127    1127
   -------------------------

  ==> Iterations <==

                           Total Energy        Delta E     RMS |[F,P]|

   @DF-RHF iter SAD:  -915.49127170340319   -9.15491e+02   0.00000e+00 
   @DF-RHF iter   1:  -915.82007356861607   -3.28802e-01   9.16089e-04 DIIS
   @DF-RHF iter   2:  -916.20870684849353   -3.88633e-01   5.37525e-04 DIIS
   @DF-RHF iter   3:  -916.33881854824836   -1.30112e-01   1.16989e-04 DIIS
   @DF-RHF iter   4:  -916.34777815238806   -8.95960e-03   4.92881e-05 DIIS
   @DF-RHF iter   5:  -916.34954007224144   -1.76192e-03   1.00732e-05 DIIS
   @DF-RHF iter   6:  -916.34970601586372   -1.65944e-04   5.42011e-06 DIIS
   @DF-RHF iter   7:  -916.34975087507985   -4.48592e-05   2.31492e-06 DIIS
   @DF-RHF iter   8:  -916.34976031558085   -9.44050e-06   9.16608e-07 DIIS
   @DF-RHF iter   9:  -916.34976171880578   -1.40322e-06   3.54003e-07 DIIS
   @DF-RHF iter  10:  -916.34976196959803   -2.50792e-07   1.43874e-07 DIIS
   @DF-RHF iter  11:  -916.34976201722225   -4.76242e-08   6.70016e-08 DIIS
   @DF-RHF iter  12:  -916.34976202697396   -9.75172e-09   2.58574e-08 DIIS
   @DF-RHF iter  13:  -916.34976202863027   -1.65630e-09   1.13342e-08 DIIS
   @DF-RHF iter  14:  -916.34976202890482   -2.74554e-10   4.55621e-09 DIIS
  Energy and wave function converged.


  ==> Post-Iterations <==

    Orbital Energies [Eh]
    ---------------------

    Doubly Occupied:                                                      

       1A    -20.537266     2A    -20.535123     3A    -15.634292  
       4A    -15.628865     5A    -15.628781     6A    -15.587391  
       7A    -15.570425     8A    -15.552903     9A    -15.545978  
      10A    -11.412130    11A    -11.375605    12A    -11.338097  
      13A    -11.328216    14A    -11.325598    15A    -11.315546  
      16A    -11.308239    17A    -11.258949    18A    -11.250671  
      19A    -11.240893    20A     -1.422823    21A     -1.383327  
      22A     -1.361746    23A     -1.298092    24A     -1.293466  
      25A     -1.244635    26A     -1.236574    27A     -1.184543  
      28A     -1.144552    29A     -1.101562    30A     -1.030069  
      31A     -0.963766    32A     -0.908776    33A     -0.891838  
      34A     -0.888636    35A     -0.871242    36A     -0.840888  
      37A     -0.776194    38A     -0.764990    39A     -0.761592  
      40A     -0.737583    41A     -0.701407    42A     -0.695949  
      43A     -0.674085    44A     -0.668847    45A     -0.664086  
      46A     -0.635234    47A     -0.633434    48A     -0.628908  
      49A     -0.610566    50A     -0.608670    51A     -0.589999  
      52A     -0.586005    53A     -0.564912    54A     -0.560486  
      55A     -0.548592    56A     -0.548442    57A     -0.507182  
      58A     -0.495541    59A     -0.492894    60A     -0.472691  
      61A     -0.446896    62A     -0.442836    63A     -0.431080  
      64A     -0.421540    65A     -0.403803    66A     -0.366951  
      67A     -0.349061    68A     -0.306411  

    Virtual:                                                              

      69A      0.014314    70A      0.024437    71A      0.031354  
      72A      0.037055    73A      0.040249    74A      0.043835  
      75A      0.048137    76A      0.054856    77A      0.058324  
      78A      0.062210    79A      0.064581    80A      0.072806  
      81A      0.077932    82A      0.083606    83A      0.087374  
      84A      0.090067    85A      0.094108    86A      0.096943  
      87A      0.100730    88A      0.101211    89A      0.107884  
      90A      0.109511    91A      0.110810    92A      0.113040  
      93A      0.114840    94A      0.119710    95A      0.123966  
      96A      0.125199    97A      0.130780    98A      0.131156  
      99A      0.132664   100A      0.136294   101A      0.138830  
     102A      0.142135   103A      0.142665   104A      0.145730  
     105A      0.148083   106A      0.154164   107A      0.157533  
     108A      0.157713   109A      0.161645   110A      0.164591  
     111A      0.165732   112A      0.171307   113A      0.173655  
     114A      0.177230   115A      0.185329   116A      0.189229  
     117A      0.193670   118A      0.199214   119A      0.200099  
     120A      0.200742   121A      0.205693   122A      0.211304  
     123A      0.214947   124A      0.220016   125A      0.222918  
     126A      0.226258   127A      0.228548   128A      0.230851  
     129A      0.233163   130A      0.235101   131A      0.237938  
     132A      0.240330   133A      0.245544   134A      0.248267  
     135A      0.250949   136A      0.253911   137A      0.257860  
     138A      0.261038   139A      0.262444   140A      0.263572  
     141A      0.266566   142A      0.272320   143A      0.276368  
     144A      0.278585   145A      0.283744   146A      0.285105  
     147A      0.286601   148A      0.292473   149A      0.298674  
     150A      0.300612   151A      0.304523   152A      0.307226  
     153A      0.312063   154A      0.316118   155A      0.320226  
     156A      0.325011   157A      0.326885   158A      0.331229  
     159A      0.333537   160A      0.337066   161A      0.337369  
     162A      0.340716   163A      0.344038   164A      0.349654  
     165A      0.350293   166A      0.355988   167A      0.358308  
     168A      0.361911   169A      0.363707   170A      0.368375  
     171A      0.370519   172A      0.371276   173A      0.378680  
     174A      0.379145   175A      0.383473   176A      0.384835  
     177A      0.390808   178A      0.395972   179A      0.397932  
     180A      0.399042   181A      0.402037   182A      0.402279  
     183A      0.405425   184A      0.412746   185A      0.413875  
     186A      0.417286   187A      0.424770   188A      0.427300  
     189A      0.429883   190A      0.431511   191A      0.435044  
     192A      0.439608   193A      0.442165   194A      0.443909  
     195A      0.446751   196A      0.448466   197A      0.451774  
     198A      0.456363   199A      0.460228   200A      0.463240  
     201A      0.464185   202A      0.467091   203A      0.470000  
     204A      0.473559   205A      0.475817   206A      0.479145  
     207A      0.481023   208A      0.484799   209A      0.487225  
     210A      0.491092   211A      0.493889   212A      0.498763  
     213A      0.503073   214A      0.503282   215A      0.504692  
     216A      0.510244   217A      0.515945   218A      0.517057  
     219A      0.518845   220A      0.521520   221A      0.524913  
     222A      0.530544   223A      0.532144   224A      0.537672  
     225A      0.541494   226A      0.543653   227A      0.544162  
     228A      0.548599   229A      0.553626   230A      0.553701  
     231A      0.558585   232A      0.563331   233A      0.565000  
     234A      0.568361   235A      0.571795   236A      0.576411  
     237A      0.580249   238A      0.584221   239A      0.585708  
     240A      0.588564   241A      0.591531   242A      0.596992  
     243A      0.600143   244A      0.601958   245A      0.605736  
     246A      0.609861   247A      0.613348   248A      0.618064  
     249A      0.623814   250A      0.626476   251A      0.633270  
     252A      0.640126   253A      0.641434   254A      0.645394  
     255A      0.653457   256A      0.658358   257A      0.660416  
     258A      0.661150   259A      0.666724   260A      0.672798  
     261A      0.673622   262A      0.678667   263A      0.684233  
     264A      0.688475   265A      0.690992   266A      0.696906  
     267A      0.699479   268A      0.702200   269A      0.708599  
     270A      0.715970   271A      0.719938   272A      0.722289  
     273A      0.728839   274A      0.734284   275A      0.738430  
     276A      0.746345   277A      0.748953   278A      0.753616  
     279A      0.756749   280A      0.760376   281A      0.762511  
     282A      0.767229   283A      0.771224   284A      0.776768  
     285A      0.778035   286A      0.785886   287A      0.786353  
     288A      0.790576   289A      0.792234   290A      0.798828  
     291A      0.800873   292A      0.810050   293A      0.815405  
     294A      0.817142   295A      0.819785   296A      0.827122  
     297A      0.831761   298A      0.833196   299A      0.835131  
     300A      0.840443   301A      0.842375   302A      0.852132  
     303A      0.856855   304A      0.858128   305A      0.859414  
     306A      0.861835   307A      0.866063   308A      0.869586  
     309A      0.871456   310A      0.876787   311A      0.881556  
     312A      0.884602   313A      0.889370   314A      0.895733  
     315A      0.899950   316A      0.904740   317A      0.909089  
     318A      0.915359   319A      0.918409   320A      0.918943  
     321A      0.924457   322A      0.926152   323A      0.934752  
     324A      0.936818   325A      0.940613   326A      0.941916  
     327A      0.947638   328A      0.950337   329A      0.952679  
     330A      0.960467   331A      0.963871   332A      0.968023  
     333A      0.970050   334A      0.976533   335A      0.979467  
     336A      0.982324   337A      0.985408   338A      0.989912  
     339A      0.993754   340A      0.995942   341A      0.999320  
     342A      1.002300   343A      1.008283   344A      1.015040  
     345A      1.016127   346A      1.022486   347A      1.023803  
     348A      1.026688   349A      1.028960   350A      1.033635  
     351A      1.036371   352A      1.039200   353A      1.043178  
     354A      1.045575   355A      1.049243   356A      1.053725  
     357A      1.059999   358A      1.070235   359A      1.071305  
     360A      1.073022   361A      1.081016   362A      1.083190  
     363A      1.085268   364A      1.087792   365A      1.091507  
     366A      1.094681   367A      1.099193   368A      1.104793  
     369A      1.107012   370A      1.109347   371A      1.117287  
     372A      1.121623   373A      1.124854   374A      1.131053  
     375A      1.132255   376A      1.137871   377A      1.141948  
     378A      1.143091   379A      1.144100   380A      1.151467  
     381A      1.153363   382A      1.158919   383A      1.163039  
     384A      1.166938   385A      1.172298   386A      1.174909  
     387A      1.176064   388A      1.182464   389A      1.189404  
     390A      1.192918   391A      1.195408   392A      1.199806  
     393A      1.202620   394A      1.207708   395A      1.208921  
     396A      1.215171   397A      1.220232   398A      1.221247  
     399A      1.226889   400A      1.233161   401A      1.236501  
     402A      1.241012   403A      1.245509   404A      1.248299  
     405A      1.252211   406A      1.255077   407A      1.262792  
     408A      1.269541   409A      1.273627   410A      1.273843  
     411A      1.280845   412A      1.282154   413A      1.288044  
     414A      1.296151   415A      1.303131   416A      1.308779  
     417A      1.314693   418A      1.321397   419A      1.322186  
     420A      1.325637   421A      1.327697   422A      1.333014  
     423A      1.337700   424A      1.346279   425A      1.348040  
     426A      1.356027   427A      1.359841   428A      1.367160  
     429A      1.371339   430A      1.378903   431A      1.379288  
     432A      1.387116   433A      1.390599   434A      1.395695  
     435A      1.398675   436A      1.400548   437A      1.402618  
     438A      1.411919   439A      1.414361   440A      1.418601  
     441A      1.423836   442A      1.428838   443A      1.435920  
     444A      1.441829   445A      1.447409   446A      1.451354  
     447A      1.453721   448A      1.457658   449A      1.463373  
     450A      1.468765   451A      1.471862   452A      1.476269  
     453A      1.477136   454A      1.479972   455A      1.486278  
     456A      1.497007   457A      1.502800   458A      1.505706  
     459A      1.511191   460A      1.515692   461A      1.522535  
     462A      1.527394   463A      1.530668   464A      1.535425  
     465A      1.540502   466A      1.545968   467A      1.548564  
     468A      1.556776   469A      1.560331   470A      1.561638  
     471A      1.568299   472A      1.574007   473A      1.580225  
     474A      1.582664   475A      1.587252   476A      1.593429  
     477A      1.600992   478A      1.603202   479A      1.608800  
     480A      1.615392   481A      1.617867   482A      1.622662  
     483A      1.624659   484A      1.633783   485A      1.635434  
     486A      1.644387   487A      1.647284   488A      1.652317  
     489A      1.657483   490A      1.660132   491A      1.667460  
     492A      1.672155   493A      1.676843   494A      1.679506  
     495A      1.684164   496A      1.687910   497A      1.690981  
     498A      1.706634   499A      1.707166   500A      1.708652  
     501A      1.714670   502A      1.724162   503A      1.727404  
     504A      1.733116   505A      1.734641   506A      1.736477  
     507A      1.739892   508A      1.749771   509A      1.753146  
     510A      1.757869   511A      1.769722   512A      1.774011  
     513A      1.774376   514A      1.778568   515A      1.785995  
     516A      1.788959   517A      1.796898   518A      1.801018  
     519A      1.808485   520A      1.810900   521A      1.816124  
     522A      1.823007   523A      1.833271   524A      1.839751  
     525A      1.842492   526A      1.844305   527A      1.850882  
     528A      1.851678   529A      1.862097   530A      1.868372  
     531A      1.879534   532A      1.882476   533A      1.887019  
     534A      1.900655   535A      1.904570   536A      1.912136  
     537A      1.915473   538A      1.922858   539A      1.932155  
     540A      1.937815   541A      1.944103   542A      1.945162  
     543A      1.951385   544A      1.958743   545A      1.976262  
     546A      1.977253   547A      1.981762   548A      1.991640  
     549A      2.002476   550A      2.003382   551A      2.011992  
     552A      2.022355   553A      2.029650   554A      2.035053  
     555A      2.044415   556A      2.055602   557A      2.062994  
     558A      2.064583   559A      2.065944   560A      2.073339  
     561A      2.080693   562A      2.082525   563A      2.094564  
     564A      2.096485   565A      2.106378   566A      2.113189  
     567A      2.121620   568A      2.125920   569A      2.132000  
     570A      2.141985   571A      2.142618   572A      2.154173  
     573A      2.158876   574A      2.161700   575A      2.168412  
     576A      2.175561   577A      2.180118   578A      2.184775  
     579A      2.190002   580A      2.196485   581A      2.200677  
     582A      2.210634   583A      2.212476   584A      2.216630  
     585A      2.219550   586A      2.223921   587A      2.238669  
     588A      2.244215   589A      2.246880   590A      2.252725  
     591A      2.259149   592A      2.259658   593A      2.263644  
     594A      2.275573   595A      2.277541   596A      2.283555  
     597A      2.295625   598A      2.298955   599A      2.306777  
     600A      2.309256   601A      2.312711   602A      2.322748  
     603A      2.329772   604A      2.330773   605A      2.339204  
     606A      2.347029   607A      2.352439   608A      2.359237  
     609A      2.368896   610A      2.375235   611A      2.379022  
     612A      2.384508   613A      2.394767   614A      2.399224  
     615A      2.410799   616A      2.413492   617A      2.418545  
     618A      2.422778   619A      2.429977   620A      2.442748  
     621A      2.445123   622A      2.453577   623A      2.458091  
     624A      2.461945   625A      2.469854   626A      2.483529  
     627A      2.490384   628A      2.493476   629A      2.496118  
     630A      2.499120   631A      2.511879   632A      2.519592  
     633A      2.535940   634A      2.540680   635A      2.550966  
     636A      2.557635   637A      2.559395   638A      2.571763  
     639A      2.577139   640A      2.578783   641A      2.587809  
     642A      2.593219   643A      2.605381   644A      2.613125  
     645A      2.618442   646A      2.630358   647A      2.635218  
     648A      2.643519   649A      2.650118   650A      2.658279  
     651A      2.660487   652A      2.667276   653A      2.675837  
     654A      2.681735   655A      2.685411   656A      2.702220  
     657A      2.705460   658A      2.720748   659A      2.727258  
     660A      2.730006   661A      2.738286   662A      2.741164  
     663A      2.748688   664A      2.753011   665A      2.754978  
     666A      2.764314   667A      2.770474   668A      2.779310  
     669A      2.792573   670A      2.798829   671A      2.804189  
     672A      2.810901   673A      2.817777   674A      2.832094  
     675A      2.837847   676A      2.848740   677A      2.863303  
     678A      2.866329   679A      2.882031   680A      2.891685  
     681A      2.894750   682A      2.905817   683A      2.917478  
     684A      2.927696   685A      2.944911   686A      2.945952  
     687A      2.952041   688A      2.958863   689A      2.966156  
     690A      2.998129   691A      3.005863   692A      3.013624  
     693A      3.031306   694A      3.043618   695A      3.050708  
     696A      3.060247   697A      3.069936   698A      3.087761  
     699A      3.106057   700A      3.109163   701A      3.130711  
     702A      3.147029   703A      3.164680   704A      3.170475  
     705A      3.182471   706A      3.203446   707A      3.211005  
     708A      3.238940   709A      3.245552   710A      3.251628  
     711A      3.270073   712A      3.273038   713A      3.278056  
     714A      3.291841   715A      3.313734   716A      3.321443  
     717A      3.346850   718A      3.357889   719A      3.364503  
     720A      3.372940   721A      3.383909   722A      3.396058  
     723A      3.410483   724A      3.420060   725A      3.426376  
     726A      3.442313   727A      3.455357   728A      3.457148  
     729A      3.471120   730A      3.474424   731A      3.479584  
     732A      3.484930   733A      3.495259   734A      3.503997  
     735A      3.514365   736A      3.527703   737A      3.535935  
     738A      3.551287   739A      3.558739   740A      3.567682  
     741A      3.575074   742A      3.582254   743A      3.595710  
     744A      3.599990   745A      3.607213   746A      3.620350  
     747A      3.631183   748A      3.640570   749A      3.646628  
     750A      3.653702   751A      3.655889   752A      3.665494  
     753A      3.668436   754A      3.678279   755A      3.681500  
     756A      3.689967   757A      3.698890   758A      3.706523  
     759A      3.717497   760A      3.719939   761A      3.729529  
     762A      3.736246   763A      3.737859   764A      3.753921  
     765A      3.759451   766A      3.764439   767A      3.773697  
     768A      3.780627   769A      3.786939   770A      3.796513  
     771A      3.801887   772A      3.808538   773A      3.820485  
     774A      3.829646   775A      3.831093   776A      3.839993  
     777A      3.855257   778A      3.857594   779A      3.866108  
     780A      3.871118   781A      3.874242   782A      3.882565  
     783A      3.888749   784A      3.892058   785A      3.903561  
     786A      3.912399   787A      3.923592   788A      3.929184  
     789A      3.937012   790A      3.939207   791A      3.957735  
     792A      3.967597   793A      3.969688   794A      3.971493  
     795A      3.977047   796A      3.983984   797A      3.994253  
     798A      3.996382   799A      4.003990   800A      4.006190  
     801A      4.023313   802A      4.030741   803A      4.037512  
     804A      4.045197   805A      4.054722   806A      4.064800  
     807A      4.070821   808A      4.073666   809A      4.086177  
     810A      4.093190   811A      4.108414   812A      4.118907  
     813A      4.122737   814A      4.131728   815A      4.135540  
     816A      4.144172   817A      4.146600   818A      4.149714  
     819A      4.161990   820A      4.168998   821A      4.176843  
     822A      4.179432   823A      4.195897   824A      4.198430  
     825A      4.201727   826A      4.209735   827A      4.221158  
     828A      4.232713   829A      4.239280   830A      4.244809  
     831A      4.251654   832A      4.257385   833A      4.260220  
     834A      4.265587   835A      4.270562   836A      4.281850  
     837A      4.287496   838A      4.296218   839A      4.301039  
     840A      4.306141   841A      4.311302   842A      4.318130  
     843A      4.328122   844A      4.338938   845A      4.339832  
     846A      4.347493   847A      4.351325   848A      4.362617  
     849A      4.366399   850A      4.368504   851A      4.381384  
     852A      4.390569   853A      4.397501   854A      4.402894  
     855A      4.410329   856A      4.420186   857A      4.430896  
     858A      4.439271   859A      4.445775   860A      4.450526  
     861A      4.453574   862A      4.473057   863A      4.484236  
     864A      4.500680   865A      4.504695   866A      4.511687  
     867A      4.521662   868A      4.525008   869A      4.533257  
     870A      4.543353   871A      4.551073   872A      4.557555  
     873A      4.570246   874A      4.572749   875A      4.592873  
     876A      4.601711   877A      4.604417   878A      4.617504  
     879A      4.632546   880A      4.637480   881A      4.654320  
     882A      4.654941   883A      4.662741   884A      4.667483  
     885A      4.677679   886A      4.678838   887A      4.698373  
     888A      4.698675   889A      4.716466   890A      4.721620  
     891A      4.731974   892A      4.741948   893A      4.746754  
     894A      4.759510   895A      4.766037   896A      4.776666  
     897A      4.784845   898A      4.790739   899A      4.800651  
     900A      4.803714   901A      4.808015   902A      4.818545  
     903A      4.824277   904A      4.833603   905A      4.845070  
     906A      4.850545   907A      4.867267   908A      4.879389  
     909A      4.887069   910A      4.896793   911A      4.923550  
     912A      4.924763   913A      4.934223   914A      4.939880  
     915A      4.949125   916A      4.957223   917A      4.969595  
     918A      4.978375   919A      4.996857   920A      5.011161  
     921A      5.016745   922A      5.028279   923A      5.040971  
     924A      5.061801   925A      5.065299   926A      5.071056  
     927A      5.081076   928A      5.091156   929A      5.106834  
     930A      5.120184   931A      5.127298   932A      5.131906  
     933A      5.147299   934A      5.163222   935A      5.169329  
     936A      5.175817   937A      5.177468   938A      5.183222  
     939A      5.197152   940A      5.203522   941A      5.213929  
     942A      5.226792   943A      5.236911   944A      5.270494  
     945A      5.272379   946A      5.293500   947A      5.300255  
     948A      5.303316   949A      5.313580   950A      5.332326  
     951A      5.349495   952A      5.362960   953A      5.370364  
     954A      5.393630   955A      5.395244   956A      5.407304  
     957A      5.410881   958A      5.420857   959A      5.440760  
     960A      5.449917   961A      5.461304   962A      5.466741  
     963A      5.478471   964A      5.491396   965A      5.497971  
     966A      5.511028   967A      5.521174   968A      5.542837  
     969A      5.552277   970A      5.558105   971A      5.560131  
     972A      5.573382   973A      5.578010   974A      5.590335  
     975A      5.599710   976A      5.604782   977A      5.607118  
     978A      5.610098   979A      5.621073   980A      5.626468  
     981A      5.643461   982A      5.650293   983A      5.657943  
     984A      5.670355   985A      5.684129   986A      5.697482  
     987A      5.711773   988A      5.715244   989A      5.718231  
     990A      5.722100   991A      5.733750   992A      5.740996  
     993A      5.746487   994A      5.755699   995A      5.774231  
     996A      5.779606   997A      5.789469   998A      5.796531  
     999A      5.818607  1000A      5.823619  1001A      5.830242  
    1002A      5.838838  1003A      5.854163  1004A      5.873568  
    1005A      5.895612  1006A      5.905206  1007A      5.914771  
    1008A      5.928617  1009A      5.943969  1010A      5.955213  
    1011A      5.960797  1012A      5.965445  1013A      5.979084  
    1014A      5.993607  1015A      6.014849  1016A      6.017099  
    1017A      6.021729  1018A      6.030915  1019A      6.034179  
    1020A      6.052717  1021A      6.097613  1022A      6.104872  
    1023A      6.118613  1024A      6.123711  1025A      6.139052  
    1026A      6.144347  1027A      6.147845  1028A      6.162563  
    1029A      6.169380  1030A      6.184078  1031A      6.188586  
    1032A      6.194408  1033A      6.205828  1034A      6.233125  
    1035A      6.250536  1036A      6.264820  1037A      6.282383  
    1038A      6.287215  1039A      6.308816  1040A      6.321438  
    1041A      6.364939  1042A      6.403488  1043A      6.409561  
    1044A      6.480602  1045A      6.498916  1046A      6.513214  
    1047A      6.541813  1048A      6.562899  1049A      6.599693  
    1050A      6.615704  1051A      6.641728  1052A      6.669977  
    1053A      6.689739  1054A      6.719699  1055A      6.729241  
    1056A      6.741116  1057A      6.758932  1058A      6.766996  
    1059A      6.773682  1060A      6.787600  1061A      6.798801  
    1062A      6.809855  1063A      6.815128  1064A      6.823023  
    1065A      6.826430  1066A      6.840407  1067A      6.864789  
    1068A      6.889445  1069A      6.914649  1070A      6.916355  
    1071A      6.962108  1072A      7.004778  1073A      7.012258  
    1074A      7.033216  1075A      7.046774  1076A      7.076922  
    1077A      7.078328  1078A      7.100686  1079A      7.106878  
    1080A      7.145569  1081A      7.200432  1082A      7.231208  
    1083A      7.256341  1084A      7.298610  1085A      7.308382  
    1086A      7.373127  1087A      7.411702  1088A      7.459444  
    1089A      7.468842  1090A      7.472183  1091A      7.483477  
    1092A      7.502163  1093A      7.531223  1094A      7.606927  
    1095A      7.651739  1096A      7.674903  1097A      7.729744  
    1098A      7.798266  1099A      7.849425  1100A      7.869319  
    1101A      7.880039  1102A      7.885390  1103A      7.900230  
    1104A      7.985320  1105A      8.027205  1106A      8.043731  
    1107A      8.075209  1108A      8.104178  1109A     15.906294  
    1110A     16.104429  1111A     16.244448  1112A     16.329202  
    1113A     16.365529  1114A     16.515451  1115A     16.833545  
    1116A     17.973661  1117A     18.122758  1118A     18.347560  
    1119A     19.124190  1120A     19.179750  1121A     19.425123  
    1122A     19.562055  1123A     20.231738  1124A     20.396776  
    1125A     20.795097  1126A     21.110739  1127A     21.366225  

    Final Occupation by Irrep:
              A 
    DOCC [    68 ]

  @DF-RHF Final Energy:  -916.34976202890482

   => Energetics <=

    Nuclear Repulsion Energy =           1444.8023979810336641
    One-Electron Energy =               -4121.2275757567922483
    Two-Electron Energy =                1760.0754157468538779
    Total Energy =                       -916.3497620289047063

Computation Completed


Properties will be evaluated at   0.000000,   0.000000,   0.000000 [a0]

Properties computed using the SCF density matrix

  Nuclear Dipole Moment: [e a0]
     X:     7.9337      Y:     8.4545      Z:    -2.1611

  Electronic Dipole Moment: [e a0]
     X:    -8.5744      Y:    -5.8164      Z:     2.1220

  Dipole Moment: [e a0]
     X:    -0.6406      Y:     2.6381      Z:    -0.0391     Total:     2.7150

  Dipole Moment: [D]
     X:    -1.6283      Y:     6.7053      Z:    -0.0993     Total:     6.9009


*** tstop() called on node165.bme.utexas.edu at Mon Jan 22 15:24:51 2024
Module time:
	user time   =     771.72 seconds =      12.86 minutes
	system time =      27.83 seconds =       0.46 minutes
	total time  =        116 seconds =       1.93 minutes
Total time:
	user time   =     771.72 seconds =      12.86 minutes
	system time =      27.83 seconds =       0.46 minutes
	total time  =        116 seconds =       1.93 minutes

*** tstart() called on node165.bme.utexas.edu
*** at Mon Jan 22 15:24:51 2024


  //>>>>>>>>>>>>>>>>>>>>>>>>>>>>>>>>>>>//
  //               DFMP2               //
  //<<<<<<<<<<<<<<<<<<<<<<<<<<<<<<<<<<<//

   => Loading Basis Set <=

    Name: (AUG-CC-PVTZ AUX)
    Role: RIFIT
    Keyword: DF_BASIS_MP2
    atoms 1, 3, 16, 18, 22, 24, 26  entry N          line   206 file /opt/anaconda/envs/psi4v1.5/share/psi4/basis/aug-cc-pvtz-ri.gbs 
    atoms 2, 4-6, 11, 17, 19-21, 23 entry C          line   148 file /opt/anaconda/envs/psi4v1.5/share/psi4/basis/aug-cc-pvtz-ri.gbs 
    atoms 7, 9, 12-15, 25, 27-30    entry H          line    30 file /opt/anaconda/envs/psi4v1.5/share/psi4/basis/aug-cc-pvtz-ri.gbs 
    atoms 8, 10                     entry O          line   264 file /opt/anaconda/envs/psi4v1.5/share/psi4/basis/aug-cc-pvtz-ri.gbs 

	 --------------------------------------------------------
	                          DF-MP2                         
	      2nd-Order Density-Fitted Moller-Plesset Theory     
	              RMP2 Wavefunction,   8 Threads             
	                                                         
	        Rob Parrish, Justin Turney, Andy Simmonett,      
	           Ed Hohenstein, and C. David Sherrill          
	 --------------------------------------------------------

   => Auxiliary Basis Set <=

  Basis Set: (AUG-CC-PVTZ AUX)
    Blend: AUG-CC-PVTZ-RI
    Number of shells: 686
    Number of basis functions: 2520
    Number of Cartesian functions: 3189
    Spherical Harmonics?: true
    Max angular momentum: 4

	 --------------------------------------------------------
	                 NBF =  1127, NAUX =  2520
	 --------------------------------------------------------
	   CLASS    FOCC     OCC    AOCC    AVIR     VIR    FVIR
	   PAIRS      19      68      49    1059    1059       0
	 --------------------------------------------------------

	 Will save fitting metric to file 97.

	-----------------------------------------------------------
	 ==================> DF-MP2 Energies <==================== 
	-----------------------------------------------------------
	 Reference Energy          =    -916.3497620289048200 [Eh]
	 Singles Energy            =      -0.0000000000000000 [Eh]
	 Same-Spin Energy          =      -0.9186195966814175 [Eh]
	 Opposite-Spin Energy      =      -2.5821559069072659 [Eh]
	 Correlation Energy        =      -3.5007755035886836 [Eh]
	 Total Energy              =    -919.8505375324934903 [Eh]
	-----------------------------------------------------------
	 ================> DF-SCS-MP2 Energies <================== 
	-----------------------------------------------------------
	 SCS Same-Spin Scale       =       0.3333333333333333 [-]
	 SCS Opposite-Spin Scale   =       1.2000000000000000 [-]
	 SCS Same-Spin Energy      =      -0.3062065322271391 [Eh]
	 SCS Opposite-Spin Energy  =      -3.0985870882887192 [Eh]
	 SCS Correlation Energy    =      -3.4047936205158584 [Eh]
	 SCS Total Energy          =    -919.7545556494206949 [Eh]
	-----------------------------------------------------------


*** tstop() called on node165.bme.utexas.edu at Mon Jan 22 15:25:41 2024
Module time:
	user time   =     239.62 seconds =       3.99 minutes
	system time =      18.29 seconds =       0.30 minutes
	total time  =         50 seconds =       0.83 minutes
Total time:
	user time   =    1011.34 seconds =      16.86 minutes
	system time =      46.12 seconds =       0.77 minutes
	total time  =        166 seconds =       2.77 minutes

  //>>>>>>>>>>>>>>>>>>>>>>>>>>>>>>>>>>>//
  //            Monomer A HF           //
  //<<<<<<<<<<<<<<<<<<<<<<<<<<<<<<<<<<<//


*** tstart() called on node165.bme.utexas.edu
*** at Mon Jan 22 15:25:41 2024

   => Loading Basis Set <=

    Name: AUG-CC-PVTZ
    Role: ORBITAL
    Keyword: BASIS
    atoms 1, 3, 16, 18, 22, 24, 26  entry N          line   285 file /opt/anaconda/envs/psi4v1.5/share/psi4/basis/aug-cc-pvtz.gbs 
    atoms 2, 4-6, 11, 17, 19-21, 23 entry C          line   239 file /opt/anaconda/envs/psi4v1.5/share/psi4/basis/aug-cc-pvtz.gbs 
    atoms 7, 9, 12-15, 25, 27-30    entry H          line    40 file /opt/anaconda/envs/psi4v1.5/share/psi4/basis/aug-cc-pvtz.gbs 
    atoms 8, 10                     entry O          line   331 file /opt/anaconda/envs/psi4v1.5/share/psi4/basis/aug-cc-pvtz.gbs 


         ---------------------------------------------------------
                                   SCF
               by Justin Turney, Rob Parrish, Andy Simmonett
                          and Daniel G. A. Smith
                              RHF Reference
                        8 Threads,  76293 MiB Core
         ---------------------------------------------------------

  ==> Geometry <==

    Molecular point group: c1
    Full point group: C1

    Geometry (in Angstrom), charge = 0, multiplicity = 1:

       Center              X                  Y                   Z               Mass       
    ------------   -----------------  -----------------  -----------------  -----------------
         N           -0.079496552317     1.734898081818    -1.705314105950    14.003074004430
         C           -0.283867552317     0.357666081818    -1.705575105950    12.000000000000
         N            0.882747447683    -0.377477918182    -1.705677105950    14.003074004430
         C            2.177939447683     0.122770081818    -1.705571105950    12.000000000000
         C            2.309648447683     1.581641081818    -1.705270105950    12.000000000000
         C            1.169911447683     2.316028081818    -1.705206105950    12.000000000000
         H           -0.917507552317     2.299473081818    -1.705434105950     1.007825032230
         O           -1.403173552317    -0.137153918182    -1.705711105950    15.994914619570
         H            0.761106447683    -1.427533918182    -1.705884105950     1.007825032230
         O            3.147155447683    -0.646184918182    -1.705704105950    15.994914619570
         C            3.685883447683     2.180534081818    -1.704672105950    12.000000000000
         H            3.633451447683     3.277879081818    -1.711315105950     1.007825032230
         H            4.250022447683     1.853193081818    -0.818614105950     1.007825032230
         H            4.255038447683     1.842381081818    -2.583346105950     1.007825032230
         H            1.181069447683     3.405155081818    -1.705169105950     1.007825032230
      Gh(N)           0.008876447683    -2.317993918182     1.644566894050    14.003074004430
      Gh(C)          -1.229703552317    -2.850585918182     1.631424894050    12.000000000000
      Gh(N)          -2.396513552317    -2.205663918182     1.597274894050    14.003074004430
      Gh(C)          -2.219050552317    -0.874113918182     1.575361894050    12.000000000000
      Gh(C)          -1.001723552317    -0.183287918182     1.585146894050    12.000000000000
      Gh(C)           0.169731447683    -0.975263918182     1.622147894050    12.000000000000
      Gh(N)          -1.198709552317     1.187320081818     1.555468894050    14.003074004430
      Gh(C)          -2.504276552317     1.323245081818     1.528361894050    12.000000000000
      Gh(N)          -3.176472552317     0.115171081818     1.538622894050    14.003074004430
      Gh(H)          -1.257038552317    -3.941341918182     1.651589894050     1.007825032230
      Gh(N)           1.410946447683    -0.460022918182     1.635692894050    14.003074004430
      Gh(H)           1.516492447683     0.542911081818     1.618707894050     1.007825032230
      Gh(H)           2.230049447683    -1.075262918182     1.662822894050     1.007825032230
      Gh(H)          -3.036589552317     2.268796081818     1.500439894050     1.007825032230
      Gh(H)          -4.176199552317    -0.030434918182     1.522587894050     1.007825032230

  Running in c1 symmetry.

  Rotational constants: A =      0.02267  B =      0.00933  C =      0.00818 [cm^-1]
  Rotational constants: A =    679.68473  B =    279.77679  C =    245.34530 [MHz]
  Nuclear repulsion =  438.216117793050785

  Charge       = 0
  Multiplicity = 1
  Electrons    = 66
  Nalpha       = 33
  Nbeta        = 33

  ==> Algorithm <==

  SCF Algorithm Type is DF.
  DIIS enabled.
  MOM disabled.
  Fractional occupation disabled.
  Guess Type is SAD.
  Energy threshold   = 1.00e-08
  Density threshold  = 1.00e-08
  Integral threshold = 1.00e-12

  ==> Primary Basis <==

  Basis Set: AUG-CC-PVTZ
    Blend: AUG-CC-PVTZ
    Number of shells: 365
    Number of basis functions: 1127
    Number of Cartesian functions: 1320
    Spherical Harmonics?: true
    Max angular momentum: 3

   => Loading Basis Set <=

    Name: (AUG-CC-PVTZ AUX)
    Role: JKFIT
    Keyword: DF_BASIS_SCF
    atoms 1, 3, 16, 18, 22, 24, 26  entry N          line   224 file /opt/anaconda/envs/psi4v1.5/share/psi4/basis/aug-cc-pvtz-jkfit.gbs 
    atoms 2, 4-6, 11, 17, 19-21, 23 entry C          line   162 file /opt/anaconda/envs/psi4v1.5/share/psi4/basis/aug-cc-pvtz-jkfit.gbs 
    atoms 7, 9, 12-15, 25, 27-30    entry H          line    70 file /opt/anaconda/envs/psi4v1.5/share/psi4/basis/aug-cc-pvtz-jkfit.gbs 
    atoms 8, 10                     entry O          line   286 file /opt/anaconda/envs/psi4v1.5/share/psi4/basis/aug-cc-pvtz-jkfit.gbs 

  ==> Integral Setup <==

  ==> DiskDFJK: Density-Fitted J/K Matrices <==

    J tasked:                  Yes
    K tasked:                  Yes
    wK tasked:                  No
    OpenMP threads:              8
    Integrals threads:           8
    Memory [MiB]:            57220
    Algorithm:                Core
    Integral Cache:           LOAD
    Schwarz Cutoff:          1E-12
    Fitting Condition:       1E-10

   => Auxiliary Basis Set <=

  Basis Set: (AUG-CC-PVTZ AUX)
    Blend: AUG-CC-PVTZ-JKFIT
    Number of shells: 724
    Number of basis functions: 2482
    Number of Cartesian functions: 3094
    Spherical Harmonics?: true
    Max angular momentum: 4

  Minimum eigenvalue in the overlap matrix is 7.8168467256E-07.
  Reciprocal condition number of the overlap matrix is 3.6268296852E-08.
    Using symmetric orthogonalization.

  ==> Pre-Iterations <==

  SCF Guess: Superposition of Atomic Densities via on-the-fly atomic UHF (no occupation information).

   -------------------------
    Irrep   Nso     Nmo    
   -------------------------
     A       1127    1127 
   -------------------------
    Total    1127    1127
   -------------------------

  ==> Iterations <==

                           Total Energy        Delta E     RMS |[F,P]|

   @DF-RHF iter SAD:  -450.91023331300045   -4.50910e+02   0.00000e+00 
   @DF-RHF iter   1:  -451.37279009176586   -4.62557e-01   7.04312e-04 DIIS
   @DF-RHF iter   2:  -451.57026823891937   -1.97478e-01   4.64772e-04 DIIS
   @DF-RHF iter   3:  -451.66305795641563   -9.27897e-02   8.90235e-05 DIIS
   @DF-RHF iter   4:  -451.66850493152191   -5.44698e-03   3.57223e-05 DIIS
   @DF-RHF iter   5:  -451.66960071974154   -1.09579e-03   7.21440e-06 DIIS
   @DF-RHF iter   6:  -451.66971305861551   -1.12339e-04   3.71986e-06 DIIS
   @DF-RHF iter   7:  -451.66973624544681   -2.31868e-05   1.59106e-06 DIIS
   @DF-RHF iter   8:  -451.66974044527097   -4.19982e-06   6.04623e-07 DIIS
   @DF-RHF iter   9:  -451.66974091707976   -4.71809e-07   2.01049e-07 DIIS
   @DF-RHF iter  10:  -451.66974099601958   -7.89398e-08   7.92238e-08 DIIS
   @DF-RHF iter  11:  -451.66974100509157   -9.07198e-09   3.03450e-08 DIIS
   @DF-RHF iter  12:  -451.66974100651709   -1.42552e-09   9.61516e-09 DIIS
  Energy and wave function converged.


  ==> Post-Iterations <==

    Orbital Energies [Eh]
    ---------------------

    Doubly Occupied:                                                      

       1A    -20.543419     2A    -20.538798     3A    -15.640235  
       4A    -15.635325     5A    -11.417907     6A    -11.379390  
       7A    -11.331006     8A    -11.262656     9A    -11.241721  
      10A     -1.428318    11A     -1.387113    12A     -1.303463  
      13A     -1.242280    14A     -1.104650    15A     -0.966466  
      16A     -0.913010    17A     -0.893807    18A     -0.769669  
      19A     -0.765954    20A     -0.706288    21A     -0.673008  
      22A     -0.666233    23A     -0.637532    24A     -0.611910  
      25A     -0.588079    26A     -0.567319    27A     -0.556736  
      28A     -0.550010    29A     -0.511372    30A     -0.477897  
      31A     -0.446608    32A     -0.433707    33A     -0.352552  

    Virtual:                                                              

      34A      0.013170    35A      0.024566    36A      0.027810  
      37A      0.033104    38A      0.038417    39A      0.042468  
      40A      0.050121    41A      0.052391    42A      0.053880  
      43A      0.058612    44A      0.063730    45A      0.068170  
      46A      0.072678    47A      0.078642    48A      0.080404  
      49A      0.081961    50A      0.086307    51A      0.089372  
      52A      0.093170    53A      0.097170    54A      0.099673  
      55A      0.101010    56A      0.107810    57A      0.110066  
      58A      0.114211    59A      0.116327    60A      0.119097  
      61A      0.122346    62A      0.124960    63A      0.129583  
      64A      0.131190    65A      0.135176    66A      0.138388  
      67A      0.140429    68A      0.143793    69A      0.147903  
      70A      0.151091    71A      0.152337    72A      0.154728  
      73A      0.158997    74A      0.161719    75A      0.162958  
      76A      0.167555    77A      0.170373    78A      0.172910  
      79A      0.173714    80A      0.179564    81A      0.183396  
      82A      0.189937    83A      0.191402    84A      0.199626  
      85A      0.202289    86A      0.203945    87A      0.206337  
      88A      0.210786    89A      0.213494    90A      0.215241  
      91A      0.218023    92A      0.223078    93A      0.228105  
      94A      0.230647    95A      0.231333    96A      0.234569  
      97A      0.238442    98A      0.240128    99A      0.245193  
     100A      0.248485   101A      0.250699   102A      0.255645  
     103A      0.257771   104A      0.260324   105A      0.264113  
     106A      0.267190   107A      0.269251   108A      0.271606  
     109A      0.279779   110A      0.283521   111A      0.284462  
     112A      0.287035   113A      0.291403   114A      0.296206  
     115A      0.297389   116A      0.298795   117A      0.302832  
     118A      0.311836   119A      0.318035   120A      0.321547  
     121A      0.322475   122A      0.326502   123A      0.328912  
     124A      0.332362   125A      0.334902   126A      0.337724  
     127A      0.340342   128A      0.342544   129A      0.348965  
     130A      0.351363   131A      0.356810   132A      0.357560  
     133A      0.363118   134A      0.365582   135A      0.372336  
     136A      0.374424   137A      0.381985   138A      0.385107  
     139A      0.386919   140A      0.389120   141A      0.393936  
     142A      0.396333   143A      0.400553   144A      0.401847  
     145A      0.402864   146A      0.405177   147A      0.410635  
     148A      0.411240   149A      0.413945   150A      0.416841  
     151A      0.420937   152A      0.425106   153A      0.430944  
     154A      0.431347   155A      0.435159   156A      0.437123  
     157A      0.441759   158A      0.445523   159A      0.448629  
     160A      0.452388   161A      0.453776   162A      0.456667  
     163A      0.461199   164A      0.462412   165A      0.464367  
     166A      0.466711   167A      0.471287   168A      0.471562  
     169A      0.475206   170A      0.478105   171A      0.479708  
     172A      0.483306   173A      0.485900   174A      0.488379  
     175A      0.492905   176A      0.494933   177A      0.498143  
     178A      0.504014   179A      0.506519   180A      0.509957  
     181A      0.512084   182A      0.517241   183A      0.518062  
     184A      0.520804   185A      0.526362   186A      0.528263  
     187A      0.533707   188A      0.538630   189A      0.544141  
     190A      0.546456   191A      0.548111   192A      0.552043  
     193A      0.554248   194A      0.557721   195A      0.561438  
     196A      0.565456   197A      0.567401   198A      0.573041  
     199A      0.574917   200A      0.576468   201A      0.584434  
     202A      0.585499   203A      0.588525   204A      0.592617  
     205A      0.598277   206A      0.603403   207A      0.605839  
     208A      0.610651   209A      0.617870   210A      0.623091  
     211A      0.625657   212A      0.628145   213A      0.634345  
     214A      0.639710   215A      0.645159   216A      0.648403  
     217A      0.652502   218A      0.658653   219A      0.662294  
     220A      0.666149   221A      0.674626   222A      0.674933  
     223A      0.683547   224A      0.686049   225A      0.691339  
     226A      0.701674   227A      0.703112   228A      0.706627  
     229A      0.713130   230A      0.718794   231A      0.722274  
     232A      0.725340   233A      0.731861   234A      0.733144  
     235A      0.741689   236A      0.746190   237A      0.749568  
     238A      0.756874   239A      0.763154   240A      0.764769  
     241A      0.770826   242A      0.776592   243A      0.779031  
     244A      0.780430   245A      0.786254   246A      0.793238  
     247A      0.794694   248A      0.797556   249A      0.799037  
     250A      0.804112   251A      0.809759   252A      0.815254  
     253A      0.818115   254A      0.821525   255A      0.823854  
     256A      0.829541   257A      0.831574   258A      0.836374  
     259A      0.839718   260A      0.841468   261A      0.844414  
     262A      0.851423   263A      0.855587   264A      0.859085  
     265A      0.864275   266A      0.866242   267A      0.869164  
     268A      0.870331   269A      0.878097   270A      0.880510  
     271A      0.887815   272A      0.891736   273A      0.893007  
     274A      0.900537   275A      0.903833   276A      0.905555  
     277A      0.906662   278A      0.910836   279A      0.914639  
     280A      0.916859   281A      0.919466   282A      0.925575  
     283A      0.927534   284A      0.932539   285A      0.935448  
     286A      0.941386   287A      0.943894   288A      0.946562  
     289A      0.950735   290A      0.954807   291A      0.958752  
     292A      0.960031   293A      0.963969   294A      0.965572  
     295A      0.973198   296A      0.976552   297A      0.979833  
     298A      0.984151   299A      0.989327   300A      0.992191  
     301A      0.994342   302A      0.995524   303A      1.000332  
     304A      1.005145   305A      1.013230   306A      1.016764  
     307A      1.017659   308A      1.024595   309A      1.027272  
     310A      1.032268   311A      1.035420   312A      1.037567  
     313A      1.043827   314A      1.047252   315A      1.055274  
     316A      1.060322   317A      1.063680   318A      1.069207  
     319A      1.072500   320A      1.075384   321A      1.080390  
     322A      1.086586   323A      1.087637   324A      1.092605  
     325A      1.096699   326A      1.102364   327A      1.107688  
     328A      1.111281   329A      1.119589   330A      1.121687  
     331A      1.124002   332A      1.132220   333A      1.133402  
     334A      1.138128   335A      1.141810   336A      1.143211  
     337A      1.150668   338A      1.157862   339A      1.159218  
     340A      1.163346   341A      1.164537   342A      1.167528  
     343A      1.169876   344A      1.176553   345A      1.179698  
     346A      1.187401   347A      1.192182   348A      1.194486  
     349A      1.198142   350A      1.205298   351A      1.210454  
     352A      1.215563   353A      1.217459   354A      1.220519  
     355A      1.224643   356A      1.231547   357A      1.233805  
     358A      1.237559   359A      1.242107   360A      1.246092  
     361A      1.249800   362A      1.257651   363A      1.260050  
     364A      1.266354   365A      1.272364   366A      1.277208  
     367A      1.282366   368A      1.284953   369A      1.287300  
     370A      1.294843   371A      1.295744   372A      1.301319  
     373A      1.308252   374A      1.310053   375A      1.317182  
     376A      1.320220   377A      1.327106   378A      1.330224  
     379A      1.336925   380A      1.342406   381A      1.347006  
     382A      1.351231   383A      1.365197   384A      1.370270  
     385A      1.374042   386A      1.376219   387A      1.380208  
     388A      1.381556   389A      1.386590   390A      1.393591  
     391A      1.401336   392A      1.406695   393A      1.410512  
     394A      1.418566   395A      1.420510   396A      1.427906  
     397A      1.431124   398A      1.439779   399A      1.445815  
     400A      1.447155   401A      1.452779   402A      1.456280  
     403A      1.465749   404A      1.471126   405A      1.472241  
     406A      1.476240   407A      1.488481   408A      1.489181  
     409A      1.492557   410A      1.498390   411A      1.503509  
     412A      1.508207   413A      1.518197   414A      1.526016  
     415A      1.531419   416A      1.537032   417A      1.541232  
     418A      1.541792   419A      1.550330   420A      1.556555  
     421A      1.562698   422A      1.568538   423A      1.571977  
     424A      1.579585   425A      1.581835   426A      1.587230  
     427A      1.596180   428A      1.598432   429A      1.604247  
     430A      1.605906   431A      1.615965   432A      1.620873  
     433A      1.623302   434A      1.626889   435A      1.628646  
     436A      1.632354   437A      1.641497   438A      1.648001  
     439A      1.654908   440A      1.655868   441A      1.660887  
     442A      1.661426   443A      1.666624   444A      1.673344  
     445A      1.676053   446A      1.682226   447A      1.685283  
     448A      1.691685   449A      1.697865   450A      1.699518  
     451A      1.707137   452A      1.713077   453A      1.716635  
     454A      1.720011   455A      1.723168   456A      1.725721  
     457A      1.732133   458A      1.739146   459A      1.743089  
     460A      1.744853   461A      1.751173   462A      1.758367  
     463A      1.763164   464A      1.764434   465A      1.766495  
     466A      1.773118   467A      1.777513   468A      1.780137  
     469A      1.789110   470A      1.797772   471A      1.801425  
     472A      1.807535   473A      1.811905   474A      1.815540  
     475A      1.817154   476A      1.825338   477A      1.834148  
     478A      1.837715   479A      1.840801   480A      1.848065  
     481A      1.858802   482A      1.861353   483A      1.864231  
     484A      1.865756   485A      1.879154   486A      1.882993  
     487A      1.885928   488A      1.890401   489A      1.893606  
     490A      1.900777   491A      1.910614   492A      1.913631  
     493A      1.919140   494A      1.928652   495A      1.935074  
     496A      1.936316   497A      1.937436   498A      1.948102  
     499A      1.951898   500A      1.957072   501A      1.965719  
     502A      1.973175   503A      1.984243   504A      1.988052  
     505A      1.994547   506A      1.999111   507A      2.003842  
     508A      2.010966   509A      2.016786   510A      2.020610  
     511A      2.026280   512A      2.033727   513A      2.038687  
     514A      2.053197   515A      2.058481   516A      2.063239  
     517A      2.069420   518A      2.072136   519A      2.074961  
     520A      2.083555   521A      2.091421   522A      2.100435  
     523A      2.101731   524A      2.110037   525A      2.112142  
     526A      2.115849   527A      2.126069   528A      2.130427  
     529A      2.136772   530A      2.143097   531A      2.147622  
     532A      2.155366   533A      2.157890   534A      2.170159  
     535A      2.179194   536A      2.181515   537A      2.188556  
     538A      2.192967   539A      2.202727   540A      2.204491  
     541A      2.209608   542A      2.219275   543A      2.222790  
     544A      2.226096   545A      2.231466   546A      2.236912  
     547A      2.242411   548A      2.243636   549A      2.248215  
     550A      2.266490   551A      2.271187   552A      2.273471  
     553A      2.280694   554A      2.287982   555A      2.294789  
     556A      2.303038   557A      2.309515   558A      2.312091  
     559A      2.320033   560A      2.329187   561A      2.335184  
     562A      2.339156   563A      2.347148   564A      2.348654  
     565A      2.357453   566A      2.361884   567A      2.364982  
     568A      2.373261   569A      2.379257   570A      2.382097  
     571A      2.392918   572A      2.408294   573A      2.415936  
     574A      2.418517   575A      2.431852   576A      2.436207  
     577A      2.448687   578A      2.451201   579A      2.463604  
     580A      2.467929   581A      2.475598   582A      2.481049  
     583A      2.493097   584A      2.503490   585A      2.510323  
     586A      2.516200   587A      2.528254   588A      2.532124  
     589A      2.541540   590A      2.545241   591A      2.551128  
     592A      2.566892   593A      2.572053   594A      2.578101  
     595A      2.580977   596A      2.589427   597A      2.592050  
     598A      2.595252   599A      2.607694   600A      2.610546  
     601A      2.622843   602A      2.625002   603A      2.632306  
     604A      2.642405   605A      2.645980   606A      2.656755  
     607A      2.671827   608A      2.675408   609A      2.684095  
     610A      2.686476   611A      2.699646   612A      2.706616  
     613A      2.717308   614A      2.724014   615A      2.726882  
     616A      2.730359   617A      2.735383   618A      2.739089  
     619A      2.751089   620A      2.756276   621A      2.765250  
     622A      2.769880   623A      2.780533   624A      2.789559  
     625A      2.798681   626A      2.803100   627A      2.809569  
     628A      2.816786   629A      2.822014   630A      2.830269  
     631A      2.843137   632A      2.861358   633A      2.872778  
     634A      2.876620   635A      2.881821   636A      2.894887  
     637A      2.900824   638A      2.913601   639A      2.916237  
     640A      2.927029   641A      2.941890   642A      2.949501  
     643A      2.958690   644A      2.962712   645A      2.967080  
     646A      2.975777   647A      2.996846   648A      3.000127  
     649A      3.011445   650A      3.015109   651A      3.020300  
     652A      3.033732   653A      3.040839   654A      3.044259  
     655A      3.053910   656A      3.059426   657A      3.072223  
     658A      3.075026   659A      3.085744   660A      3.094576  
     661A      3.101257   662A      3.109521   663A      3.114400  
     664A      3.126825   665A      3.132895   666A      3.150095  
     667A      3.154327   668A      3.162440   669A      3.166000  
     670A      3.192231   671A      3.199113   672A      3.220644  
     673A      3.232006   674A      3.248883   675A      3.250927  
     676A      3.262444   677A      3.266376   678A      3.278358  
     679A      3.285162   680A      3.314070   681A      3.319581  
     682A      3.326202   683A      3.335049   684A      3.349195  
     685A      3.360502   686A      3.363744   687A      3.380118  
     688A      3.389110   689A      3.393196   690A      3.400893  
     691A      3.403163   692A      3.417302   693A      3.424500  
     694A      3.437008   695A      3.448144   696A      3.461021  
     697A      3.464799   698A      3.489819   699A      3.493314  
     700A      3.509247   701A      3.514973   702A      3.544587  
     703A      3.547755   704A      3.565252   705A      3.581370  
     706A      3.596631   707A      3.617957   708A      3.625594  
     709A      3.633452   710A      3.644891   711A      3.651947  
     712A      3.667887   713A      3.676236   714A      3.682878  
     715A      3.693746   716A      3.699817   717A      3.712349  
     718A      3.730466   719A      3.732073   720A      3.739099  
     721A      3.756631   722A      3.764360   723A      3.768863  
     724A      3.790316   725A      3.793718   726A      3.804644  
     727A      3.819883   728A      3.826721   729A      3.850443  
     730A      3.858451   731A      3.869274   732A      3.882937  
     733A      3.889409   734A      3.894117   735A      3.901344  
     736A      3.911478   737A      3.926960   738A      3.928048  
     739A      3.942185   740A      3.952010   741A      3.967682  
     742A      3.980980   743A      3.982340   744A      3.992061  
     745A      3.993592   746A      4.007750   747A      4.017955  
     748A      4.030014   749A      4.051288   750A      4.074051  
     751A      4.080639   752A      4.088403   753A      4.118830  
     754A      4.122305   755A      4.134733   756A      4.141663  
     757A      4.144850   758A      4.157521   759A      4.165878  
     760A      4.166692   761A      4.183341   762A      4.190322  
     763A      4.197793   764A      4.204968   765A      4.212015  
     766A      4.224210   767A      4.237777   768A      4.243220  
     769A      4.250989   770A      4.259171   771A      4.265454  
     772A      4.267820   773A      4.282517   774A      4.291193  
     775A      4.298363   776A      4.302118   777A      4.304815  
     778A      4.319129   779A      4.330830   780A      4.338674  
     781A      4.345387   782A      4.355917   783A      4.365550  
     784A      4.373091   785A      4.394357   786A      4.411456  
     787A      4.413546   788A      4.420790   789A      4.430257  
     790A      4.446834   791A      4.454212   792A      4.467741  
     793A      4.481656   794A      4.493663   795A      4.500802  
     796A      4.511509   797A      4.514275   798A      4.526001  
     799A      4.534519   800A      4.547841   801A      4.555339  
     802A      4.574704   803A      4.576620   804A      4.591197  
     805A      4.597568   806A      4.608061   807A      4.618865  
     808A      4.621734   809A      4.629279   810A      4.641452  
     811A      4.650436   812A      4.659052   813A      4.665703  
     814A      4.675765   815A      4.685253   816A      4.693712  
     817A      4.696162   818A      4.711302   819A      4.718547  
     820A      4.726570   821A      4.734157   822A      4.751732  
     823A      4.753735   824A      4.764819   825A      4.766641  
     826A      4.772551   827A      4.776060   828A      4.784281  
     829A      4.788689   830A      4.793244   831A      4.807270  
     832A      4.813572   833A      4.814713   834A      4.836844  
     835A      4.845159   836A      4.854508   837A      4.861180  
     838A      4.876569   839A      4.893831   840A      4.906757  
     841A      4.915462   842A      4.922210   843A      4.925377  
     844A      4.932916   845A      4.939964   846A      4.953935  
     847A      4.958528   848A      4.967889   849A      4.975652  
     850A      4.983951   851A      4.990532   852A      5.003735  
     853A      5.009915   854A      5.016234   855A      5.027291  
     856A      5.037068   857A      5.049086   858A      5.053228  
     859A      5.057280   860A      5.068356   861A      5.075270  
     862A      5.084076   863A      5.087457   864A      5.090949  
     865A      5.104190   866A      5.111419   867A      5.115547  
     868A      5.129777   869A      5.130649   870A      5.146033  
     871A      5.156572   872A      5.159078   873A      5.174561  
     874A      5.179143   875A      5.197689   876A      5.203992  
     877A      5.207447   878A      5.210556   879A      5.233651  
     880A      5.252799   881A      5.257179   882A      5.276390  
     883A      5.281066   884A      5.294899   885A      5.298207  
     886A      5.320299   887A      5.326400   888A      5.338515  
     889A      5.341989   890A      5.353538   891A      5.365131  
     892A      5.370947   893A      5.392956   894A      5.411892  
     895A      5.433984   896A      5.440078   897A      5.446835  
     898A      5.455018   899A      5.458708   900A      5.464111  
     901A      5.485757   902A      5.493406   903A      5.497098  
     904A      5.516391   905A      5.522819   906A      5.525977  
     907A      5.547795   908A      5.558906   909A      5.572642  
     910A      5.577867   911A      5.589405   912A      5.601947  
     913A      5.602316   914A      5.612381   915A      5.618714  
     916A      5.630844   917A      5.651479   918A      5.666483  
     919A      5.672003   920A      5.697470   921A      5.700199  
     922A      5.706945   923A      5.739476   924A      5.754640  
     925A      5.764847   926A      5.771222   927A      5.781121  
     928A      5.802478   929A      5.810523   930A      5.820851  
     931A      5.835744   932A      5.846043   933A      5.878000  
     934A      5.889345   935A      5.898383   936A      5.922661  
     937A      5.948444   938A      5.956458   939A      5.961750  
     940A      5.985105   941A      6.010597   942A      6.014662  
     943A      6.027270   944A      6.059853   945A      6.082445  
     946A      6.089964   947A      6.094687   948A      6.104780  
     949A      6.115539   950A      6.120821   951A      6.128380  
     952A      6.135006   953A      6.139410   954A      6.145462  
     955A      6.177050   956A      6.188830   957A      6.235588  
     958A      6.245674   959A      6.265811   960A      6.281359  
     961A      6.292668   962A      6.308398   963A      6.321369  
     964A      6.342853   965A      6.374879   966A      6.401365  
     967A      6.443476   968A      6.474109   969A      6.481521  
     970A      6.489501   971A      6.503776   972A      6.512865  
     973A      6.528522   974A      6.546553   975A      6.552618  
     976A      6.561800   977A      6.593283   978A      6.603993  
     979A      6.617058   980A      6.644496   981A      6.672113  
     982A      6.688002   983A      6.713307   984A      6.722992  
     985A      6.726286   986A      6.742551   987A      6.753491  
     988A      6.766563   989A      6.768388   990A      6.790556  
     991A      6.795696   992A      6.800749   993A      6.813632  
     994A      6.818897   995A      6.826902   996A      6.845828  
     997A      6.848651   998A      6.864936   999A      6.880236  
    1000A      6.885004  1001A      6.894565  1002A      6.909145  
    1003A      6.924268  1004A      6.932188  1005A      6.954537  
    1006A      6.957367  1007A      6.986471  1008A      6.993515  
    1009A      7.008609  1010A      7.027721  1011A      7.048781  
    1012A      7.079506  1013A      7.100159  1014A      7.103131  
    1015A      7.160052  1016A      7.195466  1017A      7.225265  
    1018A      7.239848  1019A      7.265214  1020A      7.299919  
    1021A      7.328246  1022A      7.360149  1023A      7.368379  
    1024A      7.403701  1025A      7.448458  1026A      7.458911  
    1027A      7.460930  1028A      7.467947  1029A      7.481002  
    1030A      7.485625  1031A      7.511972  1032A      7.515504  
    1033A      7.542018  1034A      7.581506  1035A      7.607784  
    1036A      7.622371  1037A      7.646367  1038A      7.669658  
    1039A      7.681217  1040A      7.689455  1041A      7.717190  
    1042A      7.721948  1043A      7.732135  1044A      7.747983  
    1045A      7.760257  1046A      7.794406  1047A      7.819557  
    1048A      7.833810  1049A      7.851153  1050A      7.854863  
    1051A      7.874262  1052A      7.879910  1053A      7.888795  
    1054A      7.905809  1055A      7.949316  1056A      7.960236  
    1057A      7.988136  1058A      8.008195  1059A      8.022460  
    1060A      8.038260  1061A      8.046826  1062A      8.072835  
    1063A      8.084983  1064A      8.102353  1065A      8.140500  
    1066A      8.169548  1067A      8.274173  1068A      8.341590  
    1069A      8.347148  1070A      8.419568  1071A      8.464108  
    1072A      8.494931  1073A      8.560977  1074A      8.721198  
    1075A      8.806330  1076A      8.857617  1077A      8.963178  
    1078A      9.012649  1079A      9.081258  1080A      9.248506  
    1081A      9.309089  1082A      9.495351  1083A      9.550189  
    1084A      9.592902  1085A      9.646940  1086A      9.746080  
    1087A      9.769991  1088A      9.804997  1089A     10.186161  
    1090A     10.277854  1091A     10.421473  1092A     10.779146  
    1093A     11.040443  1094A     11.090886  1095A     11.226647  
    1096A     11.292975  1097A     11.577273  1098A     11.674839  
    1099A     11.805233  1100A     11.924391  1101A     12.050770  
    1102A     12.119132  1103A     12.257415  1104A     12.359896  
    1105A     12.477007  1106A     12.568603  1107A     12.899497  
    1108A     13.114065  1109A     15.918734  1110A     16.227045  
    1111A     16.395134  1112A     16.833320  1113A     18.129617  
    1114A     19.169656  1115A     20.390195  1116A     20.789895  
    1117A     21.102999  1118A     51.672689  1119A     52.031857  
    1120A     52.847012  1121A     54.423506  1122A     57.295881  
    1123A     60.231332  1124A     62.236650  1125A     62.395996  
    1126A     62.692562  1127A     64.783836  

    Final Occupation by Irrep:
              A 
    DOCC [    33 ]

  @DF-RHF Final Energy:  -451.66974100651709

   => Energetics <=

    Nuclear Repulsion Energy =            438.2161177930507847
    One-Electron Energy =               -1484.6828299957733179
    Two-Electron Energy =                 594.7969711962056181
    Total Energy =                       -451.6697410065170288

Computation Completed


Properties will be evaluated at   0.000000,   0.000000,   0.000000 [a0]

Properties computed using the SCF density matrix

  Nuclear Dipole Moment: [e a0]
     X:   164.5855      Y:   101.7383      Z:  -212.6996

  Electronic Dipole Moment: [e a0]
     X:  -164.6896      Y:   -99.8518      Z:   212.6995

  Dipole Moment: [e a0]
     X:    -0.1041      Y:     1.8865      Z:    -0.0001     Total:     1.8894

  Dipole Moment: [D]
     X:    -0.2645      Y:     4.7951      Z:    -0.0002     Total:     4.8024


*** tstop() called on node165.bme.utexas.edu at Mon Jan 22 15:26:54 2024
Module time:
	user time   =     514.82 seconds =       8.58 minutes
	system time =       9.48 seconds =       0.16 minutes
	total time  =         73 seconds =       1.22 minutes
Total time:
	user time   =    1526.17 seconds =      25.44 minutes
	system time =      55.60 seconds =       0.93 minutes
	total time  =        239 seconds =       3.98 minutes

*** tstart() called on node165.bme.utexas.edu
*** at Mon Jan 22 15:26:54 2024


  //>>>>>>>>>>>>>>>>>>>>>>>>>>>>>>>>>>>//
  //               DFMP2               //
  //<<<<<<<<<<<<<<<<<<<<<<<<<<<<<<<<<<<//

   => Loading Basis Set <=

    Name: (AUG-CC-PVTZ AUX)
    Role: RIFIT
    Keyword: DF_BASIS_MP2
    atoms 1, 3, 16, 18, 22, 24, 26  entry N          line   206 file /opt/anaconda/envs/psi4v1.5/share/psi4/basis/aug-cc-pvtz-ri.gbs 
    atoms 2, 4-6, 11, 17, 19-21, 23 entry C          line   148 file /opt/anaconda/envs/psi4v1.5/share/psi4/basis/aug-cc-pvtz-ri.gbs 
    atoms 7, 9, 12-15, 25, 27-30    entry H          line    30 file /opt/anaconda/envs/psi4v1.5/share/psi4/basis/aug-cc-pvtz-ri.gbs 
    atoms 8, 10                     entry O          line   264 file /opt/anaconda/envs/psi4v1.5/share/psi4/basis/aug-cc-pvtz-ri.gbs 

	 --------------------------------------------------------
	                          DF-MP2                         
	      2nd-Order Density-Fitted Moller-Plesset Theory     
	              RMP2 Wavefunction,   8 Threads             
	                                                         
	        Rob Parrish, Justin Turney, Andy Simmonett,      
	           Ed Hohenstein, and C. David Sherrill          
	 --------------------------------------------------------

   => Auxiliary Basis Set <=

  Basis Set: (AUG-CC-PVTZ AUX)
    Blend: AUG-CC-PVTZ-RI
    Number of shells: 686
    Number of basis functions: 2520
    Number of Cartesian functions: 3189
    Spherical Harmonics?: true
    Max angular momentum: 4

	 --------------------------------------------------------
	                 NBF =  1127, NAUX =  2520
	 --------------------------------------------------------
	   CLASS    FOCC     OCC    AOCC    AVIR     VIR    FVIR
	   PAIRS       9      33      24    1094    1094       0
	 --------------------------------------------------------

	 Will attempt to load fitting metric from file 97.

	-----------------------------------------------------------
	 ==================> DF-MP2 Energies <==================== 
	-----------------------------------------------------------
	 Reference Energy          =    -451.6697410065170857 [Eh]
	 Singles Energy            =      -0.0000000000000000 [Eh]
	 Same-Spin Energy          =      -0.4340247594729054 [Eh]
	 Opposite-Spin Energy      =      -1.2518927281230798 [Eh]
	 Correlation Energy        =      -1.6859174875959853 [Eh]
	 Total Energy              =    -453.3556584941130723 [Eh]
	-----------------------------------------------------------
	 ================> DF-SCS-MP2 Energies <================== 
	-----------------------------------------------------------
	 SCS Same-Spin Scale       =       0.3333333333333333 [-]
	 SCS Opposite-Spin Scale   =       1.2000000000000000 [-]
	 SCS Same-Spin Energy      =      -0.1446749198243018 [Eh]
	 SCS Opposite-Spin Energy  =      -1.5022712737476958 [Eh]
	 SCS Correlation Energy    =      -1.6469461935719976 [Eh]
	 SCS Total Energy          =    -453.3166872000890635 [Eh]
	-----------------------------------------------------------


*** tstop() called on node165.bme.utexas.edu at Mon Jan 22 15:27:25 2024
Module time:
	user time   =     140.58 seconds =       2.34 minutes
	system time =       8.40 seconds =       0.14 minutes
	total time  =         31 seconds =       0.52 minutes
Total time:
	user time   =    1666.76 seconds =      27.78 minutes
	system time =      64.00 seconds =       1.07 minutes
	total time  =        270 seconds =       4.50 minutes

  //>>>>>>>>>>>>>>>>>>>>>>>>>>>>>>>>>>>//
  //            Monomer B HF           //
  //<<<<<<<<<<<<<<<<<<<<<<<<<<<<<<<<<<<//


*** tstart() called on node165.bme.utexas.edu
*** at Mon Jan 22 15:27:25 2024

   => Loading Basis Set <=

    Name: AUG-CC-PVTZ
    Role: ORBITAL
    Keyword: BASIS
    atoms 1, 3, 16, 18, 22, 24, 26  entry N          line   285 file /opt/anaconda/envs/psi4v1.5/share/psi4/basis/aug-cc-pvtz.gbs 
    atoms 2, 4-6, 11, 17, 19-21, 23 entry C          line   239 file /opt/anaconda/envs/psi4v1.5/share/psi4/basis/aug-cc-pvtz.gbs 
    atoms 7, 9, 12-15, 25, 27-30    entry H          line    40 file /opt/anaconda/envs/psi4v1.5/share/psi4/basis/aug-cc-pvtz.gbs 
    atoms 8, 10                     entry O          line   331 file /opt/anaconda/envs/psi4v1.5/share/psi4/basis/aug-cc-pvtz.gbs 


         ---------------------------------------------------------
                                   SCF
               by Justin Turney, Rob Parrish, Andy Simmonett
                          and Daniel G. A. Smith
                              RHF Reference
                        8 Threads,  76293 MiB Core
         ---------------------------------------------------------

  ==> Geometry <==

    Molecular point group: c1
    Full point group: C1

    Geometry (in Angstrom), charge = 0, multiplicity = 1:

       Center              X                  Y                   Z               Mass       
    ------------   -----------------  -----------------  -----------------  -----------------
      Gh(N)          -0.079496552317     1.734898081818    -1.705314105950    14.003074004430
      Gh(C)          -0.283867552317     0.357666081818    -1.705575105950    12.000000000000
      Gh(N)           0.882747447683    -0.377477918182    -1.705677105950    14.003074004430
      Gh(C)           2.177939447683     0.122770081818    -1.705571105950    12.000000000000
      Gh(C)           2.309648447683     1.581641081818    -1.705270105950    12.000000000000
      Gh(C)           1.169911447683     2.316028081818    -1.705206105950    12.000000000000
      Gh(H)          -0.917507552317     2.299473081818    -1.705434105950     1.007825032230
      Gh(O)          -1.403173552317    -0.137153918182    -1.705711105950    15.994914619570
      Gh(H)           0.761106447683    -1.427533918182    -1.705884105950     1.007825032230
      Gh(O)           3.147155447683    -0.646184918182    -1.705704105950    15.994914619570
      Gh(C)           3.685883447683     2.180534081818    -1.704672105950    12.000000000000
      Gh(H)           3.633451447683     3.277879081818    -1.711315105950     1.007825032230
      Gh(H)           4.250022447683     1.853193081818    -0.818614105950     1.007825032230
      Gh(H)           4.255038447683     1.842381081818    -2.583346105950     1.007825032230
      Gh(H)           1.181069447683     3.405155081818    -1.705169105950     1.007825032230
         N            0.008876447683    -2.317993918182     1.644566894050    14.003074004430
         C           -1.229703552317    -2.850585918182     1.631424894050    12.000000000000
         N           -2.396513552317    -2.205663918182     1.597274894050    14.003074004430
         C           -2.219050552317    -0.874113918182     1.575361894050    12.000000000000
         C           -1.001723552317    -0.183287918182     1.585146894050    12.000000000000
         C            0.169731447683    -0.975263918182     1.622147894050    12.000000000000
         N           -1.198709552317     1.187320081818     1.555468894050    14.003074004430
         C           -2.504276552317     1.323245081818     1.528361894050    12.000000000000
         N           -3.176472552317     0.115171081818     1.538622894050    14.003074004430
         H           -1.257038552317    -3.941341918182     1.651589894050     1.007825032230
         N            1.410946447683    -0.460022918182     1.635692894050    14.003074004430
         H            1.516492447683     0.542911081818     1.618707894050     1.007825032230
         H            2.230049447683    -1.075262918182     1.662822894050     1.007825032230
         H           -3.036589552317     2.268796081818     1.500439894050     1.007825032230
         H           -4.176199552317    -0.030434918182     1.522587894050     1.007825032230

  Running in c1 symmetry.

  Rotational constants: A =      0.02267  B =      0.00933  C =      0.00818 [cm^-1]
  Rotational constants: A =    679.68473  B =    279.77679  C =    245.34530 [MHz]
  Nuclear repulsion =  501.306615970653866

  Charge       = 0
  Multiplicity = 1
  Electrons    = 70
  Nalpha       = 35
  Nbeta        = 35

  ==> Algorithm <==

  SCF Algorithm Type is DF.
  DIIS enabled.
  MOM disabled.
  Fractional occupation disabled.
  Guess Type is SAD.
  Energy threshold   = 1.00e-08
  Density threshold  = 1.00e-08
  Integral threshold = 1.00e-12

  ==> Primary Basis <==

  Basis Set: AUG-CC-PVTZ
    Blend: AUG-CC-PVTZ
    Number of shells: 365
    Number of basis functions: 1127
    Number of Cartesian functions: 1320
    Spherical Harmonics?: true
    Max angular momentum: 3

   => Loading Basis Set <=

    Name: (AUG-CC-PVTZ AUX)
    Role: JKFIT
    Keyword: DF_BASIS_SCF
    atoms 1, 3, 16, 18, 22, 24, 26  entry N          line   224 file /opt/anaconda/envs/psi4v1.5/share/psi4/basis/aug-cc-pvtz-jkfit.gbs 
    atoms 2, 4-6, 11, 17, 19-21, 23 entry C          line   162 file /opt/anaconda/envs/psi4v1.5/share/psi4/basis/aug-cc-pvtz-jkfit.gbs 
    atoms 7, 9, 12-15, 25, 27-30    entry H          line    70 file /opt/anaconda/envs/psi4v1.5/share/psi4/basis/aug-cc-pvtz-jkfit.gbs 
    atoms 8, 10                     entry O          line   286 file /opt/anaconda/envs/psi4v1.5/share/psi4/basis/aug-cc-pvtz-jkfit.gbs 

  ==> Integral Setup <==

  ==> DiskDFJK: Density-Fitted J/K Matrices <==

    J tasked:                  Yes
    K tasked:                  Yes
    wK tasked:                  No
    OpenMP threads:              8
    Integrals threads:           8
    Memory [MiB]:            57220
    Algorithm:                Core
    Integral Cache:           LOAD
    Schwarz Cutoff:          1E-12
    Fitting Condition:       1E-10

   => Auxiliary Basis Set <=

  Basis Set: (AUG-CC-PVTZ AUX)
    Blend: AUG-CC-PVTZ-JKFIT
    Number of shells: 724
    Number of basis functions: 2482
    Number of Cartesian functions: 3094
    Spherical Harmonics?: true
    Max angular momentum: 4

  Minimum eigenvalue in the overlap matrix is 7.8168467256E-07.
  Reciprocal condition number of the overlap matrix is 3.6268296852E-08.
    Using symmetric orthogonalization.

  ==> Pre-Iterations <==

  SCF Guess: Superposition of Atomic Densities via on-the-fly atomic UHF (no occupation information).

   -------------------------
    Irrep   Nso     Nmo    
   -------------------------
     A       1127    1127 
   -------------------------
    Total    1127    1127
   -------------------------

  ==> Iterations <==

                           Total Energy        Delta E     RMS |[F,P]|

   @DF-RHF iter SAD:  -464.44378149849416   -4.64444e+02   0.00000e+00 
   @DF-RHF iter   1:  -464.44346854113854    3.12957e-04   5.94916e-04 DIIS
   @DF-RHF iter   2:  -464.63455795994020   -1.91089e-01   2.92118e-04 DIIS
   @DF-RHF iter   3:  -464.67805596433084   -4.34980e-02   6.56996e-05 DIIS
   @DF-RHF iter   4:  -464.68126335412910   -3.20739e-03   3.07897e-05 DIIS
   @DF-RHF iter   5:  -464.68188738826791   -6.24034e-04   6.22982e-06 DIIS
   @DF-RHF iter   6:  -464.68194275884537   -5.53706e-05   3.01249e-06 DIIS
   @DF-RHF iter   7:  -464.68195754949988   -1.47907e-05   1.24058e-06 DIIS
   @DF-RHF iter   8:  -464.68196098454666   -3.43505e-06   4.56164e-07 DIIS
   @DF-RHF iter   9:  -464.68196149329941   -5.08753e-07   2.40528e-07 DIIS
   @DF-RHF iter  10:  -464.68196161888454   -1.25585e-07   9.07479e-08 DIIS
   @DF-RHF iter  11:  -464.68196164488302   -2.59985e-08   3.69371e-08 DIIS
   @DF-RHF iter  12:  -464.68196164840185   -3.51884e-09   1.49085e-08 DIIS
   @DF-RHF iter  13:  -464.68196164889935   -4.97494e-10   4.85229e-09 DIIS
  Energy and wave function converged.


  ==> Post-Iterations <==

    Orbital Energies [Eh]
    ---------------------

    Doubly Occupied:                                                      

       1A    -15.631593     2A    -15.589946     3A    -15.570492  
       4A    -15.556378     5A    -15.548185     6A    -11.340686  
       7A    -11.325327     8A    -11.318326     9A    -11.311002  
      10A    -11.253709    11A     -1.364166    12A     -1.295679  
      13A     -1.246865    14A     -1.186022    15A     -1.147009  
      16A     -1.032186    17A     -0.893696    18A     -0.873570  
      19A     -0.842855    20A     -0.778095    21A     -0.739796  
      22A     -0.697350    23A     -0.675768    24A     -0.635945  
      25A     -0.635457    26A     -0.612336    27A     -0.592036  
      28A     -0.557312    29A     -0.498209    30A     -0.494373  
      31A     -0.448020    32A     -0.425071    33A     -0.406327  
      34A     -0.369790    35A     -0.308832  

    Virtual:                                                              

      36A      0.018016    37A      0.022631    38A      0.032397  
      39A      0.034750    40A      0.039047    41A      0.042551  
      42A      0.047011    43A      0.054259    44A      0.056059  
      45A      0.059358    46A      0.063939    47A      0.073520  
      48A      0.075427    49A      0.080058    50A      0.082888  
      51A      0.088863    52A      0.092217    53A      0.093279  
      54A      0.097099    55A      0.098501    56A      0.102832  
      57A      0.106126    58A      0.109045    59A      0.111245  
      60A      0.112379    61A      0.117808    62A      0.122873  
      63A      0.123086    64A      0.127622    65A      0.129914  
      66A      0.131236    67A      0.135008    68A      0.138539  
      69A      0.140247    70A      0.142450    71A      0.144249  
      72A      0.147303    73A      0.149876    74A      0.153048  
      75A      0.159848    76A      0.160848    77A      0.165286  
      78A      0.169455    79A      0.171945    80A      0.174938  
      81A      0.179688    82A      0.184591    83A      0.189663  
      84A      0.194621    85A      0.196736    86A      0.197559  
      87A      0.200932    88A      0.202265    89A      0.207479  
      90A      0.209131    91A      0.213652    92A      0.215354  
      93A      0.221761    94A      0.225800    95A      0.229158  
      96A      0.229972    97A      0.235821    98A      0.236249  
      99A      0.238633   100A      0.244337   101A      0.247019  
     102A      0.251453   103A      0.255236   104A      0.257603  
     105A      0.260483   106A      0.262658   107A      0.264477  
     108A      0.268272   109A      0.271439   110A      0.272914  
     111A      0.275816   112A      0.281877   113A      0.284629  
     114A      0.286527   115A      0.289065   116A      0.292132  
     117A      0.301269   118A      0.303973   119A      0.305870  
     120A      0.309843   121A      0.313361   122A      0.318775  
     123A      0.319488   124A      0.328218   125A      0.331227  
     126A      0.332524   127A      0.335506   128A      0.337534  
     129A      0.339114   130A      0.344991   131A      0.350672  
     132A      0.355895   133A      0.358519   134A      0.359963  
     135A      0.365097   136A      0.368583   137A      0.372300  
     138A      0.377659   139A      0.380188   140A      0.380739  
     141A      0.383463   142A      0.385927   143A      0.391005  
     144A      0.393135   145A      0.398738   146A      0.400428  
     147A      0.402343   148A      0.405136   149A      0.409288  
     150A      0.411913   151A      0.419331   152A      0.421603  
     153A      0.425423   154A      0.429504   155A      0.432384  
     156A      0.435162   157A      0.438560   158A      0.442812  
     159A      0.447380   160A      0.448835   161A      0.450627  
     162A      0.454122   163A      0.456764   164A      0.459097  
     165A      0.462587   166A      0.464407   167A      0.466811  
     168A      0.467183   169A      0.474109   170A      0.475277  
     171A      0.481422   172A      0.483618   173A      0.489112  
     174A      0.489956   175A      0.495996   176A      0.496636  
     177A      0.499569   178A      0.501920   179A      0.509293  
     180A      0.509344   181A      0.513987   182A      0.517807  
     183A      0.521238   184A      0.525658   185A      0.527634  
     186A      0.531855   187A      0.533303   188A      0.537176  
     189A      0.538683   190A      0.544726   191A      0.547057  
     192A      0.550700   193A      0.553708   194A      0.559355  
     195A      0.563937   196A      0.566498   197A      0.569865  
     198A      0.573838   199A      0.577721   200A      0.581962  
     201A      0.587015   202A      0.589678   203A      0.594977  
     204A      0.600710   205A      0.601498   206A      0.604191  
     207A      0.607708   208A      0.611209   209A      0.617604  
     210A      0.620156   211A      0.624191   212A      0.626886  
     213A      0.630893   214A      0.635786   215A      0.638800  
     216A      0.644029   217A      0.648287   218A      0.649135  
     219A      0.654335   220A      0.660261   221A      0.662766  
     222A      0.667492   223A      0.671684   224A      0.673378  
     225A      0.680506   226A      0.682269   227A      0.685641  
     228A      0.687474   229A      0.693794   230A      0.697250  
     231A      0.700608   232A      0.703014   233A      0.707484  
     234A      0.715996   235A      0.717764   236A      0.719415  
     237A      0.722577   238A      0.730758   239A      0.736629  
     240A      0.741362   241A      0.746075   242A      0.749277  
     243A      0.752703   244A      0.758365   245A      0.765746  
     246A      0.766678   247A      0.770069   248A      0.777989  
     249A      0.781107   250A      0.784149   251A      0.786397  
     252A      0.790791   253A      0.793536   254A      0.801104  
     255A      0.807111   256A      0.810417   257A      0.814119  
     258A      0.816531   259A      0.818583   260A      0.819936  
     261A      0.831003   262A      0.835569   263A      0.837873  
     264A      0.842437   265A      0.843573   266A      0.847369  
     267A      0.856108   268A      0.859145   269A      0.862470  
     270A      0.870498   271A      0.878298   272A      0.879358  
     273A      0.887252   274A      0.889224   275A      0.891573  
     276A      0.902784   277A      0.906830   278A      0.910717  
     279A      0.915999   280A      0.917894   281A      0.922500  
     282A      0.928150   283A      0.933483   284A      0.935079  
     285A      0.941036   286A      0.945997   287A      0.950898  
     288A      0.955448   289A      0.958583   290A      0.962016  
     291A      0.967656   292A      0.971897   293A      0.977001  
     294A      0.978465   295A      0.981962   296A      0.987869  
     297A      0.993522   298A      0.997121   299A      0.998390  
     300A      1.000614   301A      1.002154   302A      1.006015  
     303A      1.010142   304A      1.015310   305A      1.019363  
     306A      1.026250   307A      1.033143   308A      1.035617  
     309A      1.038230   310A      1.039591   311A      1.043970  
     312A      1.048125   313A      1.052810   314A      1.054567  
     315A      1.056725   316A      1.069496   317A      1.071906  
     318A      1.075627   319A      1.081958   320A      1.083525  
     321A      1.085744   322A      1.089959   323A      1.093339  
     324A      1.095302   325A      1.097576   326A      1.102667  
     327A      1.106952   328A      1.111572   329A      1.115854  
     330A      1.121431   331A      1.125059   332A      1.128410  
     333A      1.132045   334A      1.136365   335A      1.139871  
     336A      1.146748   337A      1.147193   338A      1.148950  
     339A      1.152674   340A      1.157238   341A      1.161711  
     342A      1.165287   343A      1.168908   344A      1.172668  
     345A      1.178819   346A      1.182991   347A      1.185193  
     348A      1.189846   349A      1.195389   350A      1.203406  
     351A      1.208596   352A      1.209073   353A      1.217448  
     354A      1.219667   355A      1.224048   356A      1.226363  
     357A      1.229345   358A      1.234147   359A      1.241082  
     360A      1.244406   361A      1.249578   362A      1.250242  
     363A      1.253317   364A      1.262227   365A      1.264862  
     366A      1.270051   367A      1.273544   368A      1.278706  
     369A      1.283551   370A      1.289623   371A      1.294965  
     372A      1.296761   373A      1.302514   374A      1.310172  
     375A      1.311507   376A      1.316222   377A      1.319413  
     378A      1.324725   379A      1.327801   380A      1.329661  
     381A      1.331494   382A      1.339894   383A      1.341328  
     384A      1.345768   385A      1.346533   386A      1.358662  
     387A      1.362217   388A      1.367989   389A      1.369207  
     390A      1.375914   391A      1.379609   392A      1.381678  
     393A      1.384790   394A      1.391187   395A      1.395833  
     396A      1.399202   397A      1.403491   398A      1.409699  
     399A      1.410875   400A      1.414123   401A      1.418333  
     402A      1.421902   403A      1.425054   404A      1.433706  
     405A      1.441722   406A      1.448966   407A      1.449133  
     408A      1.457115   409A      1.466993   410A      1.469512  
     411A      1.470350   412A      1.476029   413A      1.479803  
     414A      1.482559   415A      1.486785   416A      1.491540  
     417A      1.496821   418A      1.504145   419A      1.505890  
     420A      1.510234   421A      1.512731   422A      1.518908  
     423A      1.526592   424A      1.531924   425A      1.533677  
     426A      1.538456   427A      1.543507   428A      1.547760  
     429A      1.556454   430A      1.558370   431A      1.563279  
     432A      1.568681   433A      1.575150   434A      1.583368  
     435A      1.583957   436A      1.591368   437A      1.600957  
     438A      1.602289   439A      1.608647   440A      1.612541  
     441A      1.618072   442A      1.627174   443A      1.629339  
     444A      1.634014   445A      1.638244   446A      1.648450  
     447A      1.652821   448A      1.653393   449A      1.663520  
     450A      1.671986   451A      1.677077   452A      1.684085  
     453A      1.690649   454A      1.694253   455A      1.700445  
     456A      1.709883   457A      1.714270   458A      1.720119  
     459A      1.723777   460A      1.725776   461A      1.731506  
     462A      1.734750   463A      1.744536   464A      1.748627  
     465A      1.753034   466A      1.759251   467A      1.768736  
     468A      1.773502   469A      1.776545   470A      1.780460  
     471A      1.786529   472A      1.789435   473A      1.800837  
     474A      1.804888   475A      1.809682   476A      1.817477  
     477A      1.827216   478A      1.832916   479A      1.835713  
     480A      1.842190   481A      1.849939   482A      1.856690  
     483A      1.860190   484A      1.870952   485A      1.874347  
     486A      1.882960   487A      1.889075   488A      1.894657  
     489A      1.897006   490A      1.900935   491A      1.906053  
     492A      1.910682   493A      1.919914   494A      1.924458  
     495A      1.927848   496A      1.941946   497A      1.948504  
     498A      1.949661   499A      1.953108   500A      1.957081  
     501A      1.961163   502A      1.972978   503A      1.978028  
     504A      1.987410   505A      1.996820   506A      2.001082  
     507A      2.008187   508A      2.014837   509A      2.017367  
     510A      2.024534   511A      2.032730   512A      2.037654  
     513A      2.038666   514A      2.049846   515A      2.056251  
     516A      2.060168   517A      2.064647   518A      2.076718  
     519A      2.080746   520A      2.083732   521A      2.091274  
     522A      2.097395   523A      2.106355   524A      2.107130  
     525A      2.112274   526A      2.121081   527A      2.124109  
     528A      2.126853   529A      2.140393   530A      2.144266  
     531A      2.156107   532A      2.161644   533A      2.165237  
     534A      2.172792   535A      2.179261   536A      2.187643  
     537A      2.190456   538A      2.195101   539A      2.199148  
     540A      2.204106   541A      2.207974   542A      2.214460  
     543A      2.218207   544A      2.230816   545A      2.234575  
     546A      2.244688   547A      2.246015   548A      2.257674  
     549A      2.266758   550A      2.269929   551A      2.277105  
     552A      2.283953   553A      2.286365   554A      2.291296  
     555A      2.299024   556A      2.303572   557A      2.318394  
     558A      2.327429   559A      2.335500   560A      2.340947  
     561A      2.344607   562A      2.351784   563A      2.356041  
     564A      2.359349   565A      2.364985   566A      2.372187  
     567A      2.381303   568A      2.386189   569A      2.390185  
     570A      2.400070   571A      2.401951   572A      2.406361  
     573A      2.411511   574A      2.414099   575A      2.417553  
     576A      2.426267   577A      2.437010   578A      2.441623  
     579A      2.444857   580A      2.452250   581A      2.456109  
     582A      2.467152   583A      2.471577   584A      2.473639  
     585A      2.486781   586A      2.491271   587A      2.495429  
     588A      2.505717   589A      2.519190   590A      2.524983  
     591A      2.531539   592A      2.534458   593A      2.545480  
     594A      2.549204   595A      2.553199   596A      2.559614  
     597A      2.567294   598A      2.576138   599A      2.582178  
     600A      2.588158   601A      2.602606   602A      2.613823  
     603A      2.623047   604A      2.626091   605A      2.630745  
     606A      2.636943   607A      2.641792   608A      2.650551  
     609A      2.655307   610A      2.662591   611A      2.665411  
     612A      2.672047   613A      2.685000   614A      2.692468  
     615A      2.701963   616A      2.708215   617A      2.719530  
     618A      2.723317   619A      2.724137   620A      2.736852  
     621A      2.743079   622A      2.750829   623A      2.759741  
     624A      2.765652   625A      2.774583   626A      2.777595  
     627A      2.791466   628A      2.796469   629A      2.806510  
     630A      2.809903   631A      2.824792   632A      2.831518  
     633A      2.836542   634A      2.844497   635A      2.858971  
     636A      2.869599   637A      2.872771   638A      2.875655  
     639A      2.894149   640A      2.899144   641A      2.904500  
     642A      2.907820   643A      2.908646   644A      2.917960  
     645A      2.926707   646A      2.933582   647A      2.948059  
     648A      2.959176   649A      2.960391   650A      2.964039  
     651A      2.976171   652A      2.989729   653A      2.994924  
     654A      2.997819   655A      3.009767   656A      3.015259  
     657A      3.030451   658A      3.038974   659A      3.049871  
     660A      3.060950   661A      3.065477   662A      3.073800  
     663A      3.089601   664A      3.102875   665A      3.117333  
     666A      3.123975   667A      3.146339   668A      3.149734  
     669A      3.175565   670A      3.181319   671A      3.188274  
     672A      3.196394   673A      3.217727   674A      3.221861  
     675A      3.237991   676A      3.248017   677A      3.257642  
     678A      3.272592   679A      3.275707   680A      3.287101  
     681A      3.300614   682A      3.310402   683A      3.325810  
     684A      3.346384   685A      3.348062   686A      3.357949  
     687A      3.371611   688A      3.389204   689A      3.402075  
     690A      3.421338   691A      3.428377   692A      3.443524  
     693A      3.453828   694A      3.465344   695A      3.473866  
     696A      3.482887   697A      3.490298   698A      3.511647  
     699A      3.525788   700A      3.540301   701A      3.551392  
     702A      3.562202   703A      3.574076   704A      3.583827  
     705A      3.587229   706A      3.604946   707A      3.613002  
     708A      3.631221   709A      3.643517   710A      3.650028  
     711A      3.668296   712A      3.674506   713A      3.689097  
     714A      3.702207   715A      3.714215   716A      3.717519  
     717A      3.728391   718A      3.732538   719A      3.741627  
     720A      3.754967   721A      3.767891   722A      3.771974  
     723A      3.773806   724A      3.783955   725A      3.797121  
     726A      3.810854   727A      3.821618   728A      3.827647  
     729A      3.839998   730A      3.849124   731A      3.852774  
     732A      3.866189   733A      3.875572   734A      3.887531  
     735A      3.897888   736A      3.908553   737A      3.925140  
     738A      3.930963   739A      3.942816   740A      3.952875  
     741A      3.968587   742A      3.981303   743A      3.983459  
     744A      3.989928   745A      4.008153   746A      4.022267  
     747A      4.025333   748A      4.033562   749A      4.048526  
     750A      4.055075   751A      4.068743   752A      4.085394  
     753A      4.090661   754A      4.093149   755A      4.104786  
     756A      4.110281   757A      4.122501   758A      4.131058  
     759A      4.141430   760A      4.146735   761A      4.150979  
     762A      4.159094   763A      4.174201   764A      4.180043  
     765A      4.185888   766A      4.193393   767A      4.202485  
     768A      4.208215   769A      4.215054   770A      4.223063  
     771A      4.227592   772A      4.237947   773A      4.247055  
     774A      4.260807   775A      4.261987   776A      4.273576  
     777A      4.277762   778A      4.291803   779A      4.293082  
     780A      4.297351   781A      4.304659   782A      4.315725  
     783A      4.324175   784A      4.327765   785A      4.333587  
     786A      4.346238   787A      4.347449   788A      4.358605  
     789A      4.370682   790A      4.381283   791A      4.383758  
     792A      4.384610   793A      4.394901   794A      4.400921  
     795A      4.407829   796A      4.422191   797A      4.427322  
     798A      4.436048   799A      4.444422   800A      4.453933  
     801A      4.466330   802A      4.470389   803A      4.484123  
     804A      4.494985   805A      4.510881   806A      4.513588  
     807A      4.537269   808A      4.545680   809A      4.557941  
     810A      4.558752   811A      4.560176   812A      4.574746  
     813A      4.581549   814A      4.598987   815A      4.603252  
     816A      4.616015   817A      4.623370   818A      4.630052  
     819A      4.637097   820A      4.639977   821A      4.662623  
     822A      4.667601   823A      4.672256   824A      4.681376  
     825A      4.683380   826A      4.685859   827A      4.712886  
     828A      4.720771   829A      4.728175   830A      4.741900  
     831A      4.747732   832A      4.751944   833A      4.766064  
     834A      4.772202   835A      4.797843   836A      4.805355  
     837A      4.808439   838A      4.826674   839A      4.829974  
     840A      4.840357   841A      4.846204   842A      4.848656  
     843A      4.865147   844A      4.867114   845A      4.873100  
     846A      4.883837   847A      4.897153   848A      4.912001  
     849A      4.918904   850A      4.923809   851A      4.937752  
     852A      4.943281   853A      4.957650   854A      4.972530  
     855A      4.976102   856A      4.985047   857A      4.991081  
     858A      4.996380   859A      5.001823   860A      5.018016  
     861A      5.026532   862A      5.050157   863A      5.059559  
     864A      5.064436   865A      5.094255   866A      5.099351  
     867A      5.104924   868A      5.113130   869A      5.116198  
     870A      5.130758   871A      5.138454   872A      5.146771  
     873A      5.159469   874A      5.167124   875A      5.175417  
     876A      5.184508   877A      5.192302   878A      5.198939  
     879A      5.208614   880A      5.223106   881A      5.235255  
     882A      5.239729   883A      5.256050   884A      5.272099  
     885A      5.275234   886A      5.278861   887A      5.294766  
     888A      5.297290   889A      5.306781   890A      5.312633  
     891A      5.327346   892A      5.332403   893A      5.341987  
     894A      5.347832   895A      5.366728   896A      5.377924  
     897A      5.388161   898A      5.393696   899A      5.398104  
     900A      5.404197   901A      5.410369   902A      5.427972  
     903A      5.438707   904A      5.451983   905A      5.457256  
     906A      5.462075   907A      5.473109   908A      5.492439  
     909A      5.503529   910A      5.508946   911A      5.513814  
     912A      5.539325   913A      5.548355   914A      5.550071  
     915A      5.559862   916A      5.565433   917A      5.570791  
     918A      5.587279   919A      5.588994   920A      5.603313  
     921A      5.608109   922A      5.615809   923A      5.621877  
     924A      5.625465   925A      5.639584   926A      5.642640  
     927A      5.654359   928A      5.659706   929A      5.665330  
     930A      5.681239   931A      5.696016   932A      5.705402  
     933A      5.710956   934A      5.713801   935A      5.717428  
     936A      5.724568   937A      5.733710   938A      5.747324  
     939A      5.755986   940A      5.783075   941A      5.795347  
     942A      5.808761   943A      5.823243   944A      5.827860  
     945A      5.836413   946A      5.851740   947A      5.861508  
     948A      5.871851   949A      5.891151   950A      5.913409  
     951A      5.938147   952A      5.951052   953A      5.956308  
     954A      5.970206   955A      5.979405   956A      5.983649  
     957A      5.997024   958A      6.008050   959A      6.017264  
     960A      6.024039   961A      6.039320   962A      6.051482  
     963A      6.093246   964A      6.100002   965A      6.109217  
     966A      6.136882   967A      6.159003   968A      6.161150  
     969A      6.176504   970A      6.178367   971A      6.188050  
     972A      6.199121   973A      6.210927   974A      6.236200  
     975A      6.242382   976A      6.251565   977A      6.276889  
     978A      6.284562   979A      6.290140   980A      6.301342  
     981A      6.317010   982A      6.354713   983A      6.367429  
     984A      6.402334   985A      6.441369   986A      6.462714  
     987A      6.480335   988A      6.491249   989A      6.496895  
     990A      6.518558   991A      6.538783   992A      6.560488  
     993A      6.597768   994A      6.613808   995A      6.619818  
     996A      6.640778   997A      6.648627   998A      6.668694  
     999A      6.688254  1000A      6.716859  1001A      6.723640  
    1002A      6.741871  1003A      6.769473  1004A      6.780278  
    1005A      6.793618  1006A      6.801421  1007A      6.811792  
    1008A      6.829082  1009A      6.849003  1010A      6.871044  
    1011A      6.884556  1012A      6.907913  1013A      6.942118  
    1014A      6.982614  1015A      7.006501  1016A      7.042322  
    1017A      7.053994  1018A      7.076188  1019A      7.092286  
    1020A      7.124695  1021A      7.141493  1022A      7.168089  
    1023A      7.215570  1024A      7.250619  1025A      7.265550  
    1026A      7.275825  1027A      7.301225  1028A      7.352073  
    1029A      7.403687  1030A      7.412941  1031A      7.458338  
    1032A      7.513162  1033A      7.598514  1034A      7.607445  
    1035A      7.615180  1036A      7.635199  1037A      7.660047  
    1038A      7.670244  1039A      7.672779  1040A      7.684639  
    1041A      7.697340  1042A      7.722611  1043A      7.749020  
    1044A      7.786535  1045A      7.806633  1046A      7.812017  
    1047A      7.828724  1048A      7.857338  1049A      7.871494  
    1050A      7.880556  1051A      7.889297  1052A      7.908413  
    1053A      7.926662  1054A      7.943578  1055A      7.982012  
    1056A      7.987694  1057A      8.046112  1058A      8.074975  
    1059A      8.151678  1060A      8.182529  1061A      8.220799  
    1062A      8.262053  1063A      8.284364  1064A      8.346323  
    1065A      8.401858  1066A      8.422101  1067A      8.579339  
    1068A      8.631871  1069A      8.734075  1070A      8.825684  
    1071A      8.898422  1072A      8.956111  1073A      9.030852  
    1074A      9.104715  1075A      9.214429  1076A      9.582846  
    1077A      9.598679  1078A      9.627417  1079A      9.679076  
    1080A      9.890868  1081A      9.956925  1082A     10.029502  
    1083A     10.070280  1084A     10.083413  1085A     10.278253  
    1086A     10.297440  1087A     10.360542  1088A     10.406176  
    1089A     10.486602  1090A     10.541966  1091A     10.561823  
    1092A     10.722292  1093A     10.960229  1094A     11.298230  
    1095A     11.433409  1096A     11.588675  1097A     12.058681  
    1098A     12.081582  1099A     12.108723  1100A     12.139520  
    1101A     12.229525  1102A     12.539333  1103A     12.735385  
    1104A     12.903179  1105A     13.428709  1106A     13.711338  
    1107A     14.186513  1108A     14.245883  1109A     16.125502  
    1110A     16.330663  1111A     16.485647  1112A     17.969218  
    1113A     18.331276  1114A     19.139999  1115A     19.417032  
    1116A     19.562608  1117A     20.234027  1118A     21.353433  
    1119A     51.861550  1120A     52.386751  1121A     53.742731  
    1122A     54.989900  1123A     57.915810  1124A     61.012706  
    1125A     61.663110  1126A     69.635302  1127A     70.379433  

    Final Occupation by Irrep:
              A 
    DOCC [    35 ]

  @DF-RHF Final Energy:  -464.68196164889935

   => Energetics <=

    Nuclear Repulsion Energy =            501.3066159706538656
    One-Electron Energy =               -1625.5723439728922131
    Two-Electron Energy =                 659.5837663533390014
    Total Energy =                       -464.6819616488993461

Computation Completed


Properties will be evaluated at   0.000000,   0.000000,   0.000000 [a0]

Properties computed using the SCF density matrix

  Nuclear Dipole Moment: [e a0]
     X:  -156.6517      Y:   -93.2839      Z:   210.5385

  Electronic Dipole Moment: [e a0]
     X:   156.2834      Y:    94.1632      Z:  -210.5618

  Dipole Moment: [e a0]
     X:    -0.3684      Y:     0.8794      Z:    -0.0232     Total:     0.9537

  Dipole Moment: [D]
     X:    -0.9363      Y:     2.2351      Z:    -0.0591     Total:     2.4240


*** tstop() called on node165.bme.utexas.edu at Mon Jan 22 15:28:45 2024
Module time:
	user time   =     566.82 seconds =       9.45 minutes
	system time =      13.89 seconds =       0.23 minutes
	total time  =         80 seconds =       1.33 minutes
Total time:
	user time   =    2233.61 seconds =      37.23 minutes
	system time =      77.89 seconds =       1.30 minutes
	total time  =        350 seconds =       5.83 minutes

*** tstart() called on node165.bme.utexas.edu
*** at Mon Jan 22 15:28:45 2024


  //>>>>>>>>>>>>>>>>>>>>>>>>>>>>>>>>>>>//
  //               DFMP2               //
  //<<<<<<<<<<<<<<<<<<<<<<<<<<<<<<<<<<<//

   => Loading Basis Set <=

    Name: (AUG-CC-PVTZ AUX)
    Role: RIFIT
    Keyword: DF_BASIS_MP2
    atoms 1, 3, 16, 18, 22, 24, 26  entry N          line   206 file /opt/anaconda/envs/psi4v1.5/share/psi4/basis/aug-cc-pvtz-ri.gbs 
    atoms 2, 4-6, 11, 17, 19-21, 23 entry C          line   148 file /opt/anaconda/envs/psi4v1.5/share/psi4/basis/aug-cc-pvtz-ri.gbs 
    atoms 7, 9, 12-15, 25, 27-30    entry H          line    30 file /opt/anaconda/envs/psi4v1.5/share/psi4/basis/aug-cc-pvtz-ri.gbs 
    atoms 8, 10                     entry O          line   264 file /opt/anaconda/envs/psi4v1.5/share/psi4/basis/aug-cc-pvtz-ri.gbs 

	 --------------------------------------------------------
	                          DF-MP2                         
	      2nd-Order Density-Fitted Moller-Plesset Theory     
	              RMP2 Wavefunction,   8 Threads             
	                                                         
	        Rob Parrish, Justin Turney, Andy Simmonett,      
	           Ed Hohenstein, and C. David Sherrill          
	 --------------------------------------------------------

   => Auxiliary Basis Set <=

  Basis Set: (AUG-CC-PVTZ AUX)
    Blend: AUG-CC-PVTZ-RI
    Number of shells: 686
    Number of basis functions: 2520
    Number of Cartesian functions: 3189
    Spherical Harmonics?: true
    Max angular momentum: 4

	 --------------------------------------------------------
	                 NBF =  1127, NAUX =  2520
	 --------------------------------------------------------
	   CLASS    FOCC     OCC    AOCC    AVIR     VIR    FVIR
	   PAIRS      10      35      25    1092    1092       0
	 --------------------------------------------------------

	 Will attempt to load fitting metric from file 97.

	-----------------------------------------------------------
	 ==================> DF-MP2 Energies <==================== 
	-----------------------------------------------------------
	 Reference Energy          =    -464.6819616488993461 [Eh]
	 Singles Energy            =      -0.0000000000000000 [Eh]
	 Same-Spin Energy          =      -0.4783767292148663 [Eh]
	 Opposite-Spin Energy      =      -1.3241613883597734 [Eh]
	 Correlation Energy        =      -1.8025381175746398 [Eh]
	 Total Energy              =    -466.4844997664739594 [Eh]
	-----------------------------------------------------------
	 ================> DF-SCS-MP2 Energies <================== 
	-----------------------------------------------------------
	 SCS Same-Spin Scale       =       0.3333333333333333 [-]
	 SCS Opposite-Spin Scale   =       1.2000000000000000 [-]
	 SCS Same-Spin Energy      =      -0.1594589097382888 [Eh]
	 SCS Opposite-Spin Energy  =      -1.5889936660317281 [Eh]
	 SCS Correlation Energy    =      -1.7484525757700169 [Eh]
	 SCS Total Energy          =    -466.4304142246693345 [Eh]
	-----------------------------------------------------------


*** tstop() called on node165.bme.utexas.edu at Mon Jan 22 15:29:19 2024
Module time:
	user time   =     159.80 seconds =       2.66 minutes
	system time =       8.55 seconds =       0.14 minutes
	total time  =         34 seconds =       0.57 minutes
Total time:
	user time   =    2393.42 seconds =      39.89 minutes
	system time =      86.44 seconds =       1.44 minutes
	total time  =        384 seconds =       6.40 minutes
  Constructing Basis Sets for SAPT...

   => Loading Basis Set <=

    Name: (AUG-CC-PVTZ AUX)
    Role: RIFIT
    Keyword: DF_BASIS_SAPT
    atoms 1, 3, 16, 18, 22, 24, 26  entry N          line   206 file /opt/anaconda/envs/psi4v1.5/share/psi4/basis/aug-cc-pvtz-ri.gbs 
    atoms 2, 4-6, 11, 17, 19-21, 23 entry C          line   148 file /opt/anaconda/envs/psi4v1.5/share/psi4/basis/aug-cc-pvtz-ri.gbs 
    atoms 7, 9, 12-15, 25, 27-30    entry H          line    30 file /opt/anaconda/envs/psi4v1.5/share/psi4/basis/aug-cc-pvtz-ri.gbs 
    atoms 8, 10                     entry O          line   264 file /opt/anaconda/envs/psi4v1.5/share/psi4/basis/aug-cc-pvtz-ri.gbs 


  //>>>>>>>>>>>>>>>>>>>>>>>>>>>>>>>>>>>//
  //           SAPT2+(3)DMP2           //
  //<<<<<<<<<<<<<<<<<<<<<<<<<<<<<<<<<<<//


*** tstart() called on node165.bme.utexas.edu
*** at Mon Jan 22 15:29:19 2024

      SAPT2+(3)  
    Ed Hohenstein
     6 June 2009

      Orbital Information
  --------------------------
    NSO        =      1127
    NMO        =      1127
    NRI        =      2520
    NOCC A     =        33
    NOCC B     =        35
    FOCC A     =         9
    FOCC B     =        10
    NVIR A     =      1094
    NVIR B     =      1092

    Estimated memory usage: 59315.2 MB

    Natural Orbital Cutoff:   1.000E-06
    Disp(T3) Truncation:            Yes
    CCD (vv|vv) Truncation:         Yes
    MBPT T2 Truncation:             Yes

    Monomer A: 620 virtual orbitals dropped
    Monomer B: 600 virtual orbitals dropped

    Elst10,r            =    -0.004677264394 [Eh]
    Exch10 (S^2)        =     0.007725227742 [Eh]
    Exch10              =     0.007733569422 [Eh]
    Ind20,r (A<-B)      =    -0.001068787072 [Eh]
    Ind20,r (B<-A)      =    -0.002720699962 [Eh]
    Ind20,r             =    -0.003789487034 [Eh]
    Exch-Ind20,r (A<-B) =     0.000866284215 [Eh]
    Exch-Ind20,r (B<-A) =     0.002160258566 [Eh]
    Exch-Ind20,r        =     0.003026542780 [Eh]
    Disp20              =    -0.014607135812 [Eh]
    Disp20 (NO)         =    -0.013613178702 [Eh]
    Exch-Disp20         =     0.001239622649 [Eh]
    Elst12,r            =    -0.000262346555 [Eh]
    Exch11              =     0.000113638011 [Eh]
    Exch12              =     0.000779199956 [Eh]
    Ind22               =    -0.000274896345 [Eh]
    Disp21              =     0.004379904147 [Eh]
    Disp22 (SDQ)        =    -0.000784367304 [Eh]

    (i =   1 of  25)       1227 seconds
    (i =   2 of  25)       2818 seconds
    (i =   3 of  25)       4131 seconds
    (i =   4 of  25)       5445 seconds
    (i =   5 of  25)       6761 seconds
    (i =   6 of  25)       8078 seconds
    (i =   7 of  25)       9397 seconds
    (i =   8 of  25)      10701 seconds
    (i =   9 of  25)      12001 seconds
    (i =  10 of  25)      13486 seconds
    (i =  11 of  25)      14922 seconds
    (i =  12 of  25)      16226 seconds
    (i =  13 of  25)      17498 seconds
    (i =  14 of  25)      18771 seconds
    (i =  15 of  25)      20034 seconds
    (i =  16 of  25)      21294 seconds
    (i =  17 of  25)      22535 seconds
    (i =  18 of  25)      23780 seconds
    (i =  19 of  25)      25142 seconds
    (i =  20 of  25)      26639 seconds
    (i =  21 of  25)      27900 seconds
    (i =  22 of  25)      29163 seconds
    (i =  23 of  25)      30437 seconds
    (i =  24 of  25)      31727 seconds
    (i =  25 of  25)      33026 seconds

    Disp220 (T)         =    -0.001682206835 [Eh]

    (i =   1 of  24)       1257 seconds
    (i =   2 of  24)       2380 seconds
    (i =   3 of  24)       3527 seconds
    (i =   4 of  24)       4905 seconds
    (i =   5 of  24)       6056 seconds
    (i =   6 of  24)       7183 seconds
    (i =   7 of  24)       8305 seconds
    (i =   8 of  24)       9426 seconds
    (i =   9 of  24)      10548 seconds
    (i =  10 of  24)      11674 seconds
    (i =  11 of  24)      12798 seconds
    (i =  12 of  24)      13923 seconds
    (i =  13 of  24)      15056 seconds
    (i =  14 of  24)      16727 seconds
    (i =  15 of  24)      17879 seconds
    (i =  16 of  24)      19003 seconds
    (i =  17 of  24)      20123 seconds
    (i =  18 of  24)      21250 seconds
    (i =  19 of  24)      22369 seconds
    (i =  20 of  24)      23580 seconds
    (i =  21 of  24)      24783 seconds
    (i =  22 of  24)      25991 seconds
    (i =  23 of  24)      27515 seconds
    (i =  24 of  24)      29144 seconds

    Disp202 (T)         =    -0.001633842103 [Eh]

    Disp22 (T)          =    -0.003316048939 [Eh]

    Est. Disp220 (T)    =    -0.001805032039 [Eh]
    Est. Disp202 (T)    =    -0.001753135988 [Eh]

    Est. Disp22 (T)     =    -0.003558168027 [Eh]
    Elst13,r            =     0.000323409128 [Eh]
    Disp30              =     0.000299611727 [Eh]

    SAPT Results 
  --------------------------------------------------------------------------------------------------------
    Electrostatics                 -4.61620182 [mEh]      -2.89671038 [kcal/mol]     -12.11983621 [kJ/mol]
      Elst10,r                     -4.67726439 [mEh]      -2.93502772 [kcal/mol]     -12.28015597 [kJ/mol]
      Elst12,r                     -0.26234655 [mEh]      -0.16462495 [kcal/mol]      -0.68879079 [kJ/mol]
      Elst13,r                      0.32340913 [mEh]       0.20294229 [kcal/mol]       0.84911055 [kJ/mol]

    Exchange                        8.62640739 [mEh]       5.41315236 [kcal/mol]      22.64862948 [kJ/mol]
      Exch10                        7.73356942 [mEh]       4.85288808 [kcal/mol]      20.30448372 [kJ/mol]
      Exch10(S^2)                   7.72522774 [mEh]       4.84765360 [kcal/mol]      20.28258264 [kJ/mol]
      Exch11(S^2)                   0.11363801 [mEh]       0.07130893 [kcal/mol]       0.29835656 [kJ/mol]
      Exch12(S^2)                   0.77919996 [mEh]       0.48895535 [kcal/mol]       2.04578920 [kJ/mol]

    Induction                      -0.69855518 [mEh]      -0.43835000 [kcal/mol]      -1.83405638 [kJ/mol]
      Ind20,r                      -3.78948703 [mEh]      -2.37793901 [kcal/mol]      -9.94929684 [kJ/mol]
      Ind22                        -0.27489635 [mEh]      -0.17250006 [kcal/mol]      -0.72174026 [kJ/mol]
      Exch-Ind20,r                  3.02654278 [mEh]       1.89918427 [kcal/mol]       7.94618698 [kJ/mol]
      Exch-Ind22                    0.21955097 [mEh]       0.13777031 [kcal/mol]       0.57643099 [kJ/mol]
      delta HF,r (2)               -0.35273426 [mEh]      -0.22134409 [kcal/mol]      -0.92610368 [kJ/mol]
      delta MP2,r (2)               0.47246871 [mEh]       0.29647859 [kcal/mol]       1.24046642 [kJ/mol]

    Dispersion                    -13.03053262 [mEh]      -8.17678267 [kcal/mol]     -34.21165868 [kJ/mol]
      Disp20                      -14.60713581 [mEh]      -9.16611611 [kcal/mol]     -38.35102979 [kJ/mol]
      Disp30                        0.29961173 [mEh]       0.18800920 [kcal/mol]       0.78663048 [kJ/mol]
      Disp21                        4.37990415 [mEh]       2.74843135 [kcal/mol]      11.49943675 [kJ/mol]
      Disp22 (SDQ)                 -0.78436730 [mEh]      -0.49219791 [kcal/mol]      -2.05935607 [kJ/mol]
      Disp22 (T)                   -3.31604894 [mEh]      -2.08085212 [kcal/mol]      -8.70628529 [kJ/mol]
      Est. Disp22 (T)              -3.55816803 [mEh]      -2.23278415 [kcal/mol]      -9.34196887 [kJ/mol]
      Exch-Disp20                   1.23962265 [mEh]       0.77787496 [kcal/mol]       3.25462882 [kJ/mol]

  Total HF                          1.94062651 [mEh]       1.21776152 [kcal/mol]       5.09511420 [kJ/mol]
  Total SAPT0                     -11.42688665 [mEh]      -7.17047963 [kcal/mol]     -30.00128677 [kJ/mol]
  Total SAPT2                     -10.85174062 [mEh]      -6.80957004 [kcal/mol]     -28.49124106 [kJ/mol]
  Total SAPT2+                    -10.81437180 [mEh]      -6.78612076 [kcal/mol]     -28.39312925 [kJ/mol]
  Total SAPT2+(3)                 -10.19135094 [mEh]      -6.39516927 [kcal/mol]     -26.75738822 [kJ/mol]
  Total SAPT2+dMP2                -10.34190309 [mEh]      -6.48964217 [kcal/mol]     -27.15266282 [kJ/mol]
  Total SAPT2+(3)dMP2              -9.71888224 [mEh]      -6.09869068 [kcal/mol]     -25.51692179 [kJ/mol]

  Special recipe for scaled SAPT0 (see Manual):
    Electrostatics sSAPT0          -4.67726439 [mEh]      -2.93502772 [kcal/mol]     -12.28015597 [kJ/mol]
    Exchange sSAPT0                 7.73356942 [mEh]       4.85288808 [kcal/mol]      20.30448372 [kJ/mol]
    Induction sSAPT0               -1.10586377 [mEh]      -0.69393999 [kcal/mol]      -2.90344492 [kJ/mol]
    Dispersion sSAPT0             -13.36349320 [mEh]      -8.38571859 [kcal/mol]     -35.08584657 [kJ/mol]
  Total sSAPT0                    -11.41305194 [mEh]      -7.16179822 [kcal/mol]     -29.96496374 [kJ/mol]
  --------------------------------------------------------------------------------------------------------

*** tstop() called on node165.bme.utexas.edu at Tue Jan 23 12:21:52 2024
Module time:
	user time   =  429793.36 seconds =    7163.22 minutes
	system time =    4545.86 seconds =      75.76 minutes
	total time  =      75153 seconds =    1252.55 minutes
Total time:
	user time   =  432187.22 seconds =    7203.12 minutes
	system time =    4632.31 seconds =      77.21 minutes
	total time  =      75537 seconds =    1258.95 minutes

    Psi4 stopped on: Tuesday, 23 January 2024 12:21PM
    Psi4 wall time for execution: 20:58:57.24

*** Psi4 exiting successfully. Buy a developer a beer!
