
    -----------------------------------------------------------------------
          Psi4: An Open-Source Ab Initio Electronic Structure Package
                               Psi4 1.5 release

                         Git: Rev {HEAD} e9f4d6d 


    D. G. A. Smith, L. A. Burns, A. C. Simmonett, R. M. Parrish,
    M. C. Schieber, R. Galvelis, P. Kraus, H. Kruse, R. Di Remigio,
    A. Alenaizan, A. M. James, S. Lehtola, J. P. Misiewicz, M. Scheurer,
    R. A. Shaw, J. B. Schriber, Y. Xie, Z. L. Glick, D. A. Sirianni,
    J. S. O'Brien, J. M. Waldrop, A. Kumar, E. G. Hohenstein,
    B. P. Pritchard, B. R. Brooks, H. F. Schaefer III, A. Yu. Sokolov,
    K. Patkowski, A. E. DePrince III, U. Bozkaya, R. A. King,
    F. A. Evangelista, J. M. Turney, T. D. Crawford, C. D. Sherrill,
    J. Chem. Phys. 152(18) 184108 (2020). https://doi.org/10.1063/5.0006002

                            Additional Code Authors
    E. T. Seidl, C. L. Janssen, E. F. Valeev, M. L. Leininger,
    J. F. Gonthier, R. M. Richard, H. R. McAlexander, M. Saitow, X. Wang,
    P. Verma, M. H. Lechner, and A. Jiang

             Previous Authors, Complete List of Code Contributors,
                       and Citations for Specific Modules
    https://github.com/psi4/psi4/blob/master/codemeta.json
    https://github.com/psi4/psi4/graphs/contributors
    http://psicode.org/psi4manual/master/introduction.html#citing-psifour

    -----------------------------------------------------------------------


    Psi4 started on: Sunday, 12 May 2024 11:29PM

    Process ID: 3956578
    Host:       node154.bme.utexas.edu
    PSIDATADIR: /opt/anaconda/envs/psi4v1.5/share/psi4
    Memory:     500.0 MiB
    Threads:    8
    
  ==> Input File <==

--------------------------------------------------------------------------
memory 80GB

molecule {
0 1
N -0.64527 -0.537199 -0.000379
C -1.914342 -0.992571 -0.000336
N -2.327871 -2.260455 -0.000198
C -1.289976 -3.113552 -0.000134
C 0.071467 -2.788444 -0.000208
C 0.388103 -1.409805 -0.000331
N 0.862141 -3.925582 -0.00012
C 0.0 -4.915748 0.0
N -1.315514 -4.490519 -0.0
H -2.678219 -0.213216 -0.000396
N 1.647269 -0.939941 -0.000399
H 2.408453 -1.601685 -0.000397
H 1.826741 0.069006 -0.000581
H 0.255544 -5.970689 9.4e-05
H -2.145977 -5.066056 9e-05
--
0 1
N -1.161035 0.281726 3.349773
C -2.399615 -0.250866 3.336631
N -3.566425 0.394056 3.302481
C -3.388962 1.725606 3.280568
C -2.171635 2.416432 3.290353
C -1.00018 1.624456 3.327354
N -2.368621 3.78704 3.260675
C -3.674188 3.922965 3.233568
N -4.346384 2.714891 3.243829
H -2.42695 -1.341622 3.356796
N 0.241035 2.139697 3.340899
H 0.346581 3.142631 3.323914
H 1.060138 1.524457 3.368029
H -4.206501 4.868516 3.205646
H -5.346111 2.569285 3.227794
 units angstrom
 no_reorient
 symmetry c1}
set  {scf_type DF
 basis aug-cc-pvdz
 freeze_core True
 guess SAD}
energy('sapt2+(3)dmp2')
--------------------------------------------------------------------------

  Memory set to  74.506 GiB by Python driver.

Scratch directory: /tmp/
   => Loading Basis Set <=

    Name: AUG-CC-PVDZ
    Role: ORBITAL
    Keyword: BASIS
    atoms 1, 3, 7, 9, 11, 16, 18, 22, 24, 26 entry N          line   218 file /opt/anaconda/envs/psi4v1.5/share/psi4/basis/aug-cc-pvdz.gbs 
    atoms 2, 4-6, 8, 17, 19-21, 23           entry C          line   182 file /opt/anaconda/envs/psi4v1.5/share/psi4/basis/aug-cc-pvdz.gbs 
    atoms 10, 12-15, 25, 27-30               entry H          line    40 file /opt/anaconda/envs/psi4v1.5/share/psi4/basis/aug-cc-pvdz.gbs 

   => Loading Basis Set <=

    Name: AUG-CC-PVDZ
    Role: ORBITAL
    Keyword: BASIS
    atoms 1, 3, 7, 9, 11, 16, 18, 22, 24, 26 entry N          line   218 file /opt/anaconda/envs/psi4v1.5/share/psi4/basis/aug-cc-pvdz.gbs 
    atoms 2, 4-6, 8, 17, 19-21, 23           entry C          line   182 file /opt/anaconda/envs/psi4v1.5/share/psi4/basis/aug-cc-pvdz.gbs 
    atoms 10, 12-15, 25, 27-30               entry H          line    40 file /opt/anaconda/envs/psi4v1.5/share/psi4/basis/aug-cc-pvdz.gbs 


  //>>>>>>>>>>>>>>>>>>>>>>>>>>>>>>>>>>>//
  //              Dimer HF             //
  //<<<<<<<<<<<<<<<<<<<<<<<<<<<<<<<<<<<//


*** tstart() called on node154.bme.utexas.edu
*** at Sun May 12 23:29:55 2024

   => Loading Basis Set <=

    Name: AUG-CC-PVDZ
    Role: ORBITAL
    Keyword: BASIS
    atoms 1, 3, 7, 9, 11, 16, 18, 22, 24, 26 entry N          line   218 file /opt/anaconda/envs/psi4v1.5/share/psi4/basis/aug-cc-pvdz.gbs 
    atoms 2, 4-6, 8, 17, 19-21, 23           entry C          line   182 file /opt/anaconda/envs/psi4v1.5/share/psi4/basis/aug-cc-pvdz.gbs 
    atoms 10, 12-15, 25, 27-30               entry H          line    40 file /opt/anaconda/envs/psi4v1.5/share/psi4/basis/aug-cc-pvdz.gbs 


         ---------------------------------------------------------
                                   SCF
               by Justin Turney, Rob Parrish, Andy Simmonett
                          and Daniel G. A. Smith
                              RHF Reference
                        8 Threads,  76293 MiB Core
         ---------------------------------------------------------

  ==> Geometry <==

    Molecular point group: c1
    Full point group: C1

    Geometry (in Angstrom), charge = 0, multiplicity = 1:

       Center              X                  Y                   Z               Mass       
    ------------   -----------------  -----------------  -----------------  -----------------
         N            0.751621422596    -0.214624689177    -1.648684364318    14.003074004430
         C           -0.517450577404    -0.669996689177    -1.648641364318    12.000000000000
         N           -0.930979577404    -1.937880689177    -1.648503364318    14.003074004430
         C            0.106915422596    -2.790977689177    -1.648439364318    12.000000000000
         C            1.468358422596    -2.465869689177    -1.648513364318    12.000000000000
         C            1.784994422596    -1.087230689177    -1.648636364318    12.000000000000
         N            2.259032422596    -3.603007689177    -1.648425364318    14.003074004430
         C            1.396891422596    -4.593173689177    -1.648305364318    12.000000000000
         N            0.081377422596    -4.167944689177    -1.648305364318    14.003074004430
         H           -1.281327577404     0.109358310823    -1.648701364318     1.007825032230
         N            3.044160422596    -0.617366689177    -1.648704364318    14.003074004430
         H            3.805344422596    -1.279110689177    -1.648702364318     1.007825032230
         H            3.223632422596     0.391580310823    -1.648886364318     1.007825032230
         H            1.652435422596    -5.648114689177    -1.648211364318     1.007825032230
         H           -0.749085577404    -4.743481689177    -1.648215364318     1.007825032230
         N            0.235856422596     0.604300310823     1.701467635682    14.003074004430
         C           -1.002723577404     0.071708310823     1.688325635682    12.000000000000
         N           -2.169533577404     0.716630310823     1.654175635682    14.003074004430
         C           -1.992070577404     2.048180310823     1.632262635682    12.000000000000
         C           -0.774743577404     2.739006310823     1.642047635682    12.000000000000
         C            0.396711422596     1.947030310823     1.679048635682    12.000000000000
         N           -0.971729577404     4.109614310823     1.612369635682    14.003074004430
         C           -2.277296577404     4.245539310823     1.585262635682    12.000000000000
         N           -2.949492577404     3.037465310823     1.595523635682    14.003074004430
         H           -1.030058577404    -1.019047689177     1.708490635682     1.007825032230
         N            1.637926422596     2.462271310823     1.692593635682    14.003074004430
         H            1.743472422596     3.465205310823     1.675608635682     1.007825032230
         H            2.457029422596     1.847031310823     1.719723635682     1.007825032230
         H           -2.809609577404     5.191090310823     1.557340635682     1.007825032230
         H           -3.949219577404     2.891859310823     1.579488635682     1.007825032230

  Running in c1 symmetry.

  Rotational constants: A =      0.02612  B =      0.00582  C =      0.00525 [cm^-1]
  Rotational constants: A =    783.11783  B =    174.35194  C =    157.39031 [MHz]
  Nuclear repulsion = 1441.840075571344414

  Charge       = 0
  Multiplicity = 1
  Electrons    = 140
  Nalpha       = 70
  Nbeta        = 70

  ==> Algorithm <==

  SCF Algorithm Type is DF.
  DIIS enabled.
  MOM disabled.
  Fractional occupation disabled.
  Guess Type is SAD.
  Energy threshold   = 1.00e-08
  Density threshold  = 1.00e-08
  Integral threshold = 1.00e-12

  ==> Primary Basis <==

  Basis Set: AUG-CC-PVDZ
    Blend: AUG-CC-PVDZ
    Number of shells: 230
    Number of basis functions: 550
    Number of Cartesian functions: 590
    Spherical Harmonics?: true
    Max angular momentum: 2

   => Loading Basis Set <=

    Name: (AUG-CC-PVDZ AUX)
    Role: JKFIT
    Keyword: DF_BASIS_SCF
    atoms 1, 3, 7, 9, 11, 16, 18, 22, 24, 26 entry N          line   212 file /opt/anaconda/envs/psi4v1.5/share/psi4/basis/aug-cc-pvdz-jkfit.gbs 
    atoms 2, 4-6, 8, 17, 19-21, 23           entry C          line   154 file /opt/anaconda/envs/psi4v1.5/share/psi4/basis/aug-cc-pvdz-jkfit.gbs 
    atoms 10, 12-15, 25, 27-30               entry H          line    70 file /opt/anaconda/envs/psi4v1.5/share/psi4/basis/aug-cc-pvdz-jkfit.gbs 

  ==> Integral Setup <==

  ==> DiskDFJK: Density-Fitted J/K Matrices <==

    J tasked:                  Yes
    K tasked:                  Yes
    wK tasked:                  No
    OpenMP threads:              8
    Integrals threads:           8
    Memory [MiB]:            57220
    Algorithm:                Core
    Integral Cache:           SAVE
    Schwarz Cutoff:          1E-12
    Fitting Condition:       1E-10

   => Auxiliary Basis Set <=

  Basis Set: (AUG-CC-PVDZ AUX)
    Blend: AUG-CC-PVDZ-JKFIT
    Number of shells: 680
    Number of basis functions: 2040
    Number of Cartesian functions: 2370
    Spherical Harmonics?: true
    Max angular momentum: 3

  Minimum eigenvalue in the overlap matrix is 2.6229438220E-06.
  Reciprocal condition number of the overlap matrix is 1.6362924111E-07.
    Using symmetric orthogonalization.

  ==> Pre-Iterations <==

  SCF Guess: Superposition of Atomic Densities via on-the-fly atomic UHF (no occupation information).

   -------------------------
    Irrep   Nso     Nmo    
   -------------------------
     A        550     550 
   -------------------------
    Total     550     550
   -------------------------

  ==> Iterations <==

                           Total Energy        Delta E     RMS |[F,P]|

   @DF-RHF iter SAD:  -928.78407854876912   -9.28784e+02   0.00000e+00 
   @DF-RHF iter   1:  -928.69015592845290    9.39226e-02   1.66264e-03 DIIS
   @DF-RHF iter   2:  -929.07092977280149   -3.80774e-01   8.05756e-04 DIIS
   @DF-RHF iter   3:  -929.15638370077022   -8.54539e-02   1.90930e-04 DIIS
   @DF-RHF iter   4:  -929.16290072619790   -6.51703e-03   8.95347e-05 DIIS
   @DF-RHF iter   5:  -929.16421452114105   -1.31379e-03   1.77987e-05 DIIS
   @DF-RHF iter   6:  -929.16431955652263   -1.05035e-04   8.52786e-06 DIIS
   @DF-RHF iter   7:  -929.16434912965371   -2.95731e-05   3.53282e-06 DIIS
   @DF-RHF iter   8:  -929.16435534741913   -6.21777e-06   1.30479e-06 DIIS
   @DF-RHF iter   9:  -929.16435627818805   -9.30769e-07   6.51023e-07 DIIS
   @DF-RHF iter  10:  -929.16435652124744   -2.43059e-07   2.38225e-07 DIIS
   @DF-RHF iter  11:  -929.16435656398392   -4.27365e-08   1.06557e-07 DIIS
   @DF-RHF iter  12:  -929.16435657092347   -6.93956e-09   3.80154e-08 DIIS
   @DF-RHF iter  13:  -929.16435657171201   -7.88532e-10   1.49533e-08 DIIS
   @DF-RHF iter  14:  -929.16435657180227   -9.02673e-11   5.31742e-09 DIIS
  Energy and wave function converged.


  ==> Post-Iterations <==

    Orbital Energies [Eh]
    ---------------------

    Doubly Occupied:                                                      

       1A    -15.633691     2A    -15.633673     3A    -15.593094  
       4A    -15.592542     5A    -15.574243     6A    -15.574193  
       7A    -15.558328     8A    -15.558306     9A    -15.548841  
      10A    -15.548811    11A    -11.340874    12A    -11.340747  
      13A    -11.327249    14A    -11.327220    15A    -11.318345  
      16A    -11.318338    17A    -11.310715    18A    -11.310681  
      19A    -11.253328    20A    -11.253312    21A     -1.362665  
      22A     -1.362588    23A     -1.293130    24A     -1.292222  
      25A     -1.244557    26A     -1.244132    27A     -1.184100  
      28A     -1.183944    29A     -1.143810    30A     -1.143045  
      31A     -1.029523    32A     -1.028974    33A     -0.890370  
      34A     -0.889883    35A     -0.870241    36A     -0.869089  
      37A     -0.839673    38A     -0.839612    39A     -0.774242  
      40A     -0.773727    41A     -0.736049    42A     -0.735495  
      43A     -0.693260    44A     -0.692639    45A     -0.671338  
      46A     -0.671114    47A     -0.631706    48A     -0.630688  
      49A     -0.630196    50A     -0.628719    51A     -0.607830  
      52A     -0.607497    53A     -0.586714    54A     -0.586051  
      55A     -0.554062    56A     -0.546891    57A     -0.495265  
      58A     -0.489891    59A     -0.488612    60A     -0.487514  
      61A     -0.442457    62A     -0.441357    63A     -0.419566  
      64A     -0.418357    65A     -0.400673    66A     -0.398352  
      67A     -0.366577    68A     -0.356799    69A     -0.304683  
      70A     -0.300467  

    Virtual:                                                              

      71A      0.028945    72A      0.029820    73A      0.033665  
      74A      0.048349    75A      0.048496    76A      0.054243  
      77A      0.058204    78A      0.065102    79A      0.068530  
      80A      0.077351    81A      0.086055    82A      0.094317  
      83A      0.095909    84A      0.102899    85A      0.110123  
      86A      0.113270    87A      0.114453    88A      0.117464  
      89A      0.124840    90A      0.129127    91A      0.131320  
      92A      0.134070    93A      0.135612    94A      0.136285  
      95A      0.137173    96A      0.141811    97A      0.148818  
      98A      0.152185    99A      0.154015   100A      0.156031  
     101A      0.158361   102A      0.164757   103A      0.165980  
     104A      0.168343   105A      0.173067   106A      0.175743  
     107A      0.175987   108A      0.182217   109A      0.183021  
     110A      0.188649   111A      0.192065   112A      0.195258  
     113A      0.196608   114A      0.202401   115A      0.204929  
     116A      0.208470   117A      0.221434   118A      0.224009  
     119A      0.224856   120A      0.226894   121A      0.234925  
     122A      0.240967   123A      0.244250   124A      0.245630  
     125A      0.246289   126A      0.249432   127A      0.260751  
     128A      0.262253   129A      0.266233   130A      0.277464  
     131A      0.278733   132A      0.280464   133A      0.284050  
     134A      0.284192   135A      0.285629   136A      0.289773  
     137A      0.294890   138A      0.298291   139A      0.299590  
     140A      0.305806   141A      0.307702   142A      0.313188  
     143A      0.314958   144A      0.322434   145A      0.325117  
     146A      0.328957   147A      0.335823   148A      0.337300  
     149A      0.341574   150A      0.345611   151A      0.347820  
     152A      0.352680   153A      0.355503   154A      0.356545  
     155A      0.364476   156A      0.369315   157A      0.372534  
     158A      0.373808   159A      0.376184   160A      0.382211  
     161A      0.387802   162A      0.392093   163A      0.401919  
     164A      0.404244   165A      0.407167   166A      0.411292  
     167A      0.414252   168A      0.415883   169A      0.422869  
     170A      0.425797   171A      0.429298   172A      0.431587  
     173A      0.442347   174A      0.442582   175A      0.448314  
     176A      0.455977   177A      0.457323   178A      0.464221  
     179A      0.465395   180A      0.466924   181A      0.468305  
     182A      0.472799   183A      0.481223   184A      0.481854  
     185A      0.485655   186A      0.493221   187A      0.495030  
     188A      0.501579   189A      0.504309   190A      0.511382  
     191A      0.515375   192A      0.518656   193A      0.523420  
     194A      0.528566   195A      0.530861   196A      0.540412  
     197A      0.554659   198A      0.556815   199A      0.561878  
     200A      0.567084   201A      0.571198   202A      0.576148  
     203A      0.578815   204A      0.585115   205A      0.585922  
     206A      0.595008   207A      0.596337   208A      0.606463  
     209A      0.610242   210A      0.618022   211A      0.619155  
     212A      0.627305   213A      0.631838   214A      0.632725  
     215A      0.638624   216A      0.642028   217A      0.644684  
     218A      0.650105   219A      0.660231   220A      0.662593  
     221A      0.666114   222A      0.671299   223A      0.672098  
     224A      0.676643   225A      0.679821   226A      0.688270  
     227A      0.688618   228A      0.693847   229A      0.696554  
     230A      0.700497   231A      0.708645   232A      0.709160  
     233A      0.712754   234A      0.717594   235A      0.718118  
     236A      0.725432   237A      0.726136   238A      0.731339  
     239A      0.734114   240A      0.739920   241A      0.742745  
     242A      0.748910   243A      0.757867   244A      0.761388  
     245A      0.764937   246A      0.785256   247A      0.790097  
     248A      0.798765   249A      0.801470   250A      0.807449  
     251A      0.810785   252A      0.814052   253A      0.817660  
     254A      0.823149   255A      0.825002   256A      0.830907  
     257A      0.835818   258A      0.837004   259A      0.839718  
     260A      0.848909   261A      0.856412   262A      0.862466  
     263A      0.865935   264A      0.869121   265A      0.870927  
     266A      0.882607   267A      0.885123   268A      0.886855  
     269A      0.898804   270A      0.908809   271A      0.910222  
     272A      0.915138   273A      0.916071   274A      0.924729  
     275A      0.925849   276A      0.930169   277A      0.942864  
     278A      0.951740   279A      0.956437   280A      0.959506  
     281A      0.966579   282A      0.970880   283A      0.973146  
     284A      0.982973   285A      0.984752   286A      0.987954  
     287A      1.001106   288A      1.006225   289A      1.010474  
     290A      1.013320   291A      1.018450   292A      1.028306  
     293A      1.030129   294A      1.031097   295A      1.039490  
     296A      1.041784   297A      1.046640   298A      1.048952  
     299A      1.055446   300A      1.057789   301A      1.071130  
     302A      1.072948   303A      1.088926   304A      1.091727  
     305A      1.093065   306A      1.101026   307A      1.104066  
     308A      1.122227   309A      1.127643   310A      1.133225  
     311A      1.134311   312A      1.136706   313A      1.142635  
     314A      1.153594   315A      1.156173   316A      1.159103  
     317A      1.164940   318A      1.175225   319A      1.178475  
     320A      1.186987   321A      1.194047   322A      1.202133  
     323A      1.210363   324A      1.226230   325A      1.229573  
     326A      1.247392   327A      1.255373   328A      1.258395  
     329A      1.272004   330A      1.293197   331A      1.300313  
     332A      1.324233   333A      1.326122   334A      1.335692  
     335A      1.336858   336A      1.345621   337A      1.355155  
     338A      1.373497   339A      1.380907   340A      1.393347  
     341A      1.395718   342A      1.405944   343A      1.408817  
     344A      1.419571   345A      1.421536   346A      1.433376  
     347A      1.451636   348A      1.459884   349A      1.466564  
     350A      1.469708   351A      1.488194   352A      1.496043  
     353A      1.503519   354A      1.534558   355A      1.539187  
     356A      1.548355   357A      1.554454   358A      1.573881  
     359A      1.589330   360A      1.591064   361A      1.595920  
     362A      1.601225   363A      1.618245   364A      1.626495  
     365A      1.632828   366A      1.636204   367A      1.651942  
     368A      1.659426   369A      1.675293   370A      1.682842  
     371A      1.696827   372A      1.697966   373A      1.708259  
     374A      1.710598   375A      1.719949   376A      1.727252  
     377A      1.742874   378A      1.743020   379A      1.747073  
     380A      1.754404   381A      1.776372   382A      1.779776  
     383A      1.786693   384A      1.787293   385A      1.808698  
     386A      1.813499   387A      1.822036   388A      1.827656  
     389A      1.846454   390A      1.857816   391A      1.868027  
     392A      1.876940   393A      1.891801   394A      1.893437  
     395A      1.903438   396A      1.912219   397A      1.920992  
     398A      1.925115   399A      1.942407   400A      1.950584  
     401A      1.961260   402A      1.970365   403A      1.973327  
     404A      1.979972   405A      1.982734   406A      1.985560  
     407A      2.011935   408A      2.041340   409A      2.052162  
     410A      2.056630   411A      2.062715   412A      2.070188  
     413A      2.072103   414A      2.080715   415A      2.089668  
     416A      2.098818   417A      2.107843   418A      2.114285  
     419A      2.118388   420A      2.119310   421A      2.139365  
     422A      2.158754   423A      2.162690   424A      2.179335  
     425A      2.197351   426A      2.199664   427A      2.210387  
     428A      2.220360   429A      2.225248   430A      2.241072  
     431A      2.245035   432A      2.257805   433A      2.259658  
     434A      2.271815   435A      2.277223   436A      2.278468  
     437A      2.293311   438A      2.295162   439A      2.304205  
     440A      2.309275   441A      2.315812   442A      2.329995  
     443A      2.331133   444A      2.342812   445A      2.364041  
     446A      2.366705   447A      2.374298   448A      2.381897  
     449A      2.390488   450A      2.398550   451A      2.406375  
     452A      2.411780   453A      2.433205   454A      2.435916  
     455A      2.458233   456A      2.470622   457A      2.476855  
     458A      2.491705   459A      2.497875   460A      2.511425  
     461A      2.516900   462A      2.535212   463A      2.558791  
     464A      2.564245   465A      2.576834   466A      2.581271  
     467A      2.613954   468A      2.617387   469A      2.638950  
     470A      2.644907   471A      2.650320   472A      2.659045  
     473A      2.672550   474A      2.676910   475A      2.720974  
     476A      2.724719   477A      2.726674   478A      2.734992  
     479A      2.740255   480A      2.745740   481A      2.746402  
     482A      2.749667   483A      2.770218   484A      2.786413  
     485A      2.789896   486A      2.797941   487A      2.809332  
     488A      2.813297   489A      2.816707   490A      2.827682  
     491A      2.831777   492A      2.841728   493A      2.847291  
     494A      2.850379   495A      2.856315   496A      2.860525  
     497A      2.869824   498A      2.876635   499A      2.898213  
     500A      2.908246   501A      2.914924   502A      2.919182  
     503A      2.925956   504A      2.942171   505A      2.957168  
     506A      2.977014   507A      3.002372   508A      3.012524  
     509A      3.037084   510A      3.052867   511A      3.057439  
     512A      3.062155   513A      3.068561   514A      3.079142  
     515A      3.115967   516A      3.134594   517A      3.185780  
     518A      3.195160   519A      3.214645   520A      3.218208  
     521A      3.245959   522A      3.281321   523A      3.291138  
     524A      3.300939   525A      3.307909   526A      3.314494  
     527A      3.337216   528A      3.337880   529A      3.394667  
     530A      3.406051   531A      3.432689   532A      3.439098  
     533A      3.497495   534A      3.498326   535A      3.509114  
     536A      3.521452   537A      3.525635   538A      3.550633  
     539A      3.675531   540A      3.703434   541A      3.750007  
     542A      3.770914   543A      3.835359   544A      3.844122  
     545A      3.910893   546A      3.917765   547A      4.161788  
     548A      4.187609   549A      4.549193   550A      4.633270  

    Final Occupation by Irrep:
              A 
    DOCC [    70 ]

  @DF-RHF Final Energy:  -929.16435657180227

   => Energetics <=

    Nuclear Repulsion Energy =           1441.8400755713444141
    One-Electron Energy =               -4129.6151132556487937
    Two-Electron Energy =                1758.6106811125018794
    Total Energy =                       -929.1643565718022728

Computation Completed


Properties will be evaluated at   0.000000,   0.000000,   0.000000 [a0]

Properties computed using the SCF density matrix

  Nuclear Dipole Moment: [e a0]
     X:     2.8682      Y:     1.1298      Z:    -0.0020

  Electronic Dipole Moment: [e a0]
     X:    -2.9199      Y:    -1.1523      Z:    -0.0189

  Dipole Moment: [e a0]
     X:    -0.0517      Y:    -0.0224      Z:    -0.0209     Total:     0.0601

  Dipole Moment: [D]
     X:    -0.1313      Y:    -0.0571      Z:    -0.0532     Total:     0.1527


*** tstop() called on node154.bme.utexas.edu at Sun May 12 23:30:33 2024
Module time:
	user time   =     273.93 seconds =       4.57 minutes
	system time =       3.14 seconds =       0.05 minutes
	total time  =         38 seconds =       0.63 minutes
Total time:
	user time   =     273.93 seconds =       4.57 minutes
	system time =       3.14 seconds =       0.05 minutes
	total time  =         38 seconds =       0.63 minutes

*** tstart() called on node154.bme.utexas.edu
*** at Sun May 12 23:30:33 2024


  //>>>>>>>>>>>>>>>>>>>>>>>>>>>>>>>>>>>//
  //               DFMP2               //
  //<<<<<<<<<<<<<<<<<<<<<<<<<<<<<<<<<<<//

   => Loading Basis Set <=

    Name: (AUG-CC-PVDZ AUX)
    Role: RIFIT
    Keyword: DF_BASIS_MP2
    atoms 1, 3, 7, 9, 11, 16, 18, 22, 24, 26 entry N          line   158 file /opt/anaconda/envs/psi4v1.5/share/psi4/basis/aug-cc-pvdz-ri.gbs 
    atoms 2, 4-6, 8, 17, 19-21, 23           entry C          line   112 file /opt/anaconda/envs/psi4v1.5/share/psi4/basis/aug-cc-pvdz-ri.gbs 
    atoms 10, 12-15, 25, 27-30               entry H          line    30 file /opt/anaconda/envs/psi4v1.5/share/psi4/basis/aug-cc-pvdz-ri.gbs 

	 --------------------------------------------------------
	                          DF-MP2                         
	      2nd-Order Density-Fitted Moller-Plesset Theory     
	              RMP2 Wavefunction,   8 Threads             
	                                                         
	        Rob Parrish, Justin Turney, Andy Simmonett,      
	           Ed Hohenstein, and C. David Sherrill          
	 --------------------------------------------------------

   => Auxiliary Basis Set <=

  Basis Set: (AUG-CC-PVDZ AUX)
    Blend: AUG-CC-PVDZ-RI
    Number of shells: 530
    Number of basis functions: 1670
    Number of Cartesian functions: 1970
    Spherical Harmonics?: true
    Max angular momentum: 3

	 --------------------------------------------------------
	                 NBF =   550, NAUX =  1670
	 --------------------------------------------------------
	   CLASS    FOCC     OCC    AOCC    AVIR     VIR    FVIR
	   PAIRS      20      70      50     480     480       0
	 --------------------------------------------------------

	 Will save fitting metric to file 97.

	-----------------------------------------------------------
	 ==================> DF-MP2 Energies <==================== 
	-----------------------------------------------------------
	 Reference Energy          =    -929.1643565718022728 [Eh]
	 Singles Energy            =      -0.0000000000000000 [Eh]
	 Same-Spin Energy          =      -0.8463026208017741 [Eh]
	 Opposite-Spin Energy      =      -2.1820126608659032 [Eh]
	 Correlation Energy        =      -3.0283152816676773 [Eh]
	 Total Energy              =    -932.1926718534699603 [Eh]
	-----------------------------------------------------------
	 ================> DF-SCS-MP2 Energies <================== 
	-----------------------------------------------------------
	 SCS Same-Spin Scale       =       0.3333333333333333 [-]
	 SCS Opposite-Spin Scale   =       1.2000000000000000 [-]
	 SCS Same-Spin Energy      =      -0.2821008736005913 [Eh]
	 SCS Opposite-Spin Energy  =      -2.6184151930390835 [Eh]
	 SCS Correlation Energy    =      -2.9005160666396748 [Eh]
	 SCS Total Energy          =    -932.0648726384418978 [Eh]
	-----------------------------------------------------------


*** tstop() called on node154.bme.utexas.edu at Sun May 12 23:30:42 2024
Module time:
	user time   =      59.53 seconds =       0.99 minutes
	system time =       1.23 seconds =       0.02 minutes
	total time  =          9 seconds =       0.15 minutes
Total time:
	user time   =     333.47 seconds =       5.56 minutes
	system time =       4.37 seconds =       0.07 minutes
	total time  =         47 seconds =       0.78 minutes

  //>>>>>>>>>>>>>>>>>>>>>>>>>>>>>>>>>>>//
  //            Monomer A HF           //
  //<<<<<<<<<<<<<<<<<<<<<<<<<<<<<<<<<<<//


*** tstart() called on node154.bme.utexas.edu
*** at Sun May 12 23:30:42 2024

   => Loading Basis Set <=

    Name: AUG-CC-PVDZ
    Role: ORBITAL
    Keyword: BASIS
    atoms 1, 3, 7, 9, 11, 16, 18, 22, 24, 26 entry N          line   218 file /opt/anaconda/envs/psi4v1.5/share/psi4/basis/aug-cc-pvdz.gbs 
    atoms 2, 4-6, 8, 17, 19-21, 23           entry C          line   182 file /opt/anaconda/envs/psi4v1.5/share/psi4/basis/aug-cc-pvdz.gbs 
    atoms 10, 12-15, 25, 27-30               entry H          line    40 file /opt/anaconda/envs/psi4v1.5/share/psi4/basis/aug-cc-pvdz.gbs 


         ---------------------------------------------------------
                                   SCF
               by Justin Turney, Rob Parrish, Andy Simmonett
                          and Daniel G. A. Smith
                              RHF Reference
                        8 Threads,  76293 MiB Core
         ---------------------------------------------------------

  ==> Geometry <==

    Molecular point group: c1
    Full point group: C1

    Geometry (in Angstrom), charge = 0, multiplicity = 1:

       Center              X                  Y                   Z               Mass       
    ------------   -----------------  -----------------  -----------------  -----------------
         N            0.751621422596    -0.214624689177    -1.648684364318    14.003074004430
         C           -0.517450577404    -0.669996689177    -1.648641364318    12.000000000000
         N           -0.930979577404    -1.937880689177    -1.648503364318    14.003074004430
         C            0.106915422596    -2.790977689177    -1.648439364318    12.000000000000
         C            1.468358422596    -2.465869689177    -1.648513364318    12.000000000000
         C            1.784994422596    -1.087230689177    -1.648636364318    12.000000000000
         N            2.259032422596    -3.603007689177    -1.648425364318    14.003074004430
         C            1.396891422596    -4.593173689177    -1.648305364318    12.000000000000
         N            0.081377422596    -4.167944689177    -1.648305364318    14.003074004430
         H           -1.281327577404     0.109358310823    -1.648701364318     1.007825032230
         N            3.044160422596    -0.617366689177    -1.648704364318    14.003074004430
         H            3.805344422596    -1.279110689177    -1.648702364318     1.007825032230
         H            3.223632422596     0.391580310823    -1.648886364318     1.007825032230
         H            1.652435422596    -5.648114689177    -1.648211364318     1.007825032230
         H           -0.749085577404    -4.743481689177    -1.648215364318     1.007825032230
      Gh(N)           0.235856422596     0.604300310823     1.701467635682    14.003074004430
      Gh(C)          -1.002723577404     0.071708310823     1.688325635682    12.000000000000
      Gh(N)          -2.169533577404     0.716630310823     1.654175635682    14.003074004430
      Gh(C)          -1.992070577404     2.048180310823     1.632262635682    12.000000000000
      Gh(C)          -0.774743577404     2.739006310823     1.642047635682    12.000000000000
      Gh(C)           0.396711422596     1.947030310823     1.679048635682    12.000000000000
      Gh(N)          -0.971729577404     4.109614310823     1.612369635682    14.003074004430
      Gh(C)          -2.277296577404     4.245539310823     1.585262635682    12.000000000000
      Gh(N)          -2.949492577404     3.037465310823     1.595523635682    14.003074004430
      Gh(H)          -1.030058577404    -1.019047689177     1.708490635682     1.007825032230
      Gh(N)           1.637926422596     2.462271310823     1.692593635682    14.003074004430
      Gh(H)           1.743472422596     3.465205310823     1.675608635682     1.007825032230
      Gh(H)           2.457029422596     1.847031310823     1.719723635682     1.007825032230
      Gh(H)          -2.809609577404     5.191090310823     1.557340635682     1.007825032230
      Gh(H)          -3.949219577404     2.891859310823     1.579488635682     1.007825032230

  Running in c1 symmetry.

  Rotational constants: A =      0.02612  B =      0.00582  C =      0.00525 [cm^-1]
  Rotational constants: A =    783.11783  B =    174.35194  C =    157.39031 [MHz]
  Nuclear repulsion =  501.306590497387219

  Charge       = 0
  Multiplicity = 1
  Electrons    = 70
  Nalpha       = 35
  Nbeta        = 35

  ==> Algorithm <==

  SCF Algorithm Type is DF.
  DIIS enabled.
  MOM disabled.
  Fractional occupation disabled.
  Guess Type is SAD.
  Energy threshold   = 1.00e-08
  Density threshold  = 1.00e-08
  Integral threshold = 1.00e-12

  ==> Primary Basis <==

  Basis Set: AUG-CC-PVDZ
    Blend: AUG-CC-PVDZ
    Number of shells: 230
    Number of basis functions: 550
    Number of Cartesian functions: 590
    Spherical Harmonics?: true
    Max angular momentum: 2

   => Loading Basis Set <=

    Name: (AUG-CC-PVDZ AUX)
    Role: JKFIT
    Keyword: DF_BASIS_SCF
    atoms 1, 3, 7, 9, 11, 16, 18, 22, 24, 26 entry N          line   212 file /opt/anaconda/envs/psi4v1.5/share/psi4/basis/aug-cc-pvdz-jkfit.gbs 
    atoms 2, 4-6, 8, 17, 19-21, 23           entry C          line   154 file /opt/anaconda/envs/psi4v1.5/share/psi4/basis/aug-cc-pvdz-jkfit.gbs 
    atoms 10, 12-15, 25, 27-30               entry H          line    70 file /opt/anaconda/envs/psi4v1.5/share/psi4/basis/aug-cc-pvdz-jkfit.gbs 

  ==> Integral Setup <==

  ==> DiskDFJK: Density-Fitted J/K Matrices <==

    J tasked:                  Yes
    K tasked:                  Yes
    wK tasked:                  No
    OpenMP threads:              8
    Integrals threads:           8
    Memory [MiB]:            57220
    Algorithm:                Core
    Integral Cache:           LOAD
    Schwarz Cutoff:          1E-12
    Fitting Condition:       1E-10

   => Auxiliary Basis Set <=

  Basis Set: (AUG-CC-PVDZ AUX)
    Blend: AUG-CC-PVDZ-JKFIT
    Number of shells: 680
    Number of basis functions: 2040
    Number of Cartesian functions: 2370
    Spherical Harmonics?: true
    Max angular momentum: 3

  Minimum eigenvalue in the overlap matrix is 2.6229438220E-06.
  Reciprocal condition number of the overlap matrix is 1.6362924111E-07.
    Using symmetric orthogonalization.

  ==> Pre-Iterations <==

  SCF Guess: Superposition of Atomic Densities via on-the-fly atomic UHF (no occupation information).

   -------------------------
    Irrep   Nso     Nmo    
   -------------------------
     A        550     550 
   -------------------------
    Total     550     550
   -------------------------

  ==> Iterations <==

                           Total Energy        Delta E     RMS |[F,P]|

   @DF-RHF iter SAD:  -464.35706254273396   -4.64357e+02   0.00000e+00 
   @DF-RHF iter   1:  -464.34823087172322    8.83167e-03   1.17452e-03 DIIS
   @DF-RHF iter   2:  -464.53808424018399   -1.89853e-01   5.65907e-04 DIIS
   @DF-RHF iter   3:  -464.58012353781066   -4.20393e-02   1.31442e-04 DIIS
   @DF-RHF iter   4:  -464.58328325777302   -3.15972e-03   6.02316e-05 DIIS
   @DF-RHF iter   5:  -464.58387827398678   -5.95016e-04   1.20223e-05 DIIS
   @DF-RHF iter   6:  -464.58392866658573   -5.03926e-05   5.85124e-06 DIIS
   @DF-RHF iter   7:  -464.58394239723032   -1.37306e-05   2.35096e-06 DIIS
   @DF-RHF iter   8:  -464.58394532445703   -2.92723e-06   8.57975e-07 DIIS
   @DF-RHF iter   9:  -464.58394573189923   -4.07442e-07   4.43382e-07 DIIS
   @DF-RHF iter  10:  -464.58394583893471   -1.07035e-07   1.63979e-07 DIIS
   @DF-RHF iter  11:  -464.58394585916574   -2.02310e-08   6.98895e-08 DIIS
   @DF-RHF iter  12:  -464.58394586225847   -3.09274e-09   2.55389e-08 DIIS
   @DF-RHF iter  13:  -464.58394586262398   -3.65503e-10   9.57482e-09 DIIS
  Energy and wave function converged.


  ==> Post-Iterations <==

    Orbital Energies [Eh]
    ---------------------

    Doubly Occupied:                                                      

       1A    -15.638776     2A    -15.597902     3A    -15.579140  
       4A    -15.564998     5A    -15.556845     6A    -11.347388  
       7A    -11.332347     8A    -11.324333     9A    -11.318280  
      10A    -11.259285    11A     -1.368056    12A     -1.299280  
      13A     -1.250250    14A     -1.189272    15A     -1.150129  
      16A     -1.035201    17A     -0.896099    18A     -0.875963  
      19A     -0.844882    20A     -0.779814    21A     -0.741319  
      22A     -0.698396    23A     -0.677095    24A     -0.636423  
      25A     -0.635484    26A     -0.613338    27A     -0.592805  
      28A     -0.556826    29A     -0.497721    30A     -0.494818  
      31A     -0.448283    32A     -0.424125    33A     -0.406339  
      34A     -0.368971    35A     -0.308332  

    Virtual:                                                              

      36A      0.024021    37A      0.027434    38A      0.034492  
      39A      0.042110    40A      0.046778    41A      0.048353  
      42A      0.057083    43A      0.064108    44A      0.066381  
      45A      0.073198    46A      0.076401    47A      0.083682  
      48A      0.089283    49A      0.095530    50A      0.102324  
      51A      0.105924    52A      0.108539    53A      0.109927  
      54A      0.114463    55A      0.117039    56A      0.120339  
      57A      0.125963    58A      0.127026    59A      0.132823  
      60A      0.135829    61A      0.137879    62A      0.142854  
      63A      0.145100    64A      0.149792    65A      0.154277  
      66A      0.155198    67A      0.160016    68A      0.164467  
      69A      0.165671    70A      0.167842    71A      0.172516  
      72A      0.174990    73A      0.177834    74A      0.181668  
      75A      0.187803    76A      0.192978    77A      0.194793  
      78A      0.199349    79A      0.202049    80A      0.209464  
      81A      0.213408    82A      0.213877    83A      0.218852  
      84A      0.222015    85A      0.224019    86A      0.228534  
      87A      0.236273    88A      0.238799    89A      0.244871  
      90A      0.247997    91A      0.252175    92A      0.253290  
      93A      0.259490    94A      0.261110    95A      0.265041  
      96A      0.268512    97A      0.273078    98A      0.274892  
      99A      0.278398   100A      0.282447   101A      0.283914  
     102A      0.287623   103A      0.294109   104A      0.295932  
     105A      0.299835   106A      0.302523   107A      0.308183  
     108A      0.309911   109A      0.313954   110A      0.321637  
     111A      0.322957   112A      0.325838   113A      0.332704  
     114A      0.333850   115A      0.337235   116A      0.346596  
     117A      0.350549   118A      0.354289   119A      0.358007  
     120A      0.364348   121A      0.366693   122A      0.368587  
     123A      0.370966   124A      0.376918   125A      0.380785  
     126A      0.384385   127A      0.396686   128A      0.403212  
     129A      0.407230   130A      0.407910   131A      0.409199  
     132A      0.420739   133A      0.425231   134A      0.427133  
     135A      0.436702   136A      0.442240   137A      0.447323  
     138A      0.452437   139A      0.458618   140A      0.465789  
     141A      0.468350   142A      0.471478   143A      0.478598  
     144A      0.482581   145A      0.488599   146A      0.495957  
     147A      0.498970   148A      0.505115   149A      0.506927  
     150A      0.510691   151A      0.516854   152A      0.520787  
     153A      0.527429   154A      0.532147   155A      0.533133  
     156A      0.536706   157A      0.543911   158A      0.549209  
     159A      0.555530   160A      0.558834   161A      0.561420  
     162A      0.565724   163A      0.568309   164A      0.572116  
     165A      0.580622   166A      0.584386   167A      0.585477  
     168A      0.589683   169A      0.592555   170A      0.598336  
     171A      0.600163   172A      0.602871   173A      0.610563  
     174A      0.617847   175A      0.620721   176A      0.622248  
     177A      0.627449   178A      0.631766   179A      0.635957  
     180A      0.642094   181A      0.646311   182A      0.646635  
     183A      0.652677   184A      0.658954   185A      0.660777  
     186A      0.664765   187A      0.669266   188A      0.677170  
     189A      0.680477   190A      0.686513   191A      0.692184  
     192A      0.694999   193A      0.696506   194A      0.702605  
     195A      0.708760   196A      0.712847   197A      0.714659  
     198A      0.718957   199A      0.725205   200A      0.728766  
     201A      0.737197   202A      0.743587   203A      0.746933  
     204A      0.756995   205A      0.765020   206A      0.770664  
     207A      0.779361   208A      0.783093   209A      0.790702  
     210A      0.795613   211A      0.803637   212A      0.805690  
     213A      0.810456   214A      0.813970   215A      0.817041  
     216A      0.825284   217A      0.831804   218A      0.837871  
     219A      0.839003   220A      0.847222   221A      0.850923  
     222A      0.859237   223A      0.868626   224A      0.870543  
     225A      0.872480   226A      0.886517   227A      0.887718  
     228A      0.894690   229A      0.897870   230A      0.906957  
     231A      0.913519   232A      0.920285   233A      0.933898  
     234A      0.938114   235A      0.943763   236A      0.948547  
     237A      0.953658   238A      0.954123   239A      0.966313  
     240A      0.969467   241A      0.970778   242A      0.976136  
     243A      0.980093   244A      0.988829   245A      0.990437  
     246A      1.000461   247A      1.003208   248A      1.015395  
     249A      1.021099   250A      1.032888   251A      1.032980  
     252A      1.041093   253A      1.048233   254A      1.050202  
     255A      1.057410   256A      1.067169   257A      1.070674  
     258A      1.078714   259A      1.086205   260A      1.094711  
     261A      1.097985   262A      1.107701   263A      1.114136  
     264A      1.116709   265A      1.128371   266A      1.135920  
     267A      1.139437   268A      1.148289   269A      1.150006  
     270A      1.154774   271A      1.157963   272A      1.165922  
     273A      1.169275   274A      1.183279   275A      1.185785  
     276A      1.191018   277A      1.199304   278A      1.199601  
     279A      1.207117   280A      1.214702   281A      1.216590  
     282A      1.226002   283A      1.234410   284A      1.237014  
     285A      1.246755   286A      1.248026   287A      1.251756  
     288A      1.275119   289A      1.285539   290A      1.288707  
     291A      1.294688   292A      1.303130   293A      1.306767  
     294A      1.315465   295A      1.325133   296A      1.333008  
     297A      1.338970   298A      1.352072   299A      1.355630  
     300A      1.361778   301A      1.370694   302A      1.378350  
     303A      1.381519   304A      1.386825   305A      1.393431  
     306A      1.400931   307A      1.406486   308A      1.414992  
     309A      1.418880   310A      1.429458   311A      1.437906  
     312A      1.452993   313A      1.456575   314A      1.464898  
     315A      1.480364   316A      1.485336   317A      1.492636  
     318A      1.505461   319A      1.513976   320A      1.530877  
     321A      1.536143   322A      1.540801   323A      1.543505  
     324A      1.562781   325A      1.575847   326A      1.587745  
     327A      1.592016   328A      1.605705   329A      1.616410  
     330A      1.623405   331A      1.631840   332A      1.651997  
     333A      1.680558   334A      1.683762   335A      1.690676  
     336A      1.702106   337A      1.707286   338A      1.727927  
     339A      1.731083   340A      1.735991   341A      1.746185  
     342A      1.755903   343A      1.762304   344A      1.772816  
     345A      1.778852   346A      1.789589   347A      1.802525  
     348A      1.819494   349A      1.826490   350A      1.859243  
     351A      1.867968   352A      1.896077   353A      1.907437  
     354A      1.917493   355A      1.933051   356A      1.960350  
     357A      1.969532   358A      1.976230   359A      2.004236  
     360A      2.035446   361A      2.059051   362A      2.069002  
     363A      2.076171   364A      2.105286   365A      2.109150  
     366A      2.142995   367A      2.147815   368A      2.154971  
     369A      2.175123   370A      2.189193   371A      2.195996  
     372A      2.198472   373A      2.217664   374A      2.245126  
     375A      2.251055   376A      2.264220   377A      2.269036  
     378A      2.284160   379A      2.288034   380A      2.288473  
     381A      2.309008   382A      2.313022   383A      2.326387  
     384A      2.334521   385A      2.344281   386A      2.352963  
     387A      2.363231   388A      2.378419   389A      2.393027  
     390A      2.402249   391A      2.404116   392A      2.418743  
     393A      2.426285   394A      2.434553   395A      2.445732  
     396A      2.455154   397A      2.458967   398A      2.476544  
     399A      2.486789   400A      2.494265   401A      2.494795  
     402A      2.502275   403A      2.521281   404A      2.528286  
     405A      2.541832   406A      2.553873   407A      2.558224  
     408A      2.579179   409A      2.583501   410A      2.600814  
     411A      2.613351   412A      2.615083   413A      2.633428  
     414A      2.636710   415A      2.641612   416A      2.654353  
     417A      2.666813   418A      2.676192   419A      2.716840  
     420A      2.723136   421A      2.728073   422A      2.737608  
     423A      2.748611   424A      2.763219   425A      2.779089  
     426A      2.789031   427A      2.793877   428A      2.810130  
     429A      2.812992   430A      2.822864   431A      2.829846  
     432A      2.837498   433A      2.844306   434A      2.854794  
     435A      2.863442   436A      2.881843   437A      2.892022  
     438A      2.904584   439A      2.908424   440A      2.919431  
     441A      2.924264   442A      2.953150   443A      2.960632  
     444A      2.982551   445A      2.997467   446A      3.008326  
     447A      3.029502   448A      3.049162   449A      3.055126  
     450A      3.068397   451A      3.114490   452A      3.126774  
     453A      3.150159   454A      3.184071   455A      3.191115  
     456A      3.197600   457A      3.215952   458A      3.237478  
     459A      3.255119   460A      3.270439   461A      3.288103  
     462A      3.295944   463A      3.326655   464A      3.335739  
     465A      3.359185   466A      3.377666   467A      3.387020  
     468A      3.398718   469A      3.410338   470A      3.431848  
     471A      3.440906   472A      3.452271   473A      3.481682  
     474A      3.492464   475A      3.502225   476A      3.510330  
     477A      3.525764   478A      3.540883   479A      3.543509  
     480A      3.556612   481A      3.595760   482A      3.611478  
     483A      3.624386   484A      3.644562   485A      3.667699  
     486A      3.673306   487A      3.684514   488A      3.703480  
     489A      3.710828   490A      3.731043   491A      3.753164  
     492A      3.767707   493A      3.799310   494A      3.801253  
     495A      3.814673   496A      3.836537   497A      3.845894  
     498A      3.862770   499A      3.881539   500A      3.909350  
     501A      3.937348   502A      3.941124   503A      4.003713  
     504A      4.016654   505A      4.120297   506A      4.169253  
     507A      4.224259   508A      4.305632   509A      4.365733  
     510A      4.479056   511A      4.509515   512A      4.587974  
     513A      4.624328   514A      4.714126   515A      4.749786  
     516A      4.770371   517A      4.792193   518A      4.868026  
     519A      4.885019   520A      4.944888   521A      5.003082  
     522A      5.081008   523A      5.236156   524A      5.286479  
     525A      5.343221   526A      5.465241   527A      5.537227  
     528A      5.580678   529A      5.615367   530A      5.702216  
     531A      5.766366   532A      5.808301   533A      5.838193  
     534A      5.897937   535A      6.064989   536A      6.134557  
     537A      6.184434   538A      6.229083   539A      6.333807  
     540A      6.429367   541A     18.262640   542A     18.618777  
     543A     18.714243   544A     19.164723   545A     20.165315  
     546A     25.331951   547A     25.367797   548A     25.379356  
     549A     25.508738   550A     25.560128  

    Final Occupation by Irrep:
              A 
    DOCC [    35 ]

  @DF-RHF Final Energy:  -464.58394586262398

   => Energetics <=

    Nuclear Repulsion Energy =            501.3065904973872193
    One-Electron Energy =               -1625.1640378305150989
    Two-Electron Energy =                 659.2735014705037884
    Total Energy =                       -464.5839458626239775

Computation Completed


Properties will be evaluated at   0.000000,   0.000000,   0.000000 [a0]

Properties computed using the SCF density matrix

  Nuclear Dipole Moment: [e a0]
     X:   129.4949      Y:  -292.1498      Z:  -218.0674

  Electronic Dipole Moment: [e a0]
     X:  -129.1674      Y:   291.2539      Z:   218.0667

  Dipole Moment: [e a0]
     X:     0.3275      Y:    -0.8959      Z:    -0.0007     Total:     0.9539

  Dipole Moment: [D]
     X:     0.8324      Y:    -2.2772      Z:    -0.0017     Total:     2.4245


*** tstop() called on node154.bme.utexas.edu at Sun May 12 23:31:06 2024
Module time:
	user time   =     168.51 seconds =       2.81 minutes
	system time =       1.55 seconds =       0.03 minutes
	total time  =         24 seconds =       0.40 minutes
Total time:
	user time   =     502.00 seconds =       8.37 minutes
	system time =       5.92 seconds =       0.10 minutes
	total time  =         71 seconds =       1.18 minutes

*** tstart() called on node154.bme.utexas.edu
*** at Sun May 12 23:31:06 2024


  //>>>>>>>>>>>>>>>>>>>>>>>>>>>>>>>>>>>//
  //               DFMP2               //
  //<<<<<<<<<<<<<<<<<<<<<<<<<<<<<<<<<<<//

   => Loading Basis Set <=

    Name: (AUG-CC-PVDZ AUX)
    Role: RIFIT
    Keyword: DF_BASIS_MP2
    atoms 1, 3, 7, 9, 11, 16, 18, 22, 24, 26 entry N          line   158 file /opt/anaconda/envs/psi4v1.5/share/psi4/basis/aug-cc-pvdz-ri.gbs 
    atoms 2, 4-6, 8, 17, 19-21, 23           entry C          line   112 file /opt/anaconda/envs/psi4v1.5/share/psi4/basis/aug-cc-pvdz-ri.gbs 
    atoms 10, 12-15, 25, 27-30               entry H          line    30 file /opt/anaconda/envs/psi4v1.5/share/psi4/basis/aug-cc-pvdz-ri.gbs 

	 --------------------------------------------------------
	                          DF-MP2                         
	      2nd-Order Density-Fitted Moller-Plesset Theory     
	              RMP2 Wavefunction,   8 Threads             
	                                                         
	        Rob Parrish, Justin Turney, Andy Simmonett,      
	           Ed Hohenstein, and C. David Sherrill          
	 --------------------------------------------------------

   => Auxiliary Basis Set <=

  Basis Set: (AUG-CC-PVDZ AUX)
    Blend: AUG-CC-PVDZ-RI
    Number of shells: 530
    Number of basis functions: 1670
    Number of Cartesian functions: 1970
    Spherical Harmonics?: true
    Max angular momentum: 3

	 --------------------------------------------------------
	                 NBF =   550, NAUX =  1670
	 --------------------------------------------------------
	   CLASS    FOCC     OCC    AOCC    AVIR     VIR    FVIR
	   PAIRS      10      35      25     515     515       0
	 --------------------------------------------------------

	 Will attempt to load fitting metric from file 97.

	-----------------------------------------------------------
	 ==================> DF-MP2 Energies <==================== 
	-----------------------------------------------------------
	 Reference Energy          =    -464.5839458626239775 [Eh]
	 Singles Energy            =      -0.0000000000000000 [Eh]
	 Same-Spin Energy          =      -0.4214825498880087 [Eh]
	 Opposite-Spin Energy      =      -1.0892470247810038 [Eh]
	 Correlation Energy        =      -1.5107295746690124 [Eh]
	 Total Energy              =    -466.0946754372930059 [Eh]
	-----------------------------------------------------------
	 ================> DF-SCS-MP2 Energies <================== 
	-----------------------------------------------------------
	 SCS Same-Spin Scale       =       0.3333333333333333 [-]
	 SCS Opposite-Spin Scale   =       1.2000000000000000 [-]
	 SCS Same-Spin Energy      =      -0.1404941832960029 [Eh]
	 SCS Opposite-Spin Energy  =      -1.3070964297372045 [Eh]
	 SCS Correlation Energy    =      -1.4475906130332075 [Eh]
	 SCS Total Energy          =    -466.0315364756571626 [Eh]
	-----------------------------------------------------------


*** tstop() called on node154.bme.utexas.edu at Sun May 12 23:31:13 2024
Module time:
	user time   =      40.24 seconds =       0.67 minutes
	system time =       0.82 seconds =       0.01 minutes
	total time  =          7 seconds =       0.12 minutes
Total time:
	user time   =     542.25 seconds =       9.04 minutes
	system time =       6.74 seconds =       0.11 minutes
	total time  =         78 seconds =       1.30 minutes

  //>>>>>>>>>>>>>>>>>>>>>>>>>>>>>>>>>>>//
  //            Monomer B HF           //
  //<<<<<<<<<<<<<<<<<<<<<<<<<<<<<<<<<<<//


*** tstart() called on node154.bme.utexas.edu
*** at Sun May 12 23:31:13 2024

   => Loading Basis Set <=

    Name: AUG-CC-PVDZ
    Role: ORBITAL
    Keyword: BASIS
    atoms 1, 3, 7, 9, 11, 16, 18, 22, 24, 26 entry N          line   218 file /opt/anaconda/envs/psi4v1.5/share/psi4/basis/aug-cc-pvdz.gbs 
    atoms 2, 4-6, 8, 17, 19-21, 23           entry C          line   182 file /opt/anaconda/envs/psi4v1.5/share/psi4/basis/aug-cc-pvdz.gbs 
    atoms 10, 12-15, 25, 27-30               entry H          line    40 file /opt/anaconda/envs/psi4v1.5/share/psi4/basis/aug-cc-pvdz.gbs 


         ---------------------------------------------------------
                                   SCF
               by Justin Turney, Rob Parrish, Andy Simmonett
                          and Daniel G. A. Smith
                              RHF Reference
                        8 Threads,  76293 MiB Core
         ---------------------------------------------------------

  ==> Geometry <==

    Molecular point group: c1
    Full point group: C1

    Geometry (in Angstrom), charge = 0, multiplicity = 1:

       Center              X                  Y                   Z               Mass       
    ------------   -----------------  -----------------  -----------------  -----------------
      Gh(N)           0.751621422596    -0.214624689177    -1.648684364318    14.003074004430
      Gh(C)          -0.517450577404    -0.669996689177    -1.648641364318    12.000000000000
      Gh(N)          -0.930979577404    -1.937880689177    -1.648503364318    14.003074004430
      Gh(C)           0.106915422596    -2.790977689177    -1.648439364318    12.000000000000
      Gh(C)           1.468358422596    -2.465869689177    -1.648513364318    12.000000000000
      Gh(C)           1.784994422596    -1.087230689177    -1.648636364318    12.000000000000
      Gh(N)           2.259032422596    -3.603007689177    -1.648425364318    14.003074004430
      Gh(C)           1.396891422596    -4.593173689177    -1.648305364318    12.000000000000
      Gh(N)           0.081377422596    -4.167944689177    -1.648305364318    14.003074004430
      Gh(H)          -1.281327577404     0.109358310823    -1.648701364318     1.007825032230
      Gh(N)           3.044160422596    -0.617366689177    -1.648704364318    14.003074004430
      Gh(H)           3.805344422596    -1.279110689177    -1.648702364318     1.007825032230
      Gh(H)           3.223632422596     0.391580310823    -1.648886364318     1.007825032230
      Gh(H)           1.652435422596    -5.648114689177    -1.648211364318     1.007825032230
      Gh(H)          -0.749085577404    -4.743481689177    -1.648215364318     1.007825032230
         N            0.235856422596     0.604300310823     1.701467635682    14.003074004430
         C           -1.002723577404     0.071708310823     1.688325635682    12.000000000000
         N           -2.169533577404     0.716630310823     1.654175635682    14.003074004430
         C           -1.992070577404     2.048180310823     1.632262635682    12.000000000000
         C           -0.774743577404     2.739006310823     1.642047635682    12.000000000000
         C            0.396711422596     1.947030310823     1.679048635682    12.000000000000
         N           -0.971729577404     4.109614310823     1.612369635682    14.003074004430
         C           -2.277296577404     4.245539310823     1.585262635682    12.000000000000
         N           -2.949492577404     3.037465310823     1.595523635682    14.003074004430
         H           -1.030058577404    -1.019047689177     1.708490635682     1.007825032230
         N            1.637926422596     2.462271310823     1.692593635682    14.003074004430
         H            1.743472422596     3.465205310823     1.675608635682     1.007825032230
         H            2.457029422596     1.847031310823     1.719723635682     1.007825032230
         H           -2.809609577404     5.191090310823     1.557340635682     1.007825032230
         H           -3.949219577404     2.891859310823     1.579488635682     1.007825032230

  Running in c1 symmetry.

  Rotational constants: A =      0.02612  B =      0.00582  C =      0.00525 [cm^-1]
  Rotational constants: A =    783.11783  B =    174.35194  C =    157.39031 [MHz]
  Nuclear repulsion =  501.306615970653922

  Charge       = 0
  Multiplicity = 1
  Electrons    = 70
  Nalpha       = 35
  Nbeta        = 35

  ==> Algorithm <==

  SCF Algorithm Type is DF.
  DIIS enabled.
  MOM disabled.
  Fractional occupation disabled.
  Guess Type is SAD.
  Energy threshold   = 1.00e-08
  Density threshold  = 1.00e-08
  Integral threshold = 1.00e-12

  ==> Primary Basis <==

  Basis Set: AUG-CC-PVDZ
    Blend: AUG-CC-PVDZ
    Number of shells: 230
    Number of basis functions: 550
    Number of Cartesian functions: 590
    Spherical Harmonics?: true
    Max angular momentum: 2

   => Loading Basis Set <=

    Name: (AUG-CC-PVDZ AUX)
    Role: JKFIT
    Keyword: DF_BASIS_SCF
    atoms 1, 3, 7, 9, 11, 16, 18, 22, 24, 26 entry N          line   212 file /opt/anaconda/envs/psi4v1.5/share/psi4/basis/aug-cc-pvdz-jkfit.gbs 
    atoms 2, 4-6, 8, 17, 19-21, 23           entry C          line   154 file /opt/anaconda/envs/psi4v1.5/share/psi4/basis/aug-cc-pvdz-jkfit.gbs 
    atoms 10, 12-15, 25, 27-30               entry H          line    70 file /opt/anaconda/envs/psi4v1.5/share/psi4/basis/aug-cc-pvdz-jkfit.gbs 

  ==> Integral Setup <==

  ==> DiskDFJK: Density-Fitted J/K Matrices <==

    J tasked:                  Yes
    K tasked:                  Yes
    wK tasked:                  No
    OpenMP threads:              8
    Integrals threads:           8
    Memory [MiB]:            57220
    Algorithm:                Core
    Integral Cache:           LOAD
    Schwarz Cutoff:          1E-12
    Fitting Condition:       1E-10

   => Auxiliary Basis Set <=

  Basis Set: (AUG-CC-PVDZ AUX)
    Blend: AUG-CC-PVDZ-JKFIT
    Number of shells: 680
    Number of basis functions: 2040
    Number of Cartesian functions: 2370
    Spherical Harmonics?: true
    Max angular momentum: 3

  Minimum eigenvalue in the overlap matrix is 2.6229438220E-06.
  Reciprocal condition number of the overlap matrix is 1.6362924111E-07.
    Using symmetric orthogonalization.

  ==> Pre-Iterations <==

  SCF Guess: Superposition of Atomic Densities via on-the-fly atomic UHF (no occupation information).

   -------------------------
    Irrep   Nso     Nmo    
   -------------------------
     A        550     550 
   -------------------------
    Total     550     550
   -------------------------

  ==> Iterations <==

                           Total Energy        Delta E     RMS |[F,P]|

   @DF-RHF iter SAD:  -464.35706384138297   -4.64357e+02   0.00000e+00 
   @DF-RHF iter   1:  -464.34825378894016    8.81005e-03   1.17454e-03 DIIS
   @DF-RHF iter   2:  -464.53810626611784   -1.89852e-01   5.65915e-04 DIIS
   @DF-RHF iter   3:  -464.58014581131295   -4.20395e-02   1.31446e-04 DIIS
   @DF-RHF iter   4:  -464.58330558271746   -3.15977e-03   6.02341e-05 DIIS
   @DF-RHF iter   5:  -464.58390064100502   -5.95058e-04   1.20226e-05 DIIS
   @DF-RHF iter   6:  -464.58395103633171   -5.03953e-05   5.85113e-06 DIIS
   @DF-RHF iter   7:  -464.58396476737460   -1.37310e-05   2.35104e-06 DIIS
   @DF-RHF iter   8:  -464.58396769461802   -2.92724e-06   8.58008e-07 DIIS
   @DF-RHF iter   9:  -464.58396810207563   -4.07458e-07   4.43382e-07 DIIS
   @DF-RHF iter  10:  -464.58396820910178   -1.07026e-07   1.63978e-07 DIIS
   @DF-RHF iter  11:  -464.58396822933258   -2.02308e-08   6.98916e-08 DIIS
   @DF-RHF iter  12:  -464.58396823242276   -3.09018e-09   2.55410e-08 DIIS
   @DF-RHF iter  13:  -464.58396823279202   -3.69255e-10   9.57577e-09 DIIS
  Energy and wave function converged.


  ==> Post-Iterations <==

    Orbital Energies [Eh]
    ---------------------

    Doubly Occupied:                                                      

       1A    -15.638775     2A    -15.597903     3A    -15.579137  
       4A    -15.564998     5A    -15.556844     6A    -11.347401  
       7A    -11.332344     8A    -11.324333     9A    -11.318287  
      10A    -11.259286    11A     -1.368052    12A     -1.299275  
      13A     -1.250244    14A     -1.189267    15A     -1.150124  
      16A     -1.035196    17A     -0.896094    18A     -0.875957  
      19A     -0.844878    20A     -0.779810    21A     -0.741313  
      22A     -0.698392    23A     -0.677089    24A     -0.636418  
      25A     -0.635485    26A     -0.613331    27A     -0.592802  
      28A     -0.556826    29A     -0.497717    30A     -0.494815  
      31A     -0.448279    32A     -0.424121    33A     -0.406334  
      34A     -0.368964    35A     -0.308329  

    Virtual:                                                              

      36A      0.023868    37A      0.027403    38A      0.034338  
      39A      0.042547    40A      0.046700    41A      0.048173  
      42A      0.056969    43A      0.064191    44A      0.066427  
      45A      0.073586    46A      0.075841    47A      0.083289  
      48A      0.089130    49A      0.095487    50A      0.102197  
      51A      0.105538    52A      0.108726    53A      0.109571  
      54A      0.115044    55A      0.117200    56A      0.120289  
      57A      0.125737    58A      0.126797    59A      0.132746  
      60A      0.136771    61A      0.137694    62A      0.142645  
      63A      0.145577    64A      0.149114    65A      0.153603  
      66A      0.155646    67A      0.159703    68A      0.164692  
      69A      0.166238    70A      0.168299    71A      0.173401  
      72A      0.174965    73A      0.176568    74A      0.180960  
      75A      0.187887    76A      0.191837    77A      0.194716  
      78A      0.199476    79A      0.202046    80A      0.210114  
      81A      0.212437    82A      0.214623    83A      0.217571  
      84A      0.221950    85A      0.223450    86A      0.227721  
      87A      0.237522    88A      0.239002    89A      0.243752  
      90A      0.248604    91A      0.250949    92A      0.253694  
      93A      0.259021    94A      0.260903    95A      0.266566  
      96A      0.268354    97A      0.272547    98A      0.275986  
      99A      0.278185   100A      0.282337   101A      0.284359  
     102A      0.287163   103A      0.293520   104A      0.295069  
     105A      0.299734   106A      0.302640   107A      0.308029  
     108A      0.310460   109A      0.314496   110A      0.320620  
     111A      0.323839   112A      0.327104   113A      0.332617  
     114A      0.333583   115A      0.336623   116A      0.347536  
     117A      0.349224   118A      0.354459   119A      0.359241  
     120A      0.362277   121A      0.365757   122A      0.370732  
     123A      0.371431   124A      0.378200   125A      0.381468  
     126A      0.385904   127A      0.396503   128A      0.402223  
     129A      0.406523   130A      0.408081   131A      0.411417  
     132A      0.421347   133A      0.422684   134A      0.426995  
     135A      0.436583   136A      0.440952   137A      0.447077  
     138A      0.452801   139A      0.458754   140A      0.465960  
     141A      0.468696   142A      0.469248   143A      0.480589  
     144A      0.484080   145A      0.489201   146A      0.496072  
     147A      0.497592   148A      0.504965   149A      0.506448  
     150A      0.509470   151A      0.516240   152A      0.518636  
     153A      0.528530   154A      0.530241   155A      0.533708  
     156A      0.536523   157A      0.544221   158A      0.549739  
     159A      0.553572   160A      0.558030   161A      0.561791  
     162A      0.565369   163A      0.568675   164A      0.571722  
     165A      0.581057   166A      0.584195   167A      0.584987  
     168A      0.590759   169A      0.592329   170A      0.599251  
     171A      0.600143   172A      0.603527   173A      0.612179  
     174A      0.616638   175A      0.622410   176A      0.623523  
     177A      0.626504   178A      0.630864   179A      0.634749  
     180A      0.639392   181A      0.642534   182A      0.649102  
     183A      0.652407   184A      0.660425   185A      0.660867  
     186A      0.665757   187A      0.666937   188A      0.678788  
     189A      0.679863   190A      0.685997   191A      0.692073  
     192A      0.694528   193A      0.698444   194A      0.702449  
     195A      0.709123   196A      0.712343   197A      0.714959  
     198A      0.718593   199A      0.724610   200A      0.732848  
     201A      0.735235   202A      0.741943   203A      0.745078  
     204A      0.752089   205A      0.763378   206A      0.772969  
     207A      0.780941   208A      0.783211   209A      0.789934  
     210A      0.793893   211A      0.799869   212A      0.803740  
     213A      0.812172   214A      0.814851   215A      0.817646  
     216A      0.824980   217A      0.828381   218A      0.838011  
     219A      0.840580   220A      0.847701   221A      0.851513  
     222A      0.856929   223A      0.867930   224A      0.871489  
     225A      0.872634   226A      0.884275   227A      0.891121  
     228A      0.897188   229A      0.900386   230A      0.909721  
     231A      0.913285   232A      0.922658   233A      0.932262  
     234A      0.936536   235A      0.943493   236A      0.945732  
     237A      0.953217   238A      0.959255   239A      0.965860  
     240A      0.968530   241A      0.972578   242A      0.973507  
     243A      0.980059   244A      0.989063   245A      0.992658  
     246A      1.001370   247A      1.003970   248A      1.012407  
     249A      1.019227   250A      1.033666   251A      1.035167  
     252A      1.040409   253A      1.048850   254A      1.052782  
     255A      1.057254   256A      1.068372   257A      1.071477  
     258A      1.083231   259A      1.085791   260A      1.097439  
     261A      1.099905   262A      1.103117   263A      1.113270  
     264A      1.117903   265A      1.128809   266A      1.135274  
     267A      1.142241   268A      1.148440   269A      1.152006  
     270A      1.154521   271A      1.157148   272A      1.164121  
     273A      1.166386   274A      1.179172   275A      1.183839  
     276A      1.189424   277A      1.199613   278A      1.203337  
     279A      1.204179   280A      1.212636   281A      1.216856  
     282A      1.230249   283A      1.231687   284A      1.234822  
     285A      1.242556   286A      1.251551   287A      1.255173  
     288A      1.271060   289A      1.279401   290A      1.289056  
     291A      1.294281   292A      1.304245   293A      1.307862  
     294A      1.313408   295A      1.319534   296A      1.330643  
     297A      1.341325   298A      1.353198   299A      1.354539  
     300A      1.360413   301A      1.368409   302A      1.379218  
     303A      1.382246   304A      1.386815   305A      1.396672  
     306A      1.405310   307A      1.408896   308A      1.415560  
     309A      1.419283   310A      1.427146   311A      1.439567  
     312A      1.450858   313A      1.455996   314A      1.463338  
     315A      1.473280   316A      1.486666   317A      1.495628  
     318A      1.507127   319A      1.520343   320A      1.531006  
     321A      1.534369   322A      1.543681   323A      1.546333  
     324A      1.560254   325A      1.573631   326A      1.584404  
     327A      1.589047   328A      1.608744   329A      1.618692  
     330A      1.625078   331A      1.635583   332A      1.649146  
     333A      1.680739   334A      1.683348   335A      1.697979  
     336A      1.699861   337A      1.707751   338A      1.721450  
     339A      1.727705   340A      1.738461   341A      1.746628  
     342A      1.758009   343A      1.760655   344A      1.776988  
     345A      1.785245   346A      1.790696   347A      1.803433  
     348A      1.820050   349A      1.831368   350A      1.855784  
     351A      1.870736   352A      1.897914   353A      1.905263  
     354A      1.915551   355A      1.930473   356A      1.957727  
     357A      1.968061   358A      1.975574   359A      2.000499  
     360A      2.039400   361A      2.058025   362A      2.069384  
     363A      2.076819   364A      2.105799   365A      2.108677  
     366A      2.142080   367A      2.148406   368A      2.154857  
     369A      2.174525   370A      2.189389   371A      2.195289  
     372A      2.198780   373A      2.217011   374A      2.241581  
     375A      2.252103   376A      2.264413   377A      2.270479  
     378A      2.280892   379A      2.286525   380A      2.290950  
     381A      2.312757   382A      2.314137   383A      2.326926  
     384A      2.336069   385A      2.344425   386A      2.352405  
     387A      2.364433   388A      2.376905   389A      2.391989  
     390A      2.401692   391A      2.405881   392A      2.414840  
     393A      2.429343   394A      2.438078   395A      2.449874  
     396A      2.454902   397A      2.462498   398A      2.469730  
     399A      2.485061   400A      2.493968   401A      2.496992  
     402A      2.503272   403A      2.518596   404A      2.529934  
     405A      2.541062   406A      2.552674   407A      2.555001  
     408A      2.577440   409A      2.585148   410A      2.600134  
     411A      2.611355   412A      2.613368   413A      2.631152  
     414A      2.637377   415A      2.644959   416A      2.656000  
     417A      2.667661   418A      2.671501   419A      2.713856  
     420A      2.721004   421A      2.728613   422A      2.736683  
     423A      2.751689   424A      2.766539   425A      2.778131  
     426A      2.789906   427A      2.801586   428A      2.806280  
     429A      2.815465   430A      2.820393   431A      2.830075  
     432A      2.832657   433A      2.843987   434A      2.858098  
     435A      2.865245   436A      2.880956   437A      2.893683  
     438A      2.905325   439A      2.909402   440A      2.921699  
     441A      2.926770   442A      2.949939   443A      2.960185  
     444A      2.983860   445A      2.998481   446A      3.008291  
     447A      3.027494   448A      3.045329   449A      3.057641  
     450A      3.073418   451A      3.112395   452A      3.126467  
     453A      3.152409   454A      3.182848   455A      3.191465  
     456A      3.198877   457A      3.215178   458A      3.232184  
     459A      3.263213   460A      3.267957   461A      3.289655  
     462A      3.294988   463A      3.326602   464A      3.337228  
     465A      3.356322   466A      3.375366   467A      3.391542  
     468A      3.397869   469A      3.408093   470A      3.429385  
     471A      3.439710   472A      3.454820   473A      3.478220  
     474A      3.492624   475A      3.500245   476A      3.509033  
     477A      3.523839   478A      3.535785   479A      3.543230  
     480A      3.555478   481A      3.595668   482A      3.609405  
     483A      3.620764   484A      3.642929   485A      3.660363  
     486A      3.671187   487A      3.682015   488A      3.702527  
     489A      3.709110   490A      3.732635   491A      3.752986  
     492A      3.766500   493A      3.798419   494A      3.801947  
     495A      3.813152   496A      3.835625   497A      3.847977  
     498A      3.861312   499A      3.882953   500A      3.909657  
     501A      3.936926   502A      3.940209   503A      4.005628  
     504A      4.018650   505A      4.118422   506A      4.168942  
     507A      4.221647   508A      4.308204   509A      4.365212  
     510A      4.481855   511A      4.512959   512A      4.590973  
     513A      4.624821   514A      4.708082   515A      4.748022  
     516A      4.769834   517A      4.794600   518A      4.869140  
     519A      4.883445   520A      4.939554   521A      5.000060  
     522A      5.082638   523A      5.234855   524A      5.284044  
     525A      5.342986   526A      5.463206   527A      5.537176  
     528A      5.579481   529A      5.615500   530A      5.700845  
     531A      5.769937   532A      5.808340   533A      5.839545  
     534A      5.898273   535A      6.065173   536A      6.133089  
     537A      6.185653   538A      6.229827   539A      6.335083  
     540A      6.430045   541A     18.262004   542A     18.618315  
     543A     18.725058   544A     19.163634   545A     20.166101  
     546A     25.331605   547A     25.368407   548A     25.379137  
     549A     25.508852   550A     25.559289  

    Final Occupation by Irrep:
              A 
    DOCC [    35 ]

  @DF-RHF Final Energy:  -464.58396823279202

   => Energetics <=

    Nuclear Repulsion Energy =            501.3066159706539224
    One-Electron Energy =               -1625.1643285412962996
    Two-Electron Energy =                 659.2737443378504167
    Total Energy =                       -464.5839682327920173

Computation Completed


Properties will be evaluated at   0.000000,   0.000000,   0.000000 [a0]

Properties computed using the SCF density matrix

  Nuclear Dipole Moment: [e a0]
     X:  -126.6266      Y:   293.2796      Z:   218.0654

  Electronic Dipole Moment: [e a0]
     X:   126.2554      Y:  -292.4013      Z:  -218.0883

  Dipole Moment: [e a0]
     X:    -0.3713      Y:     0.8784      Z:    -0.0229     Total:     0.9539

  Dipole Moment: [D]
     X:    -0.9437      Y:     2.2326      Z:    -0.0583     Total:     2.4245


*** tstop() called on node154.bme.utexas.edu at Sun May 12 23:31:36 2024
Module time:
	user time   =     167.90 seconds =       2.80 minutes
	system time =       1.61 seconds =       0.03 minutes
	total time  =         23 seconds =       0.38 minutes
Total time:
	user time   =     710.17 seconds =      11.84 minutes
	system time =       8.35 seconds =       0.14 minutes
	total time  =        101 seconds =       1.68 minutes

*** tstart() called on node154.bme.utexas.edu
*** at Sun May 12 23:31:36 2024


  //>>>>>>>>>>>>>>>>>>>>>>>>>>>>>>>>>>>//
  //               DFMP2               //
  //<<<<<<<<<<<<<<<<<<<<<<<<<<<<<<<<<<<//

   => Loading Basis Set <=

    Name: (AUG-CC-PVDZ AUX)
    Role: RIFIT
    Keyword: DF_BASIS_MP2
    atoms 1, 3, 7, 9, 11, 16, 18, 22, 24, 26 entry N          line   158 file /opt/anaconda/envs/psi4v1.5/share/psi4/basis/aug-cc-pvdz-ri.gbs 
    atoms 2, 4-6, 8, 17, 19-21, 23           entry C          line   112 file /opt/anaconda/envs/psi4v1.5/share/psi4/basis/aug-cc-pvdz-ri.gbs 
    atoms 10, 12-15, 25, 27-30               entry H          line    30 file /opt/anaconda/envs/psi4v1.5/share/psi4/basis/aug-cc-pvdz-ri.gbs 

	 --------------------------------------------------------
	                          DF-MP2                         
	      2nd-Order Density-Fitted Moller-Plesset Theory     
	              RMP2 Wavefunction,   8 Threads             
	                                                         
	        Rob Parrish, Justin Turney, Andy Simmonett,      
	           Ed Hohenstein, and C. David Sherrill          
	 --------------------------------------------------------

   => Auxiliary Basis Set <=

  Basis Set: (AUG-CC-PVDZ AUX)
    Blend: AUG-CC-PVDZ-RI
    Number of shells: 530
    Number of basis functions: 1670
    Number of Cartesian functions: 1970
    Spherical Harmonics?: true
    Max angular momentum: 3

	 --------------------------------------------------------
	                 NBF =   550, NAUX =  1670
	 --------------------------------------------------------
	   CLASS    FOCC     OCC    AOCC    AVIR     VIR    FVIR
	   PAIRS      10      35      25     515     515       0
	 --------------------------------------------------------

	 Will attempt to load fitting metric from file 97.

	-----------------------------------------------------------
	 ==================> DF-MP2 Energies <==================== 
	-----------------------------------------------------------
	 Reference Energy          =    -464.5839682327920173 [Eh]
	 Singles Energy            =      -0.0000000000000000 [Eh]
	 Same-Spin Energy          =      -0.4214929546089458 [Eh]
	 Opposite-Spin Energy      =      -1.0892778015865745 [Eh]
	 Correlation Energy        =      -1.5107707561955204 [Eh]
	 Total Energy              =    -466.0947389889875581 [Eh]
	-----------------------------------------------------------
	 ================> DF-SCS-MP2 Energies <================== 
	-----------------------------------------------------------
	 SCS Same-Spin Scale       =       0.3333333333333333 [-]
	 SCS Opposite-Spin Scale   =       1.2000000000000000 [-]
	 SCS Same-Spin Energy      =      -0.1404976515363152 [Eh]
	 SCS Opposite-Spin Energy  =      -1.3071333619038894 [Eh]
	 SCS Correlation Energy    =      -1.4476310134402046 [Eh]
	 SCS Total Energy          =    -466.0315992462322470 [Eh]
	-----------------------------------------------------------


*** tstop() called on node154.bme.utexas.edu at Sun May 12 23:31:43 2024
Module time:
	user time   =      40.37 seconds =       0.67 minutes
	system time =       0.85 seconds =       0.01 minutes
	total time  =          7 seconds =       0.12 minutes
Total time:
	user time   =     750.54 seconds =      12.51 minutes
	system time =       9.20 seconds =       0.15 minutes
	total time  =        108 seconds =       1.80 minutes
  Constructing Basis Sets for SAPT...

   => Loading Basis Set <=

    Name: (AUG-CC-PVDZ AUX)
    Role: RIFIT
    Keyword: DF_BASIS_SAPT
    atoms 1, 3, 7, 9, 11, 16, 18, 22, 24, 26 entry N          line   158 file /opt/anaconda/envs/psi4v1.5/share/psi4/basis/aug-cc-pvdz-ri.gbs 
    atoms 2, 4-6, 8, 17, 19-21, 23           entry C          line   112 file /opt/anaconda/envs/psi4v1.5/share/psi4/basis/aug-cc-pvdz-ri.gbs 
    atoms 10, 12-15, 25, 27-30               entry H          line    30 file /opt/anaconda/envs/psi4v1.5/share/psi4/basis/aug-cc-pvdz-ri.gbs 


  //>>>>>>>>>>>>>>>>>>>>>>>>>>>>>>>>>>>//
  //           SAPT2+(3)DMP2           //
  //<<<<<<<<<<<<<<<<<<<<<<<<<<<<<<<<<<<//


*** tstart() called on node154.bme.utexas.edu
*** at Sun May 12 23:31:43 2024

      SAPT2+(3)  
    Ed Hohenstein
     6 June 2009

      Orbital Information
  --------------------------
    NSO        =       550
    NMO        =       550
    NRI        =      1670
    NOCC A     =        35
    NOCC B     =        35
    FOCC A     =        10
    FOCC B     =        10
    NVIR A     =       515
    NVIR B     =       515

    Estimated memory usage: 11341.0 MB

    Natural Orbital Cutoff:   1.000E-06
    Disp(T3) Truncation:            Yes
    CCD (vv|vv) Truncation:         Yes
    MBPT T2 Truncation:             Yes

    Monomer A: 277 virtual orbitals dropped
    Monomer B: 277 virtual orbitals dropped

    Elst10,r            =     0.000684009317 [Eh]
    Exch10 (S^2)        =     0.003378062088 [Eh]
    Exch10              =     0.003383660599 [Eh]
    Ind20,r (A<-B)      =    -0.000751795808 [Eh]
    Ind20,r (B<-A)      =    -0.000740481629 [Eh]
    Ind20,r             =    -0.001492277437 [Eh]
    Exch-Ind20,r (A<-B) =     0.000600326198 [Eh]
    Exch-Ind20,r (B<-A) =     0.000591642103 [Eh]
    Exch-Ind20,r        =     0.001191968301 [Eh]
    Disp20              =    -0.007472437058 [Eh]
    Disp20 (NO)         =    -0.007089602294 [Eh]
    Exch-Disp20         =     0.000577509276 [Eh]
    Elst12,r            =    -0.000545281408 [Eh]
    Exch11              =     0.000025214370 [Eh]
    Exch12              =     0.000453841394 [Eh]
    Ind22               =    -0.000219332022 [Eh]
    Disp21              =     0.002408253251 [Eh]
    Disp22 (SDQ)        =    -0.000504397819 [Eh]

    (i =   1 of  25)        320 seconds
    (i =   2 of  25)        665 seconds
    (i =   3 of  25)       1032 seconds
    (i =   4 of  25)       1414 seconds
    (i =   5 of  25)       1736 seconds
    (i =   6 of  25)       2008 seconds
    (i =   7 of  25)       2269 seconds
    (i =   8 of  25)       2531 seconds
    (i =   9 of  25)       2813 seconds
    (i =  10 of  25)       3103 seconds
    (i =  11 of  25)       3405 seconds
    (i =  12 of  25)       3685 seconds
    (i =  13 of  25)       3962 seconds
    (i =  14 of  25)       4242 seconds
    (i =  15 of  25)       4519 seconds
    (i =  16 of  25)       4793 seconds
    (i =  17 of  25)       5062 seconds
    (i =  18 of  25)       5325 seconds
    (i =  19 of  25)       5592 seconds
    (i =  20 of  25)       5860 seconds
    (i =  21 of  25)       6128 seconds
    (i =  22 of  25)       6397 seconds
    (i =  23 of  25)       6666 seconds
    (i =  24 of  25)       6966 seconds
    (i =  25 of  25)       7344 seconds

    Disp220 (T)         =    -0.000858633662 [Eh]

    (i =   1 of  25)        389 seconds
    (i =   2 of  25)        785 seconds
    (i =   3 of  25)       1167 seconds
    (i =   4 of  25)       1530 seconds
    (i =   5 of  25)       1855 seconds
    (i =   6 of  25)       2202 seconds
    (i =   7 of  25)       2565 seconds
    (i =   8 of  25)       2934 seconds
    (i =   9 of  25)       3315 seconds
    (i =  10 of  25)       3669 seconds
    (i =  11 of  25)       3949 seconds
    (i =  12 of  25)       4144 seconds
    (i =  13 of  25)       4308 seconds
    (i =  14 of  25)       4470 seconds
    (i =  15 of  25)       4626 seconds
    (i =  16 of  25)       4782 seconds
    (i =  17 of  25)       4941 seconds
    (i =  18 of  25)       5100 seconds
    (i =  19 of  25)       5260 seconds
    (i =  20 of  25)       5420 seconds
    (i =  21 of  25)       5581 seconds
    (i =  22 of  25)       5742 seconds
    (i =  23 of  25)       5903 seconds
    (i =  24 of  25)       6064 seconds
    (i =  25 of  25)       6225 seconds

    Disp202 (T)         =    -0.000859113396 [Eh]

    Disp22 (T)          =    -0.001717747058 [Eh]

    Est. Disp220 (T)    =    -0.000904999425 [Eh]
    Est. Disp202 (T)    =    -0.000905505064 [Eh]

    Est. Disp22 (T)     =    -0.001810504488 [Eh]
    Elst13,r            =     0.000242090277 [Eh]
    Disp30              =     0.000099798737 [Eh]

    SAPT Results 
  --------------------------------------------------------------------------------------------------------
    Electrostatics                  0.38081819 [mEh]       0.23896702 [kcal/mol]       0.99983801 [kJ/mol]
      Elst10,r                      0.68400932 [mEh]       0.42922233 [kcal/mol]       1.79586621 [kJ/mol]
      Elst12,r                     -0.54528141 [mEh]      -0.34216925 [kcal/mol]      -1.43163614 [kJ/mol]
      Elst13,r                      0.24209028 [mEh]       0.15191394 [kcal/mol]       0.63560793 [kJ/mol]

    Exchange                        3.86271636 [mEh]       2.42389111 [kcal/mol]      10.14156041 [kJ/mol]
      Exch10                        3.38366060 [mEh]       2.12327908 [kcal/mol]       8.88379968 [kJ/mol]
      Exch10(S^2)                   3.37806209 [mEh]       2.11976596 [kcal/mol]       8.86910079 [kJ/mol]
      Exch11(S^2)                   0.02521437 [mEh]       0.01582226 [kcal/mol]       0.06620032 [kJ/mol]
      Exch12(S^2)                   0.45384139 [mEh]       0.28478977 [kcal/mol]       1.19156042 [kJ/mol]

    Induction                      -0.36394368 [mEh]      -0.22837811 [kcal/mol]      -0.95553400 [kJ/mol]
      Ind20,r                      -1.49227744 [mEh]      -0.93641823 [kcal/mol]      -3.91797387 [kJ/mol]
      Ind22                        -0.21933202 [mEh]      -0.13763292 [kcal/mol]      -0.57585614 [kJ/mol]
      Exch-Ind20,r                  1.19196830 [mEh]       0.74797140 [kcal/mol]       3.12951234 [kJ/mol]
      Exch-Ind22                    0.17519317 [mEh]       0.10993538 [kcal/mol]       0.45996961 [kJ/mol]
      delta HF,r (2)               -0.20983717 [mEh]      -0.13167481 [kcal/mol]      -0.55092740 [kJ/mol]
      delta MP2,r (2)               0.19034147 [mEh]       0.11944108 [kcal/mol]       0.49974147 [kJ/mol]

    Dispersion                     -6.70177810 [mEh]      -4.20542925 [kcal/mol]     -17.59551598 [kJ/mol]
      Disp20                       -7.47243706 [mEh]      -4.68902505 [kcal/mol]     -19.61888079 [kJ/mol]
      Disp30                        0.09979874 [mEh]       0.06262465 [kcal/mol]       0.26202155 [kJ/mol]
      Disp21                        2.40825325 [mEh]       1.51120173 [kcal/mol]       6.32286804 [kJ/mol]
      Disp22 (SDQ)                 -0.50439782 [mEh]      -0.31651441 [kcal/mol]      -1.32429629 [kJ/mol]
      Disp22 (T)                   -1.71774706 [mEh]      -1.07790255 [kcal/mol]      -4.50994428 [kJ/mol]
      Est. Disp22 (T)              -1.81050449 [mEh]      -1.13610872 [kcal/mol]      -4.75347888 [kJ/mol]
      Exch-Disp20                   0.57750928 [mEh]       0.36239254 [kcal/mol]       1.51625039 [kJ/mol]

  Total HF                          3.55752361 [mEh]       2.23237977 [kcal/mol]       9.34027696 [kJ/mol]
  Total SAPT0                      -3.33740417 [mEh]      -2.09425273 [kcal/mol]      -8.76235344 [kJ/mol]
  Total SAPT2                      -3.44776866 [mEh]      -2.16350750 [kcal/mol]      -9.05211538 [kJ/mol]
  Total SAPT2+                     -3.35441772 [mEh]      -2.10492890 [kcal/mol]      -8.80702251 [kJ/mol]
  Total SAPT2+(3)                  -3.01252870 [mEh]      -1.89039030 [kcal/mol]      -7.90939302 [kJ/mol]
  Total SAPT2+dMP2                 -3.16407624 [mEh]      -1.98548782 [kcal/mol]      -8.30728104 [kJ/mol]
  Total SAPT2+(3)dMP2              -2.82218723 [mEh]      -1.77094922 [kcal/mol]      -7.40965155 [kJ/mol]

  Special recipe for scaled SAPT0 (see Manual):
    Electrostatics sSAPT0           0.68400932 [mEh]       0.42922233 [kcal/mol]       1.79586621 [kJ/mol]
    Exchange sSAPT0                 3.38366060 [mEh]       2.12327908 [kcal/mol]       8.88379968 [kJ/mol]
    Induction sSAPT0               -0.50421008 [mEh]      -0.31639660 [kcal/mol]      -1.32380337 [kJ/mol]
    Dispersion sSAPT0              -6.89205168 [mEh]      -4.32482772 [kcal/mol]     -18.09507919 [kJ/mol]
  Total sSAPT0                     -3.32859184 [mEh]      -2.08872291 [kcal/mol]      -8.73921667 [kJ/mol]
  --------------------------------------------------------------------------------------------------------

*** tstop() called on node154.bme.utexas.edu at Mon May 13 03:46:39 2024
Module time:
	user time   =  101920.93 seconds =    1698.68 minutes
	system time =     580.87 seconds =       9.68 minutes
	total time  =      15296 seconds =     254.93 minutes
Total time:
	user time   =  102672.18 seconds =    1711.20 minutes
	system time =     590.08 seconds =       9.83 minutes
	total time  =      15404 seconds =     256.73 minutes

    Psi4 stopped on: Monday, 13 May 2024 03:46AM
    Psi4 wall time for execution: 4:16:45.02

*** Psi4 exiting successfully. Buy a developer a beer!
