
    -----------------------------------------------------------------------
          Psi4: An Open-Source Ab Initio Electronic Structure Package
                               Psi4 1.5 release

                         Git: Rev {HEAD} e9f4d6d 


    D. G. A. Smith, L. A. Burns, A. C. Simmonett, R. M. Parrish,
    M. C. Schieber, R. Galvelis, P. Kraus, H. Kruse, R. Di Remigio,
    A. Alenaizan, A. M. James, S. Lehtola, J. P. Misiewicz, M. Scheurer,
    R. A. Shaw, J. B. Schriber, Y. Xie, Z. L. Glick, D. A. Sirianni,
    J. S. O'Brien, J. M. Waldrop, A. Kumar, E. G. Hohenstein,
    B. P. Pritchard, B. R. Brooks, H. F. Schaefer III, A. Yu. Sokolov,
    K. Patkowski, A. E. DePrince III, U. Bozkaya, R. A. King,
    F. A. Evangelista, J. M. Turney, T. D. Crawford, C. D. Sherrill,
    J. Chem. Phys. 152(18) 184108 (2020). https://doi.org/10.1063/5.0006002

                            Additional Code Authors
    E. T. Seidl, C. L. Janssen, E. F. Valeev, M. L. Leininger,
    J. F. Gonthier, R. M. Richard, H. R. McAlexander, M. Saitow, X. Wang,
    P. Verma, M. H. Lechner, and A. Jiang

             Previous Authors, Complete List of Code Contributors,
                       and Citations for Specific Modules
    https://github.com/psi4/psi4/blob/master/codemeta.json
    https://github.com/psi4/psi4/graphs/contributors
    http://psicode.org/psi4manual/master/introduction.html#citing-psifour

    -----------------------------------------------------------------------


    Psi4 started on: Sunday, 12 May 2024 11:37PM

    Process ID: 1587032
    Host:       node48.bme.utexas.edu
    PSIDATADIR: /opt/anaconda/envs/psi4v1.5/share/psi4
    Memory:     500.0 MiB
    Threads:    8
    
  ==> Input File <==

--------------------------------------------------------------------------
memory 80GB

molecule {
0 1
N -0.64527 -0.537199 -0.000379
C -1.914342 -0.992571 -0.000336
N -2.327871 -2.260455 -0.000198
C -1.289976 -3.113552 -0.000134
C 0.071467 -2.788444 -0.000208
C 0.388103 -1.409805 -0.000331
N 0.862141 -3.925582 -0.00012
C 0.0 -4.915748 0.0
N -1.315514 -4.490519 -0.0
H -2.678219 -0.213216 -0.000396
N 1.647269 -0.939941 -0.000399
H 2.408453 -1.601685 -0.000397
H 1.826741 0.069006 -0.000581
H 0.255544 -5.970689 9.4e-05
H -2.145977 -5.066056 9e-05
--
0 1
N -1.161035 0.281726 3.349773
C -2.399615 -0.250866 3.336631
N -3.566425 0.394056 3.302481
C -3.388962 1.725606 3.280568
C -2.171635 2.416432 3.290353
C -1.00018 1.624456 3.327354
N -2.368621 3.78704 3.260675
C -3.674188 3.922965 3.233568
N -4.346384 2.714891 3.243829
H -2.42695 -1.341622 3.356796
N 0.241035 2.139697 3.340899
H 0.346581 3.142631 3.323914
H 1.060138 1.524457 3.368029
H -4.206501 4.868516 3.205646
H -5.346111 2.569285 3.227794
 units angstrom
 no_reorient
 symmetry c1}
set  {scf_type DF
 basis jun-cc-pvdz
 freeze_core True
 guess SAD}
energy('sapt2+(3)dmp2')
--------------------------------------------------------------------------

  Memory set to  74.506 GiB by Python driver.

Scratch directory: /tmp/
   => Loading Basis Set <=

    Name: JUN-CC-PVDZ
    Role: ORBITAL
    Keyword: BASIS
    atoms 1, 3, 7, 9, 11, 16, 18, 22, 24, 26 entry N          line   198 file /opt/anaconda/envs/psi4v1.5/share/psi4/basis/jun-cc-pvdz.gbs 
    atoms 2, 4-6, 8, 17, 19-21, 23           entry C          line   164 file /opt/anaconda/envs/psi4v1.5/share/psi4/basis/jun-cc-pvdz.gbs 
    atoms 10, 12-15, 25, 27-30               entry H          line    36 file /opt/anaconda/envs/psi4v1.5/share/psi4/basis/jun-cc-pvdz.gbs 

   => Loading Basis Set <=

    Name: JUN-CC-PVDZ
    Role: ORBITAL
    Keyword: BASIS
    atoms 1, 3, 7, 9, 11, 16, 18, 22, 24, 26 entry N          line   198 file /opt/anaconda/envs/psi4v1.5/share/psi4/basis/jun-cc-pvdz.gbs 
    atoms 2, 4-6, 8, 17, 19-21, 23           entry C          line   164 file /opt/anaconda/envs/psi4v1.5/share/psi4/basis/jun-cc-pvdz.gbs 
    atoms 10, 12-15, 25, 27-30               entry H          line    36 file /opt/anaconda/envs/psi4v1.5/share/psi4/basis/jun-cc-pvdz.gbs 


  //>>>>>>>>>>>>>>>>>>>>>>>>>>>>>>>>>>>//
  //              Dimer HF             //
  //<<<<<<<<<<<<<<<<<<<<<<<<<<<<<<<<<<<//


*** tstart() called on node48.bme.utexas.edu
*** at Sun May 12 23:37:35 2024

   => Loading Basis Set <=

    Name: JUN-CC-PVDZ
    Role: ORBITAL
    Keyword: BASIS
    atoms 1, 3, 7, 9, 11, 16, 18, 22, 24, 26 entry N          line   198 file /opt/anaconda/envs/psi4v1.5/share/psi4/basis/jun-cc-pvdz.gbs 
    atoms 2, 4-6, 8, 17, 19-21, 23           entry C          line   164 file /opt/anaconda/envs/psi4v1.5/share/psi4/basis/jun-cc-pvdz.gbs 
    atoms 10, 12-15, 25, 27-30               entry H          line    36 file /opt/anaconda/envs/psi4v1.5/share/psi4/basis/jun-cc-pvdz.gbs 


         ---------------------------------------------------------
                                   SCF
               by Justin Turney, Rob Parrish, Andy Simmonett
                          and Daniel G. A. Smith
                              RHF Reference
                        8 Threads,  76293 MiB Core
         ---------------------------------------------------------

  ==> Geometry <==

    Molecular point group: c1
    Full point group: C1

    Geometry (in Angstrom), charge = 0, multiplicity = 1:

       Center              X                  Y                   Z               Mass       
    ------------   -----------------  -----------------  -----------------  -----------------
         N            0.751621422596    -0.214624689177    -1.648684364318    14.003074004430
         C           -0.517450577404    -0.669996689177    -1.648641364318    12.000000000000
         N           -0.930979577404    -1.937880689177    -1.648503364318    14.003074004430
         C            0.106915422596    -2.790977689177    -1.648439364318    12.000000000000
         C            1.468358422596    -2.465869689177    -1.648513364318    12.000000000000
         C            1.784994422596    -1.087230689177    -1.648636364318    12.000000000000
         N            2.259032422596    -3.603007689177    -1.648425364318    14.003074004430
         C            1.396891422596    -4.593173689177    -1.648305364318    12.000000000000
         N            0.081377422596    -4.167944689177    -1.648305364318    14.003074004430
         H           -1.281327577404     0.109358310823    -1.648701364318     1.007825032230
         N            3.044160422596    -0.617366689177    -1.648704364318    14.003074004430
         H            3.805344422596    -1.279110689177    -1.648702364318     1.007825032230
         H            3.223632422596     0.391580310823    -1.648886364318     1.007825032230
         H            1.652435422596    -5.648114689177    -1.648211364318     1.007825032230
         H           -0.749085577404    -4.743481689177    -1.648215364318     1.007825032230
         N            0.235856422596     0.604300310823     1.701467635682    14.003074004430
         C           -1.002723577404     0.071708310823     1.688325635682    12.000000000000
         N           -2.169533577404     0.716630310823     1.654175635682    14.003074004430
         C           -1.992070577404     2.048180310823     1.632262635682    12.000000000000
         C           -0.774743577404     2.739006310823     1.642047635682    12.000000000000
         C            0.396711422596     1.947030310823     1.679048635682    12.000000000000
         N           -0.971729577404     4.109614310823     1.612369635682    14.003074004430
         C           -2.277296577404     4.245539310823     1.585262635682    12.000000000000
         N           -2.949492577404     3.037465310823     1.595523635682    14.003074004430
         H           -1.030058577404    -1.019047689177     1.708490635682     1.007825032230
         N            1.637926422596     2.462271310823     1.692593635682    14.003074004430
         H            1.743472422596     3.465205310823     1.675608635682     1.007825032230
         H            2.457029422596     1.847031310823     1.719723635682     1.007825032230
         H           -2.809609577404     5.191090310823     1.557340635682     1.007825032230
         H           -3.949219577404     2.891859310823     1.579488635682     1.007825032230

  Running in c1 symmetry.

  Rotational constants: A =      0.02612  B =      0.00582  C =      0.00525 [cm^-1]
  Rotational constants: A =    783.11783  B =    174.35194  C =    157.39031 [MHz]
  Nuclear repulsion = 1441.840075571344414

  Charge       = 0
  Multiplicity = 1
  Electrons    = 140
  Nalpha       = 70
  Nbeta        = 70

  ==> Algorithm <==

  SCF Algorithm Type is DF.
  DIIS enabled.
  MOM disabled.
  Fractional occupation disabled.
  Guess Type is SAD.
  Energy threshold   = 1.00e-08
  Density threshold  = 1.00e-08
  Integral threshold = 1.00e-12

  ==> Primary Basis <==

  Basis Set: JUN-CC-PVDZ
    Blend: JUN-CC-PVDZ
    Number of shells: 190
    Number of basis functions: 410
    Number of Cartesian functions: 430
    Spherical Harmonics?: true
    Max angular momentum: 2

   => Loading Basis Set <=

    Name: (JUN-CC-PVDZ AUX)
    Role: JKFIT
    Keyword: DF_BASIS_SCF
    atoms 1, 3, 7, 9, 11, 16, 18, 22, 24, 26 entry N          line   202 file /opt/anaconda/envs/psi4v1.5/share/psi4/basis/jun-cc-pvdz-jkfit.gbs 
    atoms 2, 4-6, 8, 17, 19-21, 23           entry C          line   146 file /opt/anaconda/envs/psi4v1.5/share/psi4/basis/jun-cc-pvdz-jkfit.gbs 
    atoms 10, 12-15, 25, 27-30               entry H          line    70 file /opt/anaconda/envs/psi4v1.5/share/psi4/basis/jun-cc-pvdz-jkfit.gbs 

  ==> Integral Setup <==

  ==> DiskDFJK: Density-Fitted J/K Matrices <==

    J tasked:                  Yes
    K tasked:                  Yes
    wK tasked:                  No
    OpenMP threads:              8
    Integrals threads:           8
    Memory [MiB]:            57220
    Algorithm:                Core
    Integral Cache:           SAVE
    Schwarz Cutoff:          1E-12
    Fitting Condition:       1E-10

   => Auxiliary Basis Set <=

  Basis Set: (JUN-CC-PVDZ AUX)
    Blend: JUN-CC-PVDZ-JKFIT
    Number of shells: 630
    Number of basis functions: 1810
    Number of Cartesian functions: 2070
    Spherical Harmonics?: true
    Max angular momentum: 3

  Minimum eigenvalue in the overlap matrix is 8.4128002267E-06.
  Reciprocal condition number of the overlap matrix is 6.0521394561E-07.
    Using symmetric orthogonalization.

  ==> Pre-Iterations <==

  SCF Guess: Superposition of Atomic Densities via on-the-fly atomic UHF (no occupation information).

   -------------------------
    Irrep   Nso     Nmo    
   -------------------------
     A        410     410 
   -------------------------
    Total     410     410
   -------------------------

  ==> Iterations <==

                           Total Energy        Delta E     RMS |[F,P]|

   @DF-RHF iter SAD:  -928.82400930833933   -9.28824e+02   0.00000e+00 
   @DF-RHF iter   1:  -928.66708186131461    1.56927e-01   2.21753e-03 DIIS
   @DF-RHF iter   2:  -929.04484908704262   -3.77767e-01   1.10915e-03 DIIS
   @DF-RHF iter   3:  -929.13514136359629   -9.02923e-02   2.56536e-04 DIIS
   @DF-RHF iter   4:  -929.14165318165135   -6.51182e-03   1.17831e-04 DIIS
   @DF-RHF iter   5:  -929.14292425089934   -1.27107e-03   2.40610e-05 DIIS
   @DF-RHF iter   6:  -929.14302737418996   -1.03123e-04   1.13889e-05 DIIS
   @DF-RHF iter   7:  -929.14305681370138   -2.94395e-05   4.69488e-06 DIIS
   @DF-RHF iter   8:  -929.14306244632178   -5.63262e-06   1.69248e-06 DIIS
   @DF-RHF iter   9:  -929.14306327096028   -8.24639e-07   8.12117e-07 DIIS
   @DF-RHF iter  10:  -929.14306347423894   -2.03279e-07   3.02116e-07 DIIS
   @DF-RHF iter  11:  -929.14306351121979   -3.69809e-08   1.38174e-07 DIIS
   @DF-RHF iter  12:  -929.14306351775383   -6.53404e-09   4.83594e-08 DIIS
   @DF-RHF iter  13:  -929.14306351849655   -7.42716e-10   1.96536e-08 DIIS
   @DF-RHF iter  14:  -929.14306351858249   -8.59472e-11   6.78237e-09 DIIS
  Energy and wave function converged.


  ==> Post-Iterations <==

    Orbital Energies [Eh]
    ---------------------

    Doubly Occupied:                                                      

       1A    -15.634610     2A    -15.634599     3A    -15.594003  
       4A    -15.593438     5A    -15.573841     6A    -15.573807  
       7A    -15.558452     8A    -15.558429     9A    -15.548624  
      10A    -15.548598    11A    -11.341965    12A    -11.341830  
      13A    -11.328855    14A    -11.328836    15A    -11.319744  
      16A    -11.319743    17A    -11.312488    18A    -11.312421  
      19A    -11.254107    20A    -11.254101    21A     -1.364924  
      22A     -1.364846    23A     -1.295017    24A     -1.294111  
      25A     -1.245977    26A     -1.245569    27A     -1.185688  
      28A     -1.185538    29A     -1.145626    30A     -1.144868  
      31A     -1.031699    32A     -1.031148    33A     -0.891983  
      34A     -0.891490    35A     -0.871821    36A     -0.870663  
      37A     -0.841299    38A     -0.841246    39A     -0.775510  
      40A     -0.774995    41A     -0.737070    42A     -0.736513  
      43A     -0.694554    44A     -0.693933    45A     -0.672900  
      46A     -0.672678    47A     -0.633173    48A     -0.632237  
      49A     -0.631715    50A     -0.630162    51A     -0.609439  
      52A     -0.609103    53A     -0.588351    54A     -0.587662  
      55A     -0.555235    56A     -0.547929    57A     -0.496424  
      58A     -0.491015    59A     -0.489670    60A     -0.488706  
      61A     -0.443510    62A     -0.442431    63A     -0.420890  
      64A     -0.419703    65A     -0.401652    66A     -0.399325  
      67A     -0.368328    68A     -0.358503    69A     -0.306395  
      70A     -0.302214  

    Virtual:                                                              

      71A      0.047718    72A      0.048259    73A      0.060457  
      74A      0.070381    75A      0.074031    76A      0.074647  
      77A      0.085210    78A      0.085377    79A      0.090949  
      80A      0.093384    81A      0.100128    82A      0.105928  
      83A      0.113793    84A      0.117745    85A      0.118473  
      86A      0.120200    87A      0.132279    88A      0.133039  
      89A      0.137549    90A      0.140793    91A      0.141808  
      92A      0.147797    93A      0.151089    94A      0.153679  
      95A      0.157027    96A      0.166000    97A      0.169250  
      98A      0.172117    99A      0.180480   100A      0.187178  
     101A      0.187729   102A      0.190563   103A      0.200720  
     104A      0.205426   105A      0.210906   106A      0.211175  
     107A      0.216824   108A      0.219162   109A      0.225368  
     110A      0.226242   111A      0.235076   112A      0.239816  
     113A      0.242331   114A      0.244212   115A      0.247732  
     116A      0.252876   117A      0.256184   118A      0.259575  
     119A      0.259986   120A      0.267498   121A      0.271091  
     122A      0.273670   123A      0.276268   124A      0.277186  
     125A      0.290394   126A      0.291460   127A      0.300902  
     128A      0.301487   129A      0.304797   130A      0.305356  
     131A      0.313119   132A      0.314765   133A      0.321646  
     134A      0.322495   135A      0.324294   136A      0.327289  
     137A      0.335392   138A      0.338618   139A      0.342506  
     140A      0.351731   141A      0.352830   142A      0.360752  
     143A      0.365553   144A      0.370725   145A      0.372708  
     146A      0.378852   147A      0.385847   148A      0.387432  
     149A      0.392597   150A      0.395427   151A      0.399777  
     152A      0.401439   153A      0.407078   154A      0.411095  
     155A      0.418374   156A      0.420582   157A      0.429810  
     158A      0.436751   159A      0.440183   160A      0.445229  
     161A      0.448002   162A      0.455045   163A      0.461673  
     164A      0.468889   165A      0.473724   166A      0.487565  
     167A      0.491388   168A      0.495455   169A      0.505580  
     170A      0.508208   171A      0.523249   172A      0.528741  
     173A      0.540093   174A      0.547321   175A      0.553636  
     176A      0.569102   177A      0.576451   178A      0.587308  
     179A      0.617176   180A      0.617865   181A      0.641988  
     182A      0.643668   183A      0.649460   184A      0.653002  
     185A      0.693906   186A      0.701831   187A      0.782641  
     188A      0.792590   189A      0.824226   190A      0.825089  
     191A      0.841536   192A      0.842743   193A      0.846042  
     194A      0.864766   195A      0.870374   196A      0.881131  
     197A      0.887585   198A      0.889300   199A      0.898638  
     200A      0.905023   201A      0.913075   202A      0.920401  
     203A      0.926779   204A      0.958212   205A      0.963838  
     206A      0.966934   207A      0.968023   208A      0.987542  
     209A      0.996848   210A      0.999194   211A      1.001593  
     212A      1.005832   213A      1.017393   214A      1.019086  
     215A      1.048435   216A      1.052653   217A      1.053608  
     218A      1.057070   219A      1.071809   220A      1.075470  
     221A      1.091874   222A      1.095927   223A      1.105701  
     224A      1.112010   225A      1.125165   226A      1.131271  
     227A      1.137325   228A      1.141060   229A      1.158434  
     230A      1.159170   231A      1.165492   232A      1.179411  
     233A      1.187970   234A      1.195658   235A      1.196543  
     236A      1.202181   237A      1.207647   238A      1.209249  
     239A      1.214921   240A      1.222230   241A      1.228683  
     242A      1.240244   243A      1.244691   244A      1.249313  
     245A      1.258740   246A      1.275563   247A      1.280323  
     248A      1.288749   249A      1.294661   250A      1.296512  
     251A      1.299874   252A      1.311452   253A      1.321453  
     254A      1.322436   255A      1.325864   256A      1.328240  
     257A      1.337821   258A      1.345761   259A      1.355900  
     260A      1.357342   261A      1.359894   262A      1.367064  
     263A      1.373450   264A      1.378304   265A      1.382905  
     266A      1.388645   267A      1.391705   268A      1.405831  
     269A      1.410581   270A      1.420563   271A      1.437643  
     272A      1.441112   273A      1.473752   274A      1.480730  
     275A      1.492804   276A      1.500179   277A      1.508735  
     278A      1.516608   279A      1.530673   280A      1.539987  
     281A      1.546626   282A      1.548702   283A      1.574674  
     284A      1.575920   285A      1.587852   286A      1.597786  
     287A      1.630725   288A      1.650317   289A      1.729034  
     290A      1.734234   291A      1.799059   292A      1.810685  
     293A      1.813877   294A      1.826642   295A      1.828852  
     296A      1.849777   297A      1.853074   298A      1.857562  
     299A      1.867244   300A      1.878038   301A      1.880120  
     302A      1.883142   303A      1.901935   304A      1.913012  
     305A      1.935385   306A      1.940909   307A      1.941224  
     308A      1.945515   309A      1.949570   310A      1.951980  
     311A      1.977344   312A      1.978991   313A      1.987267  
     314A      1.996671   315A      2.003691   316A      2.020974  
     317A      2.037819   318A      2.048772   319A      2.055114  
     320A      2.079707   321A      2.080980   322A      2.083981  
     323A      2.085148   324A      2.100059   325A      2.113131  
     326A      2.121932   327A      2.129478   328A      2.139916  
     329A      2.187786   330A      2.197782   331A      2.203004  
     332A      2.220039   333A      2.241469   334A      2.247116  
     335A      2.280842   336A      2.284268   337A      2.320192  
     338A      2.327794   339A      2.330835   340A      2.335748  
     341A      2.377081   342A      2.380552   343A      2.389813  
     344A      2.393367   345A      2.395879   346A      2.406777  
     347A      2.445460   348A      2.449648   349A      2.504360  
     350A      2.516058   351A      2.524105   352A      2.540706  
     353A      2.551929   354A      2.558655   355A      2.606419  
     356A      2.606651   357A      2.607745   358A      2.612390  
     359A      2.623203   360A      2.623560   361A      2.637698  
     362A      2.638821   363A      2.686017   364A      2.686730  
     365A      2.693558   366A      2.694185   367A      2.700908  
     368A      2.716753   369A      2.758280   370A      2.759504  
     371A      2.779408   372A      2.780250   373A      2.867609  
     374A      2.867992   375A      2.873383   376A      2.880857  
     377A      2.923096   378A      2.928042   379A      2.957904  
     380A      2.961314   381A      2.964540   382A      2.965499  
     383A      2.990377   384A      2.991535   385A      3.049128  
     386A      3.052749   387A      3.081274   388A      3.088527  
     389A      3.102651   390A      3.104994   391A      3.151496  
     392A      3.168949   393A      3.210540   394A      3.214767  
     395A      3.257891   396A      3.259717   397A      3.314594  
     398A      3.325848   399A      3.348133   400A      3.373885  
     401A      3.400418   402A      3.405483   403A      3.414231  
     404A      3.449429   405A      3.686308   406A      3.688714  
     407A      3.741793   408A      3.751687   409A      3.815998  
     410A      3.820451  

    Final Occupation by Irrep:
              A 
    DOCC [    70 ]

  @DF-RHF Final Energy:  -929.14306351858249

   => Energetics <=

    Nuclear Repulsion Energy =           1441.8400755713444141
    One-Electron Energy =               -4129.3904198550280853
    Two-Electron Energy =                1758.4072807651009498
    Total Energy =                       -929.1430635185824940

Computation Completed


Properties will be evaluated at   0.000000,   0.000000,   0.000000 [a0]

Properties computed using the SCF density matrix

  Nuclear Dipole Moment: [e a0]
     X:     2.8682      Y:     1.1298      Z:    -0.0020

  Electronic Dipole Moment: [e a0]
     X:    -2.9442      Y:    -1.1611      Z:    -0.0195

  Dipole Moment: [e a0]
     X:    -0.0760      Y:    -0.0313      Z:    -0.0215     Total:     0.0849

  Dipole Moment: [D]
     X:    -0.1931      Y:    -0.0796      Z:    -0.0547     Total:     0.2159


*** tstop() called on node48.bme.utexas.edu at Sun May 12 23:38:06 2024
Module time:
	user time   =     218.25 seconds =       3.64 minutes
	system time =       4.85 seconds =       0.08 minutes
	total time  =         31 seconds =       0.52 minutes
Total time:
	user time   =     218.25 seconds =       3.64 minutes
	system time =       4.85 seconds =       0.08 minutes
	total time  =         31 seconds =       0.52 minutes

*** tstart() called on node48.bme.utexas.edu
*** at Sun May 12 23:38:06 2024


  //>>>>>>>>>>>>>>>>>>>>>>>>>>>>>>>>>>>//
  //               DFMP2               //
  //<<<<<<<<<<<<<<<<<<<<<<<<<<<<<<<<<<<//

   => Loading Basis Set <=

    Name: (JUN-CC-PVDZ AUX)
    Role: RIFIT
    Keyword: DF_BASIS_MP2
    atoms 1, 3, 7, 9, 11, 16, 18, 22, 24, 26 entry N          line   144 file /opt/anaconda/envs/psi4v1.5/share/psi4/basis/jun-cc-pvdz-ri.gbs 
    atoms 2, 4-6, 8, 17, 19-21, 23           entry C          line   100 file /opt/anaconda/envs/psi4v1.5/share/psi4/basis/jun-cc-pvdz-ri.gbs 
    atoms 10, 12-15, 25, 27-30               entry H          line    30 file /opt/anaconda/envs/psi4v1.5/share/psi4/basis/jun-cc-pvdz-ri.gbs 

	 --------------------------------------------------------
	                          DF-MP2                         
	      2nd-Order Density-Fitted Moller-Plesset Theory     
	              RMP2 Wavefunction,   8 Threads             
	                                                         
	        Rob Parrish, Justin Turney, Andy Simmonett,      
	           Ed Hohenstein, and C. David Sherrill          
	 --------------------------------------------------------

   => Auxiliary Basis Set <=

  Basis Set: (JUN-CC-PVDZ AUX)
    Blend: JUN-CC-PVDZ-RI
    Number of shells: 480
    Number of basis functions: 1440
    Number of Cartesian functions: 1670
    Spherical Harmonics?: true
    Max angular momentum: 3

	 --------------------------------------------------------
	                 NBF =   410, NAUX =  1440
	 --------------------------------------------------------
	   CLASS    FOCC     OCC    AOCC    AVIR     VIR    FVIR
	   PAIRS      20      70      50     340     340       0
	 --------------------------------------------------------

	 Will save fitting metric to file 97.

	-----------------------------------------------------------
	 ==================> DF-MP2 Energies <==================== 
	-----------------------------------------------------------
	 Reference Energy          =    -929.1430635185824940 [Eh]
	 Singles Energy            =      -0.0000000000000000 [Eh]
	 Same-Spin Energy          =      -0.8206851532665992 [Eh]
	 Opposite-Spin Energy      =      -2.1088376402949516 [Eh]
	 Correlation Energy        =      -2.9295227935615507 [Eh]
	 Total Energy              =    -932.0725863121440398 [Eh]
	-----------------------------------------------------------
	 ================> DF-SCS-MP2 Energies <================== 
	-----------------------------------------------------------
	 SCS Same-Spin Scale       =       0.3333333333333333 [-]
	 SCS Opposite-Spin Scale   =       1.2000000000000000 [-]
	 SCS Same-Spin Energy      =      -0.2735617177555331 [Eh]
	 SCS Opposite-Spin Energy  =      -2.5306051683539419 [Eh]
	 SCS Correlation Energy    =      -2.8041668861094751 [Eh]
	 SCS Total Energy          =    -931.9472304046919362 [Eh]
	-----------------------------------------------------------


*** tstop() called on node48.bme.utexas.edu at Sun May 12 23:38:18 2024
Module time:
	user time   =      63.41 seconds =       1.06 minutes
	system time =       1.24 seconds =       0.02 minutes
	total time  =         12 seconds =       0.20 minutes
Total time:
	user time   =     281.68 seconds =       4.69 minutes
	system time =       6.09 seconds =       0.10 minutes
	total time  =         43 seconds =       0.72 minutes

  //>>>>>>>>>>>>>>>>>>>>>>>>>>>>>>>>>>>//
  //            Monomer A HF           //
  //<<<<<<<<<<<<<<<<<<<<<<<<<<<<<<<<<<<//


*** tstart() called on node48.bme.utexas.edu
*** at Sun May 12 23:38:18 2024

   => Loading Basis Set <=

    Name: JUN-CC-PVDZ
    Role: ORBITAL
    Keyword: BASIS
    atoms 1, 3, 7, 9, 11, 16, 18, 22, 24, 26 entry N          line   198 file /opt/anaconda/envs/psi4v1.5/share/psi4/basis/jun-cc-pvdz.gbs 
    atoms 2, 4-6, 8, 17, 19-21, 23           entry C          line   164 file /opt/anaconda/envs/psi4v1.5/share/psi4/basis/jun-cc-pvdz.gbs 
    atoms 10, 12-15, 25, 27-30               entry H          line    36 file /opt/anaconda/envs/psi4v1.5/share/psi4/basis/jun-cc-pvdz.gbs 


         ---------------------------------------------------------
                                   SCF
               by Justin Turney, Rob Parrish, Andy Simmonett
                          and Daniel G. A. Smith
                              RHF Reference
                        8 Threads,  76293 MiB Core
         ---------------------------------------------------------

  ==> Geometry <==

    Molecular point group: c1
    Full point group: C1

    Geometry (in Angstrom), charge = 0, multiplicity = 1:

       Center              X                  Y                   Z               Mass       
    ------------   -----------------  -----------------  -----------------  -----------------
         N            0.751621422596    -0.214624689177    -1.648684364318    14.003074004430
         C           -0.517450577404    -0.669996689177    -1.648641364318    12.000000000000
         N           -0.930979577404    -1.937880689177    -1.648503364318    14.003074004430
         C            0.106915422596    -2.790977689177    -1.648439364318    12.000000000000
         C            1.468358422596    -2.465869689177    -1.648513364318    12.000000000000
         C            1.784994422596    -1.087230689177    -1.648636364318    12.000000000000
         N            2.259032422596    -3.603007689177    -1.648425364318    14.003074004430
         C            1.396891422596    -4.593173689177    -1.648305364318    12.000000000000
         N            0.081377422596    -4.167944689177    -1.648305364318    14.003074004430
         H           -1.281327577404     0.109358310823    -1.648701364318     1.007825032230
         N            3.044160422596    -0.617366689177    -1.648704364318    14.003074004430
         H            3.805344422596    -1.279110689177    -1.648702364318     1.007825032230
         H            3.223632422596     0.391580310823    -1.648886364318     1.007825032230
         H            1.652435422596    -5.648114689177    -1.648211364318     1.007825032230
         H           -0.749085577404    -4.743481689177    -1.648215364318     1.007825032230
      Gh(N)           0.235856422596     0.604300310823     1.701467635682    14.003074004430
      Gh(C)          -1.002723577404     0.071708310823     1.688325635682    12.000000000000
      Gh(N)          -2.169533577404     0.716630310823     1.654175635682    14.003074004430
      Gh(C)          -1.992070577404     2.048180310823     1.632262635682    12.000000000000
      Gh(C)          -0.774743577404     2.739006310823     1.642047635682    12.000000000000
      Gh(C)           0.396711422596     1.947030310823     1.679048635682    12.000000000000
      Gh(N)          -0.971729577404     4.109614310823     1.612369635682    14.003074004430
      Gh(C)          -2.277296577404     4.245539310823     1.585262635682    12.000000000000
      Gh(N)          -2.949492577404     3.037465310823     1.595523635682    14.003074004430
      Gh(H)          -1.030058577404    -1.019047689177     1.708490635682     1.007825032230
      Gh(N)           1.637926422596     2.462271310823     1.692593635682    14.003074004430
      Gh(H)           1.743472422596     3.465205310823     1.675608635682     1.007825032230
      Gh(H)           2.457029422596     1.847031310823     1.719723635682     1.007825032230
      Gh(H)          -2.809609577404     5.191090310823     1.557340635682     1.007825032230
      Gh(H)          -3.949219577404     2.891859310823     1.579488635682     1.007825032230

  Running in c1 symmetry.

  Rotational constants: A =      0.02612  B =      0.00582  C =      0.00525 [cm^-1]
  Rotational constants: A =    783.11783  B =    174.35194  C =    157.39031 [MHz]
  Nuclear repulsion =  501.306590497387219

  Charge       = 0
  Multiplicity = 1
  Electrons    = 70
  Nalpha       = 35
  Nbeta        = 35

  ==> Algorithm <==

  SCF Algorithm Type is DF.
  DIIS enabled.
  MOM disabled.
  Fractional occupation disabled.
  Guess Type is SAD.
  Energy threshold   = 1.00e-08
  Density threshold  = 1.00e-08
  Integral threshold = 1.00e-12

  ==> Primary Basis <==

  Basis Set: JUN-CC-PVDZ
    Blend: JUN-CC-PVDZ
    Number of shells: 190
    Number of basis functions: 410
    Number of Cartesian functions: 430
    Spherical Harmonics?: true
    Max angular momentum: 2

   => Loading Basis Set <=

    Name: (JUN-CC-PVDZ AUX)
    Role: JKFIT
    Keyword: DF_BASIS_SCF
    atoms 1, 3, 7, 9, 11, 16, 18, 22, 24, 26 entry N          line   202 file /opt/anaconda/envs/psi4v1.5/share/psi4/basis/jun-cc-pvdz-jkfit.gbs 
    atoms 2, 4-6, 8, 17, 19-21, 23           entry C          line   146 file /opt/anaconda/envs/psi4v1.5/share/psi4/basis/jun-cc-pvdz-jkfit.gbs 
    atoms 10, 12-15, 25, 27-30               entry H          line    70 file /opt/anaconda/envs/psi4v1.5/share/psi4/basis/jun-cc-pvdz-jkfit.gbs 

  ==> Integral Setup <==

  ==> DiskDFJK: Density-Fitted J/K Matrices <==

    J tasked:                  Yes
    K tasked:                  Yes
    wK tasked:                  No
    OpenMP threads:              8
    Integrals threads:           8
    Memory [MiB]:            57220
    Algorithm:                Core
    Integral Cache:           LOAD
    Schwarz Cutoff:          1E-12
    Fitting Condition:       1E-10

   => Auxiliary Basis Set <=

  Basis Set: (JUN-CC-PVDZ AUX)
    Blend: JUN-CC-PVDZ-JKFIT
    Number of shells: 630
    Number of basis functions: 1810
    Number of Cartesian functions: 2070
    Spherical Harmonics?: true
    Max angular momentum: 3

  Minimum eigenvalue in the overlap matrix is 8.4128002267E-06.
  Reciprocal condition number of the overlap matrix is 6.0521394561E-07.
    Using symmetric orthogonalization.

  ==> Pre-Iterations <==

  SCF Guess: Superposition of Atomic Densities via on-the-fly atomic UHF (no occupation information).

   -------------------------
    Irrep   Nso     Nmo    
   -------------------------
     A        410     410 
   -------------------------
    Total     410     410
   -------------------------

  ==> Iterations <==

                           Total Energy        Delta E     RMS |[F,P]|

   @DF-RHF iter SAD:  -464.38470413387751   -4.64385e+02   0.00000e+00 
   @DF-RHF iter   1:  -464.33691784547079    4.77863e-02   1.56546e-03 DIIS
   @DF-RHF iter   2:  -464.52508034015727   -1.88162e-01   7.78789e-04 DIIS
   @DF-RHF iter   3:  -464.56951184603906   -4.44315e-02   1.77088e-04 DIIS
   @DF-RHF iter   4:  -464.57267957394151   -3.16773e-03   7.96960e-05 DIIS
   @DF-RHF iter   5:  -464.57326205418133   -5.82480e-04   1.62260e-05 DIIS
   @DF-RHF iter   6:  -464.57331173031895   -4.96761e-05   7.82263e-06 DIIS
   @DF-RHF iter   7:  -464.57332547466683   -1.37443e-05   3.13076e-06 DIIS
   @DF-RHF iter   8:  -464.57332813283097   -2.65816e-06   1.11646e-06 DIIS
   @DF-RHF iter   9:  -464.57332849103034   -3.58199e-07   5.55122e-07 DIIS
   @DF-RHF iter  10:  -464.57332858235043   -9.13201e-08   2.07891e-07 DIIS
   @DF-RHF iter  11:  -464.57332859980210   -1.74517e-08   9.15485e-08 DIIS
   @DF-RHF iter  12:  -464.57332860275477   -2.95267e-09   3.26101e-08 DIIS
   @DF-RHF iter  13:  -464.57332860309737   -3.42595e-10   1.27420e-08 DIIS
   @DF-RHF iter  14:  -464.57332860313625   -3.88809e-11   4.54050e-09 DIIS
  Energy and wave function converged.


  ==> Post-Iterations <==

    Orbital Energies [Eh]
    ---------------------

    Doubly Occupied:                                                      

       1A    -15.639761     2A    -15.598905     3A    -15.578805  
       4A    -15.565193     5A    -15.556686     6A    -11.348545  
       7A    -11.333993     8A    -11.325818     9A    -11.320058  
      10A    -11.260135    11A     -1.370385    12A     -1.301259  
      13A     -1.251753    14A     -1.190927    15A     -1.152008  
      16A     -1.037442    17A     -0.897755    18A     -0.877594  
      19A     -0.846575    20A     -0.781146    21A     -0.742399  
      22A     -0.699731    23A     -0.678708    24A     -0.638043  
      25A     -0.636979    26A     -0.615007    27A     -0.594439  
      28A     -0.558041    29A     -0.498996    30A     -0.495914  
      31A     -0.449378    32A     -0.425535    33A     -0.407370  
      34A     -0.370771    35A     -0.310138  

    Virtual:                                                              

      36A      0.033714    37A      0.044276    38A      0.052235  
      39A      0.056121    40A      0.065670    41A      0.069836  
      42A      0.079360    43A      0.082232    44A      0.086830  
      45A      0.090143    46A      0.091942    47A      0.099550  
      48A      0.104957    49A      0.111495    50A      0.115254  
      51A      0.117554    52A      0.125608    53A      0.130764  
      54A      0.131737    55A      0.133218    56A      0.138075  
      57A      0.141627    58A      0.144441    59A      0.149281  
      60A      0.155095    61A      0.160223    62A      0.162768  
      63A      0.169548    64A      0.171482    65A      0.175992  
      66A      0.184078    67A      0.187226    68A      0.194404  
      69A      0.204323    70A      0.204805    71A      0.211122  
      72A      0.213883    73A      0.219824    74A      0.221567  
      75A      0.223782    76A      0.226699    77A      0.228822  
      78A      0.233635    79A      0.237835    80A      0.240162  
      81A      0.246090    82A      0.250970    83A      0.255855  
      84A      0.258702    85A      0.264190    86A      0.266219  
      87A      0.270453    88A      0.271010    89A      0.275112  
      90A      0.278722    91A      0.282445    92A      0.291538  
      93A      0.292686    94A      0.294805    95A      0.300877  
      96A      0.305696    97A      0.307707    98A      0.311455  
      99A      0.317049   100A      0.319665   101A      0.325687  
     102A      0.328971   103A      0.331969   104A      0.337189  
     105A      0.346472   106A      0.352518   107A      0.357475  
     108A      0.359883   109A      0.369372   110A      0.373555  
     111A      0.376250   112A      0.380774   113A      0.385393  
     114A      0.390501   115A      0.395446   116A      0.396823  
     117A      0.404810   118A      0.415996   119A      0.428919  
     120A      0.430788   121A      0.436736   122A      0.446846  
     123A      0.454727   124A      0.467320   125A      0.472216  
     126A      0.487885   127A      0.491096   128A      0.499043  
     129A      0.506158   130A      0.506541   131A      0.510241  
     132A      0.525532   133A      0.530260   134A      0.540778  
     135A      0.556068   136A      0.559647   137A      0.565528  
     138A      0.571804   139A      0.580671   140A      0.589962  
     141A      0.602500   142A      0.607906   143A      0.613716  
     144A      0.620145   145A      0.638334   146A      0.642345  
     147A      0.648373   148A      0.661017   149A      0.665669  
     150A      0.688400   151A      0.698259   152A      0.708801  
     153A      0.723887   154A      0.755107   155A      0.769891  
     156A      0.776621   157A      0.787926   158A      0.811119  
     159A      0.815110   160A      0.823843   161A      0.825115  
     162A      0.837834   163A      0.842879   164A      0.864511  
     165A      0.868762   166A      0.885162   167A      0.890314  
     168A      0.895397   169A      0.903817   170A      0.909298  
     171A      0.914074   172A      0.924280   173A      0.938398  
     174A      0.960424   175A      0.967973   176A      0.988805  
     177A      0.995438   178A      1.002471   179A      1.010857  
     180A      1.013409   181A      1.021996   182A      1.039047  
     183A      1.046955   184A      1.063343   185A      1.067014  
     186A      1.084841   187A      1.091645   188A      1.093102  
     189A      1.116641   190A      1.122292   191A      1.130131  
     192A      1.137243   193A      1.165507   194A      1.171178  
     195A      1.183691   196A      1.187987   197A      1.198009  
     198A      1.198030   199A      1.207134   200A      1.222835  
     201A      1.227876   202A      1.246049   203A      1.250056  
     204A      1.257960   205A      1.269738   206A      1.278822  
     207A      1.283601   208A      1.294439   209A      1.310303  
     210A      1.316787   211A      1.322096   212A      1.328964  
     213A      1.343262   214A      1.350602   215A      1.355969  
     216A      1.363985   217A      1.366609   218A      1.379184  
     219A      1.388467   220A      1.403251   221A      1.404640  
     222A      1.461879   223A      1.484636   224A      1.502419  
     225A      1.521477   226A      1.538026   227A      1.563773  
     228A      1.573903   229A      1.632801   230A      1.716683  
     231A      1.769882   232A      1.774007   233A      1.792158  
     234A      1.806477   235A      1.810439   236A      1.816390  
     237A      1.832109   238A      1.841607   239A      1.856701  
     240A      1.866546   241A      1.870368   242A      1.871995  
     243A      1.877844   244A      1.897664   245A      1.909344  
     246A      1.929323   247A      1.933626   248A      1.939057  
     249A      1.946029   250A      1.950626   251A      1.964370  
     252A      1.970900   253A      1.983298   254A      1.985826  
     255A      2.009873   256A      2.020774   257A      2.022762  
     258A      2.040258   259A      2.044805   260A      2.057823  
     261A      2.070493   262A      2.074718   263A      2.078955  
     264A      2.103829   265A      2.116505   266A      2.118647  
     267A      2.130643   268A      2.131528   269A      2.172223  
     270A      2.185861   271A      2.185927   272A      2.197139  
     273A      2.197915   274A      2.208787   275A      2.217057  
     276A      2.236767   277A      2.244926   278A      2.274639  
     279A      2.294179   280A      2.307137   281A      2.311539  
     282A      2.322589   283A      2.325425   284A      2.347565  
     285A      2.359121   286A      2.370142   287A      2.373067  
     288A      2.386004   289A      2.391272   290A      2.395072  
     291A      2.411066   292A      2.430506   293A      2.435154  
     294A      2.443398   295A      2.492301   296A      2.496804  
     297A      2.501225   298A      2.509132   299A      2.519799  
     300A      2.541612   301A      2.544339   302A      2.557258  
     303A      2.566642   304A      2.583142   305A      2.600110  
     306A      2.605216   307A      2.615853   308A      2.631112  
     309A      2.635776   310A      2.658293   311A      2.681523  
     312A      2.684476   313A      2.687691   314A      2.702793  
     315A      2.740109   316A      2.750561   317A      2.760815  
     318A      2.774049   319A      2.801852   320A      2.830556  
     321A      2.847342   322A      2.863403   323A      2.869571  
     324A      2.882618   325A      2.893468   326A      2.918913  
     327A      2.932952   328A      2.952195   329A      2.955217  
     330A      2.957839   331A      2.972358   332A      2.987490  
     333A      2.991940   334A      3.007215   335A      3.046872  
     336A      3.071117   337A      3.080896   338A      3.097658  
     339A      3.116297   340A      3.117985   341A      3.147326  
     342A      3.167661   343A      3.206706   344A      3.253826  
     345A      3.257869   346A      3.300042   347A      3.304156  
     348A      3.315739   349A      3.345750   350A      3.359429  
     351A      3.397233   352A      3.417173   353A      3.421330  
     354A      3.439729   355A      3.462182   356A      3.462456  
     357A      3.521792   358A      3.526108   359A      3.578792  
     360A      3.631430   361A      3.659764   362A      3.682136  
     363A      3.703330   364A      3.725403   365A      3.741349  
     366A      3.747360   367A      3.812716   368A      3.835496  
     369A      3.978414   370A      4.040682   371A      4.113661  
     372A      4.166440   373A      4.225566   374A      4.259961  
     375A      4.266007   376A      4.308723   377A      4.349145  
     378A      4.363318   379A      4.373876   380A      4.414666  
     381A      4.501074   382A      4.537541   383A      4.563299  
     384A      4.653485   385A      4.717194   386A      4.800115  
     387A      4.895937   388A      4.943440   389A      5.006093  
     390A      5.120721   391A      5.186788   392A      5.293611  
     393A      5.472131   394A      5.638516   395A      5.837208  
     396A      5.964801   397A      6.058665   398A      6.066551  
     399A      6.130173   400A      6.266483   401A     18.160756  
     402A     18.452527   403A     18.483859   404A     18.518074  
     405A     18.894136   406A     25.297723   407A     25.315335  
     408A     25.339943   409A     25.423297   410A     25.462808  

    Final Occupation by Irrep:
              A 
    DOCC [    35 ]

  @DF-RHF Final Energy:  -464.57332860313625

   => Energetics <=

    Nuclear Repulsion Energy =            501.3065904973872193
    One-Electron Energy =               -1625.0474531143599961
    Two-Electron Energy =                 659.1675340138364163
    Total Energy =                       -464.5733286031362468

Computation Completed


Properties will be evaluated at   0.000000,   0.000000,   0.000000 [a0]

Properties computed using the SCF density matrix

  Nuclear Dipole Moment: [e a0]
     X:   129.4949      Y:  -292.1498      Z:  -218.0674

  Electronic Dipole Moment: [e a0]
     X:  -129.1755      Y:   291.2279      Z:   218.0678

  Dipole Moment: [e a0]
     X:     0.3194      Y:    -0.9220      Z:     0.0004     Total:     0.9757

  Dipole Moment: [D]
     X:     0.8118      Y:    -2.3434      Z:     0.0011     Total:     2.4800


*** tstop() called on node48.bme.utexas.edu at Sun May 12 23:38:35 2024
Module time:
	user time   =     117.01 seconds =       1.95 minutes
	system time =       1.87 seconds =       0.03 minutes
	total time  =         17 seconds =       0.28 minutes
Total time:
	user time   =     398.73 seconds =       6.65 minutes
	system time =       7.96 seconds =       0.13 minutes
	total time  =         60 seconds =       1.00 minutes

*** tstart() called on node48.bme.utexas.edu
*** at Sun May 12 23:38:35 2024


  //>>>>>>>>>>>>>>>>>>>>>>>>>>>>>>>>>>>//
  //               DFMP2               //
  //<<<<<<<<<<<<<<<<<<<<<<<<<<<<<<<<<<<//

   => Loading Basis Set <=

    Name: (JUN-CC-PVDZ AUX)
    Role: RIFIT
    Keyword: DF_BASIS_MP2
    atoms 1, 3, 7, 9, 11, 16, 18, 22, 24, 26 entry N          line   144 file /opt/anaconda/envs/psi4v1.5/share/psi4/basis/jun-cc-pvdz-ri.gbs 
    atoms 2, 4-6, 8, 17, 19-21, 23           entry C          line   100 file /opt/anaconda/envs/psi4v1.5/share/psi4/basis/jun-cc-pvdz-ri.gbs 
    atoms 10, 12-15, 25, 27-30               entry H          line    30 file /opt/anaconda/envs/psi4v1.5/share/psi4/basis/jun-cc-pvdz-ri.gbs 

	 --------------------------------------------------------
	                          DF-MP2                         
	      2nd-Order Density-Fitted Moller-Plesset Theory     
	              RMP2 Wavefunction,   8 Threads             
	                                                         
	        Rob Parrish, Justin Turney, Andy Simmonett,      
	           Ed Hohenstein, and C. David Sherrill          
	 --------------------------------------------------------

   => Auxiliary Basis Set <=

  Basis Set: (JUN-CC-PVDZ AUX)
    Blend: JUN-CC-PVDZ-RI
    Number of shells: 480
    Number of basis functions: 1440
    Number of Cartesian functions: 1670
    Spherical Harmonics?: true
    Max angular momentum: 3

	 --------------------------------------------------------
	                 NBF =   410, NAUX =  1440
	 --------------------------------------------------------
	   CLASS    FOCC     OCC    AOCC    AVIR     VIR    FVIR
	   PAIRS      10      35      25     375     375       0
	 --------------------------------------------------------

	 Will attempt to load fitting metric from file 97.

	-----------------------------------------------------------
	 ==================> DF-MP2 Energies <==================== 
	-----------------------------------------------------------
	 Reference Energy          =    -464.5733286031362468 [Eh]
	 Singles Energy            =      -0.0000000000000000 [Eh]
	 Same-Spin Energy          =      -0.4089639429287364 [Eh]
	 Opposite-Spin Energy      =      -1.0529721369676690 [Eh]
	 Correlation Energy        =      -1.4619360798964054 [Eh]
	 Total Energy              =    -466.0352646830326648 [Eh]
	-----------------------------------------------------------
	 ================> DF-SCS-MP2 Energies <================== 
	-----------------------------------------------------------
	 SCS Same-Spin Scale       =       0.3333333333333333 [-]
	 SCS Opposite-Spin Scale   =       1.2000000000000000 [-]
	 SCS Same-Spin Energy      =      -0.1363213143095788 [Eh]
	 SCS Opposite-Spin Energy  =      -1.2635665643612028 [Eh]
	 SCS Correlation Energy    =      -1.3998878786707816 [Eh]
	 SCS Total Energy          =    -465.9732164818070146 [Eh]
	-----------------------------------------------------------


*** tstop() called on node48.bme.utexas.edu at Sun May 12 23:38:43 2024
Module time:
	user time   =      42.03 seconds =       0.70 minutes
	system time =       0.96 seconds =       0.02 minutes
	total time  =          8 seconds =       0.13 minutes
Total time:
	user time   =     440.77 seconds =       7.35 minutes
	system time =       8.92 seconds =       0.15 minutes
	total time  =         68 seconds =       1.13 minutes

  //>>>>>>>>>>>>>>>>>>>>>>>>>>>>>>>>>>>//
  //            Monomer B HF           //
  //<<<<<<<<<<<<<<<<<<<<<<<<<<<<<<<<<<<//


*** tstart() called on node48.bme.utexas.edu
*** at Sun May 12 23:38:43 2024

   => Loading Basis Set <=

    Name: JUN-CC-PVDZ
    Role: ORBITAL
    Keyword: BASIS
    atoms 1, 3, 7, 9, 11, 16, 18, 22, 24, 26 entry N          line   198 file /opt/anaconda/envs/psi4v1.5/share/psi4/basis/jun-cc-pvdz.gbs 
    atoms 2, 4-6, 8, 17, 19-21, 23           entry C          line   164 file /opt/anaconda/envs/psi4v1.5/share/psi4/basis/jun-cc-pvdz.gbs 
    atoms 10, 12-15, 25, 27-30               entry H          line    36 file /opt/anaconda/envs/psi4v1.5/share/psi4/basis/jun-cc-pvdz.gbs 


         ---------------------------------------------------------
                                   SCF
               by Justin Turney, Rob Parrish, Andy Simmonett
                          and Daniel G. A. Smith
                              RHF Reference
                        8 Threads,  76293 MiB Core
         ---------------------------------------------------------

  ==> Geometry <==

    Molecular point group: c1
    Full point group: C1

    Geometry (in Angstrom), charge = 0, multiplicity = 1:

       Center              X                  Y                   Z               Mass       
    ------------   -----------------  -----------------  -----------------  -----------------
      Gh(N)           0.751621422596    -0.214624689177    -1.648684364318    14.003074004430
      Gh(C)          -0.517450577404    -0.669996689177    -1.648641364318    12.000000000000
      Gh(N)          -0.930979577404    -1.937880689177    -1.648503364318    14.003074004430
      Gh(C)           0.106915422596    -2.790977689177    -1.648439364318    12.000000000000
      Gh(C)           1.468358422596    -2.465869689177    -1.648513364318    12.000000000000
      Gh(C)           1.784994422596    -1.087230689177    -1.648636364318    12.000000000000
      Gh(N)           2.259032422596    -3.603007689177    -1.648425364318    14.003074004430
      Gh(C)           1.396891422596    -4.593173689177    -1.648305364318    12.000000000000
      Gh(N)           0.081377422596    -4.167944689177    -1.648305364318    14.003074004430
      Gh(H)          -1.281327577404     0.109358310823    -1.648701364318     1.007825032230
      Gh(N)           3.044160422596    -0.617366689177    -1.648704364318    14.003074004430
      Gh(H)           3.805344422596    -1.279110689177    -1.648702364318     1.007825032230
      Gh(H)           3.223632422596     0.391580310823    -1.648886364318     1.007825032230
      Gh(H)           1.652435422596    -5.648114689177    -1.648211364318     1.007825032230
      Gh(H)          -0.749085577404    -4.743481689177    -1.648215364318     1.007825032230
         N            0.235856422596     0.604300310823     1.701467635682    14.003074004430
         C           -1.002723577404     0.071708310823     1.688325635682    12.000000000000
         N           -2.169533577404     0.716630310823     1.654175635682    14.003074004430
         C           -1.992070577404     2.048180310823     1.632262635682    12.000000000000
         C           -0.774743577404     2.739006310823     1.642047635682    12.000000000000
         C            0.396711422596     1.947030310823     1.679048635682    12.000000000000
         N           -0.971729577404     4.109614310823     1.612369635682    14.003074004430
         C           -2.277296577404     4.245539310823     1.585262635682    12.000000000000
         N           -2.949492577404     3.037465310823     1.595523635682    14.003074004430
         H           -1.030058577404    -1.019047689177     1.708490635682     1.007825032230
         N            1.637926422596     2.462271310823     1.692593635682    14.003074004430
         H            1.743472422596     3.465205310823     1.675608635682     1.007825032230
         H            2.457029422596     1.847031310823     1.719723635682     1.007825032230
         H           -2.809609577404     5.191090310823     1.557340635682     1.007825032230
         H           -3.949219577404     2.891859310823     1.579488635682     1.007825032230

  Running in c1 symmetry.

  Rotational constants: A =      0.02612  B =      0.00582  C =      0.00525 [cm^-1]
  Rotational constants: A =    783.11783  B =    174.35194  C =    157.39031 [MHz]
  Nuclear repulsion =  501.306615970653922

  Charge       = 0
  Multiplicity = 1
  Electrons    = 70
  Nalpha       = 35
  Nbeta        = 35

  ==> Algorithm <==

  SCF Algorithm Type is DF.
  DIIS enabled.
  MOM disabled.
  Fractional occupation disabled.
  Guess Type is SAD.
  Energy threshold   = 1.00e-08
  Density threshold  = 1.00e-08
  Integral threshold = 1.00e-12

  ==> Primary Basis <==

  Basis Set: JUN-CC-PVDZ
    Blend: JUN-CC-PVDZ
    Number of shells: 190
    Number of basis functions: 410
    Number of Cartesian functions: 430
    Spherical Harmonics?: true
    Max angular momentum: 2

   => Loading Basis Set <=

    Name: (JUN-CC-PVDZ AUX)
    Role: JKFIT
    Keyword: DF_BASIS_SCF
    atoms 1, 3, 7, 9, 11, 16, 18, 22, 24, 26 entry N          line   202 file /opt/anaconda/envs/psi4v1.5/share/psi4/basis/jun-cc-pvdz-jkfit.gbs 
    atoms 2, 4-6, 8, 17, 19-21, 23           entry C          line   146 file /opt/anaconda/envs/psi4v1.5/share/psi4/basis/jun-cc-pvdz-jkfit.gbs 
    atoms 10, 12-15, 25, 27-30               entry H          line    70 file /opt/anaconda/envs/psi4v1.5/share/psi4/basis/jun-cc-pvdz-jkfit.gbs 

  ==> Integral Setup <==

  ==> DiskDFJK: Density-Fitted J/K Matrices <==

    J tasked:                  Yes
    K tasked:                  Yes
    wK tasked:                  No
    OpenMP threads:              8
    Integrals threads:           8
    Memory [MiB]:            57220
    Algorithm:                Core
    Integral Cache:           LOAD
    Schwarz Cutoff:          1E-12
    Fitting Condition:       1E-10

   => Auxiliary Basis Set <=

  Basis Set: (JUN-CC-PVDZ AUX)
    Blend: JUN-CC-PVDZ-JKFIT
    Number of shells: 630
    Number of basis functions: 1810
    Number of Cartesian functions: 2070
    Spherical Harmonics?: true
    Max angular momentum: 3

  Minimum eigenvalue in the overlap matrix is 8.4128002267E-06.
  Reciprocal condition number of the overlap matrix is 6.0521394561E-07.
    Using symmetric orthogonalization.

  ==> Pre-Iterations <==

  SCF Guess: Superposition of Atomic Densities via on-the-fly atomic UHF (no occupation information).

   -------------------------
    Irrep   Nso     Nmo    
   -------------------------
     A        410     410 
   -------------------------
    Total     410     410
   -------------------------

  ==> Iterations <==

                           Total Energy        Delta E     RMS |[F,P]|

   @DF-RHF iter SAD:  -464.38470539649131   -4.64385e+02   0.00000e+00 
   @DF-RHF iter   1:  -464.33692364555350    4.77818e-02   1.56545e-03 DIIS
   @DF-RHF iter   2:  -464.52508578889012   -1.88162e-01   7.78786e-04 DIIS
   @DF-RHF iter   3:  -464.56951661926018   -4.44308e-02   1.77083e-04 DIIS
   @DF-RHF iter   4:  -464.57268426565861   -3.16765e-03   7.96911e-05 DIIS
   @DF-RHF iter   5:  -464.57326669489584   -5.82429e-04   1.62258e-05 DIIS
   @DF-RHF iter   6:  -464.57331636634569   -4.96714e-05   7.82188e-06 DIIS
   @DF-RHF iter   7:  -464.57333010694663   -1.37406e-05   3.13004e-06 DIIS
   @DF-RHF iter   8:  -464.57333276355467   -2.65661e-06   1.11615e-06 DIIS
   @DF-RHF iter   9:  -464.57333312147102   -3.57916e-07   5.54952e-07 DIIS
   @DF-RHF iter  10:  -464.57333321272540   -9.12544e-08   2.07839e-07 DIIS
   @DF-RHF iter  11:  -464.57333323016928   -1.74439e-08   9.15292e-08 DIIS
   @DF-RHF iter  12:  -464.57333323312321   -2.95393e-09   3.26049e-08 DIIS
   @DF-RHF iter  13:  -464.57333323346643   -3.43221e-10   1.27417e-08 DIIS
   @DF-RHF iter  14:  -464.57333323350554   -3.91083e-11   4.54002e-09 DIIS
  Energy and wave function converged.


  ==> Post-Iterations <==

    Orbital Energies [Eh]
    ---------------------

    Doubly Occupied:                                                      

       1A    -15.639760     2A    -15.598910     3A    -15.578812  
       4A    -15.565184     5A    -15.556692     6A    -11.348550  
       7A    -11.334001     8A    -11.325818     9A    -11.320046  
      10A    -11.260142    11A     -1.370387    12A     -1.301260  
      13A     -1.251757    14A     -1.190929    15A     -1.152009  
      16A     -1.037446    17A     -0.897756    18A     -0.877595  
      19A     -0.846576    20A     -0.781148    21A     -0.742401  
      22A     -0.699733    23A     -0.678711    24A     -0.638046  
      25A     -0.636984    26A     -0.615010    27A     -0.594438  
      28A     -0.558047    29A     -0.498992    30A     -0.495916  
      31A     -0.449377    32A     -0.425540    33A     -0.407366  
      34A     -0.370769    35A     -0.310141  

    Virtual:                                                              

      36A      0.033676    37A      0.044213    38A      0.051774  
      39A      0.056392    40A      0.065460    41A      0.069859  
      42A      0.079547    43A      0.082282    44A      0.086448  
      45A      0.090230    46A      0.091899    47A      0.098867  
      48A      0.105409    49A      0.111223    50A      0.115411  
      51A      0.117823    52A      0.126059    53A      0.130849  
      54A      0.131640    55A      0.133276    56A      0.137689  
      57A      0.141286    58A      0.144303    59A      0.149064  
      60A      0.155566    61A      0.159292    62A      0.162518  
      63A      0.171119    64A      0.171185    65A      0.175206  
      66A      0.184777    67A      0.186912    68A      0.193033  
      69A      0.203191    70A      0.205451    71A      0.212846  
      72A      0.214361    73A      0.219672    74A      0.220718  
      75A      0.223034    76A      0.225815    77A      0.227262  
      78A      0.234253    79A      0.237363    80A      0.239877  
      81A      0.245626    82A      0.251419    83A      0.257261  
      84A      0.259231    85A      0.263707    86A      0.266844  
      87A      0.270127    88A      0.271584    89A      0.274630  
      90A      0.278723    91A      0.282107    92A      0.290913  
      93A      0.293020    94A      0.295918    95A      0.301201  
      96A      0.304904    97A      0.307543    98A      0.312183  
      99A      0.317789   100A      0.320532   101A      0.324207  
     102A      0.326758   103A      0.330959   104A      0.336735  
     105A      0.346329   106A      0.348726   107A      0.358086  
     108A      0.363682   109A      0.368757   110A      0.373352  
     111A      0.375890   112A      0.380605   113A      0.385777  
     114A      0.392230   115A      0.395339   116A      0.396790  
     117A      0.409422   118A      0.416273   119A      0.428370  
     120A      0.430798   121A      0.436540   122A      0.446634  
     123A      0.453700   124A      0.466868   125A      0.473027  
     126A      0.486021   127A      0.493058   128A      0.502492  
     129A      0.503261   130A      0.508211   131A      0.508969  
     132A      0.524831   133A      0.532292   134A      0.538934  
     135A      0.553806   136A      0.560444   137A      0.565637  
     138A      0.575230   139A      0.581066   140A      0.585988  
     141A      0.600483   142A      0.611036   143A      0.615375  
     144A      0.620491   145A      0.636354   146A      0.639553  
     147A      0.649374   148A      0.661900   149A      0.665272  
     150A      0.688946   151A      0.696682   152A      0.708224  
     153A      0.724101   154A      0.754765   155A      0.772514  
     156A      0.774353   157A      0.787864   158A      0.807476  
     159A      0.816171   160A      0.824372   161A      0.825876  
     162A      0.836488   163A      0.843090   164A      0.864038  
     165A      0.869805   166A      0.884374   167A      0.888581  
     168A      0.895034   169A      0.901924   170A      0.909012  
     171A      0.915795   172A      0.926267   173A      0.934850  
     174A      0.958568   175A      0.964603   176A      0.988323  
     177A      0.997002   178A      1.002623   179A      1.009945  
     180A      1.014808   181A      1.019580   182A      1.038709  
     183A      1.051779   184A      1.063247   185A      1.068472  
     186A      1.087694   187A      1.091348   188A      1.092345  
     189A      1.116932   190A      1.121095   191A      1.133359  
     192A      1.135934   193A      1.166233   194A      1.169530  
     195A      1.184208   196A      1.189907   197A      1.197286  
     198A      1.198952   199A      1.206589   200A      1.221635  
     201A      1.227771   202A      1.246606   203A      1.251058  
     204A      1.257737   205A      1.269726   206A      1.273985  
     207A      1.282251   208A      1.293637   209A      1.307995  
     210A      1.312195   211A      1.324558   212A      1.332735  
     213A      1.344636   214A      1.350653   215A      1.356026  
     216A      1.366273   217A      1.369840   218A      1.377150  
     219A      1.388926   220A      1.403845   221A      1.404973  
     222A      1.464258   223A      1.484793   224A      1.500964  
     225A      1.520810   226A      1.538640   227A      1.562765  
     228A      1.573587   229A      1.632761   230A      1.717547  
     231A      1.770362   232A      1.774559   233A      1.792878  
     234A      1.807817   235A      1.808210   236A      1.820392  
     237A      1.834424   238A      1.845602   239A      1.854945  
     240A      1.866673   241A      1.869954   242A      1.872393  
     243A      1.879551   244A      1.895919   245A      1.909593  
     246A      1.931356   247A      1.934101   248A      1.939124  
     249A      1.944981   250A      1.947932   251A      1.964751  
     252A      1.968237   253A      1.982949   254A      1.986434  
     255A      2.012768   256A      2.019111   257A      2.022366  
     258A      2.040349   259A      2.043604   260A      2.056767  
     261A      2.069471   262A      2.075327   263A      2.079153  
     264A      2.105965   265A      2.113790   266A      2.118388  
     267A      2.127734   268A      2.135091   269A      2.171429  
     270A      2.183452   271A      2.187959   272A      2.196462  
     273A      2.200475   274A      2.208065   275A      2.213757  
     276A      2.235841   277A      2.245760   278A      2.273953  
     279A      2.292691   280A      2.307830   281A      2.308919  
     282A      2.321846   283A      2.328013   284A      2.347405  
     285A      2.358240   286A      2.369653   287A      2.373155  
     288A      2.385933   289A      2.392708   290A      2.396000  
     291A      2.409105   292A      2.430331   293A      2.434126  
     294A      2.443952   295A      2.492692   296A      2.496603  
     297A      2.500723   298A      2.510515   299A      2.519755  
     300A      2.539475   301A      2.543288   302A      2.557326  
     303A      2.568944   304A      2.582373   305A      2.600945  
     306A      2.604825   307A      2.615573   308A      2.631529  
     309A      2.635183   310A      2.660883   311A      2.680611  
     312A      2.684524   313A      2.691503   314A      2.702669  
     315A      2.741285   316A      2.750156   317A      2.761461  
     318A      2.774139   319A      2.803906   320A      2.830683  
     321A      2.848377   322A      2.863745   323A      2.869791  
     324A      2.880976   325A      2.893200   326A      2.919470  
     327A      2.933182   328A      2.943553   329A      2.953293  
     330A      2.958535   331A      2.973629   332A      2.987433  
     333A      2.991192   334A      3.007065   335A      3.046720  
     336A      3.071132   337A      3.079457   338A      3.098499  
     339A      3.116529   340A      3.117752   341A      3.147624  
     342A      3.166286   343A      3.206757   344A      3.254114  
     345A      3.257888   346A      3.299807   347A      3.304557  
     348A      3.314701   349A      3.345757   350A      3.357300  
     351A      3.397217   352A      3.415917   353A      3.420980  
     354A      3.440340   355A      3.461885   356A      3.462492  
     357A      3.521315   358A      3.524703   359A      3.578993  
     360A      3.632442   361A      3.660072   362A      3.681900  
     363A      3.703005   364A      3.725328   365A      3.740894  
     366A      3.747637   367A      3.812343   368A      3.835441  
     369A      3.977944   370A      4.041435   371A      4.112709  
     372A      4.167173   373A      4.226759   374A      4.259875  
     375A      4.262649   376A      4.307923   377A      4.349004  
     378A      4.362943   379A      4.371380   380A      4.417864  
     381A      4.500793   382A      4.537892   383A      4.563653  
     384A      4.653497   385A      4.717042   386A      4.800306  
     387A      4.896166   388A      4.943216   389A      5.006748  
     390A      5.119580   391A      5.186320   392A      5.293401  
     393A      5.472507   394A      5.638688   395A      5.837326  
     396A      5.964828   397A      6.058868   398A      6.065580  
     399A      6.130195   400A      6.265961   401A     18.160689  
     402A     18.452433   403A     18.484861   404A     18.518077  
     405A     18.894078   406A     25.297567   407A     25.315249  
     408A     25.340203   409A     25.423286   410A     25.461524  

    Final Occupation by Irrep:
              A 
    DOCC [    35 ]

  @DF-RHF Final Energy:  -464.57333323350554

   => Energetics <=

    Nuclear Repulsion Energy =            501.3066159706539224
    One-Electron Energy =               -1625.0474068759183410
    Two-Electron Energy =                 659.1674576717589389
    Total Energy =                       -464.5733332335055366

Computation Completed


Properties will be evaluated at   0.000000,   0.000000,   0.000000 [a0]

Properties computed using the SCF density matrix

  Nuclear Dipole Moment: [e a0]
     X:  -126.6266      Y:   293.2796      Z:   218.0654

  Electronic Dipole Moment: [e a0]
     X:   126.2320      Y:  -292.3872      Z:  -218.0901

  Dipole Moment: [e a0]
     X:    -0.3947      Y:     0.8924      Z:    -0.0247     Total:     0.9761

  Dipole Moment: [D]
     X:    -1.0032      Y:     2.2683      Z:    -0.0629     Total:     2.4810


*** tstop() called on node48.bme.utexas.edu at Sun May 12 23:39:00 2024
Module time:
	user time   =     112.41 seconds =       1.87 minutes
	system time =       2.09 seconds =       0.03 minutes
	total time  =         17 seconds =       0.28 minutes
Total time:
	user time   =     553.24 seconds =       9.22 minutes
	system time =      11.01 seconds =       0.18 minutes
	total time  =         85 seconds =       1.42 minutes

*** tstart() called on node48.bme.utexas.edu
*** at Sun May 12 23:39:00 2024


  //>>>>>>>>>>>>>>>>>>>>>>>>>>>>>>>>>>>//
  //               DFMP2               //
  //<<<<<<<<<<<<<<<<<<<<<<<<<<<<<<<<<<<//

   => Loading Basis Set <=

    Name: (JUN-CC-PVDZ AUX)
    Role: RIFIT
    Keyword: DF_BASIS_MP2
    atoms 1, 3, 7, 9, 11, 16, 18, 22, 24, 26 entry N          line   144 file /opt/anaconda/envs/psi4v1.5/share/psi4/basis/jun-cc-pvdz-ri.gbs 
    atoms 2, 4-6, 8, 17, 19-21, 23           entry C          line   100 file /opt/anaconda/envs/psi4v1.5/share/psi4/basis/jun-cc-pvdz-ri.gbs 
    atoms 10, 12-15, 25, 27-30               entry H          line    30 file /opt/anaconda/envs/psi4v1.5/share/psi4/basis/jun-cc-pvdz-ri.gbs 

	 --------------------------------------------------------
	                          DF-MP2                         
	      2nd-Order Density-Fitted Moller-Plesset Theory     
	              RMP2 Wavefunction,   8 Threads             
	                                                         
	        Rob Parrish, Justin Turney, Andy Simmonett,      
	           Ed Hohenstein, and C. David Sherrill          
	 --------------------------------------------------------

   => Auxiliary Basis Set <=

  Basis Set: (JUN-CC-PVDZ AUX)
    Blend: JUN-CC-PVDZ-RI
    Number of shells: 480
    Number of basis functions: 1440
    Number of Cartesian functions: 1670
    Spherical Harmonics?: true
    Max angular momentum: 3

	 --------------------------------------------------------
	                 NBF =   410, NAUX =  1440
	 --------------------------------------------------------
	   CLASS    FOCC     OCC    AOCC    AVIR     VIR    FVIR
	   PAIRS      10      35      25     375     375       0
	 --------------------------------------------------------

	 Will attempt to load fitting metric from file 97.

	-----------------------------------------------------------
	 ==================> DF-MP2 Energies <==================== 
	-----------------------------------------------------------
	 Reference Energy          =    -464.5733332335055366 [Eh]
	 Singles Energy            =      -0.0000000000000000 [Eh]
	 Same-Spin Energy          =      -0.4089523464816629 [Eh]
	 Opposite-Spin Energy      =      -1.0529522822991710 [Eh]
	 Correlation Energy        =      -1.4619046287808339 [Eh]
	 Total Energy              =    -466.0352378622863512 [Eh]
	-----------------------------------------------------------
	 ================> DF-SCS-MP2 Energies <================== 
	-----------------------------------------------------------
	 SCS Same-Spin Scale       =       0.3333333333333333 [-]
	 SCS Opposite-Spin Scale   =       1.2000000000000000 [-]
	 SCS Same-Spin Energy      =      -0.1363174488272210 [Eh]
	 SCS Opposite-Spin Energy  =      -1.2635427387590052 [Eh]
	 SCS Correlation Energy    =      -1.3998601875862262 [Eh]
	 SCS Total Energy          =    -465.9731934210917643 [Eh]
	-----------------------------------------------------------


*** tstop() called on node48.bme.utexas.edu at Sun May 12 23:39:08 2024
Module time:
	user time   =      41.27 seconds =       0.69 minutes
	system time =       0.82 seconds =       0.01 minutes
	total time  =          8 seconds =       0.13 minutes
Total time:
	user time   =     594.52 seconds =       9.91 minutes
	system time =      11.83 seconds =       0.20 minutes
	total time  =         93 seconds =       1.55 minutes
  Constructing Basis Sets for SAPT...

   => Loading Basis Set <=

    Name: (JUN-CC-PVDZ AUX)
    Role: RIFIT
    Keyword: DF_BASIS_SAPT
    atoms 1, 3, 7, 9, 11, 16, 18, 22, 24, 26 entry N          line   144 file /opt/anaconda/envs/psi4v1.5/share/psi4/basis/jun-cc-pvdz-ri.gbs 
    atoms 2, 4-6, 8, 17, 19-21, 23           entry C          line   100 file /opt/anaconda/envs/psi4v1.5/share/psi4/basis/jun-cc-pvdz-ri.gbs 
    atoms 10, 12-15, 25, 27-30               entry H          line    30 file /opt/anaconda/envs/psi4v1.5/share/psi4/basis/jun-cc-pvdz-ri.gbs 


  //>>>>>>>>>>>>>>>>>>>>>>>>>>>>>>>>>>>//
  //           SAPT2+(3)DMP2           //
  //<<<<<<<<<<<<<<<<<<<<<<<<<<<<<<<<<<<//


*** tstart() called on node48.bme.utexas.edu
*** at Sun May 12 23:39:09 2024

      SAPT2+(3)  
    Ed Hohenstein
     6 June 2009

      Orbital Information
  --------------------------
    NSO        =       410
    NMO        =       410
    NRI        =      1440
    NOCC A     =        35
    NOCC B     =        35
    FOCC A     =        10
    FOCC B     =        10
    NVIR A     =       375
    NVIR B     =       375

    Estimated memory usage: 5754.4 MB

    Natural Orbital Cutoff:   1.000E-06
    Disp(T3) Truncation:            Yes
    CCD (vv|vv) Truncation:         Yes
    MBPT T2 Truncation:             Yes

    Monomer A: 195 virtual orbitals dropped
    Monomer B: 194 virtual orbitals dropped

    Elst10,r            =     0.000682754311 [Eh]
    Exch10 (S^2)        =     0.003390887072 [Eh]
    Exch10              =     0.003396491527 [Eh]
    Ind20,r (A<-B)      =    -0.000721389620 [Eh]
    Ind20,r (B<-A)      =    -0.000709768097 [Eh]
    Ind20,r             =    -0.001431157717 [Eh]
    Exch-Ind20,r (A<-B) =     0.000585655765 [Eh]
    Exch-Ind20,r (B<-A) =     0.000576600591 [Eh]
    Exch-Ind20,r        =     0.001162256356 [Eh]
    Disp20              =    -0.006148331726 [Eh]
    Disp20 (NO)         =    -0.005852537073 [Eh]
    Exch-Disp20         =     0.000492553263 [Eh]
    Elst12,r            =    -0.000568681212 [Eh]
    Exch11              =    -0.000033028573 [Eh]
    Exch12              =     0.000429305607 [Eh]
    Ind22               =    -0.000208631366 [Eh]
    Disp21              =     0.002037773623 [Eh]
    Disp22 (SDQ)        =    -0.000429908865 [Eh]

    (i =   1 of  25)        170 seconds
    (i =   2 of  25)        350 seconds
    (i =   3 of  25)        527 seconds
    (i =   4 of  25)        710 seconds
    (i =   5 of  25)        891 seconds
    (i =   6 of  25)       1069 seconds
    (i =   7 of  25)       1245 seconds
    (i =   8 of  25)       1432 seconds
    (i =   9 of  25)       1593 seconds
    (i =  10 of  25)       1772 seconds
    (i =  11 of  25)       1942 seconds
    (i =  12 of  25)       2114 seconds
    (i =  13 of  25)       2291 seconds
    (i =  14 of  25)       2482 seconds
    (i =  15 of  25)       2673 seconds
    (i =  16 of  25)       2869 seconds
    (i =  17 of  25)       3065 seconds
    (i =  18 of  25)       3260 seconds
    (i =  19 of  25)       3456 seconds
    (i =  20 of  25)       3647 seconds
    (i =  21 of  25)       3839 seconds
    (i =  22 of  25)       4036 seconds
    (i =  23 of  25)       4231 seconds
    (i =  24 of  25)       4422 seconds
    (i =  25 of  25)       4616 seconds

    Disp220 (T)         =    -0.000681454789 [Eh]

    (i =   1 of  25)        193 seconds
    (i =   2 of  25)        383 seconds
    (i =   3 of  25)        573 seconds
    (i =   4 of  25)        765 seconds
    (i =   5 of  25)        955 seconds
    (i =   6 of  25)       1146 seconds
    (i =   7 of  25)       1337 seconds
    (i =   8 of  25)       1528 seconds
    (i =   9 of  25)       1720 seconds
    (i =  10 of  25)       1911 seconds
    (i =  11 of  25)       2102 seconds
    (i =  12 of  25)       2292 seconds
    (i =  13 of  25)       2482 seconds
    (i =  14 of  25)       2672 seconds
    (i =  15 of  25)       2861 seconds
    (i =  16 of  25)       3052 seconds
    (i =  17 of  25)       3247 seconds
    (i =  18 of  25)       3439 seconds
    (i =  19 of  25)       3633 seconds
    (i =  20 of  25)       3812 seconds
    (i =  21 of  25)       3982 seconds
    (i =  22 of  25)       4157 seconds
    (i =  23 of  25)       4330 seconds
    (i =  24 of  25)       4505 seconds
    (i =  25 of  25)       4680 seconds

    Disp202 (T)         =    -0.000681636054 [Eh]

    Disp22 (T)          =    -0.001363090843 [Eh]

    Est. Disp220 (T)    =    -0.000715896379 [Eh]
    Est. Disp202 (T)    =    -0.000716086806 [Eh]

    Est. Disp22 (T)     =    -0.001431983185 [Eh]
    Elst13,r            =     0.000216778068 [Eh]
    Disp30              =     0.000037394088 [Eh]

    SAPT Results 
  --------------------------------------------------------------------------------------------------------
    Electrostatics                  0.33085117 [mEh]       0.20761224 [kcal/mol]       0.86864962 [kJ/mol]
      Elst10,r                      0.68275431 [mEh]       0.42843480 [kcal/mol]       1.79257120 [kJ/mol]
      Elst12,r                     -0.56868121 [mEh]      -0.35685285 [kcal/mol]      -1.49307232 [kJ/mol]
      Elst13,r                      0.21677807 [mEh]       0.13603029 [kcal/mol]       0.56915074 [kJ/mol]

    Exchange                        3.79276856 [mEh]       2.37999820 [kcal/mol]       9.95791249 [kJ/mol]
      Exch10                        3.39649153 [mEh]       2.13133061 [kcal/mol]       8.91748728 [kJ/mol]
      Exch10(S^2)                   3.39088707 [mEh]       2.12781376 [kcal/mol]       8.90277278 [kJ/mol]
      Exch11(S^2)                  -0.03302857 [mEh]      -0.02072574 [kcal/mol]      -0.08671651 [kJ/mol]
      Exch12(S^2)                   0.42930561 [mEh]       0.26939334 [kcal/mol]       1.12714172 [kJ/mol]

    Induction                      -0.33483002 [mEh]      -0.21010901 [kcal/mol]      -0.87909610 [kJ/mol]
      Ind20,r                      -1.43115772 [mEh]      -0.89806503 [kcal/mol]      -3.75750407 [kJ/mol]
      Ind22                        -0.20863137 [mEh]      -0.13091816 [kcal/mol]      -0.54776158 [kJ/mol]
      Exch-Ind20,r                  1.16225636 [mEh]       0.72932687 [kcal/mol]       3.05150364 [kJ/mol]
      Exch-Ind22                    0.16943145 [mEh]       0.10631984 [kcal/mol]       0.44484222 [kJ/mol]
      delta HF,r (2)               -0.21202642 [mEh]      -0.13304859 [kcal/mol]      -0.55667528 [kJ/mol]
      delta MP2,r (2)               0.18529767 [mEh]       0.11627604 [kcal/mol]       0.48649896 [kJ/mol]

    Dispersion                     -5.44250280 [mEh]      -3.41522207 [kcal/mol]     -14.28928914 [kJ/mol]
      Disp20                       -6.14833173 [mEh]      -3.85813641 [kcal/mol]     -16.14244272 [kJ/mol]
      Disp30                        0.03739409 [mEh]       0.02346514 [kcal/mol]       0.09817817 [kJ/mol]
      Disp21                        2.03777362 [mEh]       1.27872225 [kcal/mol]       5.35017391 [kJ/mol]
      Disp22 (SDQ)                 -0.42990887 [mEh]      -0.26977189 [kcal/mol]      -1.12872557 [kJ/mol]
      Disp22 (T)                   -1.36309084 [mEh]      -0.85535242 [kcal/mol]      -3.57879452 [kJ/mol]
      Est. Disp22 (T)              -1.43198318 [mEh]      -0.89858301 [kcal/mol]      -3.75967133 [kJ/mol]
      Exch-Disp20                   0.49255326 [mEh]       0.30908184 [kcal/mol]       1.29319841 [kJ/mol]

  Total HF                          3.59831806 [mEh]       2.25797867 [kcal/mol]       9.44738276 [kJ/mol]
  Total SAPT0                      -2.05746040 [mEh]      -1.29107590 [kcal/mol]      -5.40186154 [kJ/mol]
  Total SAPT2                      -2.26906449 [mEh]      -1.42385947 [kcal/mol]      -5.95742801 [kJ/mol]
  Total SAPT2+                     -2.09318292 [mEh]      -1.31349211 [kcal/mol]      -5.49565100 [kJ/mol]
  Total SAPT2+(3)                  -1.83901077 [mEh]      -1.15399668 [kcal/mol]      -4.82832210 [kJ/mol]
  Total SAPT2+dMP2                 -1.90788525 [mEh]      -1.19721607 [kcal/mol]      -5.00915204 [kJ/mol]
  Total SAPT2+(3)dMP2              -1.65371310 [mEh]      -1.03772063 [kcal/mol]      -4.34182314 [kJ/mol]

  Special recipe for scaled SAPT0 (see Manual):
    Electrostatics sSAPT0           0.68275431 [mEh]       0.42843480 [kcal/mol]       1.79257120 [kJ/mol]
    Exchange sSAPT0                 3.39649153 [mEh]       2.13133061 [kcal/mol]       8.91748728 [kJ/mol]
    Induction sSAPT0               -0.47515532 [mEh]      -0.29816446 [kcal/mol]      -1.24752012 [kJ/mol]
    Dispersion sSAPT0              -5.65333215 [mEh]      -3.54751948 [kcal/mol]     -14.84282151 [kJ/mol]
  Total sSAPT0                     -2.04924163 [mEh]      -1.28591854 [kcal/mol]      -5.38028316 [kJ/mol]
  --------------------------------------------------------------------------------------------------------

*** tstop() called on node48.bme.utexas.edu at Mon May 13 02:38:14 2024
Module time:
	user time   =   82710.73 seconds =    1378.51 minutes
	system time =    1445.62 seconds =      24.09 minutes
	total time  =      10745 seconds =     179.08 minutes
Total time:
	user time   =   83306.58 seconds =    1388.44 minutes
	system time =    1457.50 seconds =      24.29 minutes
	total time  =      10839 seconds =     180.65 minutes

    Psi4 stopped on: Monday, 13 May 2024 02:38AM
    Psi4 wall time for execution: 3:00:39.76

*** Psi4 exiting successfully. Buy a developer a beer!
