
    -----------------------------------------------------------------------
          Psi4: An Open-Source Ab Initio Electronic Structure Package
                               Psi4 1.5 release

                         Git: Rev {HEAD} e9f4d6d 


    D. G. A. Smith, L. A. Burns, A. C. Simmonett, R. M. Parrish,
    M. C. Schieber, R. Galvelis, P. Kraus, H. Kruse, R. Di Remigio,
    A. Alenaizan, A. M. James, S. Lehtola, J. P. Misiewicz, M. Scheurer,
    R. A. Shaw, J. B. Schriber, Y. Xie, Z. L. Glick, D. A. Sirianni,
    J. S. O'Brien, J. M. Waldrop, A. Kumar, E. G. Hohenstein,
    B. P. Pritchard, B. R. Brooks, H. F. Schaefer III, A. Yu. Sokolov,
    K. Patkowski, A. E. DePrince III, U. Bozkaya, R. A. King,
    F. A. Evangelista, J. M. Turney, T. D. Crawford, C. D. Sherrill,
    J. Chem. Phys. 152(18) 184108 (2020). https://doi.org/10.1063/5.0006002

                            Additional Code Authors
    E. T. Seidl, C. L. Janssen, E. F. Valeev, M. L. Leininger,
    J. F. Gonthier, R. M. Richard, H. R. McAlexander, M. Saitow, X. Wang,
    P. Verma, M. H. Lechner, and A. Jiang

             Previous Authors, Complete List of Code Contributors,
                       and Citations for Specific Modules
    https://github.com/psi4/psi4/blob/master/codemeta.json
    https://github.com/psi4/psi4/graphs/contributors
    http://psicode.org/psi4manual/master/introduction.html#citing-psifour

    -----------------------------------------------------------------------


    Psi4 started on: Sunday, 12 May 2024 11:29PM

    Process ID: 3476763
    Host:       node158.bme.utexas.edu
    PSIDATADIR: /opt/anaconda/envs/psi4v1.5/share/psi4
    Memory:     500.0 MiB
    Threads:    8
    
  ==> Input File <==

--------------------------------------------------------------------------
memory 60GB

molecule {
0 1
N -1.249408 4.334618 -0.000108
C -1.453779 2.957386 -0.000369
N -0.287164 2.222242 -0.000471
C 1.008028 2.72249 -0.000365
C 1.139737 4.181361 -6.4e-05
C 0.0 4.915748 0.0
H -2.087419 4.899193 -0.000228
O -2.573085 2.462566 -0.000505
H -0.408805 1.172186 -0.000678
O 1.977244 1.953535 -0.000498
C 2.515972 4.780254 0.000534
H 2.46354 5.877599 -0.006109
H 3.080111 4.452913 0.886592
H 3.085127 4.442101 -0.87814
H 0.011158 6.004875 3.7e-05
--
0 1
N 1.718497 -3.692103 3.478467
C 0.630098 -2.824583 3.441974
N 0.982112 -1.491477 3.423463
C 2.270391 -0.973883 3.43767
C 3.361307 -1.950647 3.476233
C 3.028434 -3.264868 3.494783
H 1.490517 -4.676392 3.492927
O -0.525848 -3.226189 3.428081
H 0.17727 -0.806734 3.395675
O 2.454987 0.249315 3.418135
C 4.776118 -1.44991 3.492632
H 5.485763 -2.287815 3.528386
H 4.9821 -0.842586 2.598634
H 4.945403 -0.797917 4.36246
H 3.779108 -4.053522 3.523693
 units angstrom
 no_reorient
 symmetry c1}
set  {scf_type DF
 basis aug-cc-pvdz
 freeze_core True
 guess SAD}
energy('sapt2+(3)dmp2')
--------------------------------------------------------------------------

  Memory set to  55.879 GiB by Python driver.

Scratch directory: /tmp/
   => Loading Basis Set <=

    Name: AUG-CC-PVDZ
    Role: ORBITAL
    Keyword: BASIS
    atoms 1, 3, 16, 18               entry N          line   218 file /opt/anaconda/envs/psi4v1.5/share/psi4/basis/aug-cc-pvdz.gbs 
    atoms 2, 4-6, 11, 17, 19-21, 26  entry C          line   182 file /opt/anaconda/envs/psi4v1.5/share/psi4/basis/aug-cc-pvdz.gbs 
    atoms 7, 9, 12-15, 22, 24, 27-30 entry H          line    40 file /opt/anaconda/envs/psi4v1.5/share/psi4/basis/aug-cc-pvdz.gbs 
    atoms 8, 10, 23, 25              entry O          line   254 file /opt/anaconda/envs/psi4v1.5/share/psi4/basis/aug-cc-pvdz.gbs 

   => Loading Basis Set <=

    Name: AUG-CC-PVDZ
    Role: ORBITAL
    Keyword: BASIS
    atoms 1, 3, 16, 18               entry N          line   218 file /opt/anaconda/envs/psi4v1.5/share/psi4/basis/aug-cc-pvdz.gbs 
    atoms 2, 4-6, 11, 17, 19-21, 26  entry C          line   182 file /opt/anaconda/envs/psi4v1.5/share/psi4/basis/aug-cc-pvdz.gbs 
    atoms 7, 9, 12-15, 22, 24, 27-30 entry H          line    40 file /opt/anaconda/envs/psi4v1.5/share/psi4/basis/aug-cc-pvdz.gbs 
    atoms 8, 10, 23, 25              entry O          line   254 file /opt/anaconda/envs/psi4v1.5/share/psi4/basis/aug-cc-pvdz.gbs 


  //>>>>>>>>>>>>>>>>>>>>>>>>>>>>>>>>>>>//
  //              Dimer HF             //
  //<<<<<<<<<<<<<<<<<<<<<<<<<<<<<<<<<<<//


*** tstart() called on node158.bme.utexas.edu
*** at Sun May 12 23:29:55 2024

   => Loading Basis Set <=

    Name: AUG-CC-PVDZ
    Role: ORBITAL
    Keyword: BASIS
    atoms 1, 3, 16, 18               entry N          line   218 file /opt/anaconda/envs/psi4v1.5/share/psi4/basis/aug-cc-pvdz.gbs 
    atoms 2, 4-6, 11, 17, 19-21, 26  entry C          line   182 file /opt/anaconda/envs/psi4v1.5/share/psi4/basis/aug-cc-pvdz.gbs 
    atoms 7, 9, 12-15, 22, 24, 27-30 entry H          line    40 file /opt/anaconda/envs/psi4v1.5/share/psi4/basis/aug-cc-pvdz.gbs 
    atoms 8, 10, 23, 25              entry O          line   254 file /opt/anaconda/envs/psi4v1.5/share/psi4/basis/aug-cc-pvdz.gbs 


         ---------------------------------------------------------
                                   SCF
               by Justin Turney, Rob Parrish, Andy Simmonett
                          and Daniel G. A. Smith
                              RHF Reference
                        8 Threads,  57220 MiB Core
         ---------------------------------------------------------

  ==> Geometry <==

    Molecular point group: c1
    Full point group: C1

    Geometry (in Angstrom), charge = 0, multiplicity = 1:

       Center              X                  Y                   Z               Mass       
    ------------   -----------------  -----------------  -----------------  -----------------
         N           -2.329028017674     3.680637390952    -1.726947770803    14.003074004430
         C           -2.533399017674     2.303405390952    -1.727208770803    12.000000000000
         N           -1.366784017674     1.568261390952    -1.727310770803    14.003074004430
         C           -0.071592017674     2.068509390952    -1.727204770803    12.000000000000
         C            0.060116982326     3.527380390952    -1.726903770803    12.000000000000
         C           -1.079620017674     4.261767390952    -1.726839770803    12.000000000000
         H           -3.167039017674     4.245212390952    -1.727067770803     1.007825032230
         O           -3.652705017674     1.808585390952    -1.727344770803    15.994914619570
         H           -1.488425017674     0.518205390952    -1.727517770803     1.007825032230
         O            0.897623982326     1.299554390952    -1.727337770803    15.994914619570
         C            1.436351982326     4.126273390952    -1.726305770803    12.000000000000
         H            1.383919982326     5.223618390952    -1.732948770803     1.007825032230
         H            2.000490982326     3.798932390952    -0.840247770803     1.007825032230
         H            2.005506982326     3.788120390952    -2.604979770803     1.007825032230
         H           -1.068462017674     5.350894390952    -1.726802770803     1.007825032230
         N            0.638876982326    -4.346083609048     1.751627229197    14.003074004430
         C           -0.449522017674    -3.478563609048     1.715134229197    12.000000000000
         N           -0.097508017674    -2.145457609048     1.696623229197    14.003074004430
         C            1.190770982326    -1.627863609048     1.710830229197    12.000000000000
         C            2.281686982326    -2.604627609048     1.749393229197    12.000000000000
         C            1.948813982326    -3.918848609048     1.767943229197    12.000000000000
         H            0.410896982326    -5.330372609048     1.766087229197     1.007825032230
         O           -1.605468017674    -3.880169609048     1.701241229197    15.994914619570
         H           -0.902350017674    -1.460714609048     1.668835229197     1.007825032230
         O            1.375366982326    -0.404665609048     1.691295229197    15.994914619570
         C            3.696497982326    -2.103890609048     1.765792229197    12.000000000000
         H            4.406142982326    -2.941795609048     1.801546229197     1.007825032230
         H            3.902479982326    -1.496566609048     0.871794229197     1.007825032230
         H            3.865782982326    -1.451897609048     2.635620229197     1.007825032230
         H            2.699487982326    -4.707502609048     1.796853229197     1.007825032230

  Running in c1 symmetry.

  Rotational constants: A =      0.02142  B =      0.00532  C =      0.00444 [cm^-1]
  Rotational constants: A =    642.18343  B =    159.44426  C =    132.99301 [MHz]
  Nuclear repulsion = 1209.229394933353888

  Charge       = 0
  Multiplicity = 1
  Electrons    = 132
  Nalpha       = 66
  Nbeta        = 66

  ==> Algorithm <==

  SCF Algorithm Type is DF.
  DIIS enabled.
  MOM disabled.
  Fractional occupation disabled.
  Guess Type is SAD.
  Energy threshold   = 1.00e-08
  Density threshold  = 1.00e-08
  Integral threshold = 1.00e-12

  ==> Primary Basis <==

  Basis Set: AUG-CC-PVDZ
    Blend: AUG-CC-PVDZ
    Number of shells: 222
    Number of basis functions: 522
    Number of Cartesian functions: 558
    Spherical Harmonics?: true
    Max angular momentum: 2

   => Loading Basis Set <=

    Name: (AUG-CC-PVDZ AUX)
    Role: JKFIT
    Keyword: DF_BASIS_SCF
    atoms 1, 3, 16, 18               entry N          line   212 file /opt/anaconda/envs/psi4v1.5/share/psi4/basis/aug-cc-pvdz-jkfit.gbs 
    atoms 2, 4-6, 11, 17, 19-21, 26  entry C          line   154 file /opt/anaconda/envs/psi4v1.5/share/psi4/basis/aug-cc-pvdz-jkfit.gbs 
    atoms 7, 9, 12-15, 22, 24, 27-30 entry H          line    70 file /opt/anaconda/envs/psi4v1.5/share/psi4/basis/aug-cc-pvdz-jkfit.gbs 
    atoms 8, 10, 23, 25              entry O          line   270 file /opt/anaconda/envs/psi4v1.5/share/psi4/basis/aug-cc-pvdz-jkfit.gbs 

  ==> Integral Setup <==

  ==> DiskDFJK: Density-Fitted J/K Matrices <==

    J tasked:                  Yes
    K tasked:                  Yes
    wK tasked:                  No
    OpenMP threads:              8
    Integrals threads:           8
    Memory [MiB]:            42915
    Algorithm:                Core
    Integral Cache:           SAVE
    Schwarz Cutoff:          1E-12
    Fitting Condition:       1E-10

   => Auxiliary Basis Set <=

  Basis Set: (AUG-CC-PVDZ AUX)
    Blend: AUG-CC-PVDZ-JKFIT
    Number of shells: 648
    Number of basis functions: 1932
    Number of Cartesian functions: 2238
    Spherical Harmonics?: true
    Max angular momentum: 3

  Minimum eigenvalue in the overlap matrix is 5.1702215325E-06.
  Reciprocal condition number of the overlap matrix is 3.5224040156E-07.
    Using symmetric orthogonalization.

  ==> Pre-Iterations <==

  SCF Guess: Superposition of Atomic Densities via on-the-fly atomic UHF (no occupation information).

   -------------------------
    Irrep   Nso     Nmo    
   -------------------------
     A        522     522 
   -------------------------
    Total     522     522
   -------------------------

  ==> Iterations <==

                           Total Energy        Delta E     RMS |[F,P]|

   @DF-RHF iter SAD:  -901.65388409665752   -9.01654e+02   0.00000e+00 
   @DF-RHF iter   1:  -902.53854151566361   -8.84657e-01   2.08569e-03 DIIS
   @DF-RHF iter   2:  -902.93291304273828   -3.94372e-01   1.35738e-03 DIIS
   @DF-RHF iter   3:  -903.11854626889271   -1.85633e-01   2.68699e-04 DIIS
   @DF-RHF iter   4:  -903.12962716259688   -1.10809e-02   1.03943e-04 DIIS
   @DF-RHF iter   5:  -903.13173483741230   -2.10767e-03   2.11023e-05 DIIS
   @DF-RHF iter   6:  -903.13194618089528   -2.11343e-04   1.11755e-05 DIIS
   @DF-RHF iter   7:  -903.13199176378328   -4.55829e-05   4.58798e-06 DIIS
   @DF-RHF iter   8:  -903.13199929552059   -7.53174e-06   1.75224e-06 DIIS
   @DF-RHF iter   9:  -903.13200018647183   -8.90951e-07   5.55495e-07 DIIS
   @DF-RHF iter  10:  -903.13200031549889   -1.29027e-07   2.25967e-07 DIIS
   @DF-RHF iter  11:  -903.13200033088867   -1.53898e-08   8.18145e-08 DIIS
   @DF-RHF iter  12:  -903.13200033323142   -2.34274e-09   2.61778e-08 DIIS
   @DF-RHF iter  13:  -903.13200033343537   -2.03954e-10   8.79378e-09 DIIS
  Energy and wave function converged.


  ==> Post-Iterations <==

    Orbital Energies [Eh]
    ---------------------

    Doubly Occupied:                                                      

       1A    -20.549492     2A    -20.549175     3A    -20.542948  
       4A    -20.542336     5A    -15.641726     6A    -15.641371  
       7A    -15.636824     8A    -15.636288     9A    -11.422040  
      10A    -11.421677    11A    -11.380402    12A    -11.379864  
      13A    -11.330923    14A    -11.330561    15A    -11.261951  
      16A    -11.261618    17A    -11.242093    18A    -11.242012  
      19A     -1.427921    20A     -1.427544    21A     -1.385374  
      22A     -1.384762    23A     -1.301644    24A     -1.301261  
      25A     -1.239689    26A     -1.239181    27A     -1.101065  
      28A     -1.100736    29A     -0.962503    30A     -0.962273  
      31A     -0.909234    32A     -0.908811    33A     -0.890582  
      34A     -0.890136    35A     -0.765585    36A     -0.765226  
      37A     -0.761739    38A     -0.761331    39A     -0.701850  
      40A     -0.701363    41A     -0.668906    42A     -0.668245  
      43A     -0.660436    44A     -0.659922    45A     -0.633778  
      46A     -0.633354    47A     -0.606544    48A     -0.605838  
      49A     -0.581513    50A     -0.581101    51A     -0.561431  
      52A     -0.561183    53A     -0.550264    54A     -0.548768  
      55A     -0.543730    56A     -0.543563    57A     -0.505353  
      58A     -0.505035    59A     -0.472571    60A     -0.472124  
      61A     -0.439593    62A     -0.438633    63A     -0.427150  
      64A     -0.425366    65A     -0.345595    66A     -0.344887  

    Virtual:                                                              

      67A      0.024567    68A      0.024886    69A      0.040634  
      70A      0.043644    71A      0.049599    72A      0.053586  
      73A      0.061253    74A      0.063387    75A      0.064358  
      76A      0.073472    77A      0.075011    78A      0.080670  
      79A      0.085622    80A      0.089035    81A      0.095084  
      82A      0.097928    83A      0.103933    84A      0.107284  
      85A      0.116522    86A      0.118771    87A      0.123728  
      88A      0.128749    89A      0.130026    90A      0.135732  
      91A      0.136801    92A      0.137810    93A      0.144650  
      94A      0.149636    95A      0.151068    96A      0.152508  
      97A      0.154577    98A      0.156033    99A      0.160411  
     100A      0.161234   101A      0.167504   102A      0.172082  
     103A      0.172648   104A      0.177978   105A      0.178204  
     106A      0.182244   107A      0.185161   108A      0.189865  
     109A      0.194946   110A      0.197744   111A      0.204041  
     112A      0.207817   113A      0.211360   114A      0.213089  
     115A      0.218560   116A      0.220155   117A      0.224596  
     118A      0.228149   119A      0.231686   120A      0.235545  
     121A      0.249727   122A      0.253485   123A      0.261878  
     124A      0.267650   125A      0.269854   126A      0.274146  
     127A      0.277775   128A      0.286096   129A      0.288159  
     130A      0.292990   131A      0.294686   132A      0.297634  
     133A      0.301445   134A      0.305443   135A      0.310403  
     136A      0.311537   137A      0.313145   138A      0.321426  
     139A      0.322229   140A      0.322974   141A      0.334353  
     142A      0.336027   143A      0.336547   144A      0.340845  
     145A      0.350011   146A      0.350553   147A      0.351652  
     148A      0.357927   149A      0.360619   150A      0.364921  
     151A      0.370531   152A      0.373431   153A      0.376090  
     154A      0.380652   155A      0.388012   156A      0.392025  
     157A      0.395715   158A      0.401498   159A      0.404742  
     160A      0.407239   161A      0.413149   162A      0.416252  
     163A      0.418681   164A      0.423139   165A      0.423588  
     166A      0.434887   167A      0.435105   168A      0.438092  
     169A      0.440796   170A      0.447139   171A      0.449849  
     172A      0.450692   173A      0.458106   174A      0.462543  
     175A      0.465920   176A      0.477467   177A      0.478917  
     178A      0.491120   179A      0.491416   180A      0.494495  
     181A      0.501826   182A      0.502888   183A      0.509375  
     184A      0.512617   185A      0.516132   186A      0.519088  
     187A      0.521296   188A      0.522841   189A      0.528835  
     190A      0.532560   191A      0.539749   192A      0.541551  
     193A      0.548120   194A      0.552139   195A      0.554239  
     196A      0.558209   197A      0.573285   198A      0.573507  
     199A      0.588403   200A      0.590039   201A      0.593797  
     202A      0.599070   203A      0.606209   204A      0.607211  
     205A      0.610327   206A      0.611412   207A      0.620223  
     208A      0.623867   209A      0.625600   210A      0.627377  
     211A      0.630563   212A      0.636491   213A      0.644854  
     214A      0.646205   215A      0.657146   216A      0.663739  
     217A      0.670046   218A      0.675843   219A      0.680728  
     220A      0.682201   221A      0.684295   222A      0.694442  
     223A      0.697641   224A      0.701003   225A      0.702194  
     226A      0.712293   227A      0.716004   228A      0.724252  
     229A      0.725322   230A      0.734928   231A      0.739051  
     232A      0.743120   233A      0.762560   234A      0.766035  
     235A      0.776196   236A      0.778976   237A      0.781866  
     238A      0.790853   239A      0.794127   240A      0.798047  
     241A      0.802299   242A      0.803460   243A      0.815318  
     244A      0.823960   245A      0.827022   246A      0.827800  
     247A      0.830838   248A      0.832257   249A      0.836628  
     250A      0.840943   251A      0.841149   252A      0.849449  
     253A      0.855364   254A      0.857671   255A      0.864746  
     256A      0.865279   257A      0.873827   258A      0.880172  
     259A      0.885751   260A      0.891402   261A      0.892442  
     262A      0.900925   263A      0.906426   264A      0.916350  
     265A      0.918929   266A      0.931465   267A      0.932917  
     268A      0.939247   269A      0.945493   270A      0.962137  
     271A      0.970397   272A      0.980364   273A      0.990192  
     274A      0.994620   275A      0.998550   276A      1.001747  
     277A      1.009944   278A      1.015973   279A      1.020288  
     280A      1.021098   281A      1.041111   282A      1.042998  
     283A      1.055231   284A      1.057140   285A      1.066904  
     286A      1.072579   287A      1.073285   288A      1.084154  
     289A      1.087494   290A      1.088047   291A      1.095037  
     292A      1.095687   293A      1.110533   294A      1.119791  
     295A      1.128079   296A      1.144857   297A      1.153259  
     298A      1.158296   299A      1.160591   300A      1.170824  
     301A      1.184554   302A      1.190209   303A      1.194342  
     304A      1.197344   305A      1.200111   306A      1.201547  
     307A      1.223968   308A      1.236998   309A      1.252283  
     310A      1.254307   311A      1.261641   312A      1.265124  
     313A      1.277665   314A      1.282317   315A      1.299108  
     316A      1.302480   317A      1.310210   318A      1.320416  
     319A      1.321235   320A      1.334458   321A      1.355304  
     322A      1.358532   323A      1.366933   324A      1.373757  
     325A      1.389359   326A      1.395626   327A      1.399216  
     328A      1.408001   329A      1.441652   330A      1.447665  
     331A      1.471042   332A      1.471197   333A      1.476859  
     334A      1.479430   335A      1.487165   336A      1.492837  
     337A      1.515583   338A      1.538328   339A      1.554470  
     340A      1.561787   341A      1.569210   342A      1.575556  
     343A      1.588962   344A      1.604905   345A      1.620246  
     346A      1.621279   347A      1.645925   348A      1.648664  
     349A      1.650730   350A      1.655693   351A      1.678353  
     352A      1.680083   353A      1.684076   354A      1.688184  
     355A      1.711780   356A      1.711985   357A      1.716876  
     358A      1.720561   359A      1.745374   360A      1.755214  
     361A      1.769906   362A      1.770658   363A      1.775944  
     364A      1.787843   365A      1.821292   366A      1.824130  
     367A      1.842519   368A      1.844886   369A      1.845884  
     370A      1.855364   371A      1.860046   372A      1.863335  
     373A      1.875037   374A      1.878741   375A      1.893114  
     376A      1.895373   377A      1.904916   378A      1.909492  
     379A      1.954613   380A      1.957800   381A      1.960514  
     382A      1.961311   383A      1.972862   384A      1.976600  
     385A      1.982798   386A      1.990905   387A      1.995355  
     388A      2.018439   389A      2.043381   390A      2.054366  
     391A      2.062982   392A      2.063676   393A      2.073168  
     394A      2.074117   395A      2.080052   396A      2.080993  
     397A      2.101259   398A      2.115624   399A      2.123320  
     400A      2.126967   401A      2.156117   402A      2.159409  
     403A      2.190326   404A      2.194726   405A      2.217319  
     406A      2.219582   407A      2.232953   408A      2.242437  
     409A      2.251889   410A      2.257217   411A      2.263596  
     412A      2.264641   413A      2.293331   414A      2.297455  
     415A      2.301887   416A      2.305689   417A      2.306832  
     418A      2.310135   419A      2.311453   420A      2.314845  
     421A      2.346825   422A      2.349149   423A      2.359149  
     424A      2.364073   425A      2.366759   426A      2.377667  
     427A      2.417614   428A      2.427997   429A      2.435722  
     430A      2.438879   431A      2.445130   432A      2.449245  
     433A      2.462308   434A      2.471954   435A      2.473060  
     436A      2.492040   437A      2.507714   438A      2.509741  
     439A      2.527597   440A      2.529898   441A      2.553121  
     442A      2.559363   443A      2.630846   444A      2.634738  
     445A      2.647045   446A      2.652614   447A      2.661947  
     448A      2.670595   449A      2.680173   450A      2.680622  
     451A      2.710616   452A      2.723492   453A      2.734415  
     454A      2.753430   455A      2.760930   456A      2.770022  
     457A      2.782099   458A      2.786047   459A      2.810575  
     460A      2.814544   461A      2.830995   462A      2.839559  
     463A      2.840731   464A      2.864119   465A      2.888544  
     466A      2.900155   467A      2.905046   468A      2.911406  
     469A      2.915743   470A      2.917566   471A      2.954029  
     472A      2.970608   473A      2.985110   474A      2.996874  
     475A      3.004712   476A      3.008119   477A      3.050705  
     478A      3.055117   479A      3.098612   480A      3.104547  
     481A      3.170538   482A      3.173748   483A      3.196020  
     484A      3.199517   485A      3.209560   486A      3.212526  
     487A      3.271620   488A      3.275877   489A      3.318800  
     490A      3.319365   491A      3.379841   492A      3.396361  
     493A      3.510923   494A      3.514235   495A      3.555999  
     496A      3.561823   497A      3.593357   498A      3.619470  
     499A      3.740500   500A      3.742933   501A      3.799131  
     502A      3.800176   503A      3.811573   504A      3.814618  
     505A      3.815574   506A      3.819748   507A      3.846332  
     508A      3.857090   509A      3.881127   510A      3.887287  
     511A      3.925020   512A      3.928906   513A      4.023837  
     514A      4.043393   515A      4.056670   516A      4.059772  
     517A      4.069833   518A      4.070826   519A      4.172667  
     520A      4.176218   521A      4.285763   522A      4.286331  

    Final Occupation by Irrep:
              A 
    DOCC [    66 ]

  @DF-RHF Final Energy:  -903.13200033343537

   => Energetics <=

    Nuclear Repulsion Energy =           1209.2293949333538876
    One-Electron Energy =               -3634.9468056203018023
    Two-Electron Energy =                1522.5854103535125432
    Total Energy =                       -903.1320003334353714

Computation Completed


Properties will be evaluated at   0.000000,   0.000000,   0.000000 [a0]

Properties computed using the SCF density matrix

  Nuclear Dipole Moment: [e a0]
     X:    13.1648      Y:     5.1879      Z:     0.1696

  Electronic Dipole Moment: [e a0]
     X:   -11.9629      Y:    -4.7199      Z:    -0.1160

  Dipole Moment: [e a0]
     X:     1.2019      Y:     0.4680      Z:     0.0536     Total:     1.2909

  Dipole Moment: [D]
     X:     3.0549      Y:     1.1896      Z:     0.1361     Total:     3.2812


*** tstop() called on node158.bme.utexas.edu at Sun May 12 23:30:36 2024
Module time:
	user time   =     255.84 seconds =       4.26 minutes
	system time =       4.81 seconds =       0.08 minutes
	total time  =         41 seconds =       0.68 minutes
Total time:
	user time   =     255.84 seconds =       4.26 minutes
	system time =       4.81 seconds =       0.08 minutes
	total time  =         41 seconds =       0.68 minutes

*** tstart() called on node158.bme.utexas.edu
*** at Sun May 12 23:30:36 2024


  //>>>>>>>>>>>>>>>>>>>>>>>>>>>>>>>>>>>//
  //               DFMP2               //
  //<<<<<<<<<<<<<<<<<<<<<<<<<<<<<<<<<<<//

   => Loading Basis Set <=

    Name: (AUG-CC-PVDZ AUX)
    Role: RIFIT
    Keyword: DF_BASIS_MP2
    atoms 1, 3, 16, 18               entry N          line   158 file /opt/anaconda/envs/psi4v1.5/share/psi4/basis/aug-cc-pvdz-ri.gbs 
    atoms 2, 4-6, 11, 17, 19-21, 26  entry C          line   112 file /opt/anaconda/envs/psi4v1.5/share/psi4/basis/aug-cc-pvdz-ri.gbs 
    atoms 7, 9, 12-15, 22, 24, 27-30 entry H          line    30 file /opt/anaconda/envs/psi4v1.5/share/psi4/basis/aug-cc-pvdz-ri.gbs 
    atoms 8, 10, 23, 25              entry O          line   204 file /opt/anaconda/envs/psi4v1.5/share/psi4/basis/aug-cc-pvdz-ri.gbs 

	 --------------------------------------------------------
	                          DF-MP2                         
	      2nd-Order Density-Fitted Moller-Plesset Theory     
	              RMP2 Wavefunction,   8 Threads             
	                                                         
	        Rob Parrish, Justin Turney, Andy Simmonett,      
	           Ed Hohenstein, and C. David Sherrill          
	 --------------------------------------------------------

   => Auxiliary Basis Set <=

  Basis Set: (AUG-CC-PVDZ AUX)
    Blend: AUG-CC-PVDZ-RI
    Number of shells: 504
    Number of basis functions: 1572
    Number of Cartesian functions: 1848
    Spherical Harmonics?: true
    Max angular momentum: 3

	 --------------------------------------------------------
	                 NBF =   522, NAUX =  1572
	 --------------------------------------------------------
	   CLASS    FOCC     OCC    AOCC    AVIR     VIR    FVIR
	   PAIRS      18      66      48     456     456       0
	 --------------------------------------------------------

	 Will save fitting metric to file 97.

	-----------------------------------------------------------
	 ==================> DF-MP2 Energies <==================== 
	-----------------------------------------------------------
	 Reference Energy          =    -903.1320003334353714 [Eh]
	 Singles Energy            =      -0.0000000000000000 [Eh]
	 Same-Spin Energy          =      -0.7598232750545013 [Eh]
	 Opposite-Spin Energy      =      -2.0503526995380881 [Eh]
	 Correlation Energy        =      -2.8101759745925894 [Eh]
	 Total Energy              =    -905.9421763080279106 [Eh]
	-----------------------------------------------------------
	 ================> DF-SCS-MP2 Energies <================== 
	-----------------------------------------------------------
	 SCS Same-Spin Scale       =       0.3333333333333333 [-]
	 SCS Opposite-Spin Scale   =       1.2000000000000000 [-]
	 SCS Same-Spin Energy      =      -0.2532744250181671 [Eh]
	 SCS Opposite-Spin Energy  =      -2.4604232394457055 [Eh]
	 SCS Correlation Energy    =      -2.7136976644638726 [Eh]
	 SCS Total Energy          =    -905.8456979978992649 [Eh]
	-----------------------------------------------------------


*** tstop() called on node158.bme.utexas.edu at Sun May 12 23:30:45 2024
Module time:
	user time   =      49.58 seconds =       0.83 minutes
	system time =       1.71 seconds =       0.03 minutes
	total time  =          9 seconds =       0.15 minutes
Total time:
	user time   =     305.42 seconds =       5.09 minutes
	system time =       6.52 seconds =       0.11 minutes
	total time  =         50 seconds =       0.83 minutes

  //>>>>>>>>>>>>>>>>>>>>>>>>>>>>>>>>>>>//
  //            Monomer A HF           //
  //<<<<<<<<<<<<<<<<<<<<<<<<<<<<<<<<<<<//


*** tstart() called on node158.bme.utexas.edu
*** at Sun May 12 23:30:45 2024

   => Loading Basis Set <=

    Name: AUG-CC-PVDZ
    Role: ORBITAL
    Keyword: BASIS
    atoms 1, 3, 16, 18               entry N          line   218 file /opt/anaconda/envs/psi4v1.5/share/psi4/basis/aug-cc-pvdz.gbs 
    atoms 2, 4-6, 11, 17, 19-21, 26  entry C          line   182 file /opt/anaconda/envs/psi4v1.5/share/psi4/basis/aug-cc-pvdz.gbs 
    atoms 7, 9, 12-15, 22, 24, 27-30 entry H          line    40 file /opt/anaconda/envs/psi4v1.5/share/psi4/basis/aug-cc-pvdz.gbs 
    atoms 8, 10, 23, 25              entry O          line   254 file /opt/anaconda/envs/psi4v1.5/share/psi4/basis/aug-cc-pvdz.gbs 


         ---------------------------------------------------------
                                   SCF
               by Justin Turney, Rob Parrish, Andy Simmonett
                          and Daniel G. A. Smith
                              RHF Reference
                        8 Threads,  57220 MiB Core
         ---------------------------------------------------------

  ==> Geometry <==

    Molecular point group: c1
    Full point group: C1

    Geometry (in Angstrom), charge = 0, multiplicity = 1:

       Center              X                  Y                   Z               Mass       
    ------------   -----------------  -----------------  -----------------  -----------------
         N           -2.329028017674     3.680637390952    -1.726947770803    14.003074004430
         C           -2.533399017674     2.303405390952    -1.727208770803    12.000000000000
         N           -1.366784017674     1.568261390952    -1.727310770803    14.003074004430
         C           -0.071592017674     2.068509390952    -1.727204770803    12.000000000000
         C            0.060116982326     3.527380390952    -1.726903770803    12.000000000000
         C           -1.079620017674     4.261767390952    -1.726839770803    12.000000000000
         H           -3.167039017674     4.245212390952    -1.727067770803     1.007825032230
         O           -3.652705017674     1.808585390952    -1.727344770803    15.994914619570
         H           -1.488425017674     0.518205390952    -1.727517770803     1.007825032230
         O            0.897623982326     1.299554390952    -1.727337770803    15.994914619570
         C            1.436351982326     4.126273390952    -1.726305770803    12.000000000000
         H            1.383919982326     5.223618390952    -1.732948770803     1.007825032230
         H            2.000490982326     3.798932390952    -0.840247770803     1.007825032230
         H            2.005506982326     3.788120390952    -2.604979770803     1.007825032230
         H           -1.068462017674     5.350894390952    -1.726802770803     1.007825032230
      Gh(N)           0.638876982326    -4.346083609048     1.751627229197    14.003074004430
      Gh(C)          -0.449522017674    -3.478563609048     1.715134229197    12.000000000000
      Gh(N)          -0.097508017674    -2.145457609048     1.696623229197    14.003074004430
      Gh(C)           1.190770982326    -1.627863609048     1.710830229197    12.000000000000
      Gh(C)           2.281686982326    -2.604627609048     1.749393229197    12.000000000000
      Gh(C)           1.948813982326    -3.918848609048     1.767943229197    12.000000000000
      Gh(H)           0.410896982326    -5.330372609048     1.766087229197     1.007825032230
      Gh(O)          -1.605468017674    -3.880169609048     1.701241229197    15.994914619570
      Gh(H)          -0.902350017674    -1.460714609048     1.668835229197     1.007825032230
      Gh(O)           1.375366982326    -0.404665609048     1.691295229197    15.994914619570
      Gh(C)           3.696497982326    -2.103890609048     1.765792229197    12.000000000000
      Gh(H)           4.406142982326    -2.941795609048     1.801546229197     1.007825032230
      Gh(H)           3.902479982326    -1.496566609048     0.871794229197     1.007825032230
      Gh(H)           3.865782982326    -1.451897609048     2.635620229197     1.007825032230
      Gh(H)           2.699487982326    -4.707502609048     1.796853229197     1.007825032230

  Running in c1 symmetry.

  Rotational constants: A =      0.02142  B =      0.00532  C =      0.00444 [cm^-1]
  Rotational constants: A =    642.18343  B =    159.44426  C =    132.99301 [MHz]
  Nuclear repulsion =  438.216117793050785

  Charge       = 0
  Multiplicity = 1
  Electrons    = 66
  Nalpha       = 33
  Nbeta        = 33

  ==> Algorithm <==

  SCF Algorithm Type is DF.
  DIIS enabled.
  MOM disabled.
  Fractional occupation disabled.
  Guess Type is SAD.
  Energy threshold   = 1.00e-08
  Density threshold  = 1.00e-08
  Integral threshold = 1.00e-12

  ==> Primary Basis <==

  Basis Set: AUG-CC-PVDZ
    Blend: AUG-CC-PVDZ
    Number of shells: 222
    Number of basis functions: 522
    Number of Cartesian functions: 558
    Spherical Harmonics?: true
    Max angular momentum: 2

   => Loading Basis Set <=

    Name: (AUG-CC-PVDZ AUX)
    Role: JKFIT
    Keyword: DF_BASIS_SCF
    atoms 1, 3, 16, 18               entry N          line   212 file /opt/anaconda/envs/psi4v1.5/share/psi4/basis/aug-cc-pvdz-jkfit.gbs 
    atoms 2, 4-6, 11, 17, 19-21, 26  entry C          line   154 file /opt/anaconda/envs/psi4v1.5/share/psi4/basis/aug-cc-pvdz-jkfit.gbs 
    atoms 7, 9, 12-15, 22, 24, 27-30 entry H          line    70 file /opt/anaconda/envs/psi4v1.5/share/psi4/basis/aug-cc-pvdz-jkfit.gbs 
    atoms 8, 10, 23, 25              entry O          line   270 file /opt/anaconda/envs/psi4v1.5/share/psi4/basis/aug-cc-pvdz-jkfit.gbs 

  ==> Integral Setup <==

  ==> DiskDFJK: Density-Fitted J/K Matrices <==

    J tasked:                  Yes
    K tasked:                  Yes
    wK tasked:                  No
    OpenMP threads:              8
    Integrals threads:           8
    Memory [MiB]:            42915
    Algorithm:                Core
    Integral Cache:           LOAD
    Schwarz Cutoff:          1E-12
    Fitting Condition:       1E-10

   => Auxiliary Basis Set <=

  Basis Set: (AUG-CC-PVDZ AUX)
    Blend: AUG-CC-PVDZ-JKFIT
    Number of shells: 648
    Number of basis functions: 1932
    Number of Cartesian functions: 2238
    Spherical Harmonics?: true
    Max angular momentum: 3

  Minimum eigenvalue in the overlap matrix is 5.1702215325E-06.
  Reciprocal condition number of the overlap matrix is 3.5224040156E-07.
    Using symmetric orthogonalization.

  ==> Pre-Iterations <==

  SCF Guess: Superposition of Atomic Densities via on-the-fly atomic UHF (no occupation information).

   -------------------------
    Irrep   Nso     Nmo    
   -------------------------
     A        522     522 
   -------------------------
    Total     522     522
   -------------------------

  ==> Iterations <==

                           Total Energy        Delta E     RMS |[F,P]|

   @DF-RHF iter SAD:  -450.82464435245214   -4.50825e+02   0.00000e+00 
   @DF-RHF iter   1:  -451.27205278385424   -4.47408e-01   1.47145e-03 DIIS
   @DF-RHF iter   2:  -451.46948401170124   -1.97431e-01   9.50808e-04 DIIS
   @DF-RHF iter   3:  -451.56020980271330   -9.07258e-02   1.88572e-04 DIIS
   @DF-RHF iter   4:  -451.56566613322570   -5.45633e-03   7.31480e-05 DIIS
   @DF-RHF iter   5:  -451.56670808459711   -1.04195e-03   1.47455e-05 DIIS
   @DF-RHF iter   6:  -451.56681285658607   -1.04772e-04   7.71320e-06 DIIS
   @DF-RHF iter   7:  -451.56683503440286   -2.21778e-05   3.17761e-06 DIIS
   @DF-RHF iter   8:  -451.56683869444674   -3.66004e-06   1.21784e-06 DIIS
   @DF-RHF iter   9:  -451.56683912277049   -4.28324e-07   3.89056e-07 DIIS
   @DF-RHF iter  10:  -451.56683918661616   -6.38457e-08   1.59357e-07 DIIS
   @DF-RHF iter  11:  -451.56683919433073   -7.71456e-09   5.73958e-08 DIIS
   @DF-RHF iter  12:  -451.56683919551421   -1.18348e-09   1.82212e-08 DIIS
   @DF-RHF iter  13:  -451.56683919562010   -1.05899e-10   6.27208e-09 DIIS
  Energy and wave function converged.


  ==> Post-Iterations <==

    Orbital Energies [Eh]
    ---------------------

    Doubly Occupied:                                                      

       1A    -20.554429     2A    -20.549966     3A    -15.647197  
       4A    -15.642263     5A    -11.427132     6A    -11.387324  
       7A    -11.337163     8A    -11.267761     9A    -11.248440  
      10A     -1.433134    11A     -1.392282    12A     -1.307147  
      13A     -1.245324    14A     -1.107154    15A     -0.968509  
      16A     -0.915126    17A     -0.896229    18A     -0.771204  
      19A     -0.767599    20A     -0.707267    21A     -0.674872  
      22A     -0.665928    23A     -0.639210    24A     -0.612863  
      25A     -0.587817    26A     -0.567574    27A     -0.556353  
      28A     -0.550005    29A     -0.510751    30A     -0.477729  
      31A     -0.446105    32A     -0.432736    33A     -0.351497  

    Virtual:                                                              

      34A      0.020786    35A      0.026054    36A      0.037143  
      37A      0.042663    38A      0.043254    39A      0.049999  
      40A      0.058937    41A      0.060762    42A      0.064974  
      43A      0.068925    44A      0.070444    45A      0.077129  
      46A      0.081222    47A      0.089399    48A      0.090404  
      49A      0.095261    50A      0.099430    51A      0.104939  
      52A      0.109410    53A      0.115221    54A      0.118538  
      55A      0.122566    56A      0.124411    57A      0.129415  
      58A      0.132520    59A      0.134300    60A      0.138832  
      61A      0.141022    62A      0.144676    63A      0.148256  
      64A      0.154151    65A      0.155787    66A      0.158503  
      67A      0.161503    68A      0.166514    69A      0.167676  
      70A      0.171163    71A      0.176874    72A      0.178698  
      73A      0.180551    74A      0.183171    75A      0.191911  
      76A      0.195193    77A      0.198610    78A      0.201135  
      79A      0.207205    80A      0.208334    81A      0.212512  
      82A      0.215488    83A      0.222650    84A      0.224239  
      85A      0.226968    86A      0.234799    87A      0.242640  
      88A      0.243732    89A      0.250123    90A      0.251867  
      91A      0.258754    92A      0.261882    93A      0.266909  
      94A      0.268118    95A      0.271845    96A      0.278889  
      97A      0.283771    98A      0.286307    99A      0.290151  
     100A      0.296242   101A      0.303376   102A      0.307014  
     103A      0.308327   104A      0.311932   105A      0.316070  
     106A      0.326437   107A      0.328316   108A      0.330478  
     109A      0.333327   110A      0.336096   111A      0.339845  
     112A      0.340923   113A      0.347473   114A      0.353073  
     115A      0.355868   116A      0.360715   117A      0.364674  
     118A      0.366718   119A      0.371598   120A      0.379868  
     121A      0.388516   122A      0.393924   123A      0.398894  
     124A      0.403006   125A      0.410277   126A      0.415071  
     127A      0.418732   128A      0.424277   129A      0.426504  
     130A      0.431822   131A      0.433537   132A      0.438087  
     133A      0.439577   134A      0.443040   135A      0.450528  
     136A      0.454669   137A      0.458337   138A      0.468006  
     139A      0.473170   140A      0.474636   141A      0.482880  
     142A      0.491043   143A      0.494896   144A      0.497151  
     145A      0.503086   146A      0.504392   147A      0.505788  
     148A      0.514050   149A      0.517413   150A      0.520882  
     151A      0.527132   152A      0.532061   153A      0.533188  
     154A      0.536933   155A      0.544887   156A      0.546913  
     157A      0.552964   158A      0.555829   159A      0.559886  
     160A      0.562600   161A      0.570352   162A      0.578898  
     163A      0.589804   164A      0.592949   165A      0.596806  
     166A      0.601191   167A      0.602774   168A      0.609495  
     169A      0.612819   170A      0.618764   171A      0.621033  
     172A      0.623250   173A      0.625575   174A      0.631523  
     175A      0.636309   176A      0.643371   177A      0.649707  
     178A      0.651401   179A      0.659233   180A      0.659962  
     181A      0.668217   182A      0.675353   183A      0.677930  
     184A      0.683049   185A      0.686284   186A      0.691829  
     187A      0.696146   188A      0.707146   189A      0.712135  
     190A      0.718076   191A      0.721077   192A      0.727048  
     193A      0.732569   194A      0.738279   195A      0.746052  
     196A      0.755611   197A      0.758550   198A      0.763602  
     199A      0.773948   200A      0.784352   201A      0.788695  
     202A      0.793321   203A      0.799049   204A      0.806222  
     205A      0.813266   206A      0.815802   207A      0.821189  
     208A      0.822912   209A      0.827838   210A      0.829442  
     211A      0.833265   212A      0.840266   213A      0.844168  
     214A      0.852275   215A      0.856909   216A      0.861719  
     217A      0.867761   218A      0.871914   219A      0.879898  
     220A      0.882572   221A      0.887348   222A      0.890962  
     223A      0.896350   224A      0.903626   225A      0.909996  
     226A      0.913953   227A      0.919637   228A      0.924136  
     229A      0.939415   230A      0.940672   231A      0.949009  
     232A      0.956254   233A      0.958214   234A      0.972683  
     235A      0.984732   236A      0.985891   237A      0.992074  
     238A      0.996961   239A      1.008558   240A      1.013869  
     241A      1.025468   242A      1.042172   243A      1.044051  
     244A      1.048862   245A      1.052431   246A      1.059033  
     247A      1.068350   248A      1.070070   249A      1.082155  
     250A      1.084467   251A      1.089669   252A      1.098124  
     253A      1.112991   254A      1.125977   255A      1.130435  
     256A      1.144335   257A      1.149262   258A      1.151630  
     259A      1.152886   260A      1.161708   261A      1.170654  
     262A      1.178187   263A      1.183160   264A      1.187837  
     265A      1.189882   266A      1.200288   267A      1.206852  
     268A      1.222515   269A      1.239506   270A      1.246166  
     271A      1.250731   272A      1.260043   273A      1.263326  
     274A      1.273968   275A      1.281525   276A      1.285470  
     277A      1.296084   278A      1.303946   279A      1.305367  
     280A      1.314907   281A      1.324397   282A      1.338864  
     283A      1.339079   284A      1.355543   285A      1.360400  
     286A      1.361874   287A      1.370923   288A      1.374005  
     289A      1.390760   290A      1.399520   291A      1.408624  
     292A      1.422041   293A      1.439907   294A      1.442280  
     295A      1.448992   296A      1.466877   297A      1.471105  
     298A      1.474724   299A      1.477684   300A      1.483870  
     301A      1.489217   302A      1.502632   303A      1.524416  
     304A      1.534418   305A      1.554533   306A      1.563228  
     307A      1.570055   308A      1.581450   309A      1.587358  
     310A      1.606201   311A      1.614758   312A      1.628677  
     313A      1.641567   314A      1.646746   315A      1.651385  
     316A      1.664003   317A      1.679465   318A      1.681602  
     319A      1.701528   320A      1.707208   321A      1.712960  
     322A      1.743369   323A      1.756117   324A      1.765392  
     325A      1.776670   326A      1.778837   327A      1.815158  
     328A      1.823029   329A      1.838108   330A      1.844544  
     331A      1.856036   332A      1.870493   333A      1.887957  
     334A      1.900332   335A      1.933459   336A      1.952625  
     337A      1.953869   338A      1.961616   339A      1.969981  
     340A      1.986227   341A      1.991070   342A      2.003033  
     343A      2.011893   344A      2.045162   345A      2.055766  
     346A      2.068900   347A      2.072034   348A      2.102899  
     349A      2.118750   350A      2.150867   351A      2.172748  
     352A      2.181435   353A      2.186203   354A      2.212523  
     355A      2.230986   356A      2.247824   357A      2.248320  
     358A      2.258063   359A      2.267243   360A      2.278086  
     361A      2.288646   362A      2.292603   363A      2.296255  
     364A      2.301985   365A      2.306665   366A      2.312382  
     367A      2.312679   368A      2.339427   369A      2.343980  
     370A      2.355466   371A      2.360749   372A      2.366932  
     373A      2.380774   374A      2.406383   375A      2.413225  
     376A      2.417788   377A      2.424920   378A      2.432236  
     379A      2.440851   380A      2.463051   381A      2.472405  
     382A      2.475190   383A      2.479178   384A      2.502271  
     385A      2.517617   386A      2.520197   387A      2.522474  
     388A      2.534220   389A      2.546575   390A      2.549867  
     391A      2.556414   392A      2.575261   393A      2.595836  
     394A      2.626868   395A      2.644344   396A      2.660374  
     397A      2.671871   398A      2.679076   399A      2.707755  
     400A      2.711416   401A      2.721381   402A      2.746185  
     403A      2.754440   404A      2.766964   405A      2.774403  
     406A      2.786909   407A      2.797256   408A      2.806906  
     409A      2.830564   410A      2.841355   411A      2.844850  
     412A      2.861156   413A      2.863939   414A      2.887316  
     415A      2.897594   416A      2.902239   417A      2.909705  
     418A      2.933232   419A      2.957252   420A      2.965393  
     421A      2.983827   422A      2.996626   423A      2.998897  
     424A      3.046805   425A      3.078304   426A      3.093666  
     427A      3.095986   428A      3.136622   429A      3.166082  
     430A      3.191332   431A      3.204255   432A      3.207893  
     433A      3.221028   434A      3.257213   435A      3.270003  
     436A      3.276124   437A      3.313478   438A      3.353245  
     439A      3.359509   440A      3.379604   441A      3.450796  
     442A      3.456018   443A      3.483063   444A      3.492453  
     445A      3.502398   446A      3.511431   447A      3.547776  
     448A      3.551415   449A      3.555334   450A      3.600726  
     451A      3.618803   452A      3.664258   453A      3.693191  
     454A      3.719564   455A      3.736753   456A      3.765359  
     457A      3.777971   458A      3.794390   459A      3.805018  
     460A      3.810531   461A      3.811804   462A      3.843761  
     463A      3.856970   464A      3.862926   465A      3.882559  
     466A      3.914428   467A      3.922788   468A      3.964590  
     469A      4.026358   470A      4.050882   471A      4.064923  
     472A      4.115011   473A      4.134621   474A      4.167321  
     475A      4.256612   476A      4.279373   477A      4.306494  
     478A      4.402386   479A      4.442020   480A      4.562361  
     481A      4.573576   482A      4.660377   483A      4.684623  
     484A      4.694922   485A      4.763771   486A      4.882640  
     487A      4.934380   488A      4.982663   489A      5.024749  
     490A      5.028923   491A      5.036924   492A      5.043066  
     493A      5.087707   494A      5.092888   495A      5.132415  
     496A      5.191396   497A      5.206599   498A      5.308391  
     499A      5.354611   500A      5.457591   501A      5.601132  
     502A      5.696296   503A      5.886539   504A      5.928542  
     505A      5.972562   506A      6.059962   507A      6.094201  
     508A      6.101588   509A      6.198002   510A      6.411095  
     511A      6.564069   512A      7.007068   513A      7.236671  
     514A     18.163554   515A     18.667254   516A     18.811276  
     517A     18.842160   518A     19.679383   519A     25.451706  
     520A     25.460463   521A     33.540103   522A     33.555384  

    Final Occupation by Irrep:
              A 
    DOCC [    33 ]

  @DF-RHF Final Energy:  -451.56683919562010

   => Energetics <=

    Nuclear Repulsion Energy =            438.2161177930507847
    One-Electron Energy =               -1484.2737304822987880
    Two-Electron Energy =                 594.4907734936277848
    Total Energy =                       -451.5668391956201049

Computation Completed


Properties will be evaluated at   0.000000,   0.000000,   0.000000 [a0]

Properties computed using the SCF density matrix

  Nuclear Dipole Moment: [e a0]
     X:  -115.9804      Y:   344.4147      Z:  -215.3978

  Electronic Dipole Moment: [e a0]
     X:   115.8816      Y:  -342.5232      Z:   215.3979

  Dipole Moment: [e a0]
     X:    -0.0989      Y:     1.8915      Z:     0.0001     Total:     1.8941

  Dipole Moment: [D]
     X:    -0.2513      Y:     4.8077      Z:     0.0002     Total:     4.8143


*** tstop() called on node158.bme.utexas.edu at Sun May 12 23:31:04 2024
Module time:
	user time   =     141.13 seconds =       2.35 minutes
	system time =       1.37 seconds =       0.02 minutes
	total time  =         19 seconds =       0.32 minutes
Total time:
	user time   =     446.58 seconds =       7.44 minutes
	system time =       7.89 seconds =       0.13 minutes
	total time  =         69 seconds =       1.15 minutes

*** tstart() called on node158.bme.utexas.edu
*** at Sun May 12 23:31:04 2024


  //>>>>>>>>>>>>>>>>>>>>>>>>>>>>>>>>>>>//
  //               DFMP2               //
  //<<<<<<<<<<<<<<<<<<<<<<<<<<<<<<<<<<<//

   => Loading Basis Set <=

    Name: (AUG-CC-PVDZ AUX)
    Role: RIFIT
    Keyword: DF_BASIS_MP2
    atoms 1, 3, 16, 18               entry N          line   158 file /opt/anaconda/envs/psi4v1.5/share/psi4/basis/aug-cc-pvdz-ri.gbs 
    atoms 2, 4-6, 11, 17, 19-21, 26  entry C          line   112 file /opt/anaconda/envs/psi4v1.5/share/psi4/basis/aug-cc-pvdz-ri.gbs 
    atoms 7, 9, 12-15, 22, 24, 27-30 entry H          line    30 file /opt/anaconda/envs/psi4v1.5/share/psi4/basis/aug-cc-pvdz-ri.gbs 
    atoms 8, 10, 23, 25              entry O          line   204 file /opt/anaconda/envs/psi4v1.5/share/psi4/basis/aug-cc-pvdz-ri.gbs 

	 --------------------------------------------------------
	                          DF-MP2                         
	      2nd-Order Density-Fitted Moller-Plesset Theory     
	              RMP2 Wavefunction,   8 Threads             
	                                                         
	        Rob Parrish, Justin Turney, Andy Simmonett,      
	           Ed Hohenstein, and C. David Sherrill          
	 --------------------------------------------------------

   => Auxiliary Basis Set <=

  Basis Set: (AUG-CC-PVDZ AUX)
    Blend: AUG-CC-PVDZ-RI
    Number of shells: 504
    Number of basis functions: 1572
    Number of Cartesian functions: 1848
    Spherical Harmonics?: true
    Max angular momentum: 3

	 --------------------------------------------------------
	                 NBF =   522, NAUX =  1572
	 --------------------------------------------------------
	   CLASS    FOCC     OCC    AOCC    AVIR     VIR    FVIR
	   PAIRS       9      33      24     489     489       0
	 --------------------------------------------------------

	 Will attempt to load fitting metric from file 97.

	-----------------------------------------------------------
	 ==================> DF-MP2 Energies <==================== 
	-----------------------------------------------------------
	 Reference Energy          =    -451.5668391956201049 [Eh]
	 Singles Energy            =      -0.0000000000000000 [Eh]
	 Same-Spin Energy          =      -0.3795766062856302 [Eh]
	 Opposite-Spin Energy      =      -1.0246765227242125 [Eh]
	 Correlation Energy        =      -1.4042531290098426 [Eh]
	 Total Energy              =    -452.9710923246299217 [Eh]
	-----------------------------------------------------------
	 ================> DF-SCS-MP2 Energies <================== 
	-----------------------------------------------------------
	 SCS Same-Spin Scale       =       0.3333333333333333 [-]
	 SCS Opposite-Spin Scale   =       1.2000000000000000 [-]
	 SCS Same-Spin Energy      =      -0.1265255354285434 [Eh]
	 SCS Opposite-Spin Energy  =      -1.2296118272690550 [Eh]
	 SCS Correlation Energy    =      -1.3561373626975985 [Eh]
	 SCS Total Energy          =    -452.9229765583177141 [Eh]
	-----------------------------------------------------------


*** tstop() called on node158.bme.utexas.edu at Sun May 12 23:31:10 2024
Module time:
	user time   =      34.43 seconds =       0.57 minutes
	system time =       0.81 seconds =       0.01 minutes
	total time  =          6 seconds =       0.10 minutes
Total time:
	user time   =     481.02 seconds =       8.02 minutes
	system time =       8.70 seconds =       0.14 minutes
	total time  =         75 seconds =       1.25 minutes

  //>>>>>>>>>>>>>>>>>>>>>>>>>>>>>>>>>>>//
  //            Monomer B HF           //
  //<<<<<<<<<<<<<<<<<<<<<<<<<<<<<<<<<<<//


*** tstart() called on node158.bme.utexas.edu
*** at Sun May 12 23:31:10 2024

   => Loading Basis Set <=

    Name: AUG-CC-PVDZ
    Role: ORBITAL
    Keyword: BASIS
    atoms 1, 3, 16, 18               entry N          line   218 file /opt/anaconda/envs/psi4v1.5/share/psi4/basis/aug-cc-pvdz.gbs 
    atoms 2, 4-6, 11, 17, 19-21, 26  entry C          line   182 file /opt/anaconda/envs/psi4v1.5/share/psi4/basis/aug-cc-pvdz.gbs 
    atoms 7, 9, 12-15, 22, 24, 27-30 entry H          line    40 file /opt/anaconda/envs/psi4v1.5/share/psi4/basis/aug-cc-pvdz.gbs 
    atoms 8, 10, 23, 25              entry O          line   254 file /opt/anaconda/envs/psi4v1.5/share/psi4/basis/aug-cc-pvdz.gbs 


         ---------------------------------------------------------
                                   SCF
               by Justin Turney, Rob Parrish, Andy Simmonett
                          and Daniel G. A. Smith
                              RHF Reference
                        8 Threads,  57220 MiB Core
         ---------------------------------------------------------

  ==> Geometry <==

    Molecular point group: c1
    Full point group: C1

    Geometry (in Angstrom), charge = 0, multiplicity = 1:

       Center              X                  Y                   Z               Mass       
    ------------   -----------------  -----------------  -----------------  -----------------
      Gh(N)          -2.329028017674     3.680637390952    -1.726947770803    14.003074004430
      Gh(C)          -2.533399017674     2.303405390952    -1.727208770803    12.000000000000
      Gh(N)          -1.366784017674     1.568261390952    -1.727310770803    14.003074004430
      Gh(C)          -0.071592017674     2.068509390952    -1.727204770803    12.000000000000
      Gh(C)           0.060116982326     3.527380390952    -1.726903770803    12.000000000000
      Gh(C)          -1.079620017674     4.261767390952    -1.726839770803    12.000000000000
      Gh(H)          -3.167039017674     4.245212390952    -1.727067770803     1.007825032230
      Gh(O)          -3.652705017674     1.808585390952    -1.727344770803    15.994914619570
      Gh(H)          -1.488425017674     0.518205390952    -1.727517770803     1.007825032230
      Gh(O)           0.897623982326     1.299554390952    -1.727337770803    15.994914619570
      Gh(C)           1.436351982326     4.126273390952    -1.726305770803    12.000000000000
      Gh(H)           1.383919982326     5.223618390952    -1.732948770803     1.007825032230
      Gh(H)           2.000490982326     3.798932390952    -0.840247770803     1.007825032230
      Gh(H)           2.005506982326     3.788120390952    -2.604979770803     1.007825032230
      Gh(H)          -1.068462017674     5.350894390952    -1.726802770803     1.007825032230
         N            0.638876982326    -4.346083609048     1.751627229197    14.003074004430
         C           -0.449522017674    -3.478563609048     1.715134229197    12.000000000000
         N           -0.097508017674    -2.145457609048     1.696623229197    14.003074004430
         C            1.190770982326    -1.627863609048     1.710830229197    12.000000000000
         C            2.281686982326    -2.604627609048     1.749393229197    12.000000000000
         C            1.948813982326    -3.918848609048     1.767943229197    12.000000000000
         H            0.410896982326    -5.330372609048     1.766087229197     1.007825032230
         O           -1.605468017674    -3.880169609048     1.701241229197    15.994914619570
         H           -0.902350017674    -1.460714609048     1.668835229197     1.007825032230
         O            1.375366982326    -0.404665609048     1.691295229197    15.994914619570
         C            3.696497982326    -2.103890609048     1.765792229197    12.000000000000
         H            4.406142982326    -2.941795609048     1.801546229197     1.007825032230
         H            3.902479982326    -1.496566609048     0.871794229197     1.007825032230
         H            3.865782982326    -1.451897609048     2.635620229197     1.007825032230
         H            2.699487982326    -4.707502609048     1.796853229197     1.007825032230

  Running in c1 symmetry.

  Rotational constants: A =      0.02142  B =      0.00532  C =      0.00444 [cm^-1]
  Rotational constants: A =    642.18343  B =    159.44426  C =    132.99301 [MHz]
  Nuclear repulsion =  438.216153693367687

  Charge       = 0
  Multiplicity = 1
  Electrons    = 66
  Nalpha       = 33
  Nbeta        = 33

  ==> Algorithm <==

  SCF Algorithm Type is DF.
  DIIS enabled.
  MOM disabled.
  Fractional occupation disabled.
  Guess Type is SAD.
  Energy threshold   = 1.00e-08
  Density threshold  = 1.00e-08
  Integral threshold = 1.00e-12

  ==> Primary Basis <==

  Basis Set: AUG-CC-PVDZ
    Blend: AUG-CC-PVDZ
    Number of shells: 222
    Number of basis functions: 522
    Number of Cartesian functions: 558
    Spherical Harmonics?: true
    Max angular momentum: 2

   => Loading Basis Set <=

    Name: (AUG-CC-PVDZ AUX)
    Role: JKFIT
    Keyword: DF_BASIS_SCF
    atoms 1, 3, 16, 18               entry N          line   212 file /opt/anaconda/envs/psi4v1.5/share/psi4/basis/aug-cc-pvdz-jkfit.gbs 
    atoms 2, 4-6, 11, 17, 19-21, 26  entry C          line   154 file /opt/anaconda/envs/psi4v1.5/share/psi4/basis/aug-cc-pvdz-jkfit.gbs 
    atoms 7, 9, 12-15, 22, 24, 27-30 entry H          line    70 file /opt/anaconda/envs/psi4v1.5/share/psi4/basis/aug-cc-pvdz-jkfit.gbs 
    atoms 8, 10, 23, 25              entry O          line   270 file /opt/anaconda/envs/psi4v1.5/share/psi4/basis/aug-cc-pvdz-jkfit.gbs 

  ==> Integral Setup <==

  ==> DiskDFJK: Density-Fitted J/K Matrices <==

    J tasked:                  Yes
    K tasked:                  Yes
    wK tasked:                  No
    OpenMP threads:              8
    Integrals threads:           8
    Memory [MiB]:            42915
    Algorithm:                Core
    Integral Cache:           LOAD
    Schwarz Cutoff:          1E-12
    Fitting Condition:       1E-10

   => Auxiliary Basis Set <=

  Basis Set: (AUG-CC-PVDZ AUX)
    Blend: AUG-CC-PVDZ-JKFIT
    Number of shells: 648
    Number of basis functions: 1932
    Number of Cartesian functions: 2238
    Spherical Harmonics?: true
    Max angular momentum: 3

  Minimum eigenvalue in the overlap matrix is 5.1702215325E-06.
  Reciprocal condition number of the overlap matrix is 3.5224040156E-07.
    Using symmetric orthogonalization.

  ==> Pre-Iterations <==

  SCF Guess: Superposition of Atomic Densities via on-the-fly atomic UHF (no occupation information).

   -------------------------
    Irrep   Nso     Nmo    
   -------------------------
     A        522     522 
   -------------------------
    Total     522     522
   -------------------------

  ==> Iterations <==

                           Total Energy        Delta E     RMS |[F,P]|

   @DF-RHF iter SAD:  -450.82464650416068   -4.50825e+02   0.00000e+00 
   @DF-RHF iter   1:  -451.27205468781301   -4.47408e-01   1.47145e-03 DIIS
   @DF-RHF iter   2:  -451.46948540630086   -1.97431e-01   9.50808e-04 DIIS
   @DF-RHF iter   3:  -451.56021122146012   -9.07258e-02   1.88571e-04 DIIS
   @DF-RHF iter   4:  -451.56566749830688   -5.45628e-03   7.31477e-05 DIIS
   @DF-RHF iter   5:  -451.56670944280313   -1.04194e-03   1.47453e-05 DIIS
   @DF-RHF iter   6:  -451.56681421532954   -1.04773e-04   7.71297e-06 DIIS
   @DF-RHF iter   7:  -451.56683639211144   -2.21768e-05   3.17750e-06 DIIS
   @DF-RHF iter   8:  -451.56684005194080   -3.65983e-06   1.21778e-06 DIIS
   @DF-RHF iter   9:  -451.56684048020986   -4.28269e-07   3.89052e-07 DIIS
   @DF-RHF iter  10:  -451.56684054405355   -6.38437e-08   1.59350e-07 DIIS
   @DF-RHF iter  11:  -451.56684055176868   -7.71513e-09   5.73951e-08 DIIS
   @DF-RHF iter  12:  -451.56684055295290   -1.18422e-09   1.82209e-08 DIIS
   @DF-RHF iter  13:  -451.56684055305533   -1.02432e-10   6.27193e-09 DIIS
  Energy and wave function converged.


  ==> Post-Iterations <==

    Orbital Energies [Eh]
    ---------------------

    Doubly Occupied:                                                      

       1A    -20.554429     2A    -20.549970     3A    -15.647196  
       4A    -15.642264     5A    -11.427134     6A    -11.387322  
       7A    -11.337164     8A    -11.267763     9A    -11.248440  
      10A     -1.433135    11A     -1.392284    12A     -1.307148  
      13A     -1.245326    14A     -1.107155    15A     -0.968510  
      16A     -0.915128    17A     -0.896230    18A     -0.771205  
      19A     -0.767601    20A     -0.707268    21A     -0.674873  
      22A     -0.665929    23A     -0.639210    24A     -0.612865  
      25A     -0.587818    26A     -0.567574    27A     -0.556353  
      28A     -0.550005    29A     -0.510752    30A     -0.477729  
      31A     -0.446106    32A     -0.432737    33A     -0.351499  

    Virtual:                                                              

      34A      0.020799    35A      0.026180    36A      0.037150  
      37A      0.042582    38A      0.043205    39A      0.049994  
      40A      0.059226    41A      0.060798    42A      0.064782  
      43A      0.068979    44A      0.070087    45A      0.077292  
      46A      0.081133    47A      0.089545    48A      0.090874  
      49A      0.095076    50A      0.099531    51A      0.104907  
      52A      0.109781    53A      0.115324    54A      0.118712  
      55A      0.121930    56A      0.124240    57A      0.129515  
      58A      0.132676    59A      0.134371    60A      0.139185  
      61A      0.141252    62A      0.145165    63A      0.147921  
      64A      0.153878    65A      0.156204    66A      0.159188  
      67A      0.160833    68A      0.165816    69A      0.168073  
      70A      0.170722    71A      0.176172    72A      0.178501  
      73A      0.181545    74A      0.184322    75A      0.191464  
      76A      0.195288    77A      0.198045    78A      0.201548  
      79A      0.206938    80A      0.208798    81A      0.213400  
      82A      0.214690    83A      0.222456    84A      0.224139  
      85A      0.227229    86A      0.235617    87A      0.242361  
      88A      0.244686    89A      0.250365    90A      0.252459  
      91A      0.258618    92A      0.261755    93A      0.266948  
      94A      0.267536    95A      0.271131    96A      0.279947  
      97A      0.284184    98A      0.286191    99A      0.290969  
     100A      0.296340   101A      0.303643   102A      0.305709  
     103A      0.307580   104A      0.312707   105A      0.315775  
     106A      0.327385   107A      0.328016   108A      0.330537  
     109A      0.332735   110A      0.335546   111A      0.339994  
     112A      0.341710   113A      0.347838   114A      0.354528  
     115A      0.356257   116A      0.359528   117A      0.363970  
     118A      0.367180   119A      0.372282   120A      0.381401  
     121A      0.387219   122A      0.394440   123A      0.398507  
     124A      0.402536   125A      0.410614   126A      0.414017  
     127A      0.418412   128A      0.423566   129A      0.428358  
     130A      0.431547   131A      0.433066   132A      0.438960  
     133A      0.439779   134A      0.444229   135A      0.451908  
     136A      0.452805   137A      0.459733   138A      0.467424  
     139A      0.473886   140A      0.476656   141A      0.483400  
     142A      0.490841   143A      0.493578   144A      0.497209  
     145A      0.503264   146A      0.505025   147A      0.506988  
     148A      0.513486   149A      0.516786   150A      0.521094  
     151A      0.527340   152A      0.531417   153A      0.532643  
     154A      0.539024   155A      0.544960   156A      0.547277  
     157A      0.554182   158A      0.556271   159A      0.559072  
     160A      0.563481   161A      0.570552   162A      0.578515  
     163A      0.588839   164A      0.591153   165A      0.596238  
     166A      0.600958   167A      0.602257   168A      0.611222  
     169A      0.612251   170A      0.619242   171A      0.620332  
     172A      0.623457   173A      0.625694   174A      0.630495  
     175A      0.636646   176A      0.642748   177A      0.649229  
     178A      0.651880   179A      0.659912   180A      0.662413  
     181A      0.668326   182A      0.674721   183A      0.679026  
     184A      0.683317   185A      0.686094   186A      0.690935  
     187A      0.696556   188A      0.706360   189A      0.708460  
     190A      0.719175   191A      0.719434   192A      0.727234  
     193A      0.734069   194A      0.738196   195A      0.748158  
     196A      0.755871   197A      0.760851   198A      0.764273  
     199A      0.772729   200A      0.785189   201A      0.788345  
     202A      0.793658   203A      0.800406   204A      0.803936  
     205A      0.812514   206A      0.816513   207A      0.821463  
     208A      0.823781   209A      0.828532   210A      0.829512  
     211A      0.833763   212A      0.840087   213A      0.844201  
     214A      0.853472   215A      0.856570   216A      0.861771  
     217A      0.867748   218A      0.874907   219A      0.879585  
     220A      0.881476   221A      0.888008   222A      0.892008  
     223A      0.895612   224A      0.903851   225A      0.910402  
     226A      0.912793   227A      0.919284   228A      0.925095  
     229A      0.938746   230A      0.941563   231A      0.947137  
     232A      0.955688   233A      0.963012   234A      0.973189  
     235A      0.985347   236A      0.986091   237A      0.993076  
     238A      0.998334   239A      1.008378   240A      1.014708  
     241A      1.022123   242A      1.042060   243A      1.045496  
     244A      1.049024   245A      1.052594   246A      1.060630  
     247A      1.070114   248A      1.071908   249A      1.082183  
     250A      1.084165   251A      1.091093   252A      1.094802  
     253A      1.113060   254A      1.126386   255A      1.130431  
     256A      1.144042   257A      1.149680   258A      1.152360  
     259A      1.153801   260A      1.161757   261A      1.169783  
     262A      1.177814   263A      1.183211   264A      1.189640  
     265A      1.190868   266A      1.198291   267A      1.207179  
     268A      1.222716   269A      1.239829   270A      1.245851  
     271A      1.251752   272A      1.260631   273A      1.262555  
     274A      1.274145   275A      1.281936   276A      1.288495  
     277A      1.295376   278A      1.300838   279A      1.304781  
     280A      1.318618   281A      1.324538   282A      1.336700  
     283A      1.338501   284A      1.356029   285A      1.360803  
     286A      1.364512   287A      1.370966   288A      1.373330  
     289A      1.389763   290A      1.400096   291A      1.410065  
     292A      1.421791   293A      1.438951   294A      1.443222  
     295A      1.446131   296A      1.467726   297A      1.470592  
     298A      1.473903   299A      1.478809   300A      1.483394  
     301A      1.489851   302A      1.503400   303A      1.524932  
     304A      1.538307   305A      1.553680   306A      1.564539  
     307A      1.568038   308A      1.581752   309A      1.588991  
     310A      1.606010   311A      1.614439   312A      1.629535  
     313A      1.640004   314A      1.648780   315A      1.650809  
     316A      1.663977   317A      1.676996   318A      1.679459  
     319A      1.701397   320A      1.707346   321A      1.712236  
     322A      1.742456   323A      1.757754   324A      1.765254  
     325A      1.776913   326A      1.779649   327A      1.813809  
     328A      1.823699   329A      1.838172   330A      1.845205  
     331A      1.856075   332A      1.870997   333A      1.887870  
     334A      1.900469   335A      1.934004   336A      1.953267  
     337A      1.953616   338A      1.962075   339A      1.970235  
     340A      1.986690   341A      1.991710   342A      2.003232  
     343A      2.014055   344A      2.045315   345A      2.055778  
     346A      2.069749   347A      2.072024   348A      2.101906  
     349A      2.118626   350A      2.150915   351A      2.173253  
     352A      2.180911   353A      2.186482   354A      2.212539  
     355A      2.231023   356A      2.247385   357A      2.248386  
     358A      2.258478   359A      2.267440   360A      2.278383  
     361A      2.289000   362A      2.292904   363A      2.297003  
     364A      2.301894   365A      2.306482   366A      2.312195  
     367A      2.313466   368A      2.340020   369A      2.343346  
     370A      2.355251   371A      2.361613   372A      2.366225  
     373A      2.380692   374A      2.407341   375A      2.413334  
     376A      2.417380   377A      2.425158   378A      2.432597  
     379A      2.441090   380A      2.463164   381A      2.472104  
     382A      2.475850   383A      2.479300   384A      2.502287  
     385A      2.517672   386A      2.520377   387A      2.522768  
     388A      2.534311   389A      2.546545   390A      2.550555  
     391A      2.557024   392A      2.576469   393A      2.595616  
     394A      2.627590   395A      2.644272   396A      2.659886  
     397A      2.671586   398A      2.680029   399A      2.708166  
     400A      2.712284   401A      2.721843   402A      2.746241  
     403A      2.753873   404A      2.767194   405A      2.774216  
     406A      2.788118   407A      2.797558   408A      2.806764  
     409A      2.830774   410A      2.840621   411A      2.844950  
     412A      2.860885   413A      2.864067   414A      2.887226  
     415A      2.897701   416A      2.903142   417A      2.909856  
     418A      2.933351   419A      2.958151   420A      2.965889  
     421A      2.984502   422A      2.995417   423A      2.999758  
     424A      3.046321   425A      3.078413   426A      3.093975  
     427A      3.095896   428A      3.137414   429A      3.165519  
     430A      3.191627   431A      3.203691   432A      3.208363  
     433A      3.221638   434A      3.258050   435A      3.270170  
     436A      3.276559   437A      3.313530   438A      3.353478  
     439A      3.359958   440A      3.381564   441A      3.451436  
     442A      3.455949   443A      3.483408   444A      3.493476  
     445A      3.503780   446A      3.509844   447A      3.548446  
     448A      3.551368   449A      3.556272   450A      3.600791  
     451A      3.619572   452A      3.665101   453A      3.693814  
     454A      3.719374   455A      3.736753   456A      3.765770  
     457A      3.779318   458A      3.795377   459A      3.805161  
     460A      3.810868   461A      3.812551   462A      3.843777  
     463A      3.858221   464A      3.862877   465A      3.882565  
     466A      3.915786   467A      3.924090   468A      3.964853  
     469A      4.028063   470A      4.049831   471A      4.064875  
     472A      4.115563   473A      4.136294   474A      4.166087  
     475A      4.254861   476A      4.279428   477A      4.306570  
     478A      4.403157   479A      4.441846   480A      4.563072  
     481A      4.573643   482A      4.660352   483A      4.685632  
     484A      4.696529   485A      4.765007   486A      4.882600  
     487A      4.934158   488A      4.983001   489A      5.024810  
     490A      5.030278   491A      5.037488   492A      5.042805  
     493A      5.087595   494A      5.094052   495A      5.132345  
     496A      5.192529   497A      5.205254   498A      5.307791  
     499A      5.355437   500A      5.457834   501A      5.601885  
     502A      5.696846   503A      5.889258   504A      5.928745  
     505A      5.973765   506A      6.060522   507A      6.093920  
     508A      6.098123   509A      6.198385   510A      6.411685  
     511A      6.564249   512A      7.007201   513A      7.236921  
     514A     18.164008   515A     18.667652   516A     18.812357  
     517A     18.843193   518A     19.676009   519A     25.452070  
     520A     25.461153   521A     33.540304   522A     33.556091  

    Final Occupation by Irrep:
              A 
    DOCC [    33 ]

  @DF-RHF Final Energy:  -451.56684055305533

   => Energetics <=

    Nuclear Repulsion Energy =            438.2161536933676871
    One-Electron Energy =               -1484.2737463328419381
    Two-Electron Energy =                 594.4907520864189792
    Total Energy =                       -451.5668405530552718

Computation Completed


Properties will be evaluated at   0.000000,   0.000000,   0.000000 [a0]

Properties computed using the SCF density matrix

  Nuclear Dipole Moment: [e a0]
     X:   129.1452      Y:  -339.2268      Z:   215.5674

  Electronic Dipole Moment: [e a0]
     X:  -127.9279      Y:   337.7765      Z:  -215.5174

  Dipole Moment: [e a0]
     X:     1.2173      Y:    -1.4502      Z:     0.0500     Total:     1.8941

  Dipole Moment: [D]
     X:     3.0941      Y:    -3.6862      Z:     0.1270     Total:     4.8143


*** tstop() called on node158.bme.utexas.edu at Sun May 12 23:31:29 2024
Module time:
	user time   =     135.50 seconds =       2.26 minutes
	system time =       1.69 seconds =       0.03 minutes
	total time  =         19 seconds =       0.32 minutes
Total time:
	user time   =     616.54 seconds =      10.28 minutes
	system time =      10.39 seconds =       0.17 minutes
	total time  =         94 seconds =       1.57 minutes

*** tstart() called on node158.bme.utexas.edu
*** at Sun May 12 23:31:29 2024


  //>>>>>>>>>>>>>>>>>>>>>>>>>>>>>>>>>>>//
  //               DFMP2               //
  //<<<<<<<<<<<<<<<<<<<<<<<<<<<<<<<<<<<//

   => Loading Basis Set <=

    Name: (AUG-CC-PVDZ AUX)
    Role: RIFIT
    Keyword: DF_BASIS_MP2
    atoms 1, 3, 16, 18               entry N          line   158 file /opt/anaconda/envs/psi4v1.5/share/psi4/basis/aug-cc-pvdz-ri.gbs 
    atoms 2, 4-6, 11, 17, 19-21, 26  entry C          line   112 file /opt/anaconda/envs/psi4v1.5/share/psi4/basis/aug-cc-pvdz-ri.gbs 
    atoms 7, 9, 12-15, 22, 24, 27-30 entry H          line    30 file /opt/anaconda/envs/psi4v1.5/share/psi4/basis/aug-cc-pvdz-ri.gbs 
    atoms 8, 10, 23, 25              entry O          line   204 file /opt/anaconda/envs/psi4v1.5/share/psi4/basis/aug-cc-pvdz-ri.gbs 

	 --------------------------------------------------------
	                          DF-MP2                         
	      2nd-Order Density-Fitted Moller-Plesset Theory     
	              RMP2 Wavefunction,   8 Threads             
	                                                         
	        Rob Parrish, Justin Turney, Andy Simmonett,      
	           Ed Hohenstein, and C. David Sherrill          
	 --------------------------------------------------------

   => Auxiliary Basis Set <=

  Basis Set: (AUG-CC-PVDZ AUX)
    Blend: AUG-CC-PVDZ-RI
    Number of shells: 504
    Number of basis functions: 1572
    Number of Cartesian functions: 1848
    Spherical Harmonics?: true
    Max angular momentum: 3

	 --------------------------------------------------------
	                 NBF =   522, NAUX =  1572
	 --------------------------------------------------------
	   CLASS    FOCC     OCC    AOCC    AVIR     VIR    FVIR
	   PAIRS       9      33      24     489     489       0
	 --------------------------------------------------------

	 Will attempt to load fitting metric from file 97.

	-----------------------------------------------------------
	 ==================> DF-MP2 Energies <==================== 
	-----------------------------------------------------------
	 Reference Energy          =    -451.5668405530553287 [Eh]
	 Singles Energy            =      -0.0000000000000000 [Eh]
	 Same-Spin Energy          =      -0.3795758366028862 [Eh]
	 Opposite-Spin Energy      =      -1.0246741021971051 [Eh]
	 Correlation Energy        =      -1.4042499387999914 [Eh]
	 Total Energy              =    -452.9710904918553069 [Eh]
	-----------------------------------------------------------
	 ================> DF-SCS-MP2 Energies <================== 
	-----------------------------------------------------------
	 SCS Same-Spin Scale       =       0.3333333333333333 [-]
	 SCS Opposite-Spin Scale   =       1.2000000000000000 [-]
	 SCS Same-Spin Energy      =      -0.1265252788676287 [Eh]
	 SCS Opposite-Spin Energy  =      -1.2296089226365261 [Eh]
	 SCS Correlation Energy    =      -1.3561342015041549 [Eh]
	 SCS Total Energy          =    -452.9229747545595046 [Eh]
	-----------------------------------------------------------


*** tstop() called on node158.bme.utexas.edu at Sun May 12 23:31:35 2024
Module time:
	user time   =      31.09 seconds =       0.52 minutes
	system time =       1.11 seconds =       0.02 minutes
	total time  =          6 seconds =       0.10 minutes
Total time:
	user time   =     647.63 seconds =      10.79 minutes
	system time =      11.50 seconds =       0.19 minutes
	total time  =        100 seconds =       1.67 minutes
  Constructing Basis Sets for SAPT...

   => Loading Basis Set <=

    Name: (AUG-CC-PVDZ AUX)
    Role: RIFIT
    Keyword: DF_BASIS_SAPT
    atoms 1, 3, 16, 18               entry N          line   158 file /opt/anaconda/envs/psi4v1.5/share/psi4/basis/aug-cc-pvdz-ri.gbs 
    atoms 2, 4-6, 11, 17, 19-21, 26  entry C          line   112 file /opt/anaconda/envs/psi4v1.5/share/psi4/basis/aug-cc-pvdz-ri.gbs 
    atoms 7, 9, 12-15, 22, 24, 27-30 entry H          line    30 file /opt/anaconda/envs/psi4v1.5/share/psi4/basis/aug-cc-pvdz-ri.gbs 
    atoms 8, 10, 23, 25              entry O          line   204 file /opt/anaconda/envs/psi4v1.5/share/psi4/basis/aug-cc-pvdz-ri.gbs 


  //>>>>>>>>>>>>>>>>>>>>>>>>>>>>>>>>>>>//
  //           SAPT2+(3)DMP2           //
  //<<<<<<<<<<<<<<<<<<<<<<<<<<<<<<<<<<<//


*** tstart() called on node158.bme.utexas.edu
*** at Sun May 12 23:31:36 2024

      SAPT2+(3)  
    Ed Hohenstein
     6 June 2009

      Orbital Information
  --------------------------
    NSO        =       522
    NMO        =       522
    NRI        =      1572
    NOCC A     =        33
    NOCC B     =        33
    FOCC A     =         9
    FOCC B     =         9
    NVIR A     =       489
    NVIR B     =       489

    Estimated memory usage: 9256.9 MB

    Natural Orbital Cutoff:   1.000E-06
    Disp(T3) Truncation:            Yes
    CCD (vv|vv) Truncation:         Yes
    MBPT T2 Truncation:             Yes

    Monomer A: 271 virtual orbitals dropped
    Monomer B: 271 virtual orbitals dropped

    Elst10,r            =     0.001744637676 [Eh]
    Exch10 (S^2)        =     0.000134079990 [Eh]
    Exch10              =     0.000134093967 [Eh]
    Ind20,r (A<-B)      =    -0.000119393717 [Eh]
    Ind20,r (B<-A)      =    -0.000110567164 [Eh]
    Ind20,r             =    -0.000229960881 [Eh]
    Exch-Ind20,r (A<-B) =     0.000013909452 [Eh]
    Exch-Ind20,r (B<-A) =     0.000014435723 [Eh]
    Exch-Ind20,r        =     0.000028345174 [Eh]
    Disp20              =    -0.001266581516 [Eh]
    Disp20 (NO)         =    -0.001227834033 [Eh]
    Exch-Disp20         =     0.000021281211 [Eh]
    Elst12,r            =    -0.000513573158 [Eh]
    Exch11              =    -0.000011160116 [Eh]
    Exch12              =     0.000054610037 [Eh]
    Ind22               =     0.000027778267 [Eh]
    Disp21              =     0.000305613531 [Eh]
    Disp22 (SDQ)        =    -0.000078976554 [Eh]

    (i =   1 of  24)        158 seconds
    (i =   2 of  24)        369 seconds
    (i =   3 of  24)        565 seconds
    (i =   4 of  24)        762 seconds
    (i =   5 of  24)        945 seconds
    (i =   6 of  24)       1153 seconds
    (i =   7 of  24)       1387 seconds
    (i =   8 of  24)       1634 seconds
    (i =   9 of  24)       1869 seconds
    (i =  10 of  24)       2136 seconds
    (i =  11 of  24)       2403 seconds
    (i =  12 of  24)       2686 seconds
    (i =  13 of  24)       2971 seconds
    (i =  14 of  24)       3260 seconds
    (i =  15 of  24)       3546 seconds
    (i =  16 of  24)       3833 seconds
    (i =  17 of  24)       4113 seconds
    (i =  18 of  24)       4394 seconds
    (i =  19 of  24)       4679 seconds
    (i =  20 of  24)       4967 seconds
    (i =  21 of  24)       5246 seconds
    (i =  22 of  24)       5532 seconds
    (i =  23 of  24)       5802 seconds
    (i =  24 of  24)       6068 seconds

    Disp220 (T)         =    -0.000147640074 [Eh]

    (i =   1 of  24)        267 seconds
    (i =   2 of  24)        541 seconds
    (i =   3 of  24)        819 seconds
    (i =   4 of  24)       1102 seconds
    (i =   5 of  24)       1388 seconds
    (i =   6 of  24)       1694 seconds
    (i =   7 of  24)       2044 seconds
    (i =   8 of  24)       2490 seconds
    (i =   9 of  24)       2963 seconds
    (i =  10 of  24)       3393 seconds
    (i =  11 of  24)       3844 seconds
    (i =  12 of  24)       4265 seconds
    (i =  13 of  24)       4600 seconds
    (i =  14 of  24)       4961 seconds
    (i =  15 of  24)       5341 seconds
    (i =  16 of  24)       5685 seconds
    (i =  17 of  24)       6033 seconds
    (i =  18 of  24)       6372 seconds
    (i =  19 of  24)       6710 seconds
    (i =  20 of  24)       7030 seconds
    (i =  21 of  24)       7353 seconds
    (i =  22 of  24)       7676 seconds
    (i =  23 of  24)       8013 seconds
    (i =  24 of  24)       8345 seconds

    Disp202 (T)         =    -0.000147889562 [Eh]

    Disp22 (T)          =    -0.000295529636 [Eh]

    Est. Disp220 (T)    =    -0.000152299239 [Eh]
    Est. Disp202 (T)    =    -0.000152556600 [Eh]

    Est. Disp22 (T)     =    -0.000304855839 [Eh]
    Elst13,r            =     0.000108703878 [Eh]
    Disp30              =     0.000003113089 [Eh]

    SAPT Results 
  --------------------------------------------------------------------------------------------------------
    Electrostatics                  1.33976839 [mEh]       0.84071736 [kcal/mol]       3.51756144 [kJ/mol]
      Elst10,r                      1.74463768 [mEh]       1.09477667 [kcal/mol]       4.58054559 [kJ/mol]
      Elst12,r                     -0.51357316 [mEh]      -0.32227202 [kcal/mol]      -1.34838614 [kJ/mol]
      Elst13,r                      0.10870388 [mEh]       0.06821271 [kcal/mol]       0.28540199 [kJ/mol]

    Exchange                        0.17754389 [mEh]       0.11141047 [kcal/mol]       0.46614141 [kJ/mol]
      Exch10                        0.13409397 [mEh]       0.08414523 [kcal/mol]       0.35206366 [kJ/mol]
      Exch10(S^2)                   0.13407999 [mEh]       0.08413646 [kcal/mol]       0.35202696 [kJ/mol]
      Exch11(S^2)                  -0.01116012 [mEh]      -0.00700308 [kcal/mol]      -0.02930088 [kJ/mol]
      Exch12(S^2)                   0.05461004 [mEh]       0.03426832 [kcal/mol]       0.14337863 [kJ/mol]

    Induction                      -0.15679964 [mEh]      -0.09839326 [kcal/mol]      -0.41167741 [kJ/mol]
      Ind20,r                      -0.22996088 [mEh]      -0.14430263 [kcal/mol]      -0.60376221 [kJ/mol]
      Ind22                         0.02777827 [mEh]       0.01743113 [kcal/mol]       0.07293183 [kJ/mol]
      Exch-Ind20,r                  0.02834517 [mEh]       0.01778687 [kcal/mol]       0.07442025 [kJ/mol]
      Exch-Ind22                   -0.00342397 [mEh]      -0.00214858 [kcal/mol]      -0.00898964 [kJ/mol]
      delta HF,r (2)                0.00229930 [mEh]       0.00144284 [kcal/mol]       0.00603682 [kJ/mol]
      delta MP2,r (2)               0.01816246 [mEh]       0.01139712 [kcal/mol]       0.04768554 [kJ/mol]

    Dispersion                     -1.32040608 [mEh]      -0.82856732 [kcal/mol]      -3.46672568 [kJ/mol]
      Disp20                       -1.26658152 [mEh]      -0.79479190 [kcal/mol]      -3.32540931 [kJ/mol]
      Disp30                        0.00311309 [mEh]       0.00195349 [kcal/mol]       0.00817341 [kJ/mol]
      Disp21                        0.30561353 [mEh]       0.19177539 [kcal/mol]       0.80238821 [kJ/mol]
      Disp22 (SDQ)                 -0.07897655 [mEh]      -0.04955854 [kcal/mol]      -0.20735291 [kJ/mol]
      Disp22 (T)                   -0.29552964 [mEh]      -0.18544765 [kcal/mol]      -0.77591295 [kJ/mol]
      Est. Disp22 (T)              -0.30485584 [mEh]      -0.19129993 [kcal/mol]      -0.80039890 [kJ/mol]
      Exch-Disp20                   0.02128121 [mEh]       0.01335416 [kcal/mol]       0.05587381 [kJ/mol]

  Total HF                          1.67941524 [mEh]       1.05384897 [kcal/mol]       4.40930411 [kJ/mol]
  Total SAPT0                       0.43411494 [mEh]       0.27241123 [kcal/mol]       1.13976861 [kJ/mol]
  Total SAPT2                      -0.01165401 [mEh]      -0.00731300 [kcal/mol]      -0.03059759 [kJ/mol]
  Total SAPT2+                     -0.08987287 [mEh]      -0.05639608 [kcal/mol]      -0.23596119 [kJ/mol]
  Total SAPT2+(3)                   0.02194410 [mEh]       0.01377013 [kcal/mol]       0.05761422 [kJ/mol]
  Total SAPT2+dMP2                 -0.07171041 [mEh]      -0.04499896 [kcal/mol]      -0.18827564 [kJ/mol]
  Total SAPT2+(3)dMP2               0.04010656 [mEh]       0.02516725 [kcal/mol]       0.10529976 [kJ/mol]

  Special recipe for scaled SAPT0 (see Manual):
    Electrostatics sSAPT0           1.74463768 [mEh]       1.09477667 [kcal/mol]       4.58054559 [kJ/mol]
    Exchange sSAPT0                 0.13409397 [mEh]       0.08414523 [kcal/mol]       0.35206366 [kJ/mol]
    Induction sSAPT0               -0.19930754 [mEh]      -0.12506737 [kcal/mol]      -0.52328187 [kJ/mol]
    Dispersion sSAPT0              -1.24529365 [mEh]      -0.78143356 [kcal/mol]      -3.26951802 [kJ/mol]
  Total sSAPT0                      0.43413046 [mEh]       0.27242097 [kcal/mol]       1.13980936 [kJ/mol]
  --------------------------------------------------------------------------------------------------------

*** tstop() called on node158.bme.utexas.edu at Mon May 13 03:57:22 2024
Module time:
	user time   =   99564.99 seconds =    1659.42 minutes
	system time =     566.43 seconds =       9.44 minutes
	total time  =      15946 seconds =     265.77 minutes
Total time:
	user time   =  100213.34 seconds =    1670.22 minutes
	system time =     577.95 seconds =       9.63 minutes
	total time  =      16047 seconds =     267.45 minutes

    Psi4 stopped on: Monday, 13 May 2024 03:57AM
    Psi4 wall time for execution: 4:27:27.30

*** Psi4 exiting successfully. Buy a developer a beer!
