16

H 0.12697 -2.37209 0.27759
C 1.03438 -1.87117 -0.07224
H -2.1183 -0.01234 1.83919
H -2.99327 0.843 0.54501
C -2.57702 -0.1246 0.85235
H 1.62886 -2.57131 -0.66684
H 1.62028 -1.52679 0.78232
H -3.3893 -0.85652 0.89919
O 0.19929 0.72659 1.11008
O -0.52781 1.41203 -1.3468
O 0.70747 -0.77961 -0.93546
O -1.63417 -0.60635 -0.09761
P -0.29052 0.38309 -0.28507
O 2.340878 0.4457810256410256 0.6122136923076923
H 1.4285579999999998 0.5952110256410256 0.9548736923076924
H 2.129488 0.14156102564102563 -0.2853863076923077
