16

H 0.34571 2.23993 -1.28679
C -0.35676 2.27648 -0.44728
H 2.98752 -0.4732 -0.11589
H 2.15582 -2.0134 -0.45539
C 2.32794 -0.99279 -0.81877
H -1.21267 2.90201 -0.71698
H 0.15137 2.69426 0.42575
H 2.80334 -1.04316 -1.803
O 1.14734 0.57935 1.45206
O -0.51724 -1.36625 0.76307
O -0.86341 0.97641 -0.1585
O 1.09964 -0.29355 -0.97852
P 0.24882 -0.10482 0.45819
O -3.260496884615385 -1.0741398589743592 -0.4272409358974359
H -2.9080568846153847 -0.18197985897435898 -0.5803309358974359
H -2.4797168846153848 -1.456549858974359 0.028659064102564108
