16

H 2.66325 0.98686 -0.48269
C 2.65349 -0.10579 -0.56157
H -0.65153 2.23848 -1.03879
H -1.77806 1.5976 0.17287
C -0.80526 2.07919 0.03334
H 3.65248 -0.49359 -0.34144
H 2.36007 -0.38643 -1.57703
H -0.79656 3.04109 0.55485
O -0.198 -0.39991 -1.28827
O -0.60634 -1.08479 1.225
O 1.76851 -0.67484 0.3982
O 0.25555 1.29858 0.58805
P 0.16633 -0.32353 0.18077
O -3.330263794871795 -0.8240683589743589 -0.46011910256410254
H -2.825383794871795 -1.103308358974359 0.33058089743589747
H -2.578033794871795 -0.739758358974359 -1.0809391025641024
