16

H -2.57917 0.90233 -1.41016
C -2.71008 0.05717 -0.73043
H 1.33217 1.74463 1.01191
H 2.28153 0.92174 -0.23454
C 1.3985 1.60637 -0.07317
H -3.50072 -0.59684 -1.09842
H -2.96079 0.43496 0.26354
H 1.58467 2.54076 -0.60884
O -0.93877 0.38088 1.57843
O 0.66204 -1.28559 0.44337
O -1.52396 -0.71103 -0.67705
O 0.27579 1.0129 -0.58411
P -0.39629 -0.24024 0.34141
O 2.8979843205128204 -0.6062180769230769 -0.36329002564102564
H 2.1022443205128205 -1.004028076923077 0.06971997435897437
H 2.8972143205128207 -0.9291580769230768 -1.2692900256410256
