30
A-T_pair.log	Energy: -574818.7235945
N         -4.99109        0.54679        0.00025
H         -5.66811        1.30080        0.00046
C         -5.24336       -0.80166       -0.00014
H         -6.25301       -1.19300       -0.00025
N         -4.14413       -1.54376       -0.00030
C         -3.12999       -0.60769       -0.00007
C         -1.72473       -0.75042       -0.00010
N         -1.11187       -1.94626       -0.00055
N         -0.98719        0.37836        0.00025
C         -1.60215        1.58539        0.00051
H         -0.92650        2.43831        0.00074
N         -2.91174        1.84349        0.00056
C         -3.62251        0.70015        0.00027
H         -0.09205       -2.00348       -0.00005
H         -1.67478       -2.78487       -0.00036
N          3.84989        1.59915       -0.00002
H          4.30722        2.50334        0.00006
C          2.46248        1.63981       -0.00040
O          1.82714        2.69069       -0.00068
N          1.88969        0.38346       -0.00050
C          2.53270       -0.84544       -0.00008
O          1.87893       -1.90191       -0.00002
C          3.99380       -0.79167        0.00018
C          4.77294       -2.07693        0.00054
C          4.57929        0.43232        0.00025
H          5.65875        0.56001        0.00048
H          0.84449        0.37211       -0.00086
H          4.07122       -2.91212       -0.00047
H          5.40825       -2.16189        0.88695
H          5.41012       -2.16123       -0.88459
