27

N 4.64374 0.79562 0.00769
H 5.25743 1.60214 0.01475
C 5.00484 -0.52777 -0.00219
H 6.04292 -0.83577 -0.00319
N 3.96955 -1.35693 -0.01006
C 2.88313 -0.50642 -0.00511
C 1.49471 -0.76312 -0.00814
N 0.9859 -2.00794 -0.02099
N 0.66621 0.30022 -0.0004
C 1.1814 1.55419 0.00988
H 0.43953 2.34985 0.01555
N 2.46493 1.91765 0.01391
C 3.26758 0.837 0.00619
H -0.02273 -2.15419 -0.01359
H 1.61835 -2.79545 -0.01781
N -6.17825755 1.20670315 -0.03062455
C -4.74850755 1.24154315 -0.004764549999999999
O -4.15345755 2.3056831499999997 0.0036854500000000007
N -4.04692755 0.03193314999999999 0.0044554500000000006
C -4.57939755 -1.2282368499999998 0.01261545
O -3.8830275500000004 -2.24701685 0.006375450000000001
C -6.0863875499999995 -1.2870768499999998 0.03998545
H -6.3966375499999995 -1.82264685 0.9468754500000001
H -6.427747549999999 -1.91019685 -0.7960545499999999
C -6.75130755 0.054813149999999984 -0.01096455
H -7.84369755 0.05986314999999998 -0.031244550000000003
H -3.00296755 0.11466314999999999 0.0004554500000000009
