
    -----------------------------------------------------------------------
          Psi4: An Open-Source Ab Initio Electronic Structure Package
                               Psi4 1.5 release

                         Git: Rev {HEAD} e9f4d6d 


    D. G. A. Smith, L. A. Burns, A. C. Simmonett, R. M. Parrish,
    M. C. Schieber, R. Galvelis, P. Kraus, H. Kruse, R. Di Remigio,
    A. Alenaizan, A. M. James, S. Lehtola, J. P. Misiewicz, M. Scheurer,
    R. A. Shaw, J. B. Schriber, Y. Xie, Z. L. Glick, D. A. Sirianni,
    J. S. O'Brien, J. M. Waldrop, A. Kumar, E. G. Hohenstein,
    B. P. Pritchard, B. R. Brooks, H. F. Schaefer III, A. Yu. Sokolov,
    K. Patkowski, A. E. DePrince III, U. Bozkaya, R. A. King,
    F. A. Evangelista, J. M. Turney, T. D. Crawford, C. D. Sherrill,
    J. Chem. Phys. 152(18) 184108 (2020). https://doi.org/10.1063/5.0006002

                            Additional Code Authors
    E. T. Seidl, C. L. Janssen, E. F. Valeev, M. L. Leininger,
    J. F. Gonthier, R. M. Richard, H. R. McAlexander, M. Saitow, X. Wang,
    P. Verma, M. H. Lechner, and A. Jiang

             Previous Authors, Complete List of Code Contributors,
                       and Citations for Specific Modules
    https://github.com/psi4/psi4/blob/master/codemeta.json
    https://github.com/psi4/psi4/graphs/contributors
    http://psicode.org/psi4manual/master/introduction.html#citing-psifour

    -----------------------------------------------------------------------


    Psi4 started on: Saturday, 20 January 2024 01:50PM

    Process ID: 1467551
    Host:       node157.bme.utexas.edu
    PSIDATADIR: /opt/anaconda/envs/psi4v1.5/share/psi4
    Memory:     500.0 MiB
    Threads:    8
    
  ==> Input File <==

--------------------------------------------------------------------------
memory 80GB

molecule {
0 1
N -4.67324 0.48575 0.10278
H -5.31724 1.26771 0.10843
C -4.97474 -0.85532 0.17175
H -5.99544 -1.20779 0.24845
N -3.90263 -1.62912 0.13459
C -2.85687 -0.7332 0.03402
C -1.44449 -0.96469 -0.03361
O -0.83648 -2.04944 -0.01978
N -0.74613 0.24915 -0.12796
C -1.30069 1.50842 -0.14829
N -0.43162 2.54192 -0.32253
N -2.59994 1.74148 -0.07583
C -3.30797 0.5873 0.01221
H 0.28569 0.16435 -0.1421
H 0.55877 2.42055 -0.09695
H -0.83197 3.45214 -0.13781
--
0 1
N 6.0903811394230765 0.6092434278846154 0.18150158173076922
H 6.618021139423076 1.4701234278846154 0.27812158173076923
C 4.695901139423077 0.7625934278846154 0.13004158173076924
O 4.222591139423077 1.9055034278846155 0.20896158173076923
N 3.952221139423077 -0.37535657211538465 -0.003428418269230772
C 4.540251139423077 -1.5743265721153845 -0.06289841826923077
N 3.7475211394230765 -2.645446572115385 -0.18413841826923077
C 5.9704011394230765 -1.7331065721153847 -0.014528418269230773
H 6.440001139423076 -2.707856572115385 -0.07118841826923078
C 6.709501139423077 -0.6014765721153846 0.11034158173076923
H 7.793851139423077 -0.5978965721153846 0.15931158173076923
H 2.720991139423077 -2.538866572115385 -0.14441841826923077
H 4.1415011394230765 -3.575256572115385 -0.18258841826923078
 units angstrom
 no_reorient
 symmetry c1}
set  {scf_type DF
 basis aug-cc-pvtz
 freeze_core True
 guess SAD}
energy('sapt2+(3)dmp2')
--------------------------------------------------------------------------

  Memory set to  74.506 GiB by Python driver.

Scratch directory: /tmp/
   => Loading Basis Set <=

    Name: AUG-CC-PVTZ
    Role: ORBITAL
    Keyword: BASIS
    atoms 1, 5, 9, 11-12, 17, 21, 23     entry N          line   285 file /opt/anaconda/envs/psi4v1.5/share/psi4/basis/aug-cc-pvtz.gbs 
    atoms 2, 4, 14-16, 18, 25, 27-29     entry H          line    40 file /opt/anaconda/envs/psi4v1.5/share/psi4/basis/aug-cc-pvtz.gbs 
    atoms 3, 6-7, 10, 13, 19, 22, 24, 26 entry C          line   239 file /opt/anaconda/envs/psi4v1.5/share/psi4/basis/aug-cc-pvtz.gbs 
    atoms 8, 20                          entry O          line   331 file /opt/anaconda/envs/psi4v1.5/share/psi4/basis/aug-cc-pvtz.gbs 

   => Loading Basis Set <=

    Name: AUG-CC-PVTZ
    Role: ORBITAL
    Keyword: BASIS
    atoms 1, 5, 9, 11-12, 17, 21, 23     entry N          line   285 file /opt/anaconda/envs/psi4v1.5/share/psi4/basis/aug-cc-pvtz.gbs 
    atoms 2, 4, 14-16, 18, 25, 27-29     entry H          line    40 file /opt/anaconda/envs/psi4v1.5/share/psi4/basis/aug-cc-pvtz.gbs 
    atoms 3, 6-7, 10, 13, 19, 22, 24, 26 entry C          line   239 file /opt/anaconda/envs/psi4v1.5/share/psi4/basis/aug-cc-pvtz.gbs 
    atoms 8, 20                          entry O          line   331 file /opt/anaconda/envs/psi4v1.5/share/psi4/basis/aug-cc-pvtz.gbs 


  //>>>>>>>>>>>>>>>>>>>>>>>>>>>>>>>>>>>//
  //              Dimer HF             //
  //<<<<<<<<<<<<<<<<<<<<<<<<<<<<<<<<<<<//


*** tstart() called on node157.bme.utexas.edu
*** at Sat Jan 20 13:50:11 2024

   => Loading Basis Set <=

    Name: AUG-CC-PVTZ
    Role: ORBITAL
    Keyword: BASIS
    atoms 1, 5, 9, 11-12, 17, 21, 23     entry N          line   285 file /opt/anaconda/envs/psi4v1.5/share/psi4/basis/aug-cc-pvtz.gbs 
    atoms 2, 4, 14-16, 18, 25, 27-29     entry H          line    40 file /opt/anaconda/envs/psi4v1.5/share/psi4/basis/aug-cc-pvtz.gbs 
    atoms 3, 6-7, 10, 13, 19, 22, 24, 26 entry C          line   239 file /opt/anaconda/envs/psi4v1.5/share/psi4/basis/aug-cc-pvtz.gbs 
    atoms 8, 20                          entry O          line   331 file /opt/anaconda/envs/psi4v1.5/share/psi4/basis/aug-cc-pvtz.gbs 


         ---------------------------------------------------------
                                   SCF
               by Justin Turney, Rob Parrish, Andy Simmonett
                          and Daniel G. A. Smith
                              RHF Reference
                        8 Threads,  76293 MiB Core
         ---------------------------------------------------------

  ==> Geometry <==

    Molecular point group: c1
    Full point group: C1

    Geometry (in Angstrom), charge = 0, multiplicity = 1:

       Center              X                  Y                   Z               Mass       
    ------------   -----------------  -----------------  -----------------  -----------------
         N           -5.387472157383     0.614427884360     0.097809745321    14.003074004430
         H           -6.031472157383     1.396387884360     0.103459745321     1.007825032230
         C           -5.688972157383    -0.726642115640     0.166779745321    12.000000000000
         H           -6.709672157383    -1.079112115640     0.243479745321     1.007825032230
         N           -4.616862157383    -1.500442115640     0.129619745321    14.003074004430
         C           -3.571102157383    -0.604522115640     0.029049745321    12.000000000000
         C           -2.158722157383    -0.836012115640    -0.038580254679    12.000000000000
         O           -1.550712157383    -1.920762115640    -0.024750254679    15.994914619570
         N           -1.460362157383     0.377827884360    -0.132930254679    14.003074004430
         C           -2.014922157383     1.637097884360    -0.153260254679    12.000000000000
         N           -1.145852157383     2.670597884360    -0.327500254679    14.003074004430
         N           -3.314172157383     1.870157884360    -0.080800254679    14.003074004430
         C           -4.022202157383     0.715977884360     0.007239745321    12.000000000000
         H           -0.428542157383     0.293027884360    -0.147070254679     1.007825032230
         H           -0.155462157383     2.549227884360    -0.101920254679     1.007825032230
         H           -1.546202157383     3.580817884360    -0.142780254679     1.007825032230
         N            5.376148982040     0.737921312245     0.176531327052    14.003074004430
         H            5.903788982040     1.598801312245     0.273151327052     1.007825032230
         C            3.981668982040     0.891271312245     0.125071327052    12.000000000000
         O            3.508358982040     2.034181312245     0.203991327052    15.994914619570
         N            3.237988982040    -0.246678687755    -0.008398672948    14.003074004430
         C            3.826018982040    -1.445648687755    -0.067868672948    12.000000000000
         N            3.033288982040    -2.516768687755    -0.189108672948    14.003074004430
         C            5.256168982040    -1.604428687755    -0.019498672948    12.000000000000
         H            5.725768982040    -2.579178687755    -0.076158672948     1.007825032230
         C            5.995268982040    -0.472798687755     0.105371327052    12.000000000000
         H            7.079618982040    -0.469218687755     0.154341327052     1.007825032230
         H            2.006758982040    -2.410188687755    -0.149388672948     1.007825032230
         H            3.427268982040    -3.446578687755    -0.187558672948     1.007825032230

  Running in c1 symmetry.

  Rotational constants: A =      0.02888  B =      0.00419  C =      0.00367 [cm^-1]
  Rotational constants: A =    865.91065  B =    125.61907  C =    109.94687 [MHz]
  Nuclear repulsion = 1277.591541040479797

  Charge       = 0
  Multiplicity = 1
  Electrons    = 136
  Nalpha       = 68
  Nbeta        = 68

  ==> Algorithm <==

  SCF Algorithm Type is DF.
  DIIS enabled.
  MOM disabled.
  Fractional occupation disabled.
  Guess Type is SAD.
  Energy threshold   = 1.00e-08
  Density threshold  = 1.00e-08
  Integral threshold = 1.00e-12

  ==> Primary Basis <==

  Basis Set: AUG-CC-PVTZ
    Blend: AUG-CC-PVTZ
    Number of shells: 356
    Number of basis functions: 1104
    Number of Cartesian functions: 1295
    Spherical Harmonics?: true
    Max angular momentum: 3

   => Loading Basis Set <=

    Name: (AUG-CC-PVTZ AUX)
    Role: JKFIT
    Keyword: DF_BASIS_SCF
    atoms 1, 5, 9, 11-12, 17, 21, 23     entry N          line   224 file /opt/anaconda/envs/psi4v1.5/share/psi4/basis/aug-cc-pvtz-jkfit.gbs 
    atoms 2, 4, 14-16, 18, 25, 27-29     entry H          line    70 file /opt/anaconda/envs/psi4v1.5/share/psi4/basis/aug-cc-pvtz-jkfit.gbs 
    atoms 3, 6-7, 10, 13, 19, 22, 24, 26 entry C          line   162 file /opt/anaconda/envs/psi4v1.5/share/psi4/basis/aug-cc-pvtz-jkfit.gbs 
    atoms 8, 20                          entry O          line   286 file /opt/anaconda/envs/psi4v1.5/share/psi4/basis/aug-cc-pvtz-jkfit.gbs 

  ==> Integral Setup <==

  ==> DiskDFJK: Density-Fitted J/K Matrices <==

    J tasked:                  Yes
    K tasked:                  Yes
    wK tasked:                  No
    OpenMP threads:              8
    Integrals threads:           8
    Memory [MiB]:            57220
    Algorithm:                Core
    Integral Cache:           SAVE
    Schwarz Cutoff:          1E-12
    Fitting Condition:       1E-10

   => Auxiliary Basis Set <=

  Basis Set: (AUG-CC-PVTZ AUX)
    Blend: AUG-CC-PVTZ-JKFIT
    Number of shells: 710
    Number of basis functions: 2436
    Number of Cartesian functions: 3039
    Spherical Harmonics?: true
    Max angular momentum: 4

  Minimum eigenvalue in the overlap matrix is 1.0506662261E-06.
  Reciprocal condition number of the overlap matrix is 6.0774490534E-08.
    Using symmetric orthogonalization.

  ==> Pre-Iterations <==

  SCF Guess: Superposition of Atomic Densities via on-the-fly atomic UHF (no occupation information).

   -------------------------
    Irrep   Nso     Nmo    
   -------------------------
     A       1104    1104 
   -------------------------
    Total    1104    1104
   -------------------------

  ==> Iterations <==

                           Total Energy        Delta E     RMS |[F,P]|

   @DF-RHF iter SAD:  -931.43336790259593   -9.31433e+02   0.00000e+00 
   @DF-RHF iter   1:  -931.80531497416416   -3.71947e-01   9.72331e-04 DIIS
   @DF-RHF iter   2:  -932.21336980873639   -4.08055e-01   5.62889e-04 DIIS
   @DF-RHF iter   3:  -932.34824800775368   -1.34878e-01   1.13545e-04 DIIS
   @DF-RHF iter   4:  -932.35651449811041   -8.26649e-03   4.86714e-05 DIIS
   @DF-RHF iter   5:  -932.35817544794702   -1.66095e-03   9.87948e-06 DIIS
   @DF-RHF iter   6:  -932.35833810130976   -1.62653e-04   5.23034e-06 DIIS
   @DF-RHF iter   7:  -932.35838122703717   -4.31257e-05   2.07005e-06 DIIS
   @DF-RHF iter   8:  -932.35838945352270   -8.22649e-06   7.35031e-07 DIIS
   @DF-RHF iter   9:  -932.35839035643630   -9.02914e-07   3.11938e-07 DIIS
   @DF-RHF iter  10:  -932.35839051911432   -1.62678e-07   1.23315e-07 DIIS
   @DF-RHF iter  11:  -932.35839054669282   -2.75785e-08   5.31761e-08 DIIS
   @DF-RHF iter  12:  -932.35839055085785   -4.16503e-09   1.76672e-08 DIIS
   @DF-RHF iter  13:  -932.35839055142583   -5.67979e-10   6.38659e-09 DIIS
  Energy and wave function converged.


  ==> Post-Iterations <==

    Orbital Energies [Eh]
    ---------------------

    Doubly Occupied:                                                      

       1A    -20.507870     2A    -20.505138     3A    -15.628986  
       4A    -15.624581     5A    -15.623376     6A    -15.605058  
       7A    -15.599864     8A    -15.558574     9A    -15.555944  
      10A    -15.545684    11A    -11.389565    12A    -11.375771  
      13A    -11.362054    14A    -11.354545    15A    -11.337791  
      16A    -11.316911    17A    -11.304335    18A    -11.254240  
      19A    -11.237100    20A     -1.383220    21A     -1.378543  
      22A     -1.344726    23A     -1.322139    24A     -1.300420  
      25A     -1.269121    26A     -1.210275    27A     -1.207043  
      28A     -1.173922    29A     -1.166711    30A     -1.071812  
      31A     -1.019481    32A     -0.908557    33A     -0.897051  
      34A     -0.883353    35A     -0.877276    36A     -0.833484  
      37A     -0.790179    38A     -0.768378    39A     -0.764308  
      40A     -0.730658    41A     -0.729516    42A     -0.724117  
      43A     -0.689773    44A     -0.680538    45A     -0.661288  
      46A     -0.648584    47A     -0.630982    48A     -0.629959  
      49A     -0.623020    50A     -0.616711    51A     -0.597573  
      52A     -0.593108    53A     -0.589255    54A     -0.588178  
      55A     -0.544780    56A     -0.535109    57A     -0.492512  
      58A     -0.487773    59A     -0.444668    60A     -0.443812  
      61A     -0.430615    62A     -0.426602    63A     -0.420197  
      64A     -0.419151    65A     -0.401153    66A     -0.387014  
      67A     -0.351316    68A     -0.288314  

    Virtual:                                                              

      69A      0.014995    70A      0.025330    71A      0.026135  
      72A      0.035198    73A      0.041134    74A      0.048676  
      75A      0.054615    76A      0.058497    77A      0.060148  
      78A      0.070686    79A      0.074913    80A      0.077561  
      81A      0.081967    82A      0.088633    83A      0.089354  
      84A      0.096504    85A      0.097929    86A      0.101094  
      87A      0.101879    88A      0.102632    89A      0.105081  
      90A      0.107787    91A      0.112577    92A      0.118236  
      93A      0.120948    94A      0.121815    95A      0.122581  
      96A      0.128110    97A      0.130372    98A      0.134539  
      99A      0.136819   100A      0.137851   101A      0.141978  
     102A      0.143143   103A      0.149153   104A      0.153206  
     105A      0.155374   106A      0.157764   107A      0.158862  
     108A      0.161647   109A      0.164965   110A      0.166059  
     111A      0.171268   112A      0.172326   113A      0.175884  
     114A      0.177311   115A      0.185986   116A      0.189337  
     117A      0.191651   118A      0.195407   119A      0.200159  
     120A      0.201985   121A      0.203958   122A      0.205386  
     123A      0.210914   124A      0.212127   125A      0.217937  
     126A      0.220543   127A      0.227541   128A      0.231205  
     129A      0.232898   130A      0.236020   131A      0.238693  
     132A      0.241877   133A      0.242726   134A      0.245248  
     135A      0.246678   136A      0.249587   137A      0.258374  
     138A      0.260179   139A      0.262224   140A      0.265896  
     141A      0.271823   142A      0.274579   143A      0.277003  
     144A      0.278716   145A      0.286881   146A      0.287629  
     147A      0.293065   148A      0.294351   149A      0.297892  
     150A      0.300520   151A      0.307122   152A      0.311640  
     153A      0.314853   154A      0.318676   155A      0.322296  
     156A      0.323503   157A      0.326295   158A      0.328298  
     159A      0.330405   160A      0.333771   161A      0.337427  
     162A      0.338684   163A      0.341054   164A      0.346941  
     165A      0.348706   166A      0.351448   167A      0.354378  
     168A      0.356617   169A      0.360054   170A      0.362740  
     171A      0.369523   172A      0.370594   173A      0.374144  
     174A      0.376806   175A      0.378753   176A      0.379416  
     177A      0.384459   178A      0.389184   179A      0.390541  
     180A      0.395942   181A      0.396733   182A      0.399273  
     183A      0.404325   184A      0.408931   185A      0.410963  
     186A      0.413837   187A      0.416188   188A      0.419327  
     189A      0.423193   190A      0.424101   191A      0.430183  
     192A      0.430484   193A      0.433686   194A      0.440412  
     195A      0.443046   196A      0.447631   197A      0.452347  
     198A      0.454208   199A      0.460342   200A      0.460744  
     201A      0.462210   202A      0.466665   203A      0.471474  
     204A      0.472674   205A      0.476260   206A      0.478646  
     207A      0.480329   208A      0.483529   209A      0.486180  
     210A      0.487042   211A      0.489072   212A      0.491326  
     213A      0.495768   214A      0.501223   215A      0.503451  
     216A      0.506175   217A      0.509537   218A      0.510972  
     219A      0.514890   220A      0.516862   221A      0.519631  
     222A      0.522756   223A      0.526327   224A      0.536198  
     225A      0.538325   226A      0.540725   227A      0.547320  
     228A      0.548866   229A      0.551309   230A      0.554101  
     231A      0.556925   232A      0.561138   233A      0.563253  
     234A      0.571225   235A      0.574308   236A      0.582893  
     237A      0.589395   238A      0.592404   239A      0.598802  
     240A      0.602094   241A      0.608030   242A      0.612370  
     243A      0.615325   244A      0.618656   245A      0.619676  
     246A      0.627483   247A      0.630225   248A      0.631136  
     249A      0.633584   250A      0.637295   251A      0.640283  
     252A      0.648420   253A      0.652096   254A      0.657193  
     255A      0.658508   256A      0.668229   257A      0.671366  
     258A      0.677268   259A      0.679079   260A      0.683641  
     261A      0.686835   262A      0.689438   263A      0.691415  
     264A      0.697765   265A      0.701475   266A      0.704430  
     267A      0.707598   268A      0.711252   269A      0.716257  
     270A      0.717935   271A      0.721120   272A      0.724372  
     273A      0.726799   274A      0.730279   275A      0.735861  
     276A      0.737165   277A      0.744166   278A      0.746529  
     279A      0.748559   280A      0.755278   281A      0.760118  
     282A      0.767581   283A      0.771282   284A      0.771610  
     285A      0.777895   286A      0.781185   287A      0.783003  
     288A      0.784599   289A      0.786708   290A      0.788183  
     291A      0.792414   292A      0.795062   293A      0.801131  
     294A      0.801898   295A      0.805815   296A      0.811270  
     297A      0.823878   298A      0.827655   299A      0.829956  
     300A      0.833653   301A      0.839929   302A      0.844835  
     303A      0.846604   304A      0.853289   305A      0.855816  
     306A      0.857883   307A      0.867854   308A      0.870276  
     309A      0.878213   310A      0.883512   311A      0.885254  
     312A      0.885941   313A      0.892716   314A      0.895171  
     315A      0.902177   316A      0.906629   317A      0.911076  
     318A      0.911875   319A      0.916472   320A      0.921671  
     321A      0.923285   322A      0.926634   323A      0.931304  
     324A      0.934303   325A      0.939906   326A      0.940354  
     327A      0.946676   328A      0.951135   329A      0.952659  
     330A      0.954251   331A      0.956649   332A      0.964244  
     333A      0.965370   334A      0.971535   335A      0.972578  
     336A      0.974359   337A      0.976662   338A      0.984018  
     339A      0.989267   340A      0.990889   341A      0.994250  
     342A      0.999635   343A      1.003627   344A      1.011002  
     345A      1.013270   346A      1.021603   347A      1.024478  
     348A      1.028175   349A      1.037459   350A      1.039298  
     351A      1.042748   352A      1.045193   353A      1.048209  
     354A      1.052261   355A      1.056076   356A      1.060234  
     357A      1.064738   358A      1.066940   359A      1.067345  
     360A      1.071038   361A      1.072263   362A      1.079331  
     363A      1.082803   364A      1.086196   365A      1.086831  
     366A      1.090915   367A      1.093882   368A      1.094858  
     369A      1.097772   370A      1.104841   371A      1.106340  
     372A      1.111644   373A      1.112483   374A      1.120547  
     375A      1.127193   376A      1.127799   377A      1.133400  
     378A      1.135999   379A      1.142380   380A      1.148343  
     381A      1.154028   382A      1.156130   383A      1.162018  
     384A      1.162970   385A      1.166949   386A      1.169158  
     387A      1.173817   388A      1.176939   389A      1.179729  
     390A      1.182618   391A      1.187009   392A      1.189658  
     393A      1.197109   394A      1.203368   395A      1.206411  
     396A      1.209361   397A      1.214633   398A      1.217404  
     399A      1.227733   400A      1.231465   401A      1.236490  
     402A      1.239063   403A      1.240473   404A      1.243181  
     405A      1.249570   406A      1.251999   407A      1.258488  
     408A      1.265027   409A      1.267240   410A      1.269824  
     411A      1.272938   412A      1.277245   413A      1.291884  
     414A      1.294807   415A      1.299998   416A      1.303709  
     417A      1.309794   418A      1.315882   419A      1.319074  
     420A      1.323716   421A      1.328213   422A      1.333691  
     423A      1.341410   424A      1.343183   425A      1.346032  
     426A      1.347047   427A      1.352504   428A      1.353343  
     429A      1.358654   430A      1.364904   431A      1.368876  
     432A      1.372195   433A      1.379325   434A      1.381223  
     435A      1.385153   436A      1.386732   437A      1.393817  
     438A      1.400770   439A      1.404219   440A      1.406070  
     441A      1.411612   442A      1.417988   443A      1.421924  
     444A      1.429190   445A      1.434001   446A      1.435849  
     447A      1.438513   448A      1.442614   449A      1.448042  
     450A      1.454759   451A      1.461001   452A      1.462623  
     453A      1.465152   454A      1.470816   455A      1.472274  
     456A      1.478723   457A      1.480525   458A      1.488069  
     459A      1.493490   460A      1.497458   461A      1.503226  
     462A      1.509997   463A      1.519154   464A      1.521369  
     465A      1.524395   466A      1.535589   467A      1.540885  
     468A      1.543335   469A      1.547556   470A      1.552787  
     471A      1.557530   472A      1.560694   473A      1.563183  
     474A      1.570752   475A      1.575384   476A      1.579512  
     477A      1.585595   478A      1.590946   479A      1.592682  
     480A      1.594787   481A      1.602618   482A      1.612087  
     483A      1.620924   484A      1.628048   485A      1.632642  
     486A      1.638816   487A      1.643055   488A      1.649049  
     489A      1.655108   490A      1.666426   491A      1.667553  
     492A      1.671573   493A      1.676809   494A      1.682084  
     495A      1.686104   496A      1.689826   497A      1.699481  
     498A      1.711315   499A      1.720334   500A      1.725655  
     501A      1.725884   502A      1.728496   503A      1.735938  
     504A      1.743381   505A      1.744827   506A      1.753416  
     507A      1.759057   508A      1.761756   509A      1.766694  
     510A      1.775032   511A      1.783302   512A      1.784337  
     513A      1.800283   514A      1.810180   515A      1.815421  
     516A      1.818747   517A      1.827386   518A      1.830117  
     519A      1.836021   520A      1.843436   521A      1.854240  
     522A      1.855209   523A      1.859849   524A      1.866732  
     525A      1.872839   526A      1.876020   527A      1.879596  
     528A      1.882370   529A      1.890835   530A      1.893908  
     531A      1.907879   532A      1.929217   533A      1.935744  
     534A      1.938695   535A      1.941918   536A      1.954905  
     537A      1.961710   538A      1.970904   539A      1.983494  
     540A      1.987728   541A      1.998598   542A      2.003099  
     543A      2.016362   544A      2.023905   545A      2.031939  
     546A      2.038167   547A      2.041530   548A      2.047484  
     549A      2.061909   550A      2.074533   551A      2.078856  
     552A      2.081248   553A      2.083271   554A      2.086823  
     555A      2.091410   556A      2.092163   557A      2.103858  
     558A      2.112704   559A      2.118198   560A      2.122387  
     561A      2.124821   562A      2.127468   563A      2.134520  
     564A      2.137506   565A      2.145826   566A      2.152695  
     567A      2.156656   568A      2.170717   569A      2.177575  
     570A      2.184435   571A      2.187230   572A      2.197565  
     573A      2.211038   574A      2.212348   575A      2.222623  
     576A      2.227835   577A      2.238074   578A      2.239406  
     579A      2.251457   580A      2.256448   581A      2.268578  
     582A      2.268984   583A      2.273736   584A      2.286362  
     585A      2.295292   586A      2.302083   587A      2.309727  
     588A      2.313748   589A      2.316292   590A      2.329622  
     591A      2.336524   592A      2.341591   593A      2.342738  
     594A      2.346838   595A      2.354512   596A      2.358524  
     597A      2.359950   598A      2.362631   599A      2.371355  
     600A      2.376029   601A      2.378596   602A      2.381431  
     603A      2.385332   604A      2.390818   605A      2.405095  
     606A      2.407672   607A      2.416775   608A      2.419506  
     609A      2.435019   610A      2.443077   611A      2.445302  
     612A      2.449810   613A      2.452193   614A      2.461918  
     615A      2.473868   616A      2.479266   617A      2.486658  
     618A      2.488773   619A      2.493863   620A      2.503618  
     621A      2.513028   622A      2.516487   623A      2.524928  
     624A      2.532134   625A      2.534847   626A      2.543986  
     627A      2.544967   628A      2.554187   629A      2.555876  
     630A      2.559636   631A      2.565214   632A      2.571345  
     633A      2.577259   634A      2.594458   635A      2.599734  
     636A      2.606786   637A      2.614165   638A      2.620947  
     639A      2.629673   640A      2.645860   641A      2.650778  
     642A      2.657967   643A      2.665920   644A      2.671730  
     645A      2.679476   646A      2.692526   647A      2.697533  
     648A      2.702661   649A      2.704125   650A      2.715999  
     651A      2.719985   652A      2.727664   653A      2.734951  
     654A      2.738920   655A      2.747806   656A      2.753919  
     657A      2.763169   658A      2.771228   659A      2.775925  
     660A      2.780462   661A      2.786314   662A      2.790847  
     663A      2.802318   664A      2.813981   665A      2.818333  
     666A      2.845148   667A      2.851533   668A      2.854205  
     669A      2.859508   670A      2.882393   671A      2.892153  
     672A      2.915877   673A      2.927944   674A      2.942104  
     675A      2.955984   676A      2.959101   677A      2.977050  
     678A      2.985157   679A      2.997391   680A      3.005592  
     681A      3.018972   682A      3.023905   683A      3.032751  
     684A      3.045290   685A      3.075539   686A      3.078986  
     687A      3.092115   688A      3.114946   689A      3.121341  
     690A      3.133936   691A      3.141288   692A      3.150183  
     693A      3.159759   694A      3.170013   695A      3.173350  
     696A      3.179733   697A      3.202396   698A      3.216219  
     699A      3.239972   700A      3.245732   701A      3.280178  
     702A      3.281939   703A      3.285830   704A      3.294858  
     705A      3.307427   706A      3.311659   707A      3.321925  
     708A      3.360013   709A      3.362398   710A      3.366295  
     711A      3.374072   712A      3.379602   713A      3.386335  
     714A      3.399885   715A      3.419970   716A      3.424779  
     717A      3.428018   718A      3.451180   719A      3.472748  
     720A      3.479986   721A      3.496776   722A      3.500857  
     723A      3.513447   724A      3.522718   725A      3.524071  
     726A      3.534454   727A      3.540213   728A      3.547234  
     729A      3.549720   730A      3.573750   731A      3.595691  
     732A      3.599018   733A      3.603827   734A      3.610769  
     735A      3.615752   736A      3.619106   737A      3.630245  
     738A      3.645455   739A      3.646848   740A      3.660377  
     741A      3.662803   742A      3.669803   743A      3.686729  
     744A      3.690793   745A      3.706936   746A      3.709563  
     747A      3.710197   748A      3.720052   749A      3.734550  
     750A      3.744945   751A      3.751726   752A      3.753983  
     753A      3.775910   754A      3.779572   755A      3.787756  
     756A      3.793126   757A      3.800357   758A      3.811777  
     759A      3.822689   760A      3.824535   761A      3.833181  
     762A      3.841389   763A      3.851752   764A      3.856648  
     765A      3.869224   766A      3.874949   767A      3.897818  
     768A      3.904262   769A      3.908282   770A      3.912244  
     771A      3.922771   772A      3.924272   773A      3.930242  
     774A      3.945605   775A      3.961599   776A      3.964940  
     777A      3.970903   778A      3.974914   779A      3.989314  
     780A      3.993375   781A      4.001437   782A      4.011106  
     783A      4.024332   784A      4.029361   785A      4.033177  
     786A      4.039766   787A      4.053350   788A      4.060900  
     789A      4.069604   790A      4.075604   791A      4.086560  
     792A      4.102918   793A      4.107825   794A      4.109572  
     795A      4.121643   796A      4.123480   797A      4.130916  
     798A      4.135096   799A      4.147246   800A      4.147531  
     801A      4.158935   802A      4.164272   803A      4.169729  
     804A      4.175823   805A      4.179872   806A      4.189759  
     807A      4.203653   808A      4.207120   809A      4.223114  
     810A      4.227811   811A      4.231681   812A      4.240867  
     813A      4.241336   814A      4.254932   815A      4.258607  
     816A      4.259964   817A      4.266649   818A      4.273228  
     819A      4.275511   820A      4.290885   821A      4.298157  
     822A      4.311308   823A      4.316775   824A      4.319963  
     825A      4.325599   826A      4.328898   827A      4.340294  
     828A      4.343916   829A      4.351728   830A      4.358965  
     831A      4.366460   832A      4.381089   833A      4.381662  
     834A      4.389453   835A      4.398381   836A      4.403671  
     837A      4.412584   838A      4.413795   839A      4.417388  
     840A      4.431392   841A      4.435985   842A      4.440897  
     843A      4.447588   844A      4.463303   845A      4.475011  
     846A      4.476878   847A      4.491299   848A      4.502591  
     849A      4.513171   850A      4.521901   851A      4.525788  
     852A      4.530787   853A      4.547891   854A      4.562804  
     855A      4.577795   856A      4.587600   857A      4.602285  
     858A      4.608643   859A      4.623119   860A      4.626755  
     861A      4.631731   862A      4.645139   863A      4.664371  
     864A      4.669437   865A      4.674738   866A      4.689164  
     867A      4.692479   868A      4.696762   869A      4.711156  
     870A      4.719078   871A      4.721231   872A      4.739567  
     873A      4.747076   874A      4.753963   875A      4.763647  
     876A      4.787968   877A      4.791125   878A      4.809721  
     879A      4.813215   880A      4.820875   881A      4.829854  
     882A      4.843713   883A      4.847792   884A      4.861371  
     885A      4.871596   886A      4.879490   887A      4.885216  
     888A      4.902137   889A      4.914045   890A      4.917051  
     891A      4.925746   892A      4.938018   893A      4.950328  
     894A      4.965281   895A      4.974738   896A      4.988209  
     897A      4.998302   898A      5.008646   899A      5.014705  
     900A      5.021697   901A      5.031797   902A      5.054264  
     903A      5.056350   904A      5.065626   905A      5.075238  
     906A      5.090027   907A      5.092299   908A      5.106180  
     909A      5.114230   910A      5.150018   911A      5.156394  
     912A      5.168297   913A      5.186704   914A      5.202801  
     915A      5.211646   916A      5.217374   917A      5.219200  
     918A      5.225152   919A      5.247868   920A      5.252131  
     921A      5.260531   922A      5.268377   923A      5.302806  
     924A      5.314482   925A      5.326389   926A      5.331783  
     927A      5.341416   928A      5.350101   929A      5.363915  
     930A      5.373642   931A      5.384198   932A      5.387875  
     933A      5.417681   934A      5.422218   935A      5.448158  
     936A      5.451770   937A      5.457436   938A      5.466003  
     939A      5.475664   940A      5.491525   941A      5.505224  
     942A      5.511010   943A      5.517686   944A      5.520255  
     945A      5.526693   946A      5.537782   947A      5.549757  
     948A      5.557012   949A      5.563010   950A      5.566406  
     951A      5.572825   952A      5.581258   953A      5.594486  
     954A      5.601792   955A      5.611052   956A      5.622686  
     957A      5.624696   958A      5.638677   959A      5.639928  
     960A      5.655770   961A      5.663091   962A      5.670946  
     963A      5.676824   964A      5.706257   965A      5.708213  
     966A      5.734368   967A      5.740281   968A      5.751087  
     969A      5.766853   970A      5.768160   971A      5.770641  
     972A      5.800646   973A      5.802004   974A      5.810289  
     975A      5.814483   976A      5.837775   977A      5.844450  
     978A      5.858931   979A      5.868812   980A      5.876959  
     981A      5.882175   982A      5.893984   983A      5.907813  
     984A      5.918212   985A      5.931641   986A      5.936585  
     987A      5.938777   988A      5.949404   989A      5.955838  
     990A      5.987417   991A      5.988864   992A      6.012101  
     993A      6.023614   994A      6.042253   995A      6.066819  
     996A      6.071327   997A      6.086618   998A      6.113234  
     999A      6.115919  1000A      6.119537  1001A      6.125711  
    1002A      6.131726  1003A      6.149988  1004A      6.157738  
    1005A      6.171572  1006A      6.182108  1007A      6.185662  
    1008A      6.204203  1009A      6.213429  1010A      6.218203  
    1011A      6.254093  1012A      6.270187  1013A      6.281720  
    1014A      6.332938  1015A      6.358078  1016A      6.379246  
    1017A      6.435608  1018A      6.464790  1019A      6.501310  
    1020A      6.517844  1021A      6.532786  1022A      6.562339  
    1023A      6.580577  1024A      6.595072  1025A      6.626112  
    1026A      6.629559  1027A      6.665476  1028A      6.692545  
    1029A      6.697371  1030A      6.708328  1031A      6.711318  
    1032A      6.717690  1033A      6.735743  1034A      6.749802  
    1035A      6.763940  1036A      6.776526  1037A      6.791833  
    1038A      6.803796  1039A      6.811107  1040A      6.838106  
    1041A      6.848095  1042A      6.861168  1043A      6.894835  
    1044A      6.932010  1045A      6.990909  1046A      7.003871  
    1047A      7.005727  1048A      7.014672  1049A      7.029991  
    1050A      7.031503  1051A      7.052904  1052A      7.055097  
    1053A      7.064304  1054A      7.132021  1055A      7.142348  
    1056A      7.190243  1057A      7.192559  1058A      7.211036  
    1059A      7.221716  1060A      7.338044  1061A      7.388236  
    1062A      7.399378  1063A      7.405535  1064A      7.423573  
    1065A      7.425721  1066A      7.430495  1067A      7.436258  
    1068A      7.469705  1069A      7.487576  1070A      7.578854  
    1071A      7.637804  1072A      7.669507  1073A      7.672746  
    1074A      7.741461  1075A      7.748634  1076A      7.765611  
    1077A      7.831500  1078A      7.862070  1079A      7.882419  
    1080A      7.934600  1081A      7.955819  1082A      7.958022  
    1083A      7.986021  1084A      8.046722  1085A      8.074693  
    1086A     15.588050  1087A     15.849014  1088A     15.976189  
    1089A     16.352795  1090A     16.372421  1091A     16.553985  
    1092A     16.942878  1093A     17.681551  1094A     17.738582  
    1095A     18.207004  1096A     18.249749  1097A     19.075985  
    1098A     19.341874  1099A     19.401871  1100A     20.181786  
    1101A     20.264733  1102A     20.618070  1103A     20.698560  
    1104A     21.170890  

    Final Occupation by Irrep:
              A 
    DOCC [    68 ]

  @DF-RHF Final Energy:  -932.35839055142583

   => Energetics <=

    Nuclear Repulsion Energy =           1277.5915410404797967
    One-Electron Energy =               -3809.7725357605786485
    Two-Electron Energy =                1599.8226041686732515
    Total Energy =                       -932.3583905514258277

Computation Completed


Properties will be evaluated at   0.000000,   0.000000,   0.000000 [a0]

Properties computed using the SCF density matrix

  Nuclear Dipole Moment: [e a0]
     X:     8.7139      Y:    -0.5359      Z:    -0.0267

  Electronic Dipole Moment: [e a0]
     X:    -6.7136      Y:     1.0407      Z:     0.1703

  Dipole Moment: [e a0]
     X:     2.0004      Y:     0.5048      Z:     0.1436     Total:     2.0681

  Dipole Moment: [D]
     X:     5.0844      Y:     1.2831      Z:     0.3649     Total:     5.2565


*** tstop() called on node157.bme.utexas.edu at Sat Jan 20 13:53:55 2024
Module time:
	user time   =    1256.36 seconds =      20.94 minutes
	system time =      19.29 seconds =       0.32 minutes
	total time  =        224 seconds =       3.73 minutes
Total time:
	user time   =    1256.36 seconds =      20.94 minutes
	system time =      19.29 seconds =       0.32 minutes
	total time  =        224 seconds =       3.73 minutes

*** tstart() called on node157.bme.utexas.edu
*** at Sat Jan 20 13:53:55 2024


  //>>>>>>>>>>>>>>>>>>>>>>>>>>>>>>>>>>>//
  //               DFMP2               //
  //<<<<<<<<<<<<<<<<<<<<<<<<<<<<<<<<<<<//

   => Loading Basis Set <=

    Name: (AUG-CC-PVTZ AUX)
    Role: RIFIT
    Keyword: DF_BASIS_MP2
    atoms 1, 5, 9, 11-12, 17, 21, 23     entry N          line   206 file /opt/anaconda/envs/psi4v1.5/share/psi4/basis/aug-cc-pvtz-ri.gbs 
    atoms 2, 4, 14-16, 18, 25, 27-29     entry H          line    30 file /opt/anaconda/envs/psi4v1.5/share/psi4/basis/aug-cc-pvtz-ri.gbs 
    atoms 3, 6-7, 10, 13, 19, 22, 24, 26 entry C          line   148 file /opt/anaconda/envs/psi4v1.5/share/psi4/basis/aug-cc-pvtz-ri.gbs 
    atoms 8, 20                          entry O          line   264 file /opt/anaconda/envs/psi4v1.5/share/psi4/basis/aug-cc-pvtz-ri.gbs 

	 --------------------------------------------------------
	                          DF-MP2                         
	      2nd-Order Density-Fitted Moller-Plesset Theory     
	              RMP2 Wavefunction,   8 Threads             
	                                                         
	        Rob Parrish, Justin Turney, Andy Simmonett,      
	           Ed Hohenstein, and C. David Sherrill          
	 --------------------------------------------------------

   => Auxiliary Basis Set <=

  Basis Set: (AUG-CC-PVTZ AUX)
    Blend: AUG-CC-PVTZ-RI
    Number of shells: 672
    Number of basis functions: 2474
    Number of Cartesian functions: 3134
    Spherical Harmonics?: true
    Max angular momentum: 4

	 --------------------------------------------------------
	                 NBF =  1104, NAUX =  2474
	 --------------------------------------------------------
	   CLASS    FOCC     OCC    AOCC    AVIR     VIR    FVIR
	   PAIRS      19      68      49    1036    1036       0
	 --------------------------------------------------------

	 Will save fitting metric to file 97.

	-----------------------------------------------------------
	 ==================> DF-MP2 Energies <==================== 
	-----------------------------------------------------------
	 Reference Energy          =    -932.3583905514258277 [Eh]
	 Singles Energy            =      -0.0000000000000000 [Eh]
	 Same-Spin Energy          =      -0.9274631154583524 [Eh]
	 Opposite-Spin Energy      =      -2.5932272660778621 [Eh]
	 Correlation Energy        =      -3.5206903815362143 [Eh]
	 Total Energy              =    -935.8790809329620970 [Eh]
	-----------------------------------------------------------
	 ================> DF-SCS-MP2 Energies <================== 
	-----------------------------------------------------------
	 SCS Same-Spin Scale       =       0.3333333333333333 [-]
	 SCS Opposite-Spin Scale   =       1.2000000000000000 [-]
	 SCS Same-Spin Energy      =      -0.3091543718194508 [Eh]
	 SCS Opposite-Spin Energy  =      -3.1118727192934346 [Eh]
	 SCS Correlation Energy    =      -3.4210270911128853 [Eh]
	 SCS Total Energy          =    -935.7794176425387604 [Eh]
	-----------------------------------------------------------


*** tstop() called on node157.bme.utexas.edu at Sat Jan 20 13:55:08 2024
Module time:
	user time   =     375.57 seconds =       6.26 minutes
	system time =      12.66 seconds =       0.21 minutes
	total time  =         73 seconds =       1.22 minutes
Total time:
	user time   =    1631.94 seconds =      27.20 minutes
	system time =      31.95 seconds =       0.53 minutes
	total time  =        297 seconds =       4.95 minutes

  //>>>>>>>>>>>>>>>>>>>>>>>>>>>>>>>>>>>//
  //            Monomer A HF           //
  //<<<<<<<<<<<<<<<<<<<<<<<<<<<<<<<<<<<//


*** tstart() called on node157.bme.utexas.edu
*** at Sat Jan 20 13:55:08 2024

   => Loading Basis Set <=

    Name: AUG-CC-PVTZ
    Role: ORBITAL
    Keyword: BASIS
    atoms 1, 5, 9, 11-12, 17, 21, 23     entry N          line   285 file /opt/anaconda/envs/psi4v1.5/share/psi4/basis/aug-cc-pvtz.gbs 
    atoms 2, 4, 14-16, 18, 25, 27-29     entry H          line    40 file /opt/anaconda/envs/psi4v1.5/share/psi4/basis/aug-cc-pvtz.gbs 
    atoms 3, 6-7, 10, 13, 19, 22, 24, 26 entry C          line   239 file /opt/anaconda/envs/psi4v1.5/share/psi4/basis/aug-cc-pvtz.gbs 
    atoms 8, 20                          entry O          line   331 file /opt/anaconda/envs/psi4v1.5/share/psi4/basis/aug-cc-pvtz.gbs 


         ---------------------------------------------------------
                                   SCF
               by Justin Turney, Rob Parrish, Andy Simmonett
                          and Daniel G. A. Smith
                              RHF Reference
                        8 Threads,  76293 MiB Core
         ---------------------------------------------------------

  ==> Geometry <==

    Molecular point group: c1
    Full point group: C1

    Geometry (in Angstrom), charge = 0, multiplicity = 1:

       Center              X                  Y                   Z               Mass       
    ------------   -----------------  -----------------  -----------------  -----------------
         N           -5.387472157383     0.614427884360     0.097809745321    14.003074004430
         H           -6.031472157383     1.396387884360     0.103459745321     1.007825032230
         C           -5.688972157383    -0.726642115640     0.166779745321    12.000000000000
         H           -6.709672157383    -1.079112115640     0.243479745321     1.007825032230
         N           -4.616862157383    -1.500442115640     0.129619745321    14.003074004430
         C           -3.571102157383    -0.604522115640     0.029049745321    12.000000000000
         C           -2.158722157383    -0.836012115640    -0.038580254679    12.000000000000
         O           -1.550712157383    -1.920762115640    -0.024750254679    15.994914619570
         N           -1.460362157383     0.377827884360    -0.132930254679    14.003074004430
         C           -2.014922157383     1.637097884360    -0.153260254679    12.000000000000
         N           -1.145852157383     2.670597884360    -0.327500254679    14.003074004430
         N           -3.314172157383     1.870157884360    -0.080800254679    14.003074004430
         C           -4.022202157383     0.715977884360     0.007239745321    12.000000000000
         H           -0.428542157383     0.293027884360    -0.147070254679     1.007825032230
         H           -0.155462157383     2.549227884360    -0.101920254679     1.007825032230
         H           -1.546202157383     3.580817884360    -0.142780254679     1.007825032230
      Gh(N)           5.376148982040     0.737921312245     0.176531327052    14.003074004430
      Gh(H)           5.903788982040     1.598801312245     0.273151327052     1.007825032230
      Gh(C)           3.981668982040     0.891271312245     0.125071327052    12.000000000000
      Gh(O)           3.508358982040     2.034181312245     0.203991327052    15.994914619570
      Gh(N)           3.237988982040    -0.246678687755    -0.008398672948    14.003074004430
      Gh(C)           3.826018982040    -1.445648687755    -0.067868672948    12.000000000000
      Gh(N)           3.033288982040    -2.516768687755    -0.189108672948    14.003074004430
      Gh(C)           5.256168982040    -1.604428687755    -0.019498672948    12.000000000000
      Gh(H)           5.725768982040    -2.579178687755    -0.076158672948     1.007825032230
      Gh(C)           5.995268982040    -0.472798687755     0.105371327052    12.000000000000
      Gh(H)           7.079618982040    -0.469218687755     0.154341327052     1.007825032230
      Gh(H)           2.006758982040    -2.410188687755    -0.149388672948     1.007825032230
      Gh(H)           3.427268982040    -3.446578687755    -0.187558672948     1.007825032230

  Running in c1 symmetry.

  Rotational constants: A =      0.02888  B =      0.00419  C =      0.00367 [cm^-1]
  Rotational constants: A =    865.91065  B =    125.61907  C =    109.94687 [MHz]
  Nuclear repulsion =  594.394063462221652

  Charge       = 0
  Multiplicity = 1
  Electrons    = 78
  Nalpha       = 39
  Nbeta        = 39

  ==> Algorithm <==

  SCF Algorithm Type is DF.
  DIIS enabled.
  MOM disabled.
  Fractional occupation disabled.
  Guess Type is SAD.
  Energy threshold   = 1.00e-08
  Density threshold  = 1.00e-08
  Integral threshold = 1.00e-12

  ==> Primary Basis <==

  Basis Set: AUG-CC-PVTZ
    Blend: AUG-CC-PVTZ
    Number of shells: 356
    Number of basis functions: 1104
    Number of Cartesian functions: 1295
    Spherical Harmonics?: true
    Max angular momentum: 3

   => Loading Basis Set <=

    Name: (AUG-CC-PVTZ AUX)
    Role: JKFIT
    Keyword: DF_BASIS_SCF
    atoms 1, 5, 9, 11-12, 17, 21, 23     entry N          line   224 file /opt/anaconda/envs/psi4v1.5/share/psi4/basis/aug-cc-pvtz-jkfit.gbs 
    atoms 2, 4, 14-16, 18, 25, 27-29     entry H          line    70 file /opt/anaconda/envs/psi4v1.5/share/psi4/basis/aug-cc-pvtz-jkfit.gbs 
    atoms 3, 6-7, 10, 13, 19, 22, 24, 26 entry C          line   162 file /opt/anaconda/envs/psi4v1.5/share/psi4/basis/aug-cc-pvtz-jkfit.gbs 
    atoms 8, 20                          entry O          line   286 file /opt/anaconda/envs/psi4v1.5/share/psi4/basis/aug-cc-pvtz-jkfit.gbs 

  ==> Integral Setup <==

  ==> DiskDFJK: Density-Fitted J/K Matrices <==

    J tasked:                  Yes
    K tasked:                  Yes
    wK tasked:                  No
    OpenMP threads:              8
    Integrals threads:           8
    Memory [MiB]:            57220
    Algorithm:                Core
    Integral Cache:           LOAD
    Schwarz Cutoff:          1E-12
    Fitting Condition:       1E-10

   => Auxiliary Basis Set <=

  Basis Set: (AUG-CC-PVTZ AUX)
    Blend: AUG-CC-PVTZ-JKFIT
    Number of shells: 710
    Number of basis functions: 2436
    Number of Cartesian functions: 3039
    Spherical Harmonics?: true
    Max angular momentum: 4

  Minimum eigenvalue in the overlap matrix is 1.0506662261E-06.
  Reciprocal condition number of the overlap matrix is 6.0774490534E-08.
    Using symmetric orthogonalization.

  ==> Pre-Iterations <==

  SCF Guess: Superposition of Atomic Densities via on-the-fly atomic UHF (no occupation information).

   -------------------------
    Irrep   Nso     Nmo    
   -------------------------
     A       1104    1104 
   -------------------------
    Total    1104    1104
   -------------------------

  ==> Iterations <==

                           Total Energy        Delta E     RMS |[F,P]|

   @DF-RHF iter SAD:  -539.32524143200249   -5.39325e+02   0.00000e+00 
   @DF-RHF iter   1:  -539.27171189045146    5.35295e-02   7.21965e-04 DIIS
   @DF-RHF iter   2:  -539.49629501516051   -2.24583e-01   4.32903e-04 DIIS
   @DF-RHF iter   3:  -539.57782779095385   -8.15328e-02   9.08002e-05 DIIS
   @DF-RHF iter   4:  -539.58304012255496   -5.21233e-03   3.67136e-05 DIIS
   @DF-RHF iter   5:  -539.58401673718947   -9.76615e-04   7.72756e-06 DIIS
   @DF-RHF iter   6:  -539.58411523318603   -9.84960e-05   4.04690e-06 DIIS
   @DF-RHF iter   7:  -539.58414170671779   -2.64735e-05   1.69407e-06 DIIS
   @DF-RHF iter   8:  -539.58414686380047   -5.15708e-06   5.87144e-07 DIIS
   @DF-RHF iter   9:  -539.58414746201458   -5.98214e-07   2.38407e-07 DIIS
   @DF-RHF iter  10:  -539.58414757157550   -1.09561e-07   9.92528e-08 DIIS
   @DF-RHF iter  11:  -539.58414758858021   -1.70047e-08   4.12085e-08 DIIS
   @DF-RHF iter  12:  -539.58414759108723   -2.50702e-09   1.41282e-08 DIIS
   @DF-RHF iter  13:  -539.58414759142158   -3.34353e-10   5.91944e-09 DIIS
  Energy and wave function converged.


  ==> Post-Iterations <==

    Orbital Energies [Eh]
    ---------------------

    Doubly Occupied:                                                      

       1A    -20.514805     2A    -15.637458     3A    -15.632505  
       4A    -15.619635     5A    -15.571200     6A    -15.562887  
       7A    -11.403393     8A    -11.362558     9A    -11.325431  
      10A    -11.311553    11A    -11.246149    12A     -1.388946  
      13A     -1.352318    14A     -1.333730    15A     -1.226482  
      16A     -1.218559    17A     -1.175048    18A     -1.029213  
      19A     -0.907246    20A     -0.890691    21A     -0.841291  
      22A     -0.803142    23A     -0.742003    24A     -0.737861  
      25A     -0.705169    26A     -0.671744    27A     -0.660082  
      28A     -0.634131    29A     -0.604403    30A     -0.599711  
      31A     -0.595607    32A     -0.545705    33A     -0.497790  
      34A     -0.458002    35A     -0.438605    36A     -0.429914  
      37A     -0.427049    38A     -0.408878    39A     -0.297291  

    Virtual:                                                              

      40A      0.009112    41A      0.020712    42A      0.024479  
      43A      0.034077    44A      0.035979    45A      0.044075  
      46A      0.048197    47A      0.051310    48A      0.055685  
      49A      0.063837    50A      0.065570    51A      0.068207  
      52A      0.080855    53A      0.081761    54A      0.084697  
      55A      0.085499    56A      0.095246    57A      0.095694  
      58A      0.098710    59A      0.099783    60A      0.100147  
      61A      0.104940    62A      0.108955    63A      0.112416  
      64A      0.114446    65A      0.118708    66A      0.120294  
      67A      0.125593    68A      0.127582    69A      0.130446  
      70A      0.133943    71A      0.134688    72A      0.136559  
      73A      0.140308    74A      0.144063    75A      0.148230  
      76A      0.148376    77A      0.152110    78A      0.154669  
      79A      0.157134    80A      0.162474    81A      0.167585  
      82A      0.168932    83A      0.169615    84A      0.173150  
      85A      0.177410    86A      0.179422    87A      0.183433  
      88A      0.184147    89A      0.186349    90A      0.191314  
      91A      0.196194    92A      0.196290    93A      0.199079  
      94A      0.202964    95A      0.206873    96A      0.211020  
      97A      0.212192    98A      0.220101    99A      0.221484  
     100A      0.222691   101A      0.225918   102A      0.228337  
     103A      0.231209   104A      0.232640   105A      0.235761  
     106A      0.238347   107A      0.243760   108A      0.254366  
     109A      0.254699   110A      0.256854   111A      0.261759  
     112A      0.266003   113A      0.272702   114A      0.279193  
     115A      0.280787   116A      0.283774   117A      0.290162  
     118A      0.294734   119A      0.295977   120A      0.299552  
     121A      0.302289   122A      0.303377   123A      0.313533  
     124A      0.315512   125A      0.318649   126A      0.319939  
     127A      0.321795   128A      0.322622   129A      0.326156  
     130A      0.329813   131A      0.331607   132A      0.333215  
     133A      0.336622   134A      0.340634   135A      0.344148  
     136A      0.346028   137A      0.350182   138A      0.355460  
     139A      0.359672   140A      0.361300   141A      0.363778  
     142A      0.365078   143A      0.368867   144A      0.371218  
     145A      0.374907   146A      0.378121   147A      0.381093  
     148A      0.382355   149A      0.386787   150A      0.388117  
     151A      0.390540   152A      0.393536   153A      0.398765  
     154A      0.403060   155A      0.405396   156A      0.408935  
     157A      0.413728   158A      0.415078   159A      0.417602  
     160A      0.418591   161A      0.422103   162A      0.424609  
     163A      0.426978   164A      0.431408   165A      0.434321  
     166A      0.439137   167A      0.442150   168A      0.447468  
     169A      0.449255   170A      0.454621   171A      0.459434  
     172A      0.460170   173A      0.461359   174A      0.462651  
     175A      0.468148   176A      0.469815   177A      0.470727  
     178A      0.474993   179A      0.477529   180A      0.481629  
     181A      0.485743   182A      0.488729   183A      0.496244  
     184A      0.498398   185A      0.503280   186A      0.504210  
     187A      0.505231   188A      0.508465   189A      0.511479  
     190A      0.517373   191A      0.525251   192A      0.528795  
     193A      0.529402   194A      0.533636   195A      0.534542  
     196A      0.536129   197A      0.539479   198A      0.549418  
     199A      0.550422   200A      0.552339   201A      0.559896  
     202A      0.561886   203A      0.569830   204A      0.572280  
     205A      0.580479   206A      0.583676   207A      0.591564  
     208A      0.593429   209A      0.600117   210A      0.600962  
     211A      0.604206   212A      0.607048   213A      0.614824  
     214A      0.619338   215A      0.625237   216A      0.630273  
     217A      0.636597   218A      0.637537   219A      0.639211  
     220A      0.642452   221A      0.650461   222A      0.655306  
     223A      0.660570   224A      0.663089   225A      0.669300  
     226A      0.671314   227A      0.677186   228A      0.679837  
     229A      0.686542   230A      0.688362   231A      0.692727  
     232A      0.701150   233A      0.703200   234A      0.706798  
     235A      0.712535   236A      0.715431   237A      0.718449  
     238A      0.724019   239A      0.725771   240A      0.734540  
     241A      0.735962   242A      0.742966   243A      0.745557  
     244A      0.749223   245A      0.753461   246A      0.758156  
     247A      0.759041   248A      0.763633   249A      0.765729  
     250A      0.770343   251A      0.774298   252A      0.776616  
     253A      0.779095   254A      0.784427   255A      0.787472  
     256A      0.788064   257A      0.789687   258A      0.797151  
     259A      0.804044   260A      0.807903   261A      0.811779  
     262A      0.819040   263A      0.820685   264A      0.825376  
     265A      0.831233   266A      0.832930   267A      0.835245  
     268A      0.839428   269A      0.841318   270A      0.843761  
     271A      0.845591   272A      0.846831   273A      0.852511  
     274A      0.857593   275A      0.862455   276A      0.867093  
     277A      0.868486   278A      0.875777   279A      0.876274  
     280A      0.881344   281A      0.883360   282A      0.887859  
     283A      0.890607   284A      0.897193   285A      0.899802  
     286A      0.902368   287A      0.906403   288A      0.912909  
     289A      0.915936   290A      0.922165   291A      0.925966  
     292A      0.929972   293A      0.933787   294A      0.935593  
     295A      0.939369   296A      0.941657   297A      0.943790  
     298A      0.947452   299A      0.951998   300A      0.957060  
     301A      0.958024   302A      0.963512   303A      0.967684  
     304A      0.973234   305A      0.976284   306A      0.984302  
     307A      0.985782   308A      0.990895   309A      0.997871  
     310A      1.003834   311A      1.009603   312A      1.013709  
     313A      1.018455   314A      1.021683   315A      1.024707  
     316A      1.031811   317A      1.033440   318A      1.034857  
     319A      1.036768   320A      1.041954   321A      1.047581  
     322A      1.052291   323A      1.057116   324A      1.059578  
     325A      1.063513   326A      1.066723   327A      1.070123  
     328A      1.074733   329A      1.076857   330A      1.081893  
     331A      1.085390   332A      1.090637   333A      1.095527  
     334A      1.100211   335A      1.103640   336A      1.105900  
     337A      1.111736   338A      1.113285   339A      1.117657  
     340A      1.119300   341A      1.128125   342A      1.129433  
     343A      1.137662   344A      1.144924   345A      1.147756  
     346A      1.151894   347A      1.153370   348A      1.156913  
     349A      1.163725   350A      1.166458   351A      1.171102  
     352A      1.172727   353A      1.176079   354A      1.181804  
     355A      1.185668   356A      1.186644   357A      1.193371  
     358A      1.198620   359A      1.203857   360A      1.207781  
     361A      1.211365   362A      1.217041   363A      1.220438  
     364A      1.229765   365A      1.232149   366A      1.236252  
     367A      1.239722   368A      1.240540   369A      1.245295  
     370A      1.247014   371A      1.254798   372A      1.261077  
     373A      1.267792   374A      1.269128   375A      1.275634  
     376A      1.278264   377A      1.279652   378A      1.288983  
     379A      1.293031   380A      1.298913   381A      1.303375  
     382A      1.307376   383A      1.318570   384A      1.319779  
     385A      1.323188   386A      1.329358   387A      1.331077  
     388A      1.333476   389A      1.338100   390A      1.342828  
     391A      1.346439   392A      1.353337   393A      1.355571  
     394A      1.359568   395A      1.368979   396A      1.369673  
     397A      1.373522   398A      1.380186   399A      1.387394  
     400A      1.390716   401A      1.393459   402A      1.397308  
     403A      1.403641   404A      1.410652   405A      1.414779  
     406A      1.424090   407A      1.430221   408A      1.431433  
     409A      1.433840   410A      1.441718   411A      1.444540  
     412A      1.450675   413A      1.456240   414A      1.458797  
     415A      1.463638   416A      1.472460   417A      1.476023  
     418A      1.484469   419A      1.486009   420A      1.487468  
     421A      1.496653   422A      1.509995   423A      1.513418  
     424A      1.520044   425A      1.521125   426A      1.531002  
     427A      1.533060   428A      1.539632   429A      1.545294  
     430A      1.551192   431A      1.554857   432A      1.562278  
     433A      1.564376   434A      1.576383   435A      1.579394  
     436A      1.584395   437A      1.587679   438A      1.593120  
     439A      1.598194   440A      1.609322   441A      1.616345  
     442A      1.621807   443A      1.628031   444A      1.630902  
     445A      1.634188   446A      1.641382   447A      1.647459  
     448A      1.647994   449A      1.655650   450A      1.659915  
     451A      1.668351   452A      1.670650   453A      1.675894  
     454A      1.685025   455A      1.687448   456A      1.693127  
     457A      1.694177   458A      1.701946   459A      1.703348  
     460A      1.710093   461A      1.712983   462A      1.722036  
     463A      1.722973   464A      1.729927   465A      1.731299  
     466A      1.736478   467A      1.737127   468A      1.744922  
     469A      1.748726   470A      1.750961   471A      1.757677  
     472A      1.761144   473A      1.765687   474A      1.771582  
     475A      1.776255   476A      1.782314   477A      1.787510  
     478A      1.793574   479A      1.798360   480A      1.811779  
     481A      1.819278   482A      1.824937   483A      1.828559  
     484A      1.831213   485A      1.841823   486A      1.846092  
     487A      1.851100   488A      1.855502   489A      1.861954  
     490A      1.869434   491A      1.871344   492A      1.879814  
     493A      1.881875   494A      1.887664   495A      1.900511  
     496A      1.905410   497A      1.913129   498A      1.924315  
     499A      1.931192   500A      1.940820   501A      1.946424  
     502A      1.949401   503A      1.957255   504A      1.959480  
     505A      1.973888   506A      1.981985   507A      1.984522  
     508A      1.991864   509A      2.003840   510A      2.010853  
     511A      2.012760   512A      2.015539   513A      2.026173  
     514A      2.032468   515A      2.044476   516A      2.058883  
     517A      2.063285   518A      2.072072   519A      2.076674  
     520A      2.077633   521A      2.082031   522A      2.085985  
     523A      2.098840   524A      2.101700   525A      2.111421  
     526A      2.114021   527A      2.122521   528A      2.128639  
     529A      2.140263   530A      2.145779   531A      2.150998  
     532A      2.161334   533A      2.168441   534A      2.176172  
     535A      2.178739   536A      2.192724   537A      2.201348  
     538A      2.209505   539A      2.213558   540A      2.218688  
     541A      2.228478   542A      2.236847   543A      2.244390  
     544A      2.248219   545A      2.257084   546A      2.259020  
     547A      2.265284   548A      2.270353   549A      2.277677  
     550A      2.287358   551A      2.290950   552A      2.294416  
     553A      2.301603   554A      2.308784   555A      2.314227  
     556A      2.320632   557A      2.328686   558A      2.331237  
     559A      2.337206   560A      2.344885   561A      2.347872  
     562A      2.356564   563A      2.362744   564A      2.368279  
     565A      2.375803   566A      2.377950   567A      2.382417  
     568A      2.388731   569A      2.394965   570A      2.404653  
     571A      2.406056   572A      2.407776   573A      2.424863  
     574A      2.429765   575A      2.432862   576A      2.436259  
     577A      2.441466   578A      2.454337   579A      2.461784  
     580A      2.465795   581A      2.472829   582A      2.479490  
     583A      2.494519   584A      2.503240   585A      2.509024  
     586A      2.520131   587A      2.534945   588A      2.538545  
     589A      2.544634   590A      2.549979   591A      2.554243  
     592A      2.559634   593A      2.570901   594A      2.574812  
     595A      2.583505   596A      2.594310   597A      2.597007  
     598A      2.600301   599A      2.608664   600A      2.613604  
     601A      2.614962   602A      2.627141   603A      2.634561  
     604A      2.648439   605A      2.651845   606A      2.662303  
     607A      2.662817   608A      2.680312   609A      2.688150  
     610A      2.692733   611A      2.704508   612A      2.716174  
     613A      2.717182   614A      2.722985   615A      2.728045  
     616A      2.732949   617A      2.736522   618A      2.745169  
     619A      2.750341   620A      2.760245   621A      2.762330  
     622A      2.768035   623A      2.770903   624A      2.772989  
     625A      2.780806   626A      2.787146   627A      2.796774  
     628A      2.800346   629A      2.808257   630A      2.825768  
     631A      2.836855   632A      2.843990   633A      2.855274  
     634A      2.857811   635A      2.863916   636A      2.875610  
     637A      2.887457   638A      2.893733   639A      2.909738  
     640A      2.922189   641A      2.929973   642A      2.940876  
     643A      2.945063   644A      2.957365   645A      2.977728  
     646A      2.990144   647A      2.991222   648A      3.005487  
     649A      3.011665   650A      3.011802   651A      3.019780  
     652A      3.024091   653A      3.043250   654A      3.067256  
     655A      3.075401   656A      3.076957   657A      3.088832  
     658A      3.112125   659A      3.122870   660A      3.133899  
     661A      3.138827   662A      3.142650   663A      3.157149  
     664A      3.166666   665A      3.175877   666A      3.186908  
     667A      3.203589   668A      3.227701   669A      3.237815  
     670A      3.247216   671A      3.256557   672A      3.269414  
     673A      3.272222   674A      3.287668   675A      3.298145  
     676A      3.302289   677A      3.324161   678A      3.344936  
     679A      3.358130   680A      3.365726   681A      3.372640  
     682A      3.380795   683A      3.394325   684A      3.415066  
     685A      3.422755   686A      3.432033   687A      3.449769  
     688A      3.462777   689A      3.471331   690A      3.490560  
     691A      3.505042   692A      3.515237   693A      3.527267  
     694A      3.551182   695A      3.562950   696A      3.585590  
     697A      3.590768   698A      3.601121   699A      3.605947  
     700A      3.608768   701A      3.614902   702A      3.636015  
     703A      3.645373   704A      3.654271   705A      3.659824  
     706A      3.675810   707A      3.680188   708A      3.698335  
     709A      3.711879   710A      3.724967   711A      3.730489  
     712A      3.738152   713A      3.742391   714A      3.753549  
     715A      3.775864   716A      3.778362   717A      3.787975  
     718A      3.813324   719A      3.827436   720A      3.845172  
     721A      3.849993   722A      3.860574   723A      3.866573  
     724A      3.887700   725A      3.889325   726A      3.901675  
     727A      3.910682   728A      3.913304   729A      3.915549  
     730A      3.932914   731A      3.945555   732A      3.962885  
     733A      3.972057   734A      3.990548   735A      3.998561  
     736A      4.006883   737A      4.022112   738A      4.024531  
     739A      4.029085   740A      4.043802   741A      4.052894  
     742A      4.056088   743A      4.065418   744A      4.077863  
     745A      4.089162   746A      4.096177   747A      4.098538  
     748A      4.120567   749A      4.125176   750A      4.138034  
     751A      4.139697   752A      4.160640   753A      4.161135  
     754A      4.168252   755A      4.176275   756A      4.182405  
     757A      4.195348   758A      4.210348   759A      4.218738  
     760A      4.225089   761A      4.228931   762A      4.234601  
     763A      4.244491   764A      4.247212   765A      4.251625  
     766A      4.258709   767A      4.264261   768A      4.287539  
     769A      4.298244   770A      4.305901   771A      4.309485  
     772A      4.311291   773A      4.318105   774A      4.330854  
     775A      4.342125   776A      4.348208   777A      4.361159  
     778A      4.367112   779A      4.384540   780A      4.391040  
     781A      4.396866   782A      4.400185   783A      4.405968  
     784A      4.421113   785A      4.433093   786A      4.449237  
     787A      4.462078   788A      4.477704   789A      4.482022  
     790A      4.491988   791A      4.503373   792A      4.504476  
     793A      4.508229   794A      4.511429   795A      4.532670  
     796A      4.545197   797A      4.550473   798A      4.569331  
     799A      4.574395   800A      4.582339   801A      4.586855  
     802A      4.592750   803A      4.596889   804A      4.603395  
     805A      4.613006   806A      4.615253   807A      4.627894  
     808A      4.649623   809A      4.657205   810A      4.664616  
     811A      4.673471   812A      4.679937   813A      4.684161  
     814A      4.702306   815A      4.722882   816A      4.732021  
     817A      4.743218   818A      4.746456   819A      4.755104  
     820A      4.779849   821A      4.781888   822A      4.794863  
     823A      4.798209   824A      4.805302   825A      4.813182  
     826A      4.828897   827A      4.836248   828A      4.840497  
     829A      4.855247   830A      4.868818   831A      4.875683  
     832A      4.890280   833A      4.896035   834A      4.906826  
     835A      4.913774   836A      4.933683   837A      4.940714  
     838A      4.946396   839A      4.953618   840A      4.964941  
     841A      4.972665   842A      4.979903   843A      4.991680  
     844A      4.996303   845A      5.004530   846A      5.010391  
     847A      5.015566   848A      5.022810   849A      5.037781  
     850A      5.041156   851A      5.050314   852A      5.057375  
     853A      5.059522   854A      5.074681   855A      5.106647  
     856A      5.135057   857A      5.137369   858A      5.155545  
     859A      5.158523   860A      5.164817   861A      5.172841  
     862A      5.178116   863A      5.189485   864A      5.208425  
     865A      5.213809   866A      5.233510   867A      5.240483  
     868A      5.248038   869A      5.253181   870A      5.273603  
     871A      5.282194   872A      5.295702   873A      5.305886  
     874A      5.307219   875A      5.315132   876A      5.323598  
     877A      5.346297   878A      5.355452   879A      5.360574  
     880A      5.366786   881A      5.373531   882A      5.404071  
     883A      5.406548   884A      5.436801   885A      5.443522  
     886A      5.449542   887A      5.460554   888A      5.470390  
     889A      5.477694   890A      5.484994   891A      5.499048  
     892A      5.502662   893A      5.516302   894A      5.519087  
     895A      5.535901   896A      5.538710   897A      5.541401  
     898A      5.556200   899A      5.578378   900A      5.587261  
     901A      5.601659   902A      5.608984   903A      5.618251  
     904A      5.627792   905A      5.628745   906A      5.631400  
     907A      5.646715   908A      5.648813   909A      5.655579  
     910A      5.668417   911A      5.693246   912A      5.698351  
     913A      5.712487   914A      5.725716   915A      5.755934  
     916A      5.759162   917A      5.789658   918A      5.795789  
     919A      5.804136   920A      5.809925   921A      5.826346  
     922A      5.849357   923A      5.863141   924A      5.867058  
     925A      5.882142   926A      5.883748   927A      5.888951  
     928A      5.898501   929A      5.906246   930A      5.922910  
     931A      5.937776   932A      5.944030   933A      5.969059  
     934A      5.977297   935A      5.999825   936A      6.009988  
     937A      6.022184   938A      6.025919   939A      6.034666  
     940A      6.051437   941A      6.056738   942A      6.076188  
     943A      6.092543   944A      6.103776   945A      6.112553  
     946A      6.133572   947A      6.141633   948A      6.147012  
     949A      6.167056   950A      6.189505   951A      6.199555  
     952A      6.203910   953A      6.214291   954A      6.243814  
     955A      6.272136   956A      6.319823   957A      6.325011  
     958A      6.333868   959A      6.351019   960A      6.380485  
     961A      6.398957   962A      6.401130   963A      6.437445  
     964A      6.454467   965A      6.489986   966A      6.523104  
     967A      6.529361   968A      6.548499   969A      6.555756  
     970A      6.561357   971A      6.578118   972A      6.587248  
     973A      6.593962   974A      6.614866   975A      6.662006  
     976A      6.687338   977A      6.700485   978A      6.703272  
     979A      6.709546   980A      6.719349   981A      6.727223  
     982A      6.746573   983A      6.752312   984A      6.782566  
     985A      6.783439   986A      6.796882   987A      6.828161  
     988A      6.830388   989A      6.845156   990A      6.857910  
     991A      6.866367   992A      6.905512   993A      6.921963  
     994A      6.938727   995A      6.993434   996A      6.999604  
     997A      7.008195   998A      7.020326   999A      7.030457  
    1000A      7.041305  1001A      7.052822  1002A      7.111522  
    1003A      7.130098  1004A      7.180673  1005A      7.200152  
    1006A      7.215078  1007A      7.258372  1008A      7.340184  
    1009A      7.367168  1010A      7.373064  1011A      7.414415  
    1012A      7.420517  1013A      7.424543  1014A      7.424947  
    1015A      7.433922  1016A      7.461951  1017A      7.466014  
    1018A      7.477471  1019A      7.512741  1020A      7.521989  
    1021A      7.586324  1022A      7.599720  1023A      7.614635  
    1024A      7.650057  1025A      7.658230  1026A      7.669676  
    1027A      7.686061  1028A      7.734514  1029A      7.738522  
    1030A      7.744694  1031A      7.749203  1032A      7.786564  
    1033A      7.822936  1034A      7.826670  1035A      7.850577  
    1036A      7.872065  1037A      7.881065  1038A      7.947603  
    1039A      7.950049  1040A      7.957682  1041A      7.979244  
    1042A      8.018297  1043A      8.032690  1044A      8.068921  
    1045A      8.084709  1046A      8.156051  1047A      8.167955  
    1048A      8.267044  1049A      8.366773  1050A      8.425504  
    1051A      8.586836  1052A      8.659478  1053A      8.698348  
    1054A      8.810703  1055A      8.877418  1056A      9.010361  
    1057A      9.139814  1058A      9.220328  1059A      9.392878  
    1060A      9.487087  1061A      9.523001  1062A      9.574462  
    1063A      9.598851  1064A      9.737797  1065A      9.922714  
    1066A     10.043404  1067A     10.096244  1068A     10.171042  
    1069A     10.312201  1070A     10.425247  1071A     10.818873  
    1072A     10.958433  1073A     11.157157  1074A     11.307782  
    1075A     11.432605  1076A     11.755233  1077A     11.828330  
    1078A     11.905721  1079A     11.991002  1080A     12.209112  
    1081A     12.427218  1082A     12.722189  1083A     13.014384  
    1084A     13.430622  1085A     14.065800  1086A     15.970082  
    1087A     16.352804  1088A     16.542583  1089A     16.933890  
    1090A     17.681969  1091A     18.228111  1092A     19.067767  
    1093A     19.334465  1094A     20.249750  1095A     20.673585  
    1096A     21.149313  1097A     51.378841  1098A     51.386424  
    1099A     53.424660  1100A     55.306640  1101A     59.991194  
    1102A     60.665647  1103A     63.950189  1104A     68.756145  

    Final Occupation by Irrep:
              A 
    DOCC [    39 ]

  @DF-RHF Final Energy:  -539.58414759142158

   => Energetics <=

    Nuclear Repulsion Energy =            594.3940634622216521
    One-Electron Energy =               -1914.3400427431643038
    Two-Electron Energy =                 780.3618316895209546
    Total Energy =                       -539.5841475914215835

Computation Completed


Properties will be evaluated at   0.000000,   0.000000,   0.000000 [a0]

Properties computed using the SCF density matrix

  Nuclear Dipole Moment: [e a0]
     X:  -460.1211      Y:    39.1507      Z:    -4.4826

  Electronic Dipole Moment: [e a0]
     X:   460.0784      Y:   -36.1610      Z:     4.6652

  Dipole Moment: [e a0]
     X:    -0.0428      Y:     2.9897      Z:     0.1827     Total:     2.9956

  Dipole Moment: [D]
     X:    -0.1087      Y:     7.5990      Z:     0.4643     Total:     7.6140


*** tstop() called on node157.bme.utexas.edu at Sat Jan 20 13:58:04 2024
Module time:
	user time   =     998.04 seconds =      16.63 minutes
	system time =       9.19 seconds =       0.15 minutes
	total time  =        176 seconds =       2.93 minutes
Total time:
	user time   =    2629.98 seconds =      43.83 minutes
	system time =      41.14 seconds =       0.69 minutes
	total time  =        473 seconds =       7.88 minutes

*** tstart() called on node157.bme.utexas.edu
*** at Sat Jan 20 13:58:04 2024


  //>>>>>>>>>>>>>>>>>>>>>>>>>>>>>>>>>>>//
  //               DFMP2               //
  //<<<<<<<<<<<<<<<<<<<<<<<<<<<<<<<<<<<//

   => Loading Basis Set <=

    Name: (AUG-CC-PVTZ AUX)
    Role: RIFIT
    Keyword: DF_BASIS_MP2
    atoms 1, 5, 9, 11-12, 17, 21, 23     entry N          line   206 file /opt/anaconda/envs/psi4v1.5/share/psi4/basis/aug-cc-pvtz-ri.gbs 
    atoms 2, 4, 14-16, 18, 25, 27-29     entry H          line    30 file /opt/anaconda/envs/psi4v1.5/share/psi4/basis/aug-cc-pvtz-ri.gbs 
    atoms 3, 6-7, 10, 13, 19, 22, 24, 26 entry C          line   148 file /opt/anaconda/envs/psi4v1.5/share/psi4/basis/aug-cc-pvtz-ri.gbs 
    atoms 8, 20                          entry O          line   264 file /opt/anaconda/envs/psi4v1.5/share/psi4/basis/aug-cc-pvtz-ri.gbs 

	 --------------------------------------------------------
	                          DF-MP2                         
	      2nd-Order Density-Fitted Moller-Plesset Theory     
	              RMP2 Wavefunction,   8 Threads             
	                                                         
	        Rob Parrish, Justin Turney, Andy Simmonett,      
	           Ed Hohenstein, and C. David Sherrill          
	 --------------------------------------------------------

   => Auxiliary Basis Set <=

  Basis Set: (AUG-CC-PVTZ AUX)
    Blend: AUG-CC-PVTZ-RI
    Number of shells: 672
    Number of basis functions: 2474
    Number of Cartesian functions: 3134
    Spherical Harmonics?: true
    Max angular momentum: 4

	 --------------------------------------------------------
	                 NBF =  1104, NAUX =  2474
	 --------------------------------------------------------
	   CLASS    FOCC     OCC    AOCC    AVIR     VIR    FVIR
	   PAIRS      11      39      28    1065    1065       0
	 --------------------------------------------------------

	 Will attempt to load fitting metric from file 97.

	-----------------------------------------------------------
	 ==================> DF-MP2 Energies <==================== 
	-----------------------------------------------------------
	 Reference Energy          =    -539.5841475914215835 [Eh]
	 Singles Energy            =      -0.0000000000000000 [Eh]
	 Same-Spin Energy          =      -0.5425908744757024 [Eh]
	 Opposite-Spin Energy      =      -1.4978246196414315 [Eh]
	 Correlation Energy        =      -2.0404154941171342 [Eh]
	 Total Energy              =    -541.6245630855387390 [Eh]
	-----------------------------------------------------------
	 ================> DF-SCS-MP2 Energies <================== 
	-----------------------------------------------------------
	 SCS Same-Spin Scale       =       0.3333333333333333 [-]
	 SCS Opposite-Spin Scale   =       1.2000000000000000 [-]
	 SCS Same-Spin Energy      =      -0.1808636248252341 [Eh]
	 SCS Opposite-Spin Energy  =      -1.7973895435697178 [Eh]
	 SCS Correlation Energy    =      -1.9782531683949520 [Eh]
	 SCS Total Energy          =    -541.5624007598165690 [Eh]
	-----------------------------------------------------------


*** tstop() called on node157.bme.utexas.edu at Sat Jan 20 13:59:01 2024
Module time:
	user time   =     262.64 seconds =       4.38 minutes
	system time =       8.87 seconds =       0.15 minutes
	total time  =         57 seconds =       0.95 minutes
Total time:
	user time   =    2892.62 seconds =      48.21 minutes
	system time =      50.01 seconds =       0.83 minutes
	total time  =        530 seconds =       8.83 minutes

  //>>>>>>>>>>>>>>>>>>>>>>>>>>>>>>>>>>>//
  //            Monomer B HF           //
  //<<<<<<<<<<<<<<<<<<<<<<<<<<<<<<<<<<<//


*** tstart() called on node157.bme.utexas.edu
*** at Sat Jan 20 13:59:01 2024

   => Loading Basis Set <=

    Name: AUG-CC-PVTZ
    Role: ORBITAL
    Keyword: BASIS
    atoms 1, 5, 9, 11-12, 17, 21, 23     entry N          line   285 file /opt/anaconda/envs/psi4v1.5/share/psi4/basis/aug-cc-pvtz.gbs 
    atoms 2, 4, 14-16, 18, 25, 27-29     entry H          line    40 file /opt/anaconda/envs/psi4v1.5/share/psi4/basis/aug-cc-pvtz.gbs 
    atoms 3, 6-7, 10, 13, 19, 22, 24, 26 entry C          line   239 file /opt/anaconda/envs/psi4v1.5/share/psi4/basis/aug-cc-pvtz.gbs 
    atoms 8, 20                          entry O          line   331 file /opt/anaconda/envs/psi4v1.5/share/psi4/basis/aug-cc-pvtz.gbs 


         ---------------------------------------------------------
                                   SCF
               by Justin Turney, Rob Parrish, Andy Simmonett
                          and Daniel G. A. Smith
                              RHF Reference
                        8 Threads,  76293 MiB Core
         ---------------------------------------------------------

  ==> Geometry <==

    Molecular point group: c1
    Full point group: C1

    Geometry (in Angstrom), charge = 0, multiplicity = 1:

       Center              X                  Y                   Z               Mass       
    ------------   -----------------  -----------------  -----------------  -----------------
      Gh(N)          -5.387472157383     0.614427884360     0.097809745321    14.003074004430
      Gh(H)          -6.031472157383     1.396387884360     0.103459745321     1.007825032230
      Gh(C)          -5.688972157383    -0.726642115640     0.166779745321    12.000000000000
      Gh(H)          -6.709672157383    -1.079112115640     0.243479745321     1.007825032230
      Gh(N)          -4.616862157383    -1.500442115640     0.129619745321    14.003074004430
      Gh(C)          -3.571102157383    -0.604522115640     0.029049745321    12.000000000000
      Gh(C)          -2.158722157383    -0.836012115640    -0.038580254679    12.000000000000
      Gh(O)          -1.550712157383    -1.920762115640    -0.024750254679    15.994914619570
      Gh(N)          -1.460362157383     0.377827884360    -0.132930254679    14.003074004430
      Gh(C)          -2.014922157383     1.637097884360    -0.153260254679    12.000000000000
      Gh(N)          -1.145852157383     2.670597884360    -0.327500254679    14.003074004430
      Gh(N)          -3.314172157383     1.870157884360    -0.080800254679    14.003074004430
      Gh(C)          -4.022202157383     0.715977884360     0.007239745321    12.000000000000
      Gh(H)          -0.428542157383     0.293027884360    -0.147070254679     1.007825032230
      Gh(H)          -0.155462157383     2.549227884360    -0.101920254679     1.007825032230
      Gh(H)          -1.546202157383     3.580817884360    -0.142780254679     1.007825032230
         N            5.376148982040     0.737921312245     0.176531327052    14.003074004430
         H            5.903788982040     1.598801312245     0.273151327052     1.007825032230
         C            3.981668982040     0.891271312245     0.125071327052    12.000000000000
         O            3.508358982040     2.034181312245     0.203991327052    15.994914619570
         N            3.237988982040    -0.246678687755    -0.008398672948    14.003074004430
         C            3.826018982040    -1.445648687755    -0.067868672948    12.000000000000
         N            3.033288982040    -2.516768687755    -0.189108672948    14.003074004430
         C            5.256168982040    -1.604428687755    -0.019498672948    12.000000000000
         H            5.725768982040    -2.579178687755    -0.076158672948     1.007825032230
         C            5.995268982040    -0.472798687755     0.105371327052    12.000000000000
         H            7.079618982040    -0.469218687755     0.154341327052     1.007825032230
         H            2.006758982040    -2.410188687755    -0.149388672948     1.007825032230
         H            3.427268982040    -3.446578687755    -0.187558672948     1.007825032230

  Running in c1 symmetry.

  Rotational constants: A =      0.02888  B =      0.00419  C =      0.00367 [cm^-1]
  Rotational constants: A =    865.91065  B =    125.61907  C =    109.94687 [MHz]
  Nuclear repulsion =  355.594990866278124

  Charge       = 0
  Multiplicity = 1
  Electrons    = 58
  Nalpha       = 29
  Nbeta        = 29

  ==> Algorithm <==

  SCF Algorithm Type is DF.
  DIIS enabled.
  MOM disabled.
  Fractional occupation disabled.
  Guess Type is SAD.
  Energy threshold   = 1.00e-08
  Density threshold  = 1.00e-08
  Integral threshold = 1.00e-12

  ==> Primary Basis <==

  Basis Set: AUG-CC-PVTZ
    Blend: AUG-CC-PVTZ
    Number of shells: 356
    Number of basis functions: 1104
    Number of Cartesian functions: 1295
    Spherical Harmonics?: true
    Max angular momentum: 3

   => Loading Basis Set <=

    Name: (AUG-CC-PVTZ AUX)
    Role: JKFIT
    Keyword: DF_BASIS_SCF
    atoms 1, 5, 9, 11-12, 17, 21, 23     entry N          line   224 file /opt/anaconda/envs/psi4v1.5/share/psi4/basis/aug-cc-pvtz-jkfit.gbs 
    atoms 2, 4, 14-16, 18, 25, 27-29     entry H          line    70 file /opt/anaconda/envs/psi4v1.5/share/psi4/basis/aug-cc-pvtz-jkfit.gbs 
    atoms 3, 6-7, 10, 13, 19, 22, 24, 26 entry C          line   162 file /opt/anaconda/envs/psi4v1.5/share/psi4/basis/aug-cc-pvtz-jkfit.gbs 
    atoms 8, 20                          entry O          line   286 file /opt/anaconda/envs/psi4v1.5/share/psi4/basis/aug-cc-pvtz-jkfit.gbs 

  ==> Integral Setup <==

  ==> DiskDFJK: Density-Fitted J/K Matrices <==

    J tasked:                  Yes
    K tasked:                  Yes
    wK tasked:                  No
    OpenMP threads:              8
    Integrals threads:           8
    Memory [MiB]:            57220
    Algorithm:                Core
    Integral Cache:           LOAD
    Schwarz Cutoff:          1E-12
    Fitting Condition:       1E-10

   => Auxiliary Basis Set <=

  Basis Set: (AUG-CC-PVTZ AUX)
    Blend: AUG-CC-PVTZ-JKFIT
    Number of shells: 710
    Number of basis functions: 2436
    Number of Cartesian functions: 3039
    Spherical Harmonics?: true
    Max angular momentum: 4

  Minimum eigenvalue in the overlap matrix is 1.0506662261E-06.
  Reciprocal condition number of the overlap matrix is 6.0774490534E-08.
    Using symmetric orthogonalization.

  ==> Pre-Iterations <==

  SCF Guess: Superposition of Atomic Densities via on-the-fly atomic UHF (no occupation information).

   -------------------------
    Irrep   Nso     Nmo    
   -------------------------
     A       1104    1104 
   -------------------------
    Total    1104    1104
   -------------------------

  ==> Iterations <==

                           Total Energy        Delta E     RMS |[F,P]|

   @DF-RHF iter SAD:  -392.10023827101566   -3.92100e+02   0.00000e+00 
   @DF-RHF iter   1:  -392.50676169008955   -4.06523e-01   6.62129e-04 DIIS
   @DF-RHF iter   2:  -392.69724044848118   -1.90479e-01   3.77404e-04 DIIS
   @DF-RHF iter   3:  -392.75645787482529   -5.92174e-02   7.08199e-05 DIIS
   @DF-RHF iter   4:  -392.75977007991588   -3.31221e-03   3.16529e-05 DIIS
   @DF-RHF iter   5:  -392.76046751535978   -6.97435e-04   6.43186e-06 DIIS
   @DF-RHF iter   6:  -392.76053662517023   -6.91098e-05   3.37809e-06 DIIS
   @DF-RHF iter   7:  -392.76055411894640   -1.74938e-05   1.26149e-06 DIIS
   @DF-RHF iter   8:  -392.76055745016242   -3.33122e-06   4.37125e-07 DIIS
   @DF-RHF iter   9:  -392.76055777275519   -3.22593e-07   1.78289e-07 DIIS
   @DF-RHF iter  10:  -392.76055782597490   -5.32197e-08   6.25333e-08 DIIS
   @DF-RHF iter  11:  -392.76055783418860   -8.21370e-09   1.68824e-08 DIIS
   @DF-RHF iter  12:  -392.76055783473623   -5.47629e-10   5.27066e-09 DIIS
  Energy and wave function converged.


  ==> Post-Iterations <==

    Orbital Energies [Eh]
    ---------------------

    Doubly Occupied:                                                      

       1A    -20.494010     2A    -15.622943     3A    -15.606259  
       4A    -15.538954     5A    -11.366337     6A    -11.357849  
       7A    -11.333736     8A    -11.250254     9A     -1.373863  
      10A     -1.295553    11A     -1.264272    12A     -1.169405  
      13A     -1.067372    14A     -0.904561    15A     -0.878535  
      16A     -0.763067    17A     -0.761424    18A     -0.728141  
      19A     -0.678233    20A     -0.625088    21A     -0.623753  
      22A     -0.613076    23A     -0.583662    24A     -0.542492  
      25A     -0.483564    26A     -0.434746    27A     -0.416569  
      28A     -0.384039    29A     -0.343553  

    Virtual:                                                              

      30A      0.014139    31A      0.020501    32A      0.024230  
      33A      0.034253    34A      0.039151    35A      0.046102  
      36A      0.053037    37A      0.057674    38A      0.059337  
      39A      0.065913    40A      0.066563    41A      0.070074  
      42A      0.082417    43A      0.082792    44A      0.086502  
      45A      0.087864    46A      0.088959    47A      0.094947  
      48A      0.096580    49A      0.099452    50A      0.100977  
      51A      0.101879    52A      0.104102    53A      0.108867  
      54A      0.112824    55A      0.116655    56A      0.120745  
      57A      0.121716    58A      0.126610    59A      0.129905  
      60A      0.134551    61A      0.135821    62A      0.143987  
      63A      0.145264    64A      0.147767    65A      0.150917  
      66A      0.153074    67A      0.156667    68A      0.158959  
      69A      0.164988    70A      0.168475    71A      0.169865  
      72A      0.171611    73A      0.174333    74A      0.177289  
      75A      0.180479    76A      0.182882    77A      0.184578  
      78A      0.191574    79A      0.194702    80A      0.195663  
      81A      0.198898    82A      0.199987    83A      0.206485  
      84A      0.209705    85A      0.211370    86A      0.218263  
      87A      0.220365    88A      0.222695    89A      0.226299  
      90A      0.229707    91A      0.232022    92A      0.234135  
      93A      0.239507    94A      0.242527    95A      0.244734  
      96A      0.247226    97A      0.252160    98A      0.254910  
      99A      0.263002   100A      0.263921   101A      0.269423  
     102A      0.273677   103A      0.274672   104A      0.281294  
     105A      0.283626   106A      0.284937   107A      0.286717  
     108A      0.290410   109A      0.295043   110A      0.297767  
     111A      0.299508   112A      0.301520   113A      0.305786  
     114A      0.308421   115A      0.314809   116A      0.319621  
     117A      0.322399   118A      0.324740   119A      0.327892  
     120A      0.329550   121A      0.334973   122A      0.338972  
     123A      0.342507   124A      0.346083   125A      0.349144  
     126A      0.353484   127A      0.357235   128A      0.357761  
     129A      0.359900   130A      0.364686   131A      0.370919  
     132A      0.372410   133A      0.374564   134A      0.377772  
     135A      0.381367   136A      0.384561   137A      0.391553  
     138A      0.397784   139A      0.400247   140A      0.402240  
     141A      0.403751   142A      0.406760   143A      0.409166  
     144A      0.411992   145A      0.416523   146A      0.416713  
     147A      0.419540   148A      0.421759   149A      0.427460  
     150A      0.430985   151A      0.434157   152A      0.437314  
     153A      0.440557   154A      0.441259   155A      0.442143  
     156A      0.446564   157A      0.448551   158A      0.450034  
     159A      0.454425   160A      0.456444   161A      0.458667  
     162A      0.464425   163A      0.467970   164A      0.471343  
     165A      0.471687   166A      0.477400   167A      0.479233  
     168A      0.482563   169A      0.487236   170A      0.488368  
     171A      0.490313   172A      0.493757   173A      0.496153  
     174A      0.500869   175A      0.506571   176A      0.508788  
     177A      0.513621   178A      0.517729   179A      0.519037  
     180A      0.522496   181A      0.526051   182A      0.526544  
     183A      0.534908   184A      0.540351   185A      0.542994  
     186A      0.549587   187A      0.552082   188A      0.555857  
     189A      0.566217   190A      0.569381   191A      0.573140  
     192A      0.574824   193A      0.580881   194A      0.586262  
     195A      0.589266   196A      0.595685   197A      0.600684  
     198A      0.602553   199A      0.605699   200A      0.612130  
     201A      0.619957   202A      0.621784   203A      0.624734  
     204A      0.627196   205A      0.636674   206A      0.640757  
     207A      0.644500   208A      0.647807   209A      0.649955  
     210A      0.656974   211A      0.659641   212A      0.662648  
     213A      0.669263   214A      0.674838   215A      0.684278  
     216A      0.688593   217A      0.691563   218A      0.692525  
     219A      0.702389   220A      0.708720   221A      0.708974  
     222A      0.712992   223A      0.719497   224A      0.720885  
     225A      0.723701   226A      0.725479   227A      0.727126  
     228A      0.733778   229A      0.738889   230A      0.741465  
     231A      0.742697   232A      0.749677   233A      0.754219  
     234A      0.757386   235A      0.761391   236A      0.767641  
     237A      0.773221   238A      0.776949   239A      0.782469  
     240A      0.784410   241A      0.789301   242A      0.792005  
     243A      0.795591   244A      0.796550   245A      0.803957  
     246A      0.807595   247A      0.809932   248A      0.813536  
     249A      0.817337   250A      0.820771   251A      0.822162  
     252A      0.827495   253A      0.836328   254A      0.840603  
     255A      0.844711   256A      0.845653   257A      0.850760  
     258A      0.853871   259A      0.859334   260A      0.860690  
     261A      0.861990   262A      0.865562   263A      0.868279  
     264A      0.874423   265A      0.875262   266A      0.879730  
     267A      0.885968   268A      0.892089   269A      0.896386  
     270A      0.898074   271A      0.900001   272A      0.901410  
     273A      0.907390   274A      0.908154   275A      0.911059  
     276A      0.918464   277A      0.919319   278A      0.923901  
     279A      0.928356   280A      0.930427   281A      0.936189  
     282A      0.940839   283A      0.941356   284A      0.946105  
     285A      0.951386   286A      0.958328   287A      0.962044  
     288A      0.964167   289A      0.968607   290A      0.970576  
     291A      0.972730   292A      0.977433   293A      0.980598  
     294A      0.981656   295A      0.985397   296A      0.992068  
     297A      0.997517   298A      1.002876   299A      1.004888  
     300A      1.007424   301A      1.014579   302A      1.017105  
     303A      1.021588   304A      1.026985   305A      1.031621  
     306A      1.042713   307A      1.046240   308A      1.048096  
     309A      1.049947   310A      1.051761   311A      1.057863  
     312A      1.062370   313A      1.067471   314A      1.070038  
     315A      1.074008   316A      1.081334   317A      1.083184  
     318A      1.084574   319A      1.088266   320A      1.091683  
     321A      1.094769   322A      1.098630   323A      1.101113  
     324A      1.104814   325A      1.109451   326A      1.115875  
     327A      1.120042   328A      1.123394   329A      1.128020  
     330A      1.135252   331A      1.139876   332A      1.148063  
     333A      1.153849   334A      1.156767   335A      1.161424  
     336A      1.165435   337A      1.165736   338A      1.171218  
     339A      1.172550   340A      1.179228   341A      1.179864  
     342A      1.184818   343A      1.187727   344A      1.190599  
     345A      1.192680   346A      1.196728   347A      1.203084  
     348A      1.207555   349A      1.212671   350A      1.216919  
     351A      1.221461   352A      1.230051   353A      1.231837  
     354A      1.234507   355A      1.238768   356A      1.242362  
     357A      1.247497   358A      1.251683   359A      1.261155  
     360A      1.266750   361A      1.274935   362A      1.277188  
     363A      1.278353   364A      1.283426   365A      1.288683  
     366A      1.292096   367A      1.300755   368A      1.309408  
     369A      1.313711   370A      1.320700   371A      1.324122  
     372A      1.326198   373A      1.333265   374A      1.339879  
     375A      1.347738   376A      1.351500   377A      1.352610  
     378A      1.356186   379A      1.359138   380A      1.368427  
     381A      1.376498   382A      1.379029   383A      1.382959  
     384A      1.385107   385A      1.392301   386A      1.395091  
     387A      1.404988   388A      1.408649   389A      1.413182  
     390A      1.421394   391A      1.424641   392A      1.431221  
     393A      1.435712   394A      1.439205   395A      1.446147  
     396A      1.448707   397A      1.456537   398A      1.465521  
     399A      1.466008   400A      1.471867   401A      1.476334  
     402A      1.487026   403A      1.491005   404A      1.493577  
     405A      1.500500   406A      1.507050   407A      1.514414  
     408A      1.520164   409A      1.525952   410A      1.530786  
     411A      1.535406   412A      1.539972   413A      1.544784  
     414A      1.552454   415A      1.556090   416A      1.561471  
     417A      1.564493   418A      1.569079   419A      1.573904  
     420A      1.575539   421A      1.584517   422A      1.591471  
     423A      1.593871   424A      1.597907   425A      1.607661  
     426A      1.611783   427A      1.627836   428A      1.630083  
     429A      1.636642   430A      1.637002   431A      1.643242  
     432A      1.648612   433A      1.655224   434A      1.661125  
     435A      1.665016   436A      1.668459   437A      1.674986  
     438A      1.679128   439A      1.682527   440A      1.686584  
     441A      1.697422   442A      1.703089   443A      1.712144  
     444A      1.717213   445A      1.720816   446A      1.727669  
     447A      1.730819   448A      1.735974   449A      1.738066  
     450A      1.742594   451A      1.746937   452A      1.751120  
     453A      1.754608   454A      1.757897   455A      1.762880  
     456A      1.771231   457A      1.771714   458A      1.779104  
     459A      1.782073   460A      1.786445   461A      1.790753  
     462A      1.790784   463A      1.799743   464A      1.804437  
     465A      1.808685   466A      1.814243   467A      1.820992  
     468A      1.825298   469A      1.829687   470A      1.831066  
     471A      1.843688   472A      1.849521   473A      1.854734  
     474A      1.856702   475A      1.861541   476A      1.872704  
     477A      1.874727   478A      1.881563   479A      1.884980  
     480A      1.889943   481A      1.894721   482A      1.911900  
     483A      1.913571   484A      1.923893   485A      1.928695  
     486A      1.940861   487A      1.944585   488A      1.947972  
     489A      1.957766   490A      1.965782   491A      1.969604  
     492A      1.978863   493A      1.990305   494A      1.991820  
     495A      1.994196   496A      2.000942   497A      2.014293  
     498A      2.016166   499A      2.028451   500A      2.032586  
     501A      2.038153   502A      2.038581   503A      2.041076  
     504A      2.055547   505A      2.063918   506A      2.069109  
     507A      2.073620   508A      2.084282   509A      2.087456  
     510A      2.096033   511A      2.104264   512A      2.111545  
     513A      2.113051   514A      2.115013   515A      2.121530  
     516A      2.128989   517A      2.132659   518A      2.139987  
     519A      2.142483   520A      2.150314   521A      2.153287  
     522A      2.158540   523A      2.164773   524A      2.171522  
     525A      2.182242   526A      2.191772   527A      2.196263  
     528A      2.201724   529A      2.207040   530A      2.216908  
     531A      2.232291   532A      2.238989   533A      2.245449  
     534A      2.248346   535A      2.262126   536A      2.268639  
     537A      2.274399   538A      2.281416   539A      2.300691  
     540A      2.303330   541A      2.310148   542A      2.315257  
     543A      2.319287   544A      2.337832   545A      2.341642  
     546A      2.347506   547A      2.350360   548A      2.366118  
     549A      2.368116   550A      2.380353   551A      2.381504  
     552A      2.383295   553A      2.391849   554A      2.398549  
     555A      2.408490   556A      2.411492   557A      2.418605  
     558A      2.428447   559A      2.435605   560A      2.450336  
     561A      2.451232   562A      2.459796   563A      2.469258  
     564A      2.486273   565A      2.490671   566A      2.493249  
     567A      2.506181   568A      2.510677   569A      2.516644  
     570A      2.520107   571A      2.522809   572A      2.528229  
     573A      2.538398   574A      2.541226   575A      2.546918  
     576A      2.556103   577A      2.560639   578A      2.569065  
     579A      2.571870   580A      2.581771   581A      2.584711  
     582A      2.588230   583A      2.599854   584A      2.607667  
     585A      2.623782   586A      2.625777   587A      2.634997  
     588A      2.648214   589A      2.652760   590A      2.658894  
     591A      2.667211   592A      2.677268   593A      2.683269  
     594A      2.686361   595A      2.696410   596A      2.702481  
     597A      2.706381   598A      2.713204   599A      2.724331  
     600A      2.725851   601A      2.731905   602A      2.733870  
     603A      2.746663   604A      2.754093   605A      2.760321  
     606A      2.768440   607A      2.772933   608A      2.780485  
     609A      2.782675   610A      2.796010   611A      2.804888  
     612A      2.813284   613A      2.823354   614A      2.843063  
     615A      2.847631   616A      2.857478   617A      2.861049  
     618A      2.872386   619A      2.885703   620A      2.891532  
     621A      2.899865   622A      2.910250   623A      2.918677  
     624A      2.928687   625A      2.933717   626A      2.942472  
     627A      2.954789   628A      2.957153   629A      2.968636  
     630A      2.973916   631A      2.983464   632A      2.985690  
     633A      2.999402   634A      3.002372   635A      3.015761  
     636A      3.022175   637A      3.037373   638A      3.042104  
     639A      3.050184   640A      3.055191   641A      3.061643  
     642A      3.066133   643A      3.082120   644A      3.093198  
     645A      3.099931   646A      3.113774   647A      3.121357  
     648A      3.124419   649A      3.145579   650A      3.153522  
     651A      3.158093   652A      3.165911   653A      3.174236  
     654A      3.183561   655A      3.193750   656A      3.202676  
     657A      3.217497   658A      3.226069   659A      3.239211  
     660A      3.239860   661A      3.256001   662A      3.275011  
     663A      3.287115   664A      3.292444   665A      3.296551  
     666A      3.303442   667A      3.325118   668A      3.337277  
     669A      3.344765   670A      3.360469   671A      3.364385  
     672A      3.371434   673A      3.385497   674A      3.390808  
     675A      3.416013   676A      3.424365   677A      3.431992  
     678A      3.441692   679A      3.448097   680A      3.471068  
     681A      3.484704   682A      3.501301   683A      3.503263  
     684A      3.524019   685A      3.535675   686A      3.551382  
     687A      3.552498   688A      3.561495   689A      3.573946  
     690A      3.601864   691A      3.605849   692A      3.616486  
     693A      3.633420   694A      3.650167   695A      3.665064  
     696A      3.679623   697A      3.690370   698A      3.699185  
     699A      3.714295   700A      3.717142   701A      3.717826  
     702A      3.729138   703A      3.758430   704A      3.759431  
     705A      3.783225   706A      3.789462   707A      3.798541  
     708A      3.815909   709A      3.828279   710A      3.836105  
     711A      3.856918   712A      3.858444   713A      3.863053  
     714A      3.891423   715A      3.907481   716A      3.913248  
     717A      3.930992   718A      3.946359   719A      3.967218  
     720A      3.973545   721A      3.980101   722A      3.994434  
     723A      4.003164   724A      4.019911   725A      4.028914  
     726A      4.034863   727A      4.067934   728A      4.075319  
     729A      4.088200   730A      4.103548   731A      4.113387  
     732A      4.124120   733A      4.128288   734A      4.134101  
     735A      4.137100   736A      4.150534   737A      4.153909  
     738A      4.163326   739A      4.166928   740A      4.182120  
     741A      4.184917   742A      4.191509   743A      4.206642  
     744A      4.215346   745A      4.226348   746A      4.232298  
     747A      4.244491   748A      4.246423   749A      4.259458  
     750A      4.273131   751A      4.286735   752A      4.296369  
     753A      4.297052   754A      4.308160   755A      4.310475  
     756A      4.330251   757A      4.342584   758A      4.347511  
     759A      4.370456   760A      4.377014   761A      4.384544  
     762A      4.393916   763A      4.402891   764A      4.415821  
     765A      4.428703   766A      4.432263   767A      4.442994  
     768A      4.446520   769A      4.466730   770A      4.471870  
     771A      4.476518   772A      4.482398   773A      4.514702  
     774A      4.526455   775A      4.534099   776A      4.536428  
     777A      4.543259   778A      4.544877   779A      4.566734  
     780A      4.600172   781A      4.604251   782A      4.623654  
     783A      4.628000   784A      4.633014   785A      4.638827  
     786A      4.650095   787A      4.655240   788A      4.665293  
     789A      4.669929   790A      4.677029   791A      4.682156  
     792A      4.685553   793A      4.691100   794A      4.700806  
     795A      4.710254   796A      4.717080   797A      4.730599  
     798A      4.733865   799A      4.747244   800A      4.756378  
     801A      4.765865   802A      4.783831   803A      4.792035  
     804A      4.810803   805A      4.819013   806A      4.833974  
     807A      4.839725   808A      4.844457   809A      4.848409  
     810A      4.854868   811A      4.873465   812A      4.881022  
     813A      4.883395   814A      4.905410   815A      4.912578  
     816A      4.918399   817A      4.939649   818A      4.942119  
     819A      4.951566   820A      4.964222   821A      4.968111  
     822A      4.968462   823A      4.971329   824A      4.977693  
     825A      4.979481   826A      4.996737   827A      5.004441  
     828A      5.006305   829A      5.014571   830A      5.021023  
     831A      5.029706   832A      5.039778   833A      5.053968  
     834A      5.064455   835A      5.067368   836A      5.071512  
     837A      5.081417   838A      5.085253   839A      5.094645  
     840A      5.097460   841A      5.101542   842A      5.109850  
     843A      5.134369   844A      5.143764   845A      5.156999  
     846A      5.160138   847A      5.181593   848A      5.188285  
     849A      5.206486   850A      5.216950   851A      5.222382  
     852A      5.232964   853A      5.249803   854A      5.251651  
     855A      5.271033   856A      5.274075   857A      5.296752  
     858A      5.324646   859A      5.332805   860A      5.334251  
     861A      5.347136   862A      5.348816   863A      5.360893  
     864A      5.379824   865A      5.386038   866A      5.406993  
     867A      5.428715   868A      5.441931   869A      5.452220  
     870A      5.453582   871A      5.457528   872A      5.472164  
     873A      5.482607   874A      5.494559   875A      5.504336  
     876A      5.523555   877A      5.526604   878A      5.533376  
     879A      5.539324   880A      5.550822   881A      5.554685  
     882A      5.562892   883A      5.571077   884A      5.571581  
     885A      5.588098   886A      5.602465   887A      5.613885  
     888A      5.625971   889A      5.655898   890A      5.670146  
     891A      5.675618   892A      5.709462   893A      5.723010  
     894A      5.739232   895A      5.742848   896A      5.753873  
     897A      5.756738   898A      5.773827   899A      5.787630  
     900A      5.799531   901A      5.806824   902A      5.814946  
     903A      5.845026   904A      5.851128   905A      5.861588  
     906A      5.874047   907A      5.887773   908A      5.936258  
     909A      5.939469   910A      5.941422   911A      5.958204  
     912A      5.991822   913A      6.015113   914A      6.023523  
     915A      6.045110   916A      6.071569   917A      6.073428  
     918A      6.104761   919A      6.109903   920A      6.118470  
     921A      6.120452   922A      6.125728   923A      6.137778  
     924A      6.160375   925A      6.175868   926A      6.186909  
     927A      6.198306   928A      6.199881   929A      6.223791  
     930A      6.247206   931A      6.266152   932A      6.275657  
     933A      6.334150   934A      6.357798   935A      6.376798  
     936A      6.386407   937A      6.404409   938A      6.434254  
     939A      6.456075   940A      6.458108   941A      6.492367  
     942A      6.504238   943A      6.508192   944A      6.521159  
     945A      6.523595   946A      6.526027   947A      6.546650  
     948A      6.547885   949A      6.584121   950A      6.591206  
     951A      6.629301   952A      6.630215   953A      6.671538  
     954A      6.683181   955A      6.705233   956A      6.706462  
     957A      6.716068   958A      6.721345   959A      6.756702  
     960A      6.763787   961A      6.773277   962A      6.787273  
     963A      6.794329   964A      6.814102   965A      6.824367  
     966A      6.856463   967A      6.859710   968A      6.874334  
     969A      6.885197   970A      6.896370   971A      6.927902  
     972A      6.937410   973A      6.966687   974A      6.975457  
     975A      6.995543   976A      7.015982   977A      7.025696  
     978A      7.038303   979A      7.044895   980A      7.054290  
     981A      7.121042   982A      7.140000   983A      7.202177  
     984A      7.213965   985A      7.230362   986A      7.273015  
     987A      7.315551   988A      7.329389   989A      7.345447  
     990A      7.395317   991A      7.410845   992A      7.412565  
     993A      7.413608   994A      7.418496   995A      7.423933  
     996A      7.433799   997A      7.501811   998A      7.555503  
     999A      7.564596  1000A      7.575126  1001A      7.591629  
    1002A      7.605527  1003A      7.621912  1004A      7.640873  
    1005A      7.644273  1006A      7.650616  1007A      7.662633  
    1008A      7.681876  1009A      7.709336  1010A      7.733976  
    1011A      7.747095  1012A      7.753564  1013A      7.762480  
    1014A      7.805714  1015A      7.820883  1016A      7.867265  
    1017A      7.874507  1018A      7.899932  1019A      7.922596  
    1020A      7.934425  1021A      7.945490  1022A      7.953624  
    1023A      7.959277  1024A      7.966981  1025A      7.984022  
    1026A      8.005771  1027A      8.031135  1028A      8.058655  
    1029A      8.095492  1030A      8.163595  1031A      8.193449  
    1032A      8.238069  1033A      8.245849  1034A      8.301251  
    1035A      8.370431  1036A      8.395282  1037A      8.491057  
    1038A      8.544513  1039A      8.563697  1040A      8.698500  
    1041A      8.717822  1042A      8.785736  1043A      8.840399  
    1044A      8.920033  1045A      9.027376  1046A      9.062243  
    1047A      9.136182  1048A      9.259927  1049A      9.347825  
    1050A      9.380006  1051A      9.503343  1052A      9.558011  
    1053A      9.620132  1054A      9.668230  1055A      9.717877  
    1056A      9.782649  1057A      9.914897  1058A      9.964189  
    1059A     10.146699  1060A     10.177303  1061A     10.310892  
    1062A     10.408717  1063A     10.470520  1064A     10.557209  
    1065A     10.703339  1066A     11.083194  1067A     11.198991  
    1068A     11.265139  1069A     11.385452  1070A     11.450754  
    1071A     11.648689  1072A     11.707004  1073A     11.981620  
    1074A     11.989481  1075A     12.023849  1076A     12.081891  
    1077A     12.182008  1078A     12.307030  1079A     12.393675  
    1080A     12.543925  1081A     12.776996  1082A     12.921776  
    1083A     13.328785  1084A     13.475124  1085A     14.186920  
    1086A     15.598839  1087A     15.855696  1088A     16.369600  
    1089A     17.732246  1090A     18.233346  1091A     19.401705  
    1092A     20.192935  1093A     20.633285  1094A     51.722534  
    1095A     52.269402  1096A     52.786994  1097A     53.817697  
    1098A     56.226340  1099A     60.054451  1100A     61.436999  
    1101A     61.896001  1102A     63.352894  1103A     65.532127  
    1104A     69.665310  

    Final Occupation by Irrep:
              A 
    DOCC [    29 ]

  @DF-RHF Final Energy:  -392.76055783473623

   => Energetics <=

    Nuclear Repulsion Energy =            355.5949908662781240
    One-Electron Energy =               -1239.7004735862544749
    Two-Electron Energy =                 491.3449248852401752
    Total Energy =                       -392.7605578347362325

Computation Completed


Properties will be evaluated at   0.000000,   0.000000,   0.000000 [a0]

Properties computed using the SCF density matrix

  Nuclear Dipole Moment: [e a0]
     X:   468.8350      Y:   -39.6866      Z:     4.4559

  Electronic Dipole Moment: [e a0]
     X:  -467.0191      Y:    37.2512      Z:    -4.4858

  Dipole Moment: [e a0]
     X:     1.8159      Y:    -2.4354      Z:    -0.0300     Total:     3.0380

  Dipole Moment: [D]
     X:     4.6156      Y:    -6.1902      Z:    -0.0761     Total:     7.7219


*** tstop() called on node157.bme.utexas.edu at Sat Jan 20 14:00:43 2024
Module time:
	user time   =     613.82 seconds =      10.23 minutes
	system time =       8.97 seconds =       0.15 minutes
	total time  =        102 seconds =       1.70 minutes
Total time:
	user time   =    3506.46 seconds =      58.44 minutes
	system time =      58.98 seconds =       0.98 minutes
	total time  =        632 seconds =      10.53 minutes

*** tstart() called on node157.bme.utexas.edu
*** at Sat Jan 20 14:00:43 2024


  //>>>>>>>>>>>>>>>>>>>>>>>>>>>>>>>>>>>//
  //               DFMP2               //
  //<<<<<<<<<<<<<<<<<<<<<<<<<<<<<<<<<<<//

   => Loading Basis Set <=

    Name: (AUG-CC-PVTZ AUX)
    Role: RIFIT
    Keyword: DF_BASIS_MP2
    atoms 1, 5, 9, 11-12, 17, 21, 23     entry N          line   206 file /opt/anaconda/envs/psi4v1.5/share/psi4/basis/aug-cc-pvtz-ri.gbs 
    atoms 2, 4, 14-16, 18, 25, 27-29     entry H          line    30 file /opt/anaconda/envs/psi4v1.5/share/psi4/basis/aug-cc-pvtz-ri.gbs 
    atoms 3, 6-7, 10, 13, 19, 22, 24, 26 entry C          line   148 file /opt/anaconda/envs/psi4v1.5/share/psi4/basis/aug-cc-pvtz-ri.gbs 
    atoms 8, 20                          entry O          line   264 file /opt/anaconda/envs/psi4v1.5/share/psi4/basis/aug-cc-pvtz-ri.gbs 

	 --------------------------------------------------------
	                          DF-MP2                         
	      2nd-Order Density-Fitted Moller-Plesset Theory     
	              RMP2 Wavefunction,   8 Threads             
	                                                         
	        Rob Parrish, Justin Turney, Andy Simmonett,      
	           Ed Hohenstein, and C. David Sherrill          
	 --------------------------------------------------------

   => Auxiliary Basis Set <=

  Basis Set: (AUG-CC-PVTZ AUX)
    Blend: AUG-CC-PVTZ-RI
    Number of shells: 672
    Number of basis functions: 2474
    Number of Cartesian functions: 3134
    Spherical Harmonics?: true
    Max angular momentum: 4

	 --------------------------------------------------------
	                 NBF =  1104, NAUX =  2474
	 --------------------------------------------------------
	   CLASS    FOCC     OCC    AOCC    AVIR     VIR    FVIR
	   PAIRS       8      29      21    1075    1075       0
	 --------------------------------------------------------

	 Will attempt to load fitting metric from file 97.

	-----------------------------------------------------------
	 ==================> DF-MP2 Energies <==================== 
	-----------------------------------------------------------
	 Reference Energy          =    -392.7605578347362325 [Eh]
	 Singles Energy            =      -0.0000000000000000 [Eh]
	 Same-Spin Energy          =      -0.3847887472177187 [Eh]
	 Opposite-Spin Energy      =      -1.0962509415173136 [Eh]
	 Correlation Energy        =      -1.4810396887350323 [Eh]
	 Total Energy              =    -394.2415975234712846 [Eh]
	-----------------------------------------------------------
	 ================> DF-SCS-MP2 Energies <================== 
	-----------------------------------------------------------
	 SCS Same-Spin Scale       =       0.3333333333333333 [-]
	 SCS Opposite-Spin Scale   =       1.2000000000000000 [-]
	 SCS Same-Spin Energy      =      -0.1282629157392396 [Eh]
	 SCS Opposite-Spin Energy  =      -1.3155011298207764 [Eh]
	 SCS Correlation Energy    =      -1.4437640455600160 [Eh]
	 SCS Total Energy          =    -394.2043218802962201 [Eh]
	-----------------------------------------------------------


*** tstop() called on node157.bme.utexas.edu at Sat Jan 20 14:01:12 2024
Module time:
	user time   =     155.38 seconds =       2.59 minutes
	system time =       3.50 seconds =       0.06 minutes
	total time  =         29 seconds =       0.48 minutes
Total time:
	user time   =    3661.85 seconds =      61.03 minutes
	system time =      62.48 seconds =       1.04 minutes
	total time  =        661 seconds =      11.02 minutes
  Constructing Basis Sets for SAPT...

   => Loading Basis Set <=

    Name: (AUG-CC-PVTZ AUX)
    Role: RIFIT
    Keyword: DF_BASIS_SAPT
    atoms 1, 5, 9, 11-12, 17, 21, 23     entry N          line   206 file /opt/anaconda/envs/psi4v1.5/share/psi4/basis/aug-cc-pvtz-ri.gbs 
    atoms 2, 4, 14-16, 18, 25, 27-29     entry H          line    30 file /opt/anaconda/envs/psi4v1.5/share/psi4/basis/aug-cc-pvtz-ri.gbs 
    atoms 3, 6-7, 10, 13, 19, 22, 24, 26 entry C          line   148 file /opt/anaconda/envs/psi4v1.5/share/psi4/basis/aug-cc-pvtz-ri.gbs 
    atoms 8, 20                          entry O          line   264 file /opt/anaconda/envs/psi4v1.5/share/psi4/basis/aug-cc-pvtz-ri.gbs 


  //>>>>>>>>>>>>>>>>>>>>>>>>>>>>>>>>>>>//
  //           SAPT2+(3)DMP2           //
  //<<<<<<<<<<<<<<<<<<<<<<<<<<<<<<<<<<<//


*** tstart() called on node157.bme.utexas.edu
*** at Sat Jan 20 14:01:12 2024

      SAPT2+(3)  
    Ed Hohenstein
     6 June 2009

      Orbital Information
  --------------------------
    NSO        =      1104
    NMO        =      1104
    NRI        =      2474
    NOCC A     =        39
    NOCC B     =        29
    FOCC A     =        11
    FOCC B     =         8
    NVIR A     =      1065
    NVIR B     =      1075

    Estimated memory usage: 65057.1 MB

    Natural Orbital Cutoff:   1.000E-06
    Disp(T3) Truncation:            Yes
    CCD (vv|vv) Truncation:         Yes
    MBPT T2 Truncation:             Yes

    Monomer A: 538 virtual orbitals dropped
    Monomer B: 667 virtual orbitals dropped

    Elst10,r            =    -0.012667491097 [Eh]
    Exch10 (S^2)        =     0.000130242267 [Eh]
    Exch10              =     0.000130254070 [Eh]
    Ind20,r (A<-B)      =    -0.000528678659 [Eh]
    Ind20,r (B<-A)      =    -0.000546364465 [Eh]
    Ind20,r             =    -0.001075043124 [Eh]
    Exch-Ind20,r (A<-B) =     0.000008428240 [Eh]
    Exch-Ind20,r (B<-A) =     0.000020031700 [Eh]
    Exch-Ind20,r        =     0.000028459940 [Eh]
    Disp20              =    -0.001363357169 [Eh]
    Disp20 (NO)         =    -0.001308683454 [Eh]
    Exch-Disp20         =     0.000018588533 [Eh]
    Elst12,r            =     0.002046957657 [Eh]
    Exch11              =    -0.000004870025 [Eh]
    Exch12              =     0.000070812057 [Eh]
    Ind22               =    -0.000009338900 [Eh]
    Disp21              =     0.000207591705 [Eh]
    Disp22 (SDQ)        =    -0.000028123938 [Eh]

    (i =   1 of  21)       3137 seconds
    (i =   2 of  21)       6593 seconds
    (i =   3 of  21)       9609 seconds
    (i =   4 of  21)      12601 seconds
    (i =   5 of  21)      15779 seconds
    (i =   6 of  21)      19312 seconds
    (i =   7 of  21)      22358 seconds
    (i =   8 of  21)      25399 seconds
    (i =   9 of  21)      28851 seconds
    (i =  10 of  21)      32058 seconds
    (i =  11 of  21)      35079 seconds
    (i =  12 of  21)      38118 seconds
    (i =  13 of  21)      41598 seconds
    (i =  14 of  21)      44688 seconds
    (i =  15 of  21)      47677 seconds
    (i =  16 of  21)      50674 seconds
    (i =  17 of  21)      54192 seconds
    (i =  18 of  21)      57155 seconds
    (i =  19 of  21)      60126 seconds
    (i =  20 of  21)      63116 seconds
    (i =  21 of  21)      66609 seconds

    Disp220 (T)         =    -0.000177427113 [Eh]

    (i =   1 of  28)       1501 seconds
    (i =   2 of  28)       2981 seconds
    (i =   3 of  28)       4438 seconds
    (i =   4 of  28)       5926 seconds
    (i =   5 of  28)       7408 seconds
    (i =   6 of  28)       8989 seconds
    (i =   7 of  28)      10741 seconds
    (i =   8 of  28)      12212 seconds
    (i =   9 of  28)      13680 seconds
    (i =  10 of  28)      15152 seconds
    (i =  11 of  28)      16619 seconds
    (i =  12 of  28)      18079 seconds
    (i =  13 of  28)      19565 seconds
    (i =  14 of  28)      21172 seconds
    (i =  15 of  28)      22960 seconds
    (i =  16 of  28)      24481 seconds
    (i =  17 of  28)      25951 seconds
    (i =  18 of  28)      27403 seconds
    (i =  19 of  28)      28884 seconds
    (i =  20 of  28)      30310 seconds
    (i =  21 of  28)      31736 seconds
    (i =  22 of  28)      33369 seconds
    (i =  23 of  28)      34967 seconds
    (i =  24 of  28)      36078 seconds
    (i =  25 of  28)      37193 seconds
    (i =  26 of  28)      38307 seconds
    (i =  27 of  28)      39422 seconds
    (i =  28 of  28)      40537 seconds

    Disp202 (T)         =    -0.000173752052 [Eh]

    Disp22 (T)          =    -0.000351179165 [Eh]

    Est. Disp220 (T)    =    -0.000184839600 [Eh]
    Est. Disp202 (T)    =    -0.000181011004 [Eh]

    Est. Disp22 (T)     =    -0.000365850604 [Eh]
    Elst13,r            =    -0.000666694553 [Eh]
    Disp30              =     0.000010546458 [Eh]

    SAPT Results 
  --------------------------------------------------------------------------------------------------------
    Electrostatics                -11.28722799 [mEh]      -7.08284250 [kcal/mol]     -29.63461301 [kJ/mol]
      Elst10,r                    -12.66749110 [mEh]      -7.94897067 [kcal/mol]     -33.25849329 [kJ/mol]
      Elst12,r                      2.04695766 [mEh]       1.28448532 [kcal/mol]       5.37428659 [kJ/mol]
      Elst13,r                     -0.66669455 [mEh]      -0.41835715 [kcal/mol]      -1.75040631 [kJ/mol]

    Exchange                        0.19619610 [mEh]       0.12311491 [kcal/mol]       0.51511280 [kJ/mol]
      Exch10                        0.13025407 [mEh]       0.08173566 [kcal/mol]       0.34198201 [kJ/mol]
      Exch10(S^2)                   0.13024227 [mEh]       0.08172826 [kcal/mol]       0.34195103 [kJ/mol]
      Exch11(S^2)                  -0.00487003 [mEh]      -0.00305599 [kcal/mol]      -0.01278625 [kJ/mol]
      Exch12(S^2)                   0.07081206 [mEh]       0.04443524 [kcal/mol]       0.18591703 [kJ/mol]

    Induction                      -1.15121798 [mEh]      -0.72240019 [kcal/mol]      -3.02252239 [kJ/mol]
      Ind20,r                      -1.07504312 [mEh]      -0.67459975 [kcal/mol]      -2.82252533 [kJ/mol]
      Ind22                        -0.00933890 [mEh]      -0.00586025 [kcal/mol]      -0.02451928 [kJ/mol]
      Exch-Ind20,r                  0.02845994 [mEh]       0.01785888 [kcal/mol]       0.07472156 [kJ/mol]
      Exch-Ind22                    0.00024723 [mEh]       0.00015514 [kcal/mol]       0.00064911 [kJ/mol]
      delta HF,r (2)               -0.10130506 [mEh]      -0.06356988 [kcal/mol]      -0.26597639 [kJ/mol]
      delta MP2,r (2)               0.00576193 [mEh]       0.00361567 [kcal/mol]       0.01512795 [kJ/mol]

    Dispersion                     -1.52060501 [mEh]      -0.95419405 [kcal/mol]      -3.99234792 [kJ/mol]
      Disp20                       -1.36335717 [mEh]      -0.85551954 [kcal/mol]      -3.57949375 [kJ/mol]
      Disp30                        0.01054646 [mEh]       0.00661800 [kcal/mol]       0.02768972 [kJ/mol]
      Disp21                        0.20759171 [mEh]       0.13026576 [kcal/mol]       0.54503195 [kJ/mol]
      Disp22 (SDQ)                 -0.02812394 [mEh]      -0.01764804 [kcal/mol]      -0.07383939 [kJ/mol]
      Disp22 (T)                   -0.35117916 [mEh]      -0.22036825 [kcal/mol]      -0.92202077 [kJ/mol]
      Est. Disp22 (T)              -0.36585060 [mEh]      -0.22957472 [kcal/mol]      -0.96054063 [kJ/mol]
      Exch-Disp20                   0.01858853 [mEh]       0.01166448 [kcal/mol]       0.04880419 [kJ/mol]

  Total HF                        -13.68512527 [mEh]      -8.58754576 [kcal/mol]     -35.93029144 [kJ/mol]
  Total SAPT0                     -15.02989390 [mEh]      -9.43140081 [kcal/mol]     -39.46098101 [kJ/mol]
  Total SAPT2                     -12.92608588 [mEh]      -8.11124135 [kcal/mol]     -33.93743381 [kJ/mol]
  Total SAPT2+                    -13.11246872 [mEh]      -8.22819835 [kcal/mol]     -34.42678188 [kJ/mol]
  Total SAPT2+(3)                 -13.76861681 [mEh]      -8.63993749 [kcal/mol]     -36.14949847 [kJ/mol]
  Total SAPT2+dMP2                -13.10670679 [mEh]      -8.22458268 [kcal/mol]     -34.41165393 [kJ/mol]
  Total SAPT2+(3)dMP2             -13.76285488 [mEh]      -8.63632183 [kcal/mol]     -36.13437052 [kJ/mol]

  Special recipe for scaled SAPT0 (see Manual):
    Electrostatics sSAPT0         -12.66749110 [mEh]      -7.94897067 [kcal/mol]     -33.25849329 [kJ/mol]
    Exchange sSAPT0                 0.13025407 [mEh]       0.08173566 [kcal/mol]       0.34198201 [kJ/mol]
    Induction sSAPT0               -1.14788050 [mEh]      -0.72030589 [kcal/mol]      -3.01375985 [kJ/mol]
    Dispersion sSAPT0              -1.34476358 [mEh]      -0.84385189 [kcal/mol]      -3.53067630 [kJ/mol]
  Total sSAPT0                    -15.02988111 [mEh]      -9.43139279 [kcal/mol]     -39.46094742 [kJ/mol]
  --------------------------------------------------------------------------------------------------------

*** tstop() called on node157.bme.utexas.edu at Mon Jan 22 01:19:16 2024
Module time:
	user time   =  770168.88 seconds =   12836.15 minutes
	system time =    2180.87 seconds =      36.35 minutes
	total time  =     127084 seconds =    2118.07 minutes
Total time:
	user time   =  773831.36 seconds =   12897.19 minutes
	system time =    2243.36 seconds =      37.39 minutes
	total time  =     127745 seconds =    2129.08 minutes

    Psi4 stopped on: Monday, 22 January 2024 01:19AM
    Psi4 wall time for execution: 1 day, 11:29:06.04

*** Psi4 exiting successfully. Buy a developer a beer!
